[Molden Format]
p30-5 set                                                                       
[Atoms] AU
 H        1     1        0.0000        0.0000       -0.7025
 H        2     1        0.0000        0.0000        0.7025
[GTO]
    1 0
s    3 1.00
      13.010701000000  0.334854848130E-01
       1.962257200000  0.234721870881E+00
       0.444537960000  0.813770285260E+00
s    1 1.00
       0.121949620000  0.100000000000E+01
p    1 1.00
       0.800000000000  0.100000000000E+01
 
    2 0
s    3 1.00
      13.010701000000  0.334854848130E-01
       1.962257200000  0.234721870881E+00
       0.444537960000  0.813770285260E+00
s    1 1.00
       0.121949620000  0.100000000000E+01
p    1 1.00
       0.800000000000  0.100000000000E+01
 
[MO]
Sym=     1a
Ene=   -0.614048E+00
Spin= Alpha
Occup= 1.966946
     1    -0.410336
     2    -0.168611
     3    -0.000061
     4    -0.000054
     5    -0.018830
     6    -0.410245
     7    -0.168871
     8     0.000031
     9    -0.000002
    10     0.018888
Sym=     2a
Ene=   -0.190956E-03
Spin= Alpha
Occup= 0.000148
     1    -1.840128
     2     2.076910
     3    -0.001991
     4    -0.004488
     5    -0.976129
     6     1.839961
     7    -2.076743
     8     0.001938
     9     0.004514
    10    -0.976305
Sym=     3a
Ene=   -0.140671E-01
Spin= Alpha
Occup= 0.020652
     1    -0.967600
     2    -0.247908
     3     0.000085
     4     0.000050
     5     0.028202
     6     0.967705
     7     0.247862
     8    -0.000051
     9     0.000014
    10     0.028270
Sym=     4a
Ene=   -0.293107E-02
Spin= Alpha
Occup= 0.002797
     1     0.000210
     2    -0.000054
     3    -0.146615
     4     0.567712
     5     0.000070
     6    -0.000133
     7    -0.000053
     8    -0.146689
     9     0.567848
    10     0.000133
Sym=     5a
Ene=   -0.293107E-02
Spin= Alpha
Occup= 0.002797
     1     0.000080
     2     0.000033
     3     0.567713
     4     0.146614
     5     0.000148
     6     0.000015
     7    -0.000250
     8     0.567846
     9     0.146690
    10    -0.000094
Sym=     6a
Ene=   -0.266865E-03
Spin= Alpha
Occup= 0.000198
     1    -0.622599
     2     0.440164
     3    -0.000327
     4    -0.000127
     5     0.656341
     6    -0.622818
     7     0.440952
     8     0.000198
     9     0.000166
    10    -0.656271
Sym=     7a
Ene=   -0.221418E-03
Spin= Alpha
Occup= 0.000152
     1    -0.001414
     2     0.001514
     3     0.920298
     4    -0.262440
     5    -0.000579
     6     0.001068
     7    -0.001287
     8    -0.920218
     9     0.262392
    10    -0.000852
Sym=     8a
Ene=   -0.221416E-03
Spin= Alpha
Occup= 0.000152
     1     0.009395
     2    -0.010770
     3    -0.262433
     4    -0.920289
     5     0.004722
     6    -0.009048
     7     0.010543
     8     0.262385
     9     0.920206
    10     0.004997
Sym=     9a
Ene=   -0.252949E-04
Spin= Alpha
Occup= 0.000014
     1     1.639818
     2     1.384583
     3    -0.000007
     4    -0.000092
     5     1.737337
     6    -1.639800
     7    -1.384589
     8    -0.000024
     9     0.000035
    10     1.737227
Sym=    10a
Ene=   -0.494752E-02
Spin= Alpha
Occup= 0.006143
     1     0.521469
     2    -0.616304
     3    -0.000087
     4    -0.000031
     5     0.243257
     6     0.521732
     7    -0.616241
     8    -0.000171
     9    -0.000077
    10    -0.243506
