[Molden Format]
p30-5 set                                                                       
[Atoms] AU
 B        1     5        0.0000        0.0000        0.0000
 H        2     1       -1.1276        1.9530        0.0000
 H        3     1       -1.1276       -1.9530        0.0000
 H        4     1        2.2552        0.0000        0.0000
[GTO]
    1 0
s    5 1.00
     839.318300860000 -0.562888359825E-02
     126.264648430000 -0.418327946095E-01
      28.620600763000 -0.184174881258E+00
       7.879372271000 -0.468396550281E+00
       2.408885717200 -0.444579308833E+00
s    1 1.00
       0.251051090360  0.100000000000E+01
s    1 1.00
       0.083648866069  0.100000000000E+01
p    3 1.00
       6.033222361900 -0.540325003228E-01
       1.249915786600 -0.301940343932E+00
       0.338716763500 -0.771707916582E+00
p    1 1.00
       0.096415632351  0.100000000000E+01
d    1 1.00
       0.500000000000  0.100000000000E+01
 
    2 0
s    3 1.00
      13.010701000000  0.334854848130E-01
       1.962257200000  0.234721870881E+00
       0.444537960000  0.813770285260E+00
s    1 1.00
       0.121949620000  0.100000000000E+01
p    1 1.00
       0.800000000000  0.100000000000E+01
 
    3 0
s    3 1.00
      13.010701000000  0.334854848130E-01
       1.962257200000  0.234721870881E+00
       0.444537960000  0.813770285260E+00
s    1 1.00
       0.121949620000  0.100000000000E+01
p    1 1.00
       0.800000000000  0.100000000000E+01
 
    4 0
s    3 1.00
      13.010701000000  0.334854848130E-01
       1.962257200000  0.234721870881E+00
       0.444537960000  0.813770285260E+00
s    1 1.00
       0.121949620000  0.100000000000E+01
p    1 1.00
       0.800000000000  0.100000000000E+01
 
[MO]
Sym=     1a
Ene=   -0.762691E+01
Spin= Alpha
Occup= 1.999635
     1     0.995397
     2    -0.022591
     3     0.017136
     4    -0.000079
     5    -0.000084
     6    -0.000001
     7     0.000022
     8     0.000013
     9    -0.000009
    10     0.000356
    11     0.000364
    12     0.001619
    13    -0.000000
    14    -0.000000
    15    -0.000001
    16     0.004323
    17    -0.002223
    18    -0.000259
    19     0.000418
    20     0.000016
    21     0.004137
    22    -0.002327
    23    -0.000282
    24    -0.000449
    25    -0.000006
    26     0.004323
    27    -0.002271
    28     0.000523
    29     0.000010
    30     0.000013
Sym=     2a
Ene=   -0.585822E+00
Spin= Alpha
Occup= 1.969401
     1     0.121409
     2     0.242312
     3     0.052611
     4     0.170186
     5    -0.294701
     6     0.000007
     7    -0.042210
     8     0.073046
     9     0.000001
    10     0.005678
    11     0.027778
    12     0.005111
    13    -0.022108
    14     0.000002
    15    -0.000017
    16     0.427188
    17     0.212995
    18     0.010780
    19    -0.018731
    20     0.000006
    21    -0.025088
    22    -0.038297
    23    -0.001294
    24     0.005777
    25     0.000001
    26    -0.025047
    27    -0.038348
    28    -0.004305
    29     0.004011
    30     0.000008
Sym=     3a
Ene=   -0.585643E+00
Spin= Alpha
Occup= 1.969288
     1    -0.121244
     2    -0.241908
     3    -0.052705
     4     0.340440
     5    -0.000735
     6    -0.000003
     7    -0.084519
     8     0.000195
     9     0.000015
    10    -0.038821
    11     0.005406
    12    -0.005059
    13     0.000050
    14     0.000003
    15    -0.000005
    16     0.025770
    17     0.038550
    18    -0.005647
    19     0.001703
    20     0.000009
    21     0.024889
    22     0.038261
    23    -0.005639
    24    -0.001749
    25    -0.000015
    26    -0.427224
    27    -0.212999
    28     0.021608
    29    -0.000025
    30    -0.000005
Sym=     4a
Ene=   -0.585179E+00
Spin= Alpha
Occup= 1.969210
     1     0.121295
     2     0.241302
     3     0.052635
     4     0.170481
     5     0.295093
     6    -0.000001
     7    -0.042323
     8    -0.073267
     9    -0.000017
    10     0.005445
    11     0.027601
    12     0.005184
    13     0.022141
    14     0.000007
    15    -0.000008
    16    -0.025644
    17    -0.038700
    18    -0.001322
    19    -0.005752
    20     0.000004
    21     0.427402
    22     0.213138
    23     0.010771
    24     0.018687
    25     0.000006
    26    -0.025873
    27    -0.038734
    28    -0.004312
    29    -0.004007
    30     0.000001
Sym=     5a
Ene=   -0.109525E-01
Spin= Alpha
Occup= 0.016156
     1     0.169765
     2     0.760448
     3    -0.003228
     4     0.444347
     5     0.769056
     6    -0.000027
     7    -0.022340
     8    -0.040669
     9     0.000159
    10     0.009578
    11     0.099752
    12    -0.054562
    13     0.088363
    14     0.000225
    15    -0.000007
    16     0.004333
    17    -0.052212
    18     0.005860
    19     0.005565
    20     0.000008
    21    -1.017009
    22    -0.204862
    23     0.047753
    24     0.080743
    25     0.000095
    26     0.001791
    27    -0.049932
    28     0.000867
    29     0.007904
    30    -0.000046
Sym=     6a
Ene=   -0.108966E-01
Spin= Alpha
Occup= 0.016001
     1    -0.168470
     2    -0.751326
     3     0.018007
     4     0.887031
     5     0.000228
     6    -0.000389
     7    -0.047582
     8    -0.004069
     9     0.000071
    10    -0.143521
    11     0.033548
    12     0.058057
    13    -0.000706
    14     0.000315
    15     0.000016
    16    -0.000782
    17     0.043788
    18     0.007510
    19     0.003324
    20    -0.000036
    21    -0.004456
    22     0.040508
    23     0.008220
    24    -0.002790
    25     0.000088
    26     1.027835
    27     0.182141
    28     0.097385
    29    -0.003992
    30     0.000286
Sym=     7a
Ene=   -0.482639E-02
Spin= Alpha
Occup= 0.006047
     1     0.003424
     2     0.020680
     3    -0.002542
     4    -0.004390
     5     0.007583
     6     0.380366
     7     0.007840
     8    -0.013368
     9    -0.084173
    10    -0.009741
    11     0.002115
    12    -0.013252
    13    -0.010175
    14     0.234454
    15    -0.400721
    16     0.110563
    17    -0.123086
    18     0.023607
    19    -0.040479
    20    -0.536783
    21     0.003200
    22     0.009165
    23    -0.001204
    24     0.004136
    25     0.051832
    26     0.003766
    27     0.008583
    28    -0.003170
    29     0.002794
    30     0.052364
Sym=     8a
Ene=   -0.304819E-02
Spin= Alpha
Occup= 0.000336
     1    -0.913956
     2    -4.247469
     3     0.689989
     4    -0.000090
     5     0.010191
     6    -0.000100
     7    -0.005016
     8     0.008275
     9     0.000129
    10     1.863780
    11     1.878706
    12     1.697842
    13    -0.006883
    14    -0.000259
    15    -0.001653
    16    -0.185481
    17    -0.134413
    18    -0.002917
    19     0.003486
    20     0.000832
    21    -0.179142
    22    -0.138505
    23    -0.014080
    24    -0.010569
    25    -0.001249
    26    -0.174359
    27    -0.134781
    28     0.008693
    29     0.005152
    30     0.000126
Sym=     9a
Ene=   -0.490694E-02
Spin= Alpha
Occup= 0.006265
     1     0.028551
     2     0.180440
     3    -0.003396
     4    -0.041096
     5    -0.070573
     6    -0.004159
     7     0.074708
     8     0.132461
     9     0.000968
    10    -0.090257
    11     0.002799
    12    -0.100419
    13     0.094370
    14    -0.002735
    15    -0.004711
    16     0.038882
    17     0.065363
    18    -0.006476
    19    -0.036913
    20    -0.000392
    21     1.025235
    22    -1.124169
    23     0.204194
    24     0.355596
    25     0.004609
    26     0.040031
    27     0.066099
    28    -0.027144
    29    -0.024655
    30    -0.000436
Sym=    10a
Ene=   -0.491556E-02
Spin= Alpha
Occup= 0.006266
     1    -0.029677
     2    -0.185626
     3     0.030059
     4    -0.080337
     5    -0.002246
     6     0.021642
     7     0.149673
     8    -0.009857
     9    -0.004722
    10    -0.062566
    11     0.120468
    12     0.124718
    13     0.014983
    14    -0.025442
    15     0.000853
    16    -0.019661
    17    -0.078922
    18    -0.034752
    19     0.008342
    20     0.002744
    21    -0.032301
    22    -0.084347
    23    -0.031565
    24    -0.011737
    25     0.003159
    26    -1.004389
    27     1.104017
    28     0.414530
    29    -0.004734
    30    -0.029375
Sym=    11a
Ene=   -0.488527E-02
Spin= Alpha
Occup= 0.006174
     1    -0.029233
     2    -0.176019
     3     0.012046
     4     0.046061
     5    -0.076509
     6     0.041871
     7    -0.065153
     8     0.118665
     9    -0.009743
    10     0.093329
    11    -0.019288
    12     0.117455
    13     0.092293
    14     0.025708
    15    -0.043628
    16    -1.002207
    17     1.109729
    18    -0.212700
    19     0.368587
    20    -0.060598
    21    -0.029134
    22    -0.078852
    23     0.012342
    24    -0.038802
    25     0.006234
    26    -0.034990
    27    -0.078712
    28     0.028986
    29    -0.025387
    30     0.005718
Sym=    12a
Ene=   -0.104103E-03
Spin= Alpha
Occup= 0.000011
     1    -0.002622
     2     0.051864
     3     0.311905
     4    -0.696721
     5    -1.145890
     6    -0.001216
     7    -0.186652
     8    -0.394807
     9     0.000372
    10     0.503421
    11    -0.804782
    12     0.383101
    13    -0.850356
    14    -0.004748
    15     0.003721
    16    -0.096647
    17    -0.329731
    18     0.061640
    19     0.678779
    20    -0.005388
    21     0.995350
    22    -0.246827
    23     0.637410
    24     0.853095
    25    -0.000258
    26    -0.343577
    27    -0.266221
    28     0.628471
    29     0.270183
    30     0.002625
Sym=    13a
Ene=   -0.234184E-03
Spin= Alpha
Occup= 0.000183
     1    -0.001146
     2    -0.160223
     3    -0.494803
     4    -0.215679
     5    -0.364020
     6    -0.345347
     7    -0.046975
     8    -0.142389
     9    -0.031574
    10     0.184531
    11     0.103946
    12    -0.495092
    13     0.022953
    14    -0.311432
    15    -0.540717
    16    -0.216826
    17     0.390365
    18    -0.069184
    19    -0.009466
    20     0.021112
    21    -0.171552
    22     0.574868
    23     0.254156
    24     0.388894
    25    -0.728707
    26    -0.267550
    27     0.363809
    28     0.043709
    29    -0.090529
    30     0.020285
Sym=    14a
Ene=   -0.481863E-02
Spin= Alpha
Occup= 0.006029
     1    -0.001531
     2    -0.009732
     3     0.002174
     4    -0.005625
     5    -0.000150
     6    -0.382940
     7     0.007613
     8    -0.000146
     9     0.083407
    10    -0.003471
    11     0.006391
    12     0.006901
    13     0.000631
    14     0.466762
    15    -0.002366
    16    -0.001120
    17    -0.004863
    18    -0.002026
    19     0.000391
    20    -0.053287
    21    -0.001474
    22    -0.004732
    23    -0.001845
    24    -0.000492
    25    -0.052006
    26    -0.055976
    27     0.060704
    28     0.023058
    29    -0.000028
    30     0.538972
Sym=    15a
Ene=   -0.108901E-01
Spin= Alpha
Occup= 0.015986
     1     0.168433
     2     0.750444
     3    -0.014465
     4     0.441953
     5    -0.767538
     6    -0.000382
     7    -0.027298
     8     0.040136
     9     0.000081
    10     0.007769
    11     0.099149
    12    -0.056360
    13    -0.086516
    14    -0.000191
    15     0.000170
    16    -1.027726
    17    -0.181282
    18     0.047206
    19    -0.086619
    20     0.000491
    21     0.003047
    22    -0.046020
    23     0.006356
    24    -0.005070
    25     0.000026
    26     0.006641
    27    -0.044660
    28     0.000310
    29    -0.008827
    30     0.000006
Sym=    16a
Ene=   -0.453927E-05
Spin= Alpha
Occup= 0.000001
     1    -0.002376
     2     0.026671
     3     0.000590
     4    -0.102305
     5    -0.021774
     6    -0.000125
     7     2.900258
     8     0.374335
     9    -0.001440
    10     0.267989
    11    -0.245003
    12     0.056388
    13     0.040604
    14     0.001206
    15     0.004940
    16     0.002755
    17     1.142521
    18    -0.219209
    19    -0.261995
    20    -0.002157
    21    -0.113748
    22     1.911906
    23    -0.095720
    24     0.293965
    25     0.004184
    26     0.143216
    27    -3.160355
    28     0.417587
    29    -0.091799
    30    -0.000204
Sym=    17a
Ene=   -0.477036E-02
Spin= Alpha
Occup= 0.005926
     1    -0.000264
     2    -0.001182
     3    -0.002790
     4     0.001179
     5     0.000557
     6    -0.371147
     7     0.001388
     8    -0.002447
     9     0.084942
    10     0.001812
    11     0.000269
    12     0.000806
    13    -0.000465
    14    -0.233689
    15    -0.404984
    16    -0.000821
    17     0.002202
    18    -0.000122
    19     0.000884
    20    -0.051853
    21    -0.010948
    22     0.012263
    23    -0.000649
    24    -0.005250
    25     0.546881
    26    -0.001348
    27    -0.000884
    28     0.000584
    29     0.000066
    30    -0.051778
Sym=    18a
Ene=   -0.223330E-02
Spin= Alpha
Occup= 0.002063
     1    -0.000915
     2    -0.005886
     3     0.000765
     4     0.012460
     5     0.343610
     6     0.000287
     7     0.004643
     8     0.264163
     9     0.000178
    10     0.000291
    11    -0.001439
    12    -0.000170
    13     0.475675
    14    -0.000006
    15     0.000410
    16     0.475696
    17    -0.559122
    18    -0.052707
    19    -0.120830
    20    -0.000051
    21    -0.476412
    22     0.561108
    23     0.054438
    24    -0.124414
    25     0.000362
    26     0.007723
    27    -0.000868
    28    -0.008450
    29     0.792814
    30    -0.000058
Sym=    19a
Ene=   -0.269397E-03
Spin= Alpha
Occup= 0.000208
     1    -0.000552
     2     0.014075
     3    -0.029470
     4     0.010435
     5    -0.013736
     6     0.491589
     7     0.019124
     8    -0.005039
     9     0.059941
    10     0.046895
    11     0.001689
    12    -0.011558
    13     0.002769
    14     0.417602
    15    -0.668949
    16    -0.008647
    17     0.005242
    18    -0.003849
    19     0.029326
    20     0.956647
    21    -0.008527
    22     0.013544
    23     0.009041
    24    -0.015793
    25     0.016457
    26    -0.028807
    27     0.005172
    28     0.010667
    29    -0.004641
    30    -0.017131
Sym=    20a
Ene=   -0.116007E-03
Spin= Alpha
Occup= 0.000012
     1     0.006213
     2    -0.065517
     3     0.123516
     4    -1.219171
     5     0.794674
     6     0.006028
     7    -0.429911
     8     0.189739
     9     0.002786
    10     0.600724
    11    -0.927084
    12     0.092916
    13     0.811008
    14     0.002981
    15    -0.005665
    16     0.923504
    17     0.013875
    18     0.654993
    19    -0.966592
    20     0.007740
    21    -0.064166
    22    -0.033615
    23     0.341990
    24    -0.184568
    25     0.000215
    26    -0.560268
    27    -0.078864
    28     0.896378
    29    -0.304368
    30     0.000216
Sym=    21a
Ene=   -0.225707E-02
Spin= Alpha
Occup= 0.002083
     1    -0.000150
     2    -0.004288
     3     0.005761
     4     0.293954
     5    -0.171378
     6     0.001206
     7     0.230867
     8    -0.132816
     9    -0.000186
    10    -0.356270
    11     0.348013
    12     0.000993
    13    -0.233895
    14     0.000778
    15     0.001288
    16    -0.469566
    17     0.560270
    18    -0.130281
    19     0.011298
    20     0.000203
    21     0.004350
    22    -0.001868
    23     0.691147
    24    -0.394856
    25     0.000012
    26     0.472566
    27    -0.560198
    28    -0.080552
    29     0.105662
    30     0.000335
Sym=    22a
Ene=   -0.272942E-03
Spin= Alpha
Occup= 0.000212
     1    -0.000122
     2    -0.001405
     3    -0.009476
     4     0.008050
     5    -0.000401
     6     0.502125
     7     0.007284
     8    -0.009318
     9     0.066900
    10     0.008993
    11    -0.005012
    12    -0.004152
    13     0.016083
    14    -0.782065
    15     0.015038
    16     0.007323
    17     0.008155
    18     0.000681
    19     0.000792
    20    -0.002997
    21    -0.008381
    22     0.002660
    23     0.006458
    24    -0.007006
    25     0.014349
    26    -0.005870
    27     0.006672
    28    -0.006311
    29    -0.008616
    30     0.956408
Sym=    23a
Ene=   -0.221477E-02
Spin= Alpha
Occup= 0.002042
     1    -0.000371
     2    -0.004636
     3    -0.004295
     4    -0.299742
     5    -0.167725
     6     0.000094
     7    -0.224524
     8    -0.131130
     9    -0.000140
    10     0.359257
    11    -0.362478
    12    -0.002497
    13    -0.240227
    14    -0.000069
    15     0.000012
    16     0.006810
    17     0.001315
    18    -0.680227
    19    -0.401950
    20     0.000005
    21     0.479141
    22    -0.555757
    23     0.134031
    24     0.016827
    25     0.000106
    26    -0.480446
    27     0.564461
    28     0.078754
    29     0.109196
    30     0.000018
Sym=    24a
Ene=   -0.276307E-04
Spin= Alpha
Occup= 0.000003
     1     0.045390
     2    -0.577828
     3     0.349725
     4     0.008402
     5     0.028468
     6    -0.054010
     7     0.042846
     8    -0.018238
     9    -0.084104
    10    -1.363443
    11    -0.791163
    12     0.322085
    13    -0.423461
    14    -0.021117
    15    -0.064731
    16     0.220092
    17     0.436754
    18     0.344167
    19    -0.680075
    20     0.041280
    21     0.679732
    22     0.061943
    23     0.109137
    24     0.820997
    25    -0.047079
    26     0.772552
    27    -0.024351
    28    -0.796679
    29     0.269638
    30     0.021925
Sym=    25a
Ene=   -0.224838E-03
Spin= Alpha
Occup= 0.000177
     1    -0.001153
     2     0.235891
     3     0.492611
     4     0.277985
     5     0.434205
     6    -0.283523
     7     0.107875
     8     0.138852
     9    -0.020709
    10    -0.058993
    11    -0.122581
    12     0.557777
    13     0.042891
    14    -0.265801
    15    -0.458973
    16     0.270212
    17    -0.435955
    18     0.081555
    19     0.067667
    20     0.021047
    21     0.144884
    22    -0.662654
    23    -0.276343
    24    -0.551425
    25    -0.615565
    26     0.219183
    27    -0.413605
    28    -0.004989
    29     0.070199
    30     0.021977
Sym=    26a
Ene=   -0.206092E-03
Spin= Alpha
Occup= 0.000140
     1     0.011280
     2    -0.300200
     3     0.385901
     4     0.463371
     5    -0.065636
     6     0.001194
     7     0.273194
     8    -0.399174
     9    -0.001804
    10    -0.179029
    11    -0.821325
    12     0.222303
    13     0.846407
    14     0.020496
    15     0.032750
    16     0.804781
    17    -0.114361
    18     0.134583
    19    -0.169086
    20    -0.012445
    21    -0.033306
    22    -0.175850
    23     0.506127
    24    -0.121713
    25     0.031921
    26     0.129001
    27     0.124179
    28    -0.672481
    29    -0.476294
    30    -0.014363
Sym=    27a
Ene=   -0.203243E-03
Spin= Alpha
Occup= 0.000143
     1    -0.001735
     2     0.105043
     3     0.306086
     4     0.015522
     5    -0.200975
     6    -0.001337
     7    -0.505553
     8    -0.304828
     9     0.001696
    10    -0.955318
    11     0.781190
    12     0.345720
    13     0.552505
    14    -0.006047
    15    -0.027141
    16     0.120023
    17    -0.400835
    18    -0.671608
    19    -0.106093
    20     0.014460
    21    -0.401672
    22    -0.332034
    23    -0.280012
    24     0.081705
    25    -0.022518
    26     0.720150
    27    -0.148711
    28    -0.031790
    29    -0.340140
    30     0.002858
Sym=    28a
Ene=   -0.130528E-04
Spin= Alpha
Occup= 0.000002
     1     0.003129
     2    -0.041555
     3     0.006525
     4     0.002237
     5    -0.000650
     6     0.606834
     7     0.008822
     8    -0.009130
     9     1.196463
    10    -0.094889
    11    -0.055186
    12     0.021075
    13    -0.029782
    14     0.009212
    15     0.006421
    16     0.012208
    17     0.048472
    18     0.024009
    19    -0.047632
    20    -0.189699
    21     0.046717
    22     0.009940
    23     0.008256
    24     0.059658
    25    -0.181047
    26     0.052987
    27     0.002346
    28    -0.058033
    29     0.019376
    30    -0.195324
Sym=    29a
Ene=    0.000000E+00
Spin= Alpha
Occup= 0.000000
     1    -0.004474
     2    -0.040321
     3    -0.975391
     4     0.040911
     5    -0.097640
     6     0.000078
     7    -0.388926
     8     2.871424
     9     0.002382
    10    -0.131984
    11    -0.050076
    12     0.168589
    13    -0.320385
    14    -0.002788
    15    -0.002969
    16     0.128688
    17    -2.471860
    18    -0.237778
    19     0.192832
    20    -0.000260
    21    -0.068598
    22     2.861823
    23     0.349921
    24     0.230381
    25    -0.004100
    26     0.012576
    27     0.848746
    28    -0.154402
    29    -0.297269
    30     0.000973
Sym=    30a
Ene=    0.000000E+00
Spin= Alpha
Occup= 0.000000
     1     0.044953
     2     0.025773
     3     5.878846
     4    -0.005318
     5    -0.028652
     6     0.000388
     7    -0.053264
     8     0.511844
     9     0.003512
    10    -0.012241
    11     0.014978
    12    -0.650438
    13    -0.085388
    14    -0.003243
    15    -0.007934
    16     0.170777
    17    -2.922038
    18    -0.137961
    19     0.195546
    20     0.002480
    21     0.169773
    22    -1.980657
    23    -0.037297
    24    -0.097643
    25    -0.007819
    26     0.175746
    27    -2.379696
    28     0.166484
    29    -0.038552
    30     0.000967
