[Molden Format]
p30-5 set                                                                       
[Atoms] AU
 O        1     8        0.0000        0.0000       -1.1522
 O        2     8        0.0000        0.0000        1.1522
[GTO]
    1 0
s    5 1.00
    2266.176778500000 -0.538935039217E-02
     340.870101910000 -0.402347213890E-01
      77.363135167000 -0.180081842055E+00
      21.479644940000 -0.468288576577E+00
       6.658943312400 -0.446926171602E+00
s    1 1.00
       0.809759756680  0.100000000000E+01
s    1 1.00
       0.255307722340  0.100000000000E+01
p    3 1.00
      17.721504317000  0.626302487632E-01
       3.863550544000  0.333311384824E+00
       1.048092088300  0.741486383081E+00
p    1 1.00
       0.276415444110  0.100000000000E+01
d    1 1.00
       1.200000000000  0.100000000000E+01
 
    2 0
s    5 1.00
    2266.176778500000 -0.538935039217E-02
     340.870101910000 -0.402347213890E-01
      77.363135167000 -0.180081842055E+00
      21.479644940000 -0.468288576577E+00
       6.658943312400 -0.446926171602E+00
s    1 1.00
       0.809759756680  0.100000000000E+01
s    1 1.00
       0.255307722340  0.100000000000E+01
p    3 1.00
      17.721504317000  0.626302487632E-01
       3.863550544000  0.333311384824E+00
       1.048092088300  0.741486383081E+00
p    1 1.00
       0.276415444110  0.100000000000E+01
d    1 1.00
       1.200000000000  0.100000000000E+01
 
[MO]
Sym=     1a
Ene=   -0.207161E+02
Spin= Alpha
Occup= 1.999898
     1     0.994467
     2    -0.025311
     3     0.017941
     4     0.000001
     5     0.000002
     6    -0.004540
     7    -0.000001
     8     0.000000
     9     0.000924
    10     0.004448
    11     0.004489
    12     0.004066
    13    -0.000103
    14    -0.000001
    15    -0.000000
    16    -0.000244
    17    -0.000738
    18    -0.005273
    19    -0.000001
    20    -0.000002
    21    -0.001656
    22     0.000003
    23     0.000001
    24     0.001502
    25     0.000103
    26     0.000106
    27     0.001751
    28    -0.000003
    29    -0.000002
    30    -0.000002
Sym=     2a
Ene=   -0.207161E+02
Spin= Alpha
Occup= 1.999892
     1     0.000260
     2     0.000731
     3     0.005265
     4    -0.000001
     5     0.000001
     6    -0.001654
     7    -0.000002
     8     0.000001
     9     0.001505
    10    -0.000099
    11    -0.000100
    12    -0.001752
    13    -0.000008
    14    -0.000001
    15     0.000002
    16    -0.994440
    17     0.025370
    18    -0.017892
    19     0.000000
    20     0.000002
    21    -0.004531
    22     0.000001
    23     0.000000
    24     0.000933
    25    -0.004493
    26    -0.004450
    27    -0.004066
    28    -0.000104
    29    -0.000002
    30     0.000002
Sym=     3a
Ene=   -0.984343E+00
Spin= Alpha
Occup= 1.980158
     1     0.197342
     2     0.433842
     3     0.325618
     4     0.306495
     5     0.237693
     6    -0.123667
     7     0.202545
     8     0.157322
     9    -0.071872
    10     0.008333
    11     0.008288
    12     0.004417
    13    -0.000006
    14     0.016852
    15     0.012930
    16    -0.003154
    17    -0.017140
    18    -0.040532
    19     0.180468
    20     0.140584
    21    -0.013861
    22     0.108074
    23     0.084256
    24     0.017420
    25    -0.003449
    26    -0.003435
    27     0.004069
    28    -0.000044
    29    -0.017723
    30    -0.013786
Sym=     4a
Ene=   -0.984220E+00
Spin= Alpha
Occup= 1.980155
     1     0.003180
     2     0.017194
     3     0.040556
     4    -0.140259
     5     0.180708
     6    -0.013807
     7    -0.083984
     8     0.108281
     9     0.017456
    10     0.003426
    11     0.003451
    12    -0.004057
    13    -0.000042
    14    -0.013777
    15     0.017729
    16    -0.197395
    17    -0.433809
    18    -0.325639
    19    -0.238376
    20     0.305990
    21    -0.123734
    22    -0.157469
    23     0.202446
    24    -0.071893
    25    -0.008340
    26    -0.008290
    27    -0.004416
    28     0.000005
    29     0.013147
    30    -0.016686
Sym=     5a
Ene=   -0.984279E+00
Spin= Alpha
Occup= 1.980154
     1    -0.197326
     2    -0.433798
     3    -0.325598
     4     0.306521
     5     0.237711
     6     0.123664
     7     0.202564
     8     0.157337
     9     0.071870
    10    -0.008333
    11    -0.008287
    12    -0.004414
    13     0.000006
    14     0.016853
    15     0.012931
    16     0.003161
    17     0.017158
    18     0.040536
    19     0.180487
    20     0.140595
    21     0.013848
    22     0.108086
    23     0.084263
    24    -0.017423
    25     0.003444
    26     0.003430
    27    -0.004072
    28     0.000044
    29    -0.017731
    30    -0.013785
Sym=     6a
Ene=   -0.984194E+00
Spin= Alpha
Occup= 1.980153
     1    -0.003182
     2    -0.017199
     3    -0.040561
     4    -0.140272
     5     0.180712
     6     0.013805
     7    -0.083992
     8     0.108282
     9    -0.017460
    10    -0.003425
    11    -0.003451
    12     0.004061
    13     0.000044
    14    -0.013781
    15     0.017728
    16     0.197393
    17     0.433798
    18     0.325637
    19    -0.238386
    20     0.305999
    21     0.123736
    22    -0.157475
    23     0.202452
    24     0.071890
    25     0.008336
    26     0.008286
    27     0.004406
    28    -0.000008
    29     0.013147
    30    -0.016690
Sym=     7a
Ene=   -0.101242E+01
Spin= Alpha
Occup= 1.945444
     1     0.045820
     2     0.107758
     3    -0.107470
     4    -0.000010
     5    -0.000004
     6     0.483850
     7    -0.000007
     8    -0.000004
     9     0.217413
    10    -0.010294
    11    -0.010575
    12     0.045078
    13     0.000492
    14     0.000000
    15    -0.000002
    16     0.045883
    17     0.107884
    18    -0.107398
    19    -0.000006
    20    -0.000000
    21    -0.483797
    22    -0.000003
    23     0.000001
    24    -0.217383
    25    -0.010514
    26    -0.010347
    27     0.045073
    28    -0.000509
    29     0.000002
    30    -0.000001
Sym=     8a
Ene=   -0.316917E+00
Spin= Alpha
Occup= 1.000000
     1    -0.000001
     2     0.000002
     3     0.000005
     4     0.199017
     5     0.391430
     6     0.000000
     7     0.171240
     8     0.290837
     9     0.000004
    10    -0.000001
    11    -0.000003
    12    -0.000002
    13    -0.000003
    14    -0.006412
    15    -0.004945
    16    -0.000003
    17    -0.000006
    18    -0.000005
    19    -0.403813
    20    -0.469387
    21    -0.000004
    22    -0.259205
    23    -0.324407
    24     0.000006
    25     0.000004
    26     0.000005
    27     0.000000
    28    -0.000001
    29     0.002241
    30    -0.001591
Sym=     9a
Ene=   -0.317275E+00
Spin= Alpha
Occup= 1.000000
     1     0.000001
     2    -0.000004
     3     0.000002
     4     0.469107
     5    -0.404356
     6     0.000004
     7     0.323790
     8    -0.259622
     9     0.000003
    10     0.000000
    11     0.000002
    12     0.000005
    13     0.000003
    14    -0.001259
    15    -0.002181
    16    -0.000003
    17    -0.000005
    18    -0.000002
    19    -0.391935
    20     0.198392
    21     0.000002
    22    -0.290563
    23     0.171137
    24     0.000004
    25     0.000003
    26     0.000002
    27     0.000001
    28     0.000002
    29    -0.004497
    30     0.006644
Sym=    10a
Ene=   -0.457377E-01
Spin= Alpha
Occup= 0.051761
     1    -0.118834
     2    -0.329754
     3    -0.280646
     4     0.000000
     5    -0.000005
     6    -0.731986
     7    -0.000001
     8     0.000000
     9    -0.259149
    10     0.002644
    11     0.003137
    12    -0.014687
    13     0.001892
    14     0.000003
    15     0.000001
    16     0.118878
    17     0.329944
    18     0.280546
    19    -0.000004
    20     0.000000
    21    -0.731981
    22     0.000002
    23     0.000001
    24    -0.259153
    25    -0.002001
    26    -0.003873
    27     0.014690
    28     0.001549
    29    -0.000001
    30    -0.000001
Sym=    11a
Ene=   -0.108605E-01
Spin= Alpha
Occup= 0.015199
     1     0.008010
     2     0.008160
     3     0.248787
     4    -0.100041
     5     0.129596
     6     0.053035
     7    -0.017541
     8     0.019624
     9     0.072857
    10    -0.001969
    11    -0.001417
    12     0.010266
    13    -0.000135
    14     0.017526
    15    -0.024446
    16     0.234172
    17     1.190838
    18    -1.205736
    19    -0.403353
    20     0.515040
    21     0.252670
    22     0.470760
    23    -0.599584
    24    -0.126333
    25    -0.061708
    26    -0.031345
    27    -0.082948
    28    -0.068076
    29    -0.013993
    30     0.017693
Sym=    12a
Ene=   -0.267173E-02
Spin= Alpha
Occup= 0.001833
     1     0.030703
     2     0.151370
     3    -0.157393
     4     0.016564
     5    -0.006198
     6    -0.007984
     7    -0.046644
     8     0.019866
     9    -0.034747
    10    -0.247366
    11     0.148323
    12     0.050344
    13    -0.661524
    14    -0.590990
    15    -0.284386
    16    -0.001301
    17    -0.012461
    18     0.074997
    19    -0.031006
    20    -0.020374
    21     0.004682
    22     0.178655
    23     0.080502
    24    -0.025360
    25    -0.003247
    26    -0.015611
    27     0.006190
    28     0.011673
    29     0.091896
    30     0.153320
Sym=    13a
Ene=   -0.322201E-02
Spin= Alpha
Occup= 0.002816
     1     0.000456
     2     0.002897
     3    -0.009414
     4     0.095051
     5     0.063864
     6     0.001579
     7    -0.327655
     8    -0.241574
     9    -0.004416
    10     0.012523
    11    -0.010779
    12    -0.000952
    13    -0.005363
    14     0.016902
    15     0.054739
    16    -0.002469
    17    -0.012775
    18     0.016651
    19    -0.494902
    20    -0.386046
    21    -0.000978
    22     0.685510
    23     0.520982
    24    -0.004447
    25    -0.598718
    26     0.610079
    27    -0.008579
    28     0.115734
    29    -0.034447
    30    -0.037308
Sym=    14a
Ene=   -0.108583E-01
Spin= Alpha
Occup= 0.015194
     1     0.234131
     2     1.190730
     3    -1.205903
     4     0.518606
     5     0.398693
     6    -0.252617
     7    -0.604951
     8    -0.463724
     9     0.126305
    10    -0.031077
    11    -0.061731
    12    -0.082812
    13     0.067991
    14    -0.017849
    15    -0.013747
    16     0.008006
    17     0.008161
    18     0.248806
    19     0.128976
    20     0.100943
    21    -0.053011
    22     0.021998
    23     0.014310
    24    -0.072826
    25    -0.001815
    26    -0.001582
    27     0.010276
    28     0.000256
    29     0.023014
    30     0.019329
Sym=    15a
Ene=   -0.153952E-03
Spin= Alpha
Occup= 0.000007
     1    -0.000003
     2    -0.000004
     3     0.000009
     4    -0.000124
     5     0.016738
     6     0.000001
     7    -0.056351
     8    -0.258960
     9     0.000002
    10    -0.000001
    11     0.000012
    12    -0.000003
    13    -0.000000
    14     0.045576
    15    -0.813732
    16    -0.000005
    17    -0.000007
    18    -0.000017
    19    -0.001208
    20    -0.014603
    21    -0.000007
    22     0.005861
    23     0.262821
    24     0.000015
    25     0.000002
    26     0.000007
    27     0.000011
    28    -0.000000
    29    -0.251097
    30    -0.780333
Sym=    16a
Ene=   -0.193490E-02
Spin= Alpha
Occup= 0.000092
     1    -0.710530
     2    -2.299000
     3    -1.133246
     4     0.000007
     5     0.000007
     6    -0.111354
     7    -0.000007
     8    -0.000007
     9     0.089137
    10     1.425334
    11     1.435049
    12     1.418415
    13    -0.017641
    14     0.000007
    15    -0.000001
    16     0.000326
    17    -0.003555
    18     0.265226
    19    -0.000002
    20    -0.000001
    21     0.132712
    22     0.000002
    23     0.000002
    24    -0.101690
    25    -0.061491
    26    -0.056388
    27    -0.068791
    28    -0.007474
    29     0.000012
    30     0.000002
Sym=    17a
Ene=   -0.354557E-02
Spin= Alpha
Occup= 0.002221
     1    -0.012729
     2     0.066828
     3    -0.062761
     4    -0.000002
     5     0.000004
     6     0.226353
     7     0.000004
     8    -0.000006
     9    -0.449261
    10    -0.185626
    11    -0.216499
    12     0.523815
    13     0.087563
    14    -0.000007
    15     0.000008
    16    -0.012722
    17     0.067063
    18    -0.064056
    19    -0.000004
    20    -0.000004
    21    -0.226338
    22     0.000004
    23     0.000003
    24     0.450023
    25    -0.223066
    26    -0.178892
    27     0.523771
    28    -0.085474
    29     0.000017
    30    -0.000008
Sym=    18a
Ene=   -0.322196E-02
Spin= Alpha
Occup= 0.002816
     1     0.000462
     2     0.002923
     3    -0.009483
     4    -0.095051
     5    -0.063859
     6     0.001570
     7     0.327647
     8     0.241565
     9    -0.004429
    10     0.012518
    11    -0.010766
    12    -0.000937
    13    -0.005365
    14    -0.016902
    15    -0.054737
    16    -0.002469
    17    -0.012779
    18     0.016678
    19     0.494889
    20     0.386032
    21    -0.000977
    22    -0.685491
    23    -0.520963
    24    -0.004467
    25    -0.598736
    26     0.610098
    27    -0.008574
    28     0.115732
    29     0.034442
    30     0.037315
Sym=    19a
Ene=   -0.108591E-01
Spin= Alpha
Occup= 0.015198
     1     0.234109
     2     1.190631
     3    -1.205840
     4    -0.518633
     5    -0.398716
     6    -0.252602
     7     0.604973
     8     0.463744
     9     0.126302
    10    -0.031054
    11    -0.061706
    12    -0.082792
    13     0.067991
    14     0.017842
    15     0.013743
    16     0.008008
    17     0.008175
    18     0.248775
    19    -0.129000
    20    -0.100961
    21    -0.053004
    22    -0.021975
    23    -0.014293
    24    -0.072819
    25    -0.001816
    26    -0.001583
    27     0.010275
    28     0.000257
    29    -0.023011
    30    -0.019329
Sym=    20a
Ene=   -0.267108E-02
Spin= Alpha
Occup= 0.001832
     1     0.001293
     2     0.012391
     3    -0.074739
     4    -0.024717
     5     0.026812
     6     0.004634
     7     0.153628
     8    -0.120763
     9    -0.025182
    10     0.008717
    11     0.010091
    12    -0.006128
    13     0.013639
    14    -0.050447
    15     0.170718
    16    -0.030748
    17    -0.151474
    18     0.157032
    19     0.018435
    20     0.002781
    21    -0.007990
    22    -0.051377
    23    -0.009042
    24    -0.034580
    25    -0.047966
    26     0.147178
    27    -0.050181
    28    -0.690746
    29     0.504158
    30    -0.420287
Sym=    21a
Ene=   -0.322131E-02
Spin= Alpha
Occup= 0.002815
     1    -0.001752
     2    -0.009666
     3     0.013786
     4    -0.380857
     5     0.498905
     6     0.000927
     7     0.525992
     8    -0.681648
     9     0.003293
    10    -0.574661
    11     0.584504
    12    -0.009491
    13     0.229213
    14     0.027373
    15    -0.041667
    16     0.000518
    17     0.002744
    18    -0.007003
    19     0.061831
    20    -0.096614
    21    -0.001537
    22    -0.238257
    23     0.330103
    24     0.003039
    25     0.013196
    26    -0.011735
    27    -0.001326
    28    -0.001562
    29    -0.001176
    30     0.058037
Sym=    22a
Ene=   -0.192785E-02
Spin= Alpha
Occup= 0.000092
     1     0.000392
     2    -0.003728
     3     0.267763
     4     0.000001
     5     0.000000
     6    -0.132944
     7    -0.000006
     8     0.000003
     9     0.103467
    10    -0.058694
    11    -0.060122
    12    -0.068546
    13     0.008074
    14    -0.000011
    15     0.000004
    16    -0.710472
    17    -2.298481
    18    -1.135724
    19    -0.000000
    20     0.000000
    21     0.111498
    22     0.000006
    23     0.000002
    24    -0.087812
    25     1.433991
    26     1.426527
    27     1.418202
    28     0.018117
    29    -0.000012
    30     0.000003
Sym=    23a
Ene=   -0.186132E-03
Spin= Alpha
Occup= 0.000009
     1     0.073807
     2    -0.025728
     3     0.873011
     4    -0.000004
     5     0.000006
     6    -0.676986
     7     0.000016
     8    -0.000007
     9     0.853889
    10    -0.241316
    11    -0.233307
    12    -0.639786
    13    -0.017695
    14     0.000033
    15    -0.000006
    16    -0.003647
    17    -0.120121
    18    -0.419395
    19    -0.000003
    20     0.000002
    21     0.147281
    22    -0.000011
    23     0.000001
    24    -0.142009
    25    -0.448193
    26    -0.416356
    27     0.938867
    28    -0.055796
    29     0.000037
    30    -0.000003
Sym=    24a
Ene=   -0.127140E-02
Spin= Alpha
Occup= 0.000575
     1    -0.000004
     2    -0.000020
     3     0.000098
     4    -0.035405
     5     0.042050
     6    -0.000020
     7    -0.140313
     8    -0.081169
     9     0.000072
    10     0.000030
    11     0.000008
    12    -0.000039
    13    -0.000027
    14    -0.622744
    15     0.451247
    16     0.000004
    17     0.000025
    18    -0.000104
    19     0.042509
    20     0.029411
    21    -0.000030
    22     0.118580
    23    -0.110774
    24     0.000081
    25    -0.000015
    26    -0.000013
    27     0.000037
    28    -0.000004
    29    -0.710445
    30    -0.277049
Sym=    25a
Ene=   -0.267106E-02
Spin= Alpha
Occup= 0.001832
     1    -0.001291
     2    -0.012372
     3     0.074619
     4    -0.024721
     5     0.026822
     6    -0.004625
     7     0.153637
     8    -0.120772
     9     0.025113
    10    -0.008708
    11    -0.010105
    12     0.006135
    13    -0.013649
    14    -0.050457
    15     0.170717
    16     0.030738
    17     0.151426
    18    -0.156897
    19     0.018440
    20     0.002780
    21     0.008013
    22    -0.051385
    23    -0.009039
    24     0.034480
    25     0.047976
    26    -0.147154
    27     0.050145
    28     0.690741
    29     0.504166
    30    -0.420292
Sym=    26a
Ene=   -0.322109E-02
Spin= Alpha
Occup= 0.002815
     1     0.001754
     2     0.009677
     3    -0.013823
     4    -0.380814
     5     0.498844
     6    -0.000927
     7     0.525940
     8    -0.681567
     9    -0.003308
    10     0.574711
    11    -0.584567
    12     0.009507
    13    -0.229263
    14     0.027381
    15    -0.041692
    16    -0.000522
    17    -0.002769
    18     0.007049
    19     0.061829
    20    -0.096599
    21     0.001540
    22    -0.238241
    23     0.330069
    24    -0.003058
    25    -0.013188
    26     0.011739
    27     0.001312
    28     0.001555
    29    -0.001168
    30     0.058042
Sym=    27a
Ene=   -0.108602E-01
Spin= Alpha
Occup= 0.015197
     1     0.008010
     2     0.008160
     3     0.248787
     4     0.100041
     5    -0.129580
     6     0.053033
     7     0.017542
     8    -0.019640
     9     0.072856
    10    -0.001968
    11    -0.001411
    12     0.010260
    13    -0.000138
    14    -0.017528
    15     0.024447
    16     0.234178
    17     1.190867
    18    -1.205759
    19     0.403341
    20    -0.515031
    21     0.252672
    22    -0.470751
    23     0.599576
    24    -0.126339
    25    -0.061712
    26    -0.031351
    27    -0.082942
    28    -0.068081
    29     0.013994
    30    -0.017698
Sym=    28a
Ene=   -0.267172E-02
Spin= Alpha
Occup= 0.001833
     1     0.030707
     2     0.151401
     3    -0.157507
     4    -0.016551
     5     0.006174
     6    -0.007972
     7     0.046627
     8    -0.019837
     9    -0.034804
    10    -0.247365
    11     0.148304
    12     0.050382
    13    -0.661519
    14     0.591009
    15     0.284380
    16    -0.001304
    17    -0.012483
    18     0.075095
    19     0.030993
    20     0.020378
    21     0.004706
    22    -0.178639
    23    -0.080508
    24    -0.025427
    25    -0.003244
    26    -0.015608
    27     0.006172
    28     0.011683
    29    -0.091882
    30    -0.153311
Sym=    29a
Ene=   -0.185574E-03
Spin= Alpha
Occup= 0.000009
     1     0.003366
     2     0.098948
     3     0.582555
     4    -0.000004
     5     0.000007
     6     0.151312
     7     0.000020
     8    -0.000007
     9    -0.035916
    10     0.408945
    11     0.427281
    12    -0.910676
    13    -0.057805
    14     0.000047
    15     0.000001
    16    -0.074438
    17     0.048742
    18    -1.042040
    19     0.000002
    20     0.000006
    21    -0.683596
    22    -0.000019
    23    -0.000002
    24     0.972824
    25     0.256273
    26     0.264068
    27     0.607706
    28    -0.017113
    29     0.000047
    30     0.000003
Sym=    30a
Ene=   -0.185130E-04
Spin= Alpha
Occup= 0.000001
     1     0.015196
     2    -0.567707
     3     4.496071
     4    -0.000002
     5     0.000000
     6    -0.136734
     7     0.000007
     8    -0.000002
     9     3.038402
    10    -0.451737
    11    -0.449497
    12     0.530554
    13    -0.003471
    14     0.000016
    15     0.000002
    16    -0.012065
    17     0.563177
    18    -4.477805
    19     0.000004
    20     0.000001
    21    -0.104427
    22    -0.000009
    23     0.000000
    24     2.999279
    25     0.422325
    26     0.424979
    27    -0.519623
    28    -0.004974
    29     0.000020
    30    -0.000005
