[Molden Format]
p30-5 set                                                                       
[Atoms] AU
 H        1     1       -2.2264        4.3691       -1.2985
 AL       2    13       -0.4866        2.1101       -0.4447
 SI       3    14        3.4899        2.1363       -4.1795
 B        4     5       -2.4081       -1.5399        2.0985
 N        5     7       -1.0352       -1.5562       -0.5921
 SI       6    14        4.3907       -1.2115       -0.8415
 O        7     8       -1.4895        1.1702        2.8553
 H        8     1        0.5690        1.5677       -4.2529
 N        9     7        3.0479        2.0844       -0.5266
 H       10     1        4.2059        3.2552        0.4669
 H       11     1        1.3248       -4.5796       -0.1298
 H       12     1       -2.5990        2.0981        3.9696
 H       13     1       -4.6733       -1.5688        1.8314
 N       14     7        1.4342       -2.7366       -0.6629
 F       15     9       -1.4374       -3.3211        3.7294
 H       16     1       -2.1070       -2.2773       -2.0226
[GTO]
    1 0
s    3 1.00
      13.010701000000  0.334854848130E-01
       1.962257200000  0.234721870881E+00
       0.444537960000  0.813770285260E+00
s    1 1.00
       0.121949620000  0.100000000000E+01
p    1 1.00
       0.800000000000  0.100000000000E+01

    2 0
s    5 1.00
    5887.572703000000  0.565197896170E-02
     885.612259960000  0.422182534268E-01
     201.136048990000  0.189187196726E+00
      56.284974674000  0.480435911881E+00
      17.229551243000  0.425872684294E+00
s    3 1.00
      29.340249922000  0.885686032394E-01
       3.043963042000 -0.543157066723E+00
       1.128553951800 -0.529385510294E+00
s    1 1.00
       0.142341751600  0.100000000000E+01
s    1 1.00
       0.054400192313  0.100000000000E+01
p    5 1.00
     145.119188090000  0.107263778593E-01
      33.717894833000  0.741036235460E-01
      10.369863083000  0.261296213060E+00
       3.513561603600  0.480201235327E+00
       1.198005027300  0.384382240624E+00
p    1 1.00
       0.265830059130  0.100000000000E+01
p    1 1.00
       0.071003361994  0.100000000000E+01
d    1 1.00
       0.300000000000  0.100000000000E+01

    3 0
s    5 1.00
    6903.711868600000  0.558446588743E-02
    1038.434641900000  0.417422844355E-01
     235.875814800000  0.187528023742E+00
      66.069385169000  0.478678596587E+00
      20.247945761000  0.429256952162E+00
s    3 1.00
      34.353481730000  0.898348994648E-01
       3.637078819200 -0.545685958777E+00
       1.400204859900 -0.524810829267E+00
s    1 1.00
       0.204844148050  0.100000000000E+01
s    1 1.00
       0.077994095468  0.100000000000E+01
p    5 1.00
     179.839073730000  0.101334983789E-01
      41.907258846000  0.710290410957E-01
      12.955294367000  0.255839142169E+00
       4.438326739300  0.481498047149E+00
       1.546224790400  0.385211960064E+00
p    1 1.00
       0.356076123020  0.100000000000E+01
p    1 1.00
       0.100085137620  0.100000000000E+01
d    1 1.00
       0.350000000000  0.100000000000E+01

    4 0
s    5 1.00
     839.318300860000 -0.562888359825E-02
     126.264648430000 -0.418327946095E-01
      28.620600763000 -0.184174881258E+00
       7.879372271000 -0.468396550281E+00
       2.408885717200 -0.444579308833E+00
s    1 1.00
       0.251051090360  0.100000000000E+01
s    1 1.00
       0.083648866069  0.100000000000E+01
p    3 1.00
       6.033222361900 -0.540325003228E-01
       1.249915786600 -0.301940343932E+00
       0.338716763500 -0.771707916582E+00
p    1 1.00
       0.096415632351  0.100000000000E+01
d    1 1.00
       0.500000000000  0.100000000000E+01

    5 0
s    5 1.00
    1712.841585300000 -0.544779958049E-02
     257.648126770000 -0.406271746324E-01
      58.458245853000 -0.181119622506E+00
      16.198367905000 -0.468439755632E+00
       5.005260080900 -0.446168462892E+00
s    1 1.00
       0.587318565710  0.100000000000E+01
s    1 1.00
       0.187645922530  0.100000000000E+01
p    3 1.00
      13.571470233000 -0.588481169695E-01
       2.925737287400 -0.320246247625E+00
       0.799277507540 -0.753282265204E+00
p    1 1.00
       0.219543480340  0.100000000000E+01
d    1 1.00
       1.000000000000  0.100000000000E+01

    6 0
s    5 1.00
    6903.711868600000  0.558446588743E-02
    1038.434641900000  0.417422844355E-01
     235.875814800000  0.187528023742E+00
      66.069385169000  0.478678596587E+00
      20.247945761000  0.429256952162E+00
s    3 1.00
      34.353481730000  0.898348994648E-01
       3.637078819200 -0.545685958777E+00
       1.400204859900 -0.524810829267E+00
s    1 1.00
       0.204844148050  0.100000000000E+01
s    1 1.00
       0.077994095468  0.100000000000E+01
p    5 1.00
     179.839073730000  0.101334983789E-01
      41.907258846000  0.710290410957E-01
      12.955294367000  0.255839142169E+00
       4.438326739300  0.481498047149E+00
       1.546224790400  0.385211960064E+00
p    1 1.00
       0.356076123020  0.100000000000E+01
p    1 1.00
       0.100085137620  0.100000000000E+01
d    1 1.00
       0.350000000000  0.100000000000E+01

    7 0
s    5 1.00
    2266.176778500000 -0.538935039217E-02
     340.870101910000 -0.402347213890E-01
      77.363135167000 -0.180081842055E+00
      21.479644940000 -0.468288576577E+00
       6.658943312400 -0.446926171602E+00
s    1 1.00
       0.809759756680  0.100000000000E+01
s    1 1.00
       0.255307722340  0.100000000000E+01
p    3 1.00
      17.721504317000  0.626302487632E-01
       3.863550544000  0.333311384824E+00
       1.048092088300  0.741486383081E+00
p    1 1.00
       0.276415444110  0.100000000000E+01
d    1 1.00
       1.200000000000  0.100000000000E+01

    8 0
s    3 1.00
      13.010701000000  0.334854848130E-01
       1.962257200000  0.234721870881E+00
       0.444537960000  0.813770285260E+00
s    1 1.00
       0.121949620000  0.100000000000E+01
p    1 1.00
       0.800000000000  0.100000000000E+01

    9 0
s    5 1.00
    1712.841585300000 -0.544779958049E-02
     257.648126770000 -0.406271746324E-01
      58.458245853000 -0.181119622506E+00
      16.198367905000 -0.468439755632E+00
       5.005260080900 -0.446168462892E+00
s    1 1.00
       0.587318565710  0.100000000000E+01
s    1 1.00
       0.187645922530  0.100000000000E+01
p    3 1.00
      13.571470233000 -0.588481169695E-01
       2.925737287400 -0.320246247625E+00
       0.799277507540 -0.753282265204E+00
p    1 1.00
       0.219543480340  0.100000000000E+01
d    1 1.00
       1.000000000000  0.100000000000E+01

   10 0
s    3 1.00
      13.010701000000  0.334854848130E-01
       1.962257200000  0.234721870881E+00
       0.444537960000  0.813770285260E+00
s    1 1.00
       0.121949620000  0.100000000000E+01
p    1 1.00
       0.800000000000  0.100000000000E+01

   11 0
s    3 1.00
      13.010701000000  0.334854848130E-01
       1.962257200000  0.234721870881E+00
       0.444537960000  0.813770285260E+00
s    1 1.00
       0.121949620000  0.100000000000E+01
p    1 1.00
       0.800000000000  0.100000000000E+01

   12 0
s    3 1.00
      13.010701000000  0.334854848130E-01
       1.962257200000  0.234721870881E+00
       0.444537960000  0.813770285260E+00
s    1 1.00
       0.121949620000  0.100000000000E+01
p    1 1.00
       0.800000000000  0.100000000000E+01

   13 0
s    3 1.00
      13.010701000000  0.334854848130E-01
       1.962257200000  0.234721870881E+00
       0.444537960000  0.813770285260E+00
s    1 1.00
       0.121949620000  0.100000000000E+01
p    1 1.00
       0.800000000000  0.100000000000E+01

   14 0
s    5 1.00
    1712.841585300000 -0.544779958049E-02
     257.648126770000 -0.406271746324E-01
      58.458245853000 -0.181119622506E+00
      16.198367905000 -0.468439755632E+00
       5.005260080900 -0.446168462892E+00
s    1 1.00
       0.587318565710  0.100000000000E+01
s    1 1.00
       0.187645922530  0.100000000000E+01
p    3 1.00
      13.571470233000 -0.588481169695E-01
       2.925737287400 -0.320246247625E+00
       0.799277507540 -0.753282265204E+00
p    1 1.00
       0.219543480340  0.100000000000E+01
d    1 1.00
       1.000000000000  0.100000000000E+01

   15 0
s    5 1.00
    2894.832599000000 -0.534932117607E-02
     435.419391200000 -0.399677343716E-01
      98.843328866000 -0.179412617888E+00
      27.485198001000 -0.468324686869E+00
       8.540549817100 -0.447241605328E+00
s    1 1.00
       1.065457803800  0.100000000000E+01
s    1 1.00
       0.332473467480  0.100000000000E+01
p    3 1.00
      22.696633924000 -0.647821482412E-01
       4.987233925700 -0.340357853553E+00
       1.349161395400 -0.734858153660E+00
p    1 1.00
       0.348298819770  0.100000000000E+01
d    1 1.00
       1.400000000000  0.100000000000E+01

   16 0
s    3 1.00
      13.010701000000  0.334854848130E-01
       1.962257200000  0.234721870881E+00
       0.444537960000  0.813770285260E+00
s    1 1.00
       0.121949620000  0.100000000000E+01
p    1 1.00
       0.800000000000  0.100000000000E+01

[MO]
Sym=     1a
Ene=   -0.641759E+02
Spin= Alpha
Occup= 2.000000
     1    -0.000173
     2     0.000405
     3    -0.000134
     4     0.000172
     5    -0.000072
     6     0.665938
     7    -0.015755
     8    -0.026424
     9     0.004453
    10     0.000912
    11    -0.001042
    12     0.000325
    13     0.000261
    14    -0.000055
    15    -0.000132
    16     0.000311
    17    -0.000101
    18     0.000066
    19     0.008704
    20     0.008627
    21     0.008428
    22    -0.000254
    23    -0.000041
    24    -0.000073
    25     0.321413
    26    -0.007158
    27    -0.008578
    28    -0.000310
    29     0.000462
    30     0.000182
    31    -0.000494
    32    -0.000253
    33    -0.000057
    34     0.000343
    35     0.000209
    36     0.000033
    37     0.000079
    38     0.003326
    39     0.003109
    40     0.003395
    41     0.000026
    42    -0.000197
    43     0.000021
    44     0.000006
    45     0.000257
    46     0.000904
    47    -0.000093
    48    -0.000074
    49     0.000065
    50    -0.000249
    51     0.000390
    52    -0.000423
    53     0.000157
    54    -0.000019
    55    -0.000025
    56    -0.000033
    57     0.000034
    58     0.000009
    59     0.000015
    60     0.000172
    61    -0.000336
    62     0.000013
    63     0.000124
    64    -0.000074
    65    -0.000151
    66     0.000089
    67    -0.000451
    68     0.000023
    69    -0.000217
    70     0.000014
    71    -0.000028
    72     0.000002
    73    -0.000007
    74     0.666199
    75    -0.015917
    76    -0.018471
    77     0.000472
    78     0.000645
    79    -0.000307
    80    -0.000249
    81    -0.000376
    82     0.000263
    83     0.000008
    84    -0.000098
    85    -0.000015
    86    -0.000084
    87     0.006976
    88     0.006972
    89     0.006540
    90    -0.000124
    91    -0.000013
    92     0.000018
    93     0.000015
    94     0.000071
    95     0.000173
    96    -0.000028
    97    -0.000085
    98     0.000078
    99     0.000044
   100     0.000237
   101     0.000099
   102    -0.000026
   103    -0.000036
   104    -0.000152
   105    -0.000001
   106     0.000059
   107     0.000032
   108    -0.000002
   109     0.000352
   110    -0.000118
   111    -0.000053
   112    -0.000054
   113     0.000029
   114     0.000454
   115    -0.000498
   116    -0.000045
   117     0.000048
   118     0.000074
   119     0.000253
   120     0.000787
   121     0.000620
   122    -0.000148
   123    -0.000093
   124    -0.000018
   125     0.000097
   126     0.000028
   127    -0.000019
   128    -0.000079
   129    -0.000457
   130    -0.000005
   131    -0.000056
   132    -0.000034
   133     0.000082
   134     0.000004
   135     0.000122
   136     0.000043
   137    -0.000034
   138     0.000070
   139    -0.000440
   140     0.000007
   141     0.000019
   142    -0.000091
   143    -0.000123
   144    -0.000653
   145    -0.000082
   146    -0.000036
   147     0.000020
   148     0.000012
   149    -0.000016
   150     0.000067
   151     0.000117
   152     0.000024
   153    -0.000009
   154    -0.000500
   155     0.000166
   156     0.000096
   157    -0.000106
   158    -0.000049
   159    -0.000016
   160    -0.000080
   161    -0.000026
   162     0.000030
   163    -0.000002
   164     0.000023
   165    -0.000096
   166    -0.000016
   167    -0.000011
   168     0.000010
   169    -0.000077
   170    -0.000092
   171     0.000080
   172     0.000029
   173     0.000001
   174     0.000006
   175    -0.000010
   176     0.000010
   177     0.000017
   178     0.000007
   179    -0.000516
   180    -0.000021
   181     0.000065
   182    -0.000001
Sym=     2a
Ene=   -0.676192E+02
Spin= Alpha
Occup= 2.000000
     1     0.000053
     2     0.000057
     3     0.000089
     4    -0.000072
     5     0.000022
     6    -0.334123
     7     0.007873
     8     0.012909
     9    -0.002135
    10    -0.000476
    11     0.000525
    12    -0.000168
    13    -0.000048
    14     0.000092
    15     0.000113
    16    -0.000014
    17    -0.000268
    18     0.000139
    19    -0.004224
    20    -0.004351
    21    -0.004152
    22    -0.000007
    23     0.000024
    24     0.000027
    25    -0.669414
    26     0.014997
    27     0.018781
    28    -0.000253
    29    -0.000903
    30    -0.000400
    31     0.001008
    32     0.000176
    33     0.000019
    34    -0.000164
    35    -0.000102
    36    -0.000033
    37    -0.000064
    38    -0.006800
    39    -0.006732
    40    -0.006945
    41    -0.000007
    42     0.000089
    43     0.000096
    44     0.000001
    45    -0.000134
    46    -0.000372
    47     0.000057
    48     0.000055
    49    -0.000060
    50     0.000235
    51    -0.000193
    52     0.000162
    53    -0.000127
    54     0.000020
    55     0.000011
    56     0.000015
    57     0.000008
    58     0.000029
    59    -0.000009
    60    -0.000140
    61     0.000087
    62    -0.000014
    63    -0.000024
    64     0.000052
    65     0.000221
    66     0.000299
    67     0.000281
    68     0.000052
    69     0.000076
    70    -0.000019
    71     0.000037
    72    -0.000022
    73    -0.000003
    74     0.656396
    75    -0.015704
    76    -0.018411
    77     0.000845
    78     0.000609
    79    -0.000281
    80    -0.000231
    81    -0.000219
    82    -0.000089
    83     0.000034
    84    -0.000210
    85     0.000025
    86     0.000108
    87     0.006735
    88     0.006774
    89     0.006584
    90     0.000109
    91    -0.000023
    92    -0.000053
    93    -0.000011
    94     0.000008
    95    -0.000344
    96     0.000023
    97     0.000037
    98    -0.000043
    99    -0.000086
   100    -0.000062
   101    -0.000004
   102     0.000037
   103     0.000040
   104     0.000104
   105     0.000001
   106    -0.000022
   107    -0.000018
   108     0.000088
   109    -0.000205
   110     0.000182
   111     0.000045
   112     0.000059
   113    -0.000005
   114    -0.000054
   115    -0.000293
   116     0.000070
   117    -0.000108
   118     0.000015
   119    -0.000226
   120     0.000047
   121    -0.000423
   122     0.000028
   123    -0.000196
   124     0.000224
   125     0.000073
   126    -0.000049
   127    -0.000031
   128     0.000111
   129     0.000236
   130     0.000044
   131    -0.000096
   132     0.000055
   133    -0.000041
   134    -0.000044
   135     0.000103
   136     0.000047
   137     0.000025
   138    -0.000032
   139     0.000200
   140    -0.000003
   141    -0.000010
   142     0.000046
   143     0.000064
   144     0.000384
   145     0.000053
   146     0.000016
   147     0.000002
   148     0.000006
   149     0.000150
   150    -0.000718
   151     0.000064
   152    -0.000019
   153    -0.000002
   154    -0.000392
   155    -0.000583
   156    -0.000060
   157    -0.000055
   158    -0.000037
   159     0.000066
   160    -0.000013
   161     0.000019
   162     0.000011
   163    -0.000002
   164     0.000009
   165    -0.000084
   166    -0.000003
   167     0.000003
   168     0.000004
   169    -0.000002
   170     0.000027
   171    -0.000001
   172     0.000009
   173     0.000023
   174     0.000017
   175     0.000003
   176    -0.000003
   177    -0.000007
   178     0.000086
   179     0.000231
   180    -0.000004
   181    -0.000055
   182     0.000025
Sym=     3a
Ene=   -0.642469E+02
Spin= Alpha
Occup= 2.000000
     1    -0.000105
     2     0.000458
     3    -0.000115
     4     0.000137
     5    -0.000060
     6     0.660201
     7    -0.015597
     8    -0.026270
     9     0.004768
    10     0.000945
    11    -0.001042
    12     0.000305
    13    -0.000167
    14    -0.000033
    15     0.000024
    16     0.000345
    17    -0.000299
    18     0.000218
    19     0.008299
    20     0.008495
    21     0.008322
    22    -0.000041
    23     0.000058
    24    -0.000065
    25    -0.662989
    26     0.014791
    27     0.018422
    28    -0.001023
    29    -0.000868
    30    -0.000382
    31     0.000967
    32    -0.000078
    33     0.000028
    34    -0.000044
    35     0.000111
    36    -0.000004
    37     0.000054
    38    -0.006596
    39    -0.006447
    40    -0.006588
    41    -0.000076
    42    -0.000113
    43    -0.000045
    44     0.000003
    45     0.000261
    46     0.000511
    47    -0.000084
    48    -0.000095
    49     0.000067
    50    -0.000546
    51     0.000310
    52    -0.000312
    53     0.000194
    54    -0.000039
    55    -0.000051
    56    -0.000022
    57     0.000029
    58    -0.000025
    59     0.000015
    60     0.000203
    61    -0.000036
    62    -0.000014
    63     0.000071
    64    -0.000060
    65    -0.000192
    66    -0.000242
    67    -0.000376
    68    -0.000011
    69    -0.000174
    70     0.000036
    71    -0.000035
    72     0.000002
    73    -0.000006
    74    -0.339794
    75     0.008061
    76     0.009132
    77    -0.000713
    78    -0.000302
    79     0.000125
    80     0.000132
    81     0.000072
    82     0.000007
    83     0.000022
    84     0.000177
    85     0.000012
    86    -0.000098
    87    -0.003364
    88    -0.003349
    89    -0.003257
    90    -0.000179
    91     0.000062
    92    -0.000048
    93     0.000016
    94     0.000053
    95     0.000284
    96    -0.000022
    97    -0.000072
    98     0.000075
    99     0.000007
   100     0.000141
   101     0.000142
   102    -0.000028
   103    -0.000035
   104    -0.000167
   105    -0.000007
   106     0.000058
   107     0.000038
   108     0.000313
   109     0.000083
   110     0.000141
   111     0.000029
   112    -0.000044
   113    -0.000005
   114    -0.000249
   115     0.001011
   116    -0.000157
   117     0.000052
   118     0.000069
   119     0.000143
   120     0.000123
   121    -0.000064
   122    -0.000164
   123     0.000008
   124     0.000133
   125    -0.000008
   126     0.000006
   127     0.000002
   128    -0.000108
   129    -0.000579
   130    -0.000077
   131     0.000060
   132     0.000104
   133    -0.000058
   134     0.000007
   135    -0.000047
   136    -0.000073
   137    -0.000019
   138     0.000054
   139    -0.000482
   140     0.000006
   141     0.000037
   142    -0.000089
   143    -0.000120
   144    -0.000787
   145    -0.000095
   146    -0.000032
   147     0.000009
   148    -0.000013
   149    -0.000089
   150     0.000374
   151    -0.000026
   152    -0.000030
   153     0.000026
   154     0.000203
   155     0.000257
   156     0.000168
   157     0.000063
   158     0.000116
   159     0.000003
   160    -0.000008
   161    -0.000026
   162     0.000001
   163     0.000003
   164    -0.000007
   165     0.000108
   166    -0.000002
   167    -0.000008
   168     0.000002
   169    -0.000023
   170    -0.000062
   171     0.000034
   172    -0.000003
   173    -0.000029
   174    -0.000023
   175    -0.000009
   176     0.000008
   177     0.000016
   178    -0.000045
   179    -0.000485
   180     0.000014
   181     0.000096
   182    -0.000031
Sym=     4a
Ene=   -0.262594E+02
Spin= Alpha
Occup= 1.999962
     1    -0.000086
     2     0.000699
     3     0.000001
     4    -0.000018
     5     0.000010
     6     0.000003
     7     0.000007
     8    -0.000199
     9     0.000835
    10     0.000005
    11     0.000002
    12    -0.000005
    13    -0.000019
    14     0.000036
    15    -0.000010
    16     0.001042
    17    -0.000936
    18     0.000209
    19     0.000079
    20    -0.000017
    21    -0.000021
    22    -0.000018
    23    -0.000003
    24     0.000052
    25    -0.000000
    26     0.000003
    27     0.000046
    28    -0.000409
    29    -0.000002
    30     0.000003
    31    -0.000000
    32    -0.000010
    33    -0.000020
    34     0.000003
    35     0.000116
    36     0.000153
    37    -0.000182
    38    -0.000009
    39    -0.000025
    40    -0.000010
    41    -0.000026
    42     0.000015
    43     0.000020
    44     0.000143
    45    -0.000888
    46    -0.002798
    47    -0.000028
    48     0.000018
    49     0.000016
    50    -0.001969
    51     0.000538
    52    -0.000479
    53    -0.000226
    54     0.000007
    55     0.000000
    56    -0.000203
    57     0.000157
    58    -0.000297
    59    -0.000021
    60    -0.000189
    61     0.001019
    62    -0.000014
    63    -0.000082
    64     0.000071
    65    -0.000071
    66    -0.000348
    67     0.000533
    68    -0.000026
    69    -0.000007
    70     0.000112
    71     0.000009
    72    -0.000015
    73    -0.000016
    74    -0.000001
    75     0.000019
    76    -0.000151
    77     0.000430
    78    -0.000006
    79    -0.000006
    80     0.000017
    81     0.000101
    82     0.000039
    83    -0.000072
    84    -0.000200
    85     0.000227
    86     0.000024
    87    -0.000080
    88    -0.000025
    89    -0.000076
    90    -0.000065
    91    -0.000002
    92     0.000024
    93    -0.000018
    94    -0.000247
    95     0.000996
    96    -0.000055
    97     0.000144
    98    -0.000089
    99     0.000037
   100    -0.000550
   101    -0.000069
   102    -0.000105
   103     0.000033
   104    -0.000094
   105     0.000005
   106    -0.000009
   107    -0.000014
   108    -0.000023
   109    -0.000035
   110     0.000002
   111     0.000025
   112    -0.000023
   113    -0.000009
   114     0.000107
   115    -0.000758
   116     0.000020
   117     0.000028
   118    -0.000032
   119     0.000223
   120     0.000269
   121    -0.000113
   122     0.000049
   123     0.000047
   124     0.000058
   125    -0.000000
   126     0.000004
   127     0.000005
   128     0.000031
   129    -0.000322
   130     0.000019
   131     0.000016
   132     0.000027
   133     0.000045
   134     0.000331
   135    -0.000082
   136     0.000025
   137     0.000033
   138    -0.000015
   139     0.000315
   140     0.000044
   141     0.000017
   142    -0.000046
   143     0.000218
   144    -0.000478
   145     0.000181
   146    -0.000120
   147     0.000112
   148    -0.000008
   149    -0.000022
   150    -0.000338
   151     0.000003
   152     0.000014
   153     0.000094
   154     0.000181
   155     0.000066
   156     0.000156
   157     0.000003
   158    -0.000027
   159     0.000044
   160    -0.000004
   161    -0.000002
   162     0.000009
   163     0.992456
   164    -0.029486
   165     0.014229
   166    -0.000914
   167     0.001318
   168    -0.001494
   169     0.000243
   170     0.000467
   171    -0.000184
   172     0.004925
   173     0.005048
   174     0.005005
   175    -0.000076
   176     0.000070
   177    -0.000143
   178    -0.000064
   179     0.000029
   180     0.000019
   181     0.000023
   182    -0.000035
Sym=     5a
Ene=   -0.206149E+02
Spin= Alpha
Occup= 1.999920
     1    -0.000011
     2    -0.000985
     3    -0.000045
     4     0.000006
     5     0.000065
     6     0.000032
     7     0.000155
     8    -0.000066
     9    -0.000361
    10     0.000080
    11    -0.000075
    12    -0.000270
    13     0.000222
    14     0.000207
    15    -0.000849
    16    -0.001159
    17     0.001010
    18    -0.000999
    19    -0.000202
    20     0.000019
    21    -0.000548
    22    -0.000160
    23     0.000263
    24     0.000361
    25     0.000004
    26     0.000007
    27     0.000126
    28    -0.000285
    29     0.000024
    30    -0.000000
    31    -0.000043
    32    -0.000047
    33     0.000021
    34     0.000104
    35    -0.000003
    36     0.000004
    37    -0.000123
    38     0.000072
    39     0.000025
    40     0.000088
    41     0.000014
    42     0.000052
    43     0.000018
    44     0.000196
    45    -0.000716
    46    -0.005470
    47    -0.000088
    48     0.000028
    49    -0.000026
    50    -0.001109
    51    -0.002105
    52     0.001092
    53    -0.000268
    54     0.000233
    55    -0.000153
    56     0.000210
    57    -0.000115
    58     0.000414
    59    -0.000116
    60    -0.000229
    61     0.000314
    62    -0.000132
    63     0.000139
    64     0.000142
    65    -0.001803
    66     0.000260
    67     0.000127
    68    -0.000004
    69    -0.000005
    70     0.000119
    71     0.000083
    72     0.000039
    73     0.000014
    74     0.000000
    75     0.000030
    76    -0.000285
    77     0.001173
    78    -0.000023
    79     0.000003
    80     0.000015
    81     0.000257
    82    -0.000068
    83    -0.000119
    84    -0.000569
    85     0.000216
    86     0.000127
    87    -0.000190
    88     0.000009
    89    -0.000147
    90     0.000046
    91     0.000006
    92     0.000016
    93     0.992468
    94    -0.031774
    95     0.019144
    96     0.002577
    97    -0.000418
    98    -0.000597
    99     0.001906
   100    -0.002011
   101    -0.003292
   102     0.003131
   103     0.003528
   104     0.003449
   105     0.000464
   106     0.000275
   107    -0.000361
   108     0.000150
   109    -0.000382
   110    -0.000007
   111    -0.000020
   112     0.000024
   113    -0.000022
   114    -0.000214
   115     0.000632
   116    -0.000198
   117    -0.000017
   118     0.000137
   119    -0.000434
   120    -0.000017
   121     0.000187
   122    -0.000050
   123    -0.000087
   124    -0.000047
   125     0.000007
   126    -0.000051
   127    -0.000012
   128    -0.000062
   129     0.000288
   130     0.000004
   131    -0.000015
   132    -0.000061
   133    -0.000101
   134     0.000061
   135     0.000069
   136    -0.000016
   137    -0.000079
   138     0.002563
   139    -0.000318
   140     0.001484
   141    -0.001099
   142    -0.001077
   143     0.000393
   144     0.001029
   145     0.000268
   146     0.000203
   147    -0.000073
   148     0.000023
   149    -0.000350
   150     0.002456
   151    -0.000057
   152     0.000071
   153     0.000123
   154    -0.001203
   155     0.000937
   156     0.000621
   157    -0.000038
   158    -0.000117
   159    -0.000151
   160    -0.000065
   161    -0.000049
   162     0.000018
   163    -0.000022
   164    -0.000293
   165     0.001275
   166     0.000158
   167     0.000252
   168     0.000062
   169     0.000157
   170     0.000273
   171    -0.000328
   172    -0.000115
   173    -0.000046
   174    -0.000087
   175    -0.000023
   176    -0.000012
   177    -0.000080
   178    -0.000176
   179     0.000337
   180     0.000050
   181    -0.000088
   182    -0.000109
Sym=     6a
Ene=   -0.444830E+01
Spin= Alpha
Occup= 1.999865
     1     0.000320
     2    -0.001409
     3    -0.000094
     4    -0.000102
     5     0.000049
     6    -0.000025
     7     0.000003
     8     0.000492
     9    -0.001415
    10    -0.000019
    11     0.000144
    12    -0.000125
    13    -0.002448
    14    -0.000325
    15     0.000293
    16    -0.001799
    17     0.002224
    18    -0.000901
    19    -0.002034
    20     0.000215
    21    -0.000450
    22     0.000874
    23     0.000406
    24     0.000105
    25     0.000068
    26     0.000240
    27    -0.000944
    28    -0.000908
    29     0.000046
    30    -0.000441
    31     0.000044
    32     0.000286
    33     0.000105
    34    -0.001133
    35     0.000493
    36     0.000517
    37    -0.000939
    38    -0.000173
    39     0.000562
    40    -0.000492
    41    -0.000095
    42     0.000436
    43    -0.000265
    44    -0.000005
    45     0.000301
    46    -0.001031
    47    -0.000158
    48    -0.000047
    49     0.000145
    50    -0.001489
    51    -0.000161
    52     0.000301
    53     0.000290
    54    -0.000045
    55    -0.000113
    56     0.000038
    57    -0.000133
    58    -0.000125
    59    -0.000014
    60     0.000307
    61    -0.003018
    62     0.000183
    63    -0.000284
    64    -0.000025
    65    -0.003046
    66    -0.001216
    67     0.000270
    68    -0.000216
    69     0.000224
    70     0.000152
    71    -0.000020
    72     0.000069
    73     0.000001
    74     0.089539
    75     0.316932
    76    -0.016901
    77     0.001722
    78     0.830699
    79    -0.432021
    80    -0.078825
    81     0.032592
    82    -0.017542
    83    -0.002897
    84    -0.006081
    85     0.003270
    86     0.000318
    87    -0.003037
    88    -0.001848
    89     0.000385
    90     0.001358
    91     0.000050
    92     0.000114
    93     0.000011
    94    -0.000308
    95     0.001825
    96    -0.000022
    97     0.000054
    98     0.000002
    99     0.000293
   100    -0.000393
   101    -0.000161
   102    -0.000114
   103    -0.000107
   104    -0.000132
   105    -0.000019
   106    -0.000021
   107     0.000013
   108     0.000191
   109     0.000078
   110     0.000007
   111     0.000087
   112    -0.000056
   113     0.000092
   114    -0.001632
   115     0.009844
   116    -0.000863
   117     0.001054
   118    -0.000342
   119    -0.000970
   120    -0.006623
   121    -0.002070
   122    -0.000290
   123     0.000397
   124    -0.000622
   125    -0.000319
   126    -0.000070
   127     0.000082
   128     0.000468
   129     0.000091
   130    -0.000282
   131     0.000233
   132    -0.000105
   133     0.000734
   134     0.000613
   135    -0.000249
   136     0.000040
   137    -0.000199
   138    -0.000105
   139     0.000135
   140     0.000008
   141     0.000033
   142     0.000005
   143    -0.000024
   144    -0.000889
   145    -0.000082
   146     0.000019
   147    -0.000070
   148    -0.000018
   149    -0.000111
   150     0.007487
   151    -0.000587
   152    -0.000150
   153    -0.000202
   154     0.002067
   155     0.005806
   156     0.000244
   157    -0.000181
   158     0.000117
   159    -0.000311
   160     0.000046
   161     0.000001
   162     0.000030
   163     0.000010
   164    -0.000156
   165     0.000882
   166     0.000031
   167     0.000012
   168    -0.000008
   169     0.000171
   170     0.000206
   171    -0.000141
   172    -0.000096
   173    -0.000069
   174    -0.000083
   175     0.000006
   176    -0.000001
   177    -0.000002
   178    -0.000088
   179     0.000235
   180     0.000124
   181     0.000110
   182    -0.000189
Sym=     7a
Ene=   -0.452394E+01
Spin= Alpha
Occup= 1.999858
     1     0.000008
     2    -0.001250
     3    -0.000114
     4     0.000129
     5    -0.000006
     6    -0.000094
     7    -0.000446
     8     0.001501
     9     0.001230
    10     0.000060
    11    -0.000214
    12    -0.000549
    13     0.001426
    14    -0.000201
    15     0.000250
    16     0.000580
    17     0.002329
    18    -0.002098
    19     0.001006
    20     0.000468
    21    -0.000974
    22    -0.000458
    23     0.000401
    24    -0.000106
    25    -0.110336
    26    -0.394684
    27     0.015016
    28    -0.008282
    29    -0.866236
    30    -0.253806
    31     0.136060
    32    -0.032268
    33    -0.009794
    34     0.006167
    35     0.010425
    36     0.003283
    37    -0.003778
    38     0.001208
    39     0.000446
    40     0.001176
    41     0.000391
    42    -0.000665
    43    -0.000232
    44    -0.000012
    45    -0.000065
    46     0.001072
    47     0.000002
    48     0.000000
    49     0.000006
    50     0.000610
    51     0.000386
    52    -0.000153
    53     0.000002
    54    -0.000015
    55     0.000108
    56    -0.000019
    57    -0.000022
    58    -0.000007
    59     0.000020
    60     0.000132
    61    -0.000316
    62     0.000081
    63    -0.000210
    64     0.000052
    65    -0.000028
    66     0.000303
    67    -0.000563
    68    -0.000064
    69    -0.000034
    70    -0.000046
    71    -0.000043
    72     0.000048
    73     0.000015
    74    -0.000013
    75    -0.000059
    76     0.000310
    77     0.001800
    78     0.000085
    79    -0.000082
    80    -0.000074
    81    -0.000228
    82     0.000685
    83    -0.000260
    84    -0.001213
    85     0.000325
    86    -0.000992
    87     0.000160
    88     0.000039
    89    -0.000039
    90    -0.000285
    91    -0.000135
    92    -0.000114
    93    -0.000008
    94    -0.000226
    95     0.000681
    96    -0.000023
    97    -0.000063
    98     0.000090
    99     0.000087
   100     0.000236
   101    -0.000421
   102    -0.000076
   103    -0.000065
   104    -0.000007
   105     0.000005
   106    -0.000020
   107    -0.000025
   108    -0.005747
   109    -0.000608
   110    -0.001438
   111    -0.000329
   112    -0.000345
   113    -0.000032
   114     0.000898
   115    -0.002001
   116     0.000566
   117     0.000206
   118    -0.000433
   119     0.002304
   120     0.001700
   121     0.002801
   122     0.000228
   123     0.000416
   124    -0.000244
   125     0.000168
   126    -0.000090
   127     0.000009
   128    -0.001141
   129    -0.000901
   130     0.000055
   131     0.000256
   132     0.000101
   133     0.000404
   134    -0.000012
   135     0.000011
   136     0.000101
   137    -0.000006
   138    -0.000045
   139     0.000187
   140    -0.000005
   141    -0.000039
   142     0.000049
   143    -0.000001
   144     0.000290
   145     0.000008
   146     0.000001
   147     0.000002
   148     0.000015
   149    -0.000229
   150     0.000744
   151    -0.000006
   152     0.000128
   153    -0.000148
   154    -0.000188
   155     0.001100
   156    -0.000348
   157    -0.000092
   158    -0.000167
   159    -0.000140
   160    -0.000026
   161    -0.000030
   162     0.000003
   163     0.000000
   164     0.000037
   165    -0.000166
   166    -0.000005
   167    -0.000004
   168     0.000030
   169    -0.000054
   170    -0.000052
   171    -0.000043
   172     0.000014
   173     0.000009
   174     0.000014
   175     0.000002
   176    -0.000000
   177     0.000000
   178    -0.000057
   179     0.000127
   180    -0.000044
   181    -0.000014
   182     0.000061
Sym=     8a
Ene=   -0.333995E+01
Spin= Alpha
Occup= 1.999848
     1    -0.001680
     2     0.000577
     3     0.000951
     4    -0.001100
     5     0.000498
     6    -0.073289
     7    -0.273714
     8    -0.003357
     9    -0.000684
    10    -0.789618
    11     0.426378
    12    -0.323596
    13    -0.031576
    14     0.015462
    15    -0.011758
    16     0.006176
    17    -0.004492
    18     0.002537
    19    -0.000627
    20     0.000496
    21     0.002113
    22     0.001700
    23    -0.000322
    24     0.000829
    25     0.000001
    26     0.000040
    27    -0.000563
    28     0.000745
    29    -0.000017
    30    -0.000108
    31     0.000002
    32     0.000132
    33     0.000048
    34    -0.000600
    35    -0.000236
    36     0.000063
    37    -0.000241
    38    -0.000003
    39    -0.000128
    40    -0.000555
    41    -0.000025
    42     0.000201
    43     0.000116
    44     0.000002
    45    -0.000140
    46    -0.002230
    47     0.000358
    48    -0.000005
    49    -0.000070
    50    -0.001910
    51    -0.000041
    52    -0.000134
    53    -0.000327
    54    -0.000061
    55     0.000109
    56    -0.000034
    57     0.000094
    58     0.000092
    59    -0.000044
    60    -0.000526
    61     0.002740
    62     0.000291
    63     0.000056
    64     0.000145
    65     0.002848
    66     0.000040
    67     0.001678
    68     0.000003
    69    -0.000242
    70    -0.000161
    71     0.000021
    72    -0.000106
    73     0.000040
    74    -0.000025
    75    -0.000058
    76    -0.000608
    77    -0.002168
    78    -0.000357
    79     0.000326
    80     0.000021
    81     0.000923
    82    -0.000688
    83    -0.000032
    84     0.001568
    85    -0.000569
    86    -0.000375
    87    -0.000599
    88    -0.000584
    89    -0.000132
    90     0.000369
    91     0.000119
    92    -0.000121
    93    -0.000118
    94    -0.000276
    95    -0.000160
    96    -0.000276
    97    -0.000055
    98     0.000307
    99     0.001198
   100    -0.001058
   101    -0.000542
   102     0.000014
   103    -0.000023
   104    -0.000197
   105     0.000090
   106     0.000032
   107     0.000053
   108    -0.000009
   109    -0.000571
   110     0.000159
   111    -0.000110
   112    -0.000243
   113    -0.000128
   114    -0.001325
   115     0.007158
   116    -0.000768
   117    -0.000298
   118    -0.000008
   119    -0.004006
   120    -0.001951
   121    -0.000316
   122    -0.001114
   123    -0.000127
   124    -0.000180
   125     0.000025
   126    -0.000082
   127     0.000042
   128     0.000217
   129    -0.000943
   130     0.000257
   131    -0.000057
   132    -0.000288
   133     0.000502
   134     0.000856
   135    -0.000091
   136     0.000195
   137    -0.000052
   138     0.000814
   139     0.000833
   140     0.000075
   141    -0.000109
   142    -0.000272
   143     0.000001
   144     0.000042
   145     0.000146
   146     0.000077
   147    -0.000031
   148     0.000009
   149    -0.000257
   150    -0.001419
   151    -0.000009
   152     0.000264
   153     0.000086
   154     0.001680
   155     0.000751
   156    -0.000244
   157    -0.000141
   158    -0.000267
   159    -0.000166
   160     0.000107
   161     0.000066
   162     0.000032
   163     0.000006
   164    -0.000168
   165     0.001048
   166     0.000011
   167    -0.000016
   168     0.000021
   169     0.000121
   170     0.000061
   171    -0.000007
   172    -0.000076
   173    -0.000073
   174    -0.000064
   175     0.000007
   176     0.000001
   177    -0.000008
   178     0.000637
   179     0.000843
   180    -0.000082
   181     0.000248
   182     0.000189
Sym=     9a
Ene=   -0.155745E+02
Spin= Alpha
Occup= 1.999847
     1    -0.000105
     2     0.001385
     3    -0.000157
     4    -0.000005
     5    -0.000013
     6    -0.000053
     7    -0.000455
     8     0.001036
     9     0.004955
    10     0.000195
    11     0.000007
    12     0.000030
    13     0.001480
    14    -0.000643
    15    -0.000082
    16     0.002903
    17    -0.003916
    18     0.000391
    19     0.000512
    20     0.000747
    21     0.000434
    22    -0.000403
    23    -0.000624
    24    -0.000095
    25    -0.000063
    26    -0.000410
    27     0.000407
    28     0.002521
    29     0.000027
    30     0.000117
    31     0.000672
    32    -0.000476
    33    -0.000177
    34     0.000890
    35    -0.001240
    36    -0.000024
    37     0.001663
    38     0.000510
    39    -0.000194
    40     0.000864
    41     0.000125
    42    -0.000349
    43    -0.000123
    44    -0.000013
    45     0.000228
    46    -0.001458
    47    -0.000064
    48    -0.000070
    49     0.000026
    50    -0.002483
    51    -0.000153
    52    -0.000139
    53     0.000068
    54    -0.000013
    55    -0.000032
    56     0.000061
    57     0.000017
    58    -0.000028
    59     0.000046
    60     0.000408
    61    -0.002222
    62    -0.000023
    63    -0.000207
    64     0.000087
    65    -0.000579
    66    -0.000966
    67     0.000461
    68    -0.000025
    69    -0.000051
    70     0.000039
    71    -0.000135
    72    -0.000036
    73    -0.000042
    74    -0.000081
    75    -0.000501
    76     0.000620
    77     0.000574
    78    -0.000296
    79     0.000648
    80     0.000071
    81    -0.000419
    82     0.000635
    83     0.000038
    84    -0.000446
    85     0.001013
    86     0.000298
    87     0.000520
    88     0.000514
    89    -0.000159
    90    -0.000285
    91    -0.000042
    92    -0.000034
    93     0.000027
    94     0.000277
    95    -0.000900
    96     0.000179
    97     0.000105
    98    -0.000096
    99    -0.000292
   100    -0.000263
   101     0.000603
   102     0.000072
   103     0.000123
   104     0.000053
   105    -0.000014
   106     0.000044
   107    -0.000008
   108     0.000136
   109    -0.001974
   110    -0.000064
   111     0.000029
   112    -0.000117
   113    -0.993710
   114     0.031606
   115    -0.029570
   116    -0.001467
   117    -0.000960
   118    -0.000811
   119     0.003920
   120     0.004635
   121     0.004513
   122    -0.001003
   123    -0.000811
   124    -0.001096
   125     0.000970
   126     0.000758
   127     0.000620
   128    -0.004258
   129     0.000998
   130     0.001818
   131     0.001692
   132     0.001350
   133     0.000295
   134     0.000631
   135     0.000050
   136     0.000199
   137    -0.000093
   138    -0.000043
   139    -0.000096
   140     0.000022
   141     0.000108
   142    -0.000067
   143     0.000002
   144    -0.001552
   145    -0.000051
   146    -0.000005
   147     0.000006
   148     0.000119
   149     0.000116
   150    -0.000072
   151    -0.000078
   152     0.000015
   153     0.000049
   154    -0.000222
   155     0.001206
   156     0.000156
   157    -0.000073
   158    -0.000226
   159    -0.000176
   160    -0.000128
   161     0.000004
   162     0.000078
   163     0.000023
   164    -0.000163
   165     0.001070
   166     0.000036
   167     0.000022
   168     0.000023
   169     0.000187
   170     0.000168
   171    -0.000044
   172    -0.000127
   173    -0.000112
   174    -0.000115
   175     0.000006
   176    -0.000000
   177     0.000001
   178     0.000249
   179    -0.000889
   180     0.000040
   181     0.000079
   182    -0.000030
Sym=    10a
Ene=   -0.156239E+02
Spin= Alpha
Occup= 1.999843
     1     0.000072
     2    -0.001007
     3     0.000045
     4    -0.000064
     5    -0.000040
     6     0.000040
     7     0.000268
     8    -0.001080
     9    -0.001728
    10     0.000073
    11     0.000233
    12     0.000201
    13    -0.000080
    14     0.001594
    15    -0.000004
    16    -0.002142
    17     0.002017
    18     0.000537
    19     0.000017
    20    -0.000914
    21     0.000301
    22     0.000314
    23    -0.000031
    24    -0.000069
    25    -0.000007
    26    -0.000077
    27    -0.000158
    28     0.000520
    29    -0.000077
    30    -0.000005
    31    -0.000034
    32    -0.000020
    33    -0.000047
    34     0.000182
    35    -0.000202
    36     0.000051
    37     0.000189
    38     0.000144
    39     0.000045
    40     0.000168
    41     0.000044
    42    -0.000083
    43    -0.000013
    44     0.000408
    45    -0.001558
    46    -0.004287
    47    -0.000241
    48    -0.000113
    49     0.000672
    50    -0.000402
    51    -0.000433
    52     0.001916
    53    -0.000825
    54    -0.000160
    55     0.001249
    56     0.000108
    57    -0.000563
    58     0.000046
    59     0.993242
    60    -0.032106
    61     0.030156
    62     0.000540
    63    -0.002052
    64    -0.001019
    65     0.004328
    66     0.003029
    67     0.003483
    68     0.000814
    69     0.001312
    70     0.000263
    71    -0.000392
    72    -0.000778
    73    -0.000514
    74    -0.000013
    75    -0.000099
    76     0.000113
    77     0.001798
    78    -0.000130
    79    -0.000039
    80     0.000044
    81    -0.000449
    82     0.000007
    83    -0.000068
    84    -0.001048
    85     0.000157
    86     0.000321
    87     0.000429
    88    -0.000161
    89     0.000071
    90     0.000020
    91    -0.000150
    92    -0.000084
    93    -0.000162
    94    -0.000299
    95     0.000396
    96     0.000013
    97     0.000078
    98     0.000182
    99    -0.000268
   100     0.000551
   101     0.001342
   102     0.000142
   103     0.000049
   104    -0.000042
   105    -0.000044
   106    -0.000016
   107    -0.000019
   108     0.000054
   109    -0.000022
   110    -0.000096
   111     0.000043
   112     0.000014
   113    -0.000047
   114    -0.000132
   115     0.000584
   116    -0.000092
   117     0.000001
   118     0.000109
   119    -0.000236
   120     0.000300
   121     0.000388
   122     0.000114
   123     0.000018
   124     0.000012
   125     0.000121
   126     0.000027
   127     0.000042
   128    -0.000201
   129     0.000137
   130     0.000078
   131     0.000063
   132     0.000012
   133    -0.000054
   134     0.000127
   135     0.000047
   136    -0.000154
   137     0.000190
   138    -0.000300
   139    -0.000333
   140    -0.000205
   141     0.000079
   142     0.000074
   143     0.000436
   144     0.001144
   145     0.000433
   146     0.000052
   147     0.000008
   148    -0.000029
   149     0.000094
   150    -0.008629
   151     0.001069
   152    -0.000491
   153    -0.000055
   154     0.001720
   155    -0.002580
   156    -0.000721
   157     0.001372
   158     0.000420
   159     0.000309
   160    -0.000600
   161     0.000132
   162    -0.000044
   163    -0.000038
   164    -0.000086
   165     0.000371
   166     0.000188
   167    -0.000060
   168    -0.000151
   169    -0.000015
   170     0.000044
   171     0.000214
   172     0.000015
   173     0.000076
   174     0.000053
   175     0.000082
   176     0.000042
   177    -0.000054
   178     0.003750
   179    -0.001439
   180     0.001342
   181     0.000918
   182     0.002113
Sym=    11a
Ene=   -0.155881E+02
Spin= Alpha
Occup= 1.999842
     1     0.000242
     2    -0.000346
     3     0.000078
     4    -0.000082
     5     0.000042
     6    -0.000013
     7    -0.000039
     8     0.001287
     9    -0.000149
    10     0.000019
    11    -0.000049
    12     0.000010
    13     0.000130
    14    -0.000512
    15    -0.000211
    16    -0.000547
    17     0.000336
    18     0.000215
    19    -0.000139
    20    -0.000126
    21    -0.000027
    22     0.000399
    23    -0.000145
    24     0.000086
    25    -0.000002
    26    -0.000111
    27    -0.000175
    28     0.001699
    29     0.000005
    30     0.000005
    31    -0.000058
    32    -0.000135
    33    -0.000226
    34     0.000474
    35     0.000045
    36    -0.000860
    37     0.000572
    38     0.000152
    39     0.000562
    40     0.000384
    41    -0.000023
    42    -0.000076
    43    -0.000239
    44    -0.000012
    45     0.000645
    46    -0.000287
    47    -0.000035
    48     0.000116
    49     0.000113
    50    -0.001573
    51    -0.000129
    52     0.000036
    53    -0.000101
    54     0.000089
    55     0.000040
    56     0.000055
    57     0.000065
    58    -0.000060
    59    -0.000012
    60    -0.000276
    61    -0.005243
    62    -0.001088
    63     0.000574
    64     0.000036
    65    -0.001433
    66    -0.000507
    67     0.000027
    68     0.001339
    69     0.000504
    70     0.000142
    71    -0.000739
    72    -0.000023
    73     0.000057
    74     0.000177
    75     0.001046
    76     0.001544
    77    -0.007171
    78     0.001233
    79     0.000464
    80    -0.000158
    81    -0.001205
    82    -0.000500
    83    -0.000446
    84     0.003490
    85    -0.001698
    86     0.000841
    87     0.000526
    88     0.000150
    89     0.000163
    90     0.001072
    91    -0.000009
    92     0.000075
    93     0.000035
    94    -0.000108
    95     0.000819
    96    -0.000116
    97     0.000084
    98    -0.000069
    99     0.000557
   100    -0.000543
   101    -0.000164
   102    -0.000133
   103    -0.000125
   104    -0.000139
   105    -0.000006
   106     0.000006
   107    -0.000003
   108    -0.000004
   109    -0.000184
   110    -0.000022
   111    -0.000071
   112     0.000025
   113    -0.000119
   114    -0.000243
   115     0.001324
   116     0.000057
   117    -0.000228
   118     0.000193
   119     0.000744
   120    -0.000178
   121     0.000789
   122     0.000084
   123     0.000213
   124     0.000087
   125     0.000070
   126     0.000076
   127     0.000066
   128    -0.000388
   129     0.000457
   130     0.000085
   131     0.000112
   132     0.000017
   133     0.003950
   134    -0.001791
   135     0.000282
   136     0.002372
   137    -0.000826
   138     0.000230
   139    -0.000119
   140     0.000030
   141    -0.000010
   142    -0.000085
   143     0.000079
   144    -0.001043
   145    -0.000000
   146     0.000032
   147    -0.000020
   148     0.993442
   149    -0.030507
   150     0.024912
   151    -0.002624
   152    -0.001207
   153     0.001133
   154     0.000091
   155     0.004729
   156    -0.000401
   157     0.001887
   158     0.000447
   159     0.001515
   160    -0.000026
   161    -0.000030
   162     0.000452
   163    -0.000015
   164    -0.000055
   165     0.000213
   166     0.000052
   167    -0.000009
   168    -0.000002
   169     0.000191
   170    -0.000031
   171     0.000263
   172     0.000005
   173     0.000024
   174    -0.000001
   175     0.000031
   176    -0.000008
   177     0.000026
   178     0.000001
   179    -0.000228
   180    -0.000310
   181     0.000127
   182    -0.000132
Sym=    12a
Ene=   -0.470859E+01
Spin= Alpha
Occup= 1.999840
     1     0.000098
     2     0.001369
     3     0.000081
     4    -0.000058
     5     0.000054
     6     0.000011
     7     0.000055
     8    -0.002200
     9     0.002842
    10     0.000114
    11    -0.000054
    12     0.000050
    13    -0.001323
    14     0.000477
    15     0.000694
    16     0.001114
    17    -0.002562
    18     0.001627
    19    -0.000830
    20    -0.000405
    21     0.000141
    22     0.000356
    23     0.000340
    24    -0.000116
    25     0.143879
    26     0.511487
    27    -0.012955
    28     0.006091
    29    -0.349741
    30     0.036820
    31    -0.781864
    32    -0.012780
    33     0.001965
    34    -0.033060
    35     0.002959
    36    -0.000341
    37     0.005286
    38     0.000057
    39    -0.000483
    40    -0.004043
    41    -0.000026
    42     0.000523
    43     0.000548
    44     0.000003
    45    -0.000012
    46    -0.001243
    47     0.000028
    48    -0.000007
    49    -0.000069
    50    -0.001047
    51    -0.000391
    52     0.000161
    53    -0.000020
    54    -0.000043
    55    -0.000063
    56     0.000039
    57     0.000056
    58    -0.000019
    59     0.000001
    60     0.000040
    61     0.000552
    62    -0.000092
    63    -0.000099
    64     0.000097
    65     0.000242
    66    -0.000058
    67     0.000346
    68     0.000077
    69     0.000028
    70     0.000023
    71     0.000023
    72    -0.000026
    73    -0.000002
    74     0.000070
    75     0.000104
    76    -0.001731
    77    -0.001868
    78    -0.000279
    79    -0.000054
    80     0.000026
    81     0.000249
    82    -0.000845
    83    -0.000547
    84    -0.000092
    85    -0.000742
    86     0.000111
    87    -0.000014
    88     0.000014
    89     0.001058
    90     0.000144
    91     0.000282
    92    -0.000948
    93     0.000001
    94     0.000154
    95    -0.000539
    96     0.000104
    97     0.000039
    98    -0.000015
    99    -0.000468
   100    -0.000139
   101     0.000322
   102     0.000057
   103     0.000074
   104     0.000046
   105    -0.000023
   106     0.000021
   107     0.000014
   108    -0.001338
   109    -0.000623
   110    -0.000433
   111    -0.000039
   112     0.000348
   113     0.000295
   114    -0.001396
   115     0.008642
   116    -0.000240
   117    -0.000782
   118     0.001843
   119     0.000941
   120    -0.000318
   121    -0.006989
   122    -0.000325
   123    -0.000591
   124     0.000926
   125     0.000088
   126    -0.000290
   127    -0.000008
   128    -0.000445
   129    -0.002365
   130    -0.000253
   131     0.000043
   132     0.000800
   133    -0.000340
   134    -0.000150
   135    -0.000002
   136    -0.000106
   137     0.000078
   138    -0.000081
   139    -0.000401
   140     0.000004
   141     0.000072
   142     0.000030
   143     0.000026
   144    -0.000573
   145    -0.000010
   146     0.000007
   147     0.000009
   148    -0.000014
   149     0.000424
   150    -0.001651
   151    -0.000094
   152    -0.000197
   153     0.000012
   154     0.000032
   155    -0.001328
   156     0.000198
   157     0.000146
   158     0.000223
   159     0.000182
   160     0.000045
   161     0.000002
   162    -0.000009
   163     0.000003
   164    -0.000053
   165     0.000309
   166     0.000014
   167     0.000004
   168     0.000013
   169     0.000095
   170     0.000058
   171    -0.000032
   172    -0.000029
   173    -0.000026
   174    -0.000025
   175    -0.000002
   176    -0.000001
   177     0.000001
   178     0.000105
   179    -0.000427
   180    -0.000000
   181    -0.000011
   182    -0.000019
Sym=    13a
Ene=   -0.484380E+01
Spin= Alpha
Occup= 1.999833
     1    -0.000128
     2     0.000276
     3     0.000038
     4     0.000032
     5    -0.000022
     6     0.000008
     7     0.000020
     8     0.000203
     9     0.000095
    10     0.000038
    11     0.000029
    12     0.000038
    13    -0.000053
    14    -0.000677
    15    -0.000077
    16    -0.000221
    17    -0.000830
    18     0.000348
    19     0.000090
    20     0.000554
    21     0.000129
    22    -0.000031
    23    -0.000089
    24     0.000015
    25    -0.000030
    26    -0.000136
    27     0.000256
    28    -0.000077
    29    -0.000004
    30     0.000053
    31    -0.000091
    32    -0.000011
    33    -0.000159
    34     0.000442
    35    -0.000199
    36     0.000349
    37     0.000617
    38     0.000102
    39    -0.000062
    40     0.000447
    41     0.000038
    42    -0.000008
    43    -0.000032
    44     0.000009
    45    -0.000094
    46    -0.000511
    47     0.000002
    48    -0.000230
    49    -0.000077
    50    -0.000627
    51    -0.000280
    52     0.000108
    53     0.000041
    54    -0.000072
    55    -0.000068
    56     0.000012
    57    -0.000024
    58    -0.000257
    59    -0.000002
    60     0.000004
    61     0.002212
    62    -0.000013
    63    -0.000253
    64     0.000027
    65     0.000073
    66    -0.002792
    67     0.000000
    68    -0.000071
    69     0.000089
    70     0.000032
    71    -0.000175
    72     0.000055
    73     0.000038
    74     0.163635
    75     0.575812
    76    -0.011411
    77     0.005572
    78     0.211821
    79     0.760277
    80     0.220884
    81     0.011250
    82     0.031178
    83     0.008514
    84     0.000321
    85    -0.003780
    86    -0.001910
    87    -0.003356
    88    -0.000201
    89    -0.000781
    90    -0.002736
    91     0.000016
    92     0.000171
    93     0.000000
    94    -0.000051
    95     0.000201
    96    -0.000015
    97     0.000009
    98    -0.000002
    99    -0.000033
   100    -0.000177
   101     0.000118
   102    -0.000018
   103     0.000012
   104    -0.000036
   105     0.000014
   106    -0.000007
   107     0.000004
   108    -0.000038
   109    -0.000144
   110    -0.000042
   111     0.000055
   112    -0.000043
   113    -0.000048
   114     0.000494
   115    -0.004256
   116     0.000402
   117    -0.000874
   118     0.000183
   119    -0.002047
   120     0.002903
   121     0.000500
   122     0.000021
   123    -0.000344
   124     0.000183
   125     0.000323
   126    -0.000059
   127    -0.000081
   128     0.000436
   129     0.000966
   130     0.000237
   131    -0.000385
   132    -0.000120
   133    -0.000270
   134    -0.001609
   135    -0.001043
   136    -0.000297
   137     0.000048
   138    -0.000028
   139    -0.000008
   140     0.000005
   141     0.000026
   142    -0.000008
   143     0.000045
   144    -0.000489
   145    -0.000016
   146    -0.000001
   147    -0.000016
   148     0.000118
   149    -0.000216
   150     0.004542
   151    -0.000185
   152    -0.000058
   153     0.000335
   154     0.007169
   155     0.001765
   156    -0.000335
   157     0.000308
   158     0.000168
   159    -0.000191
   160     0.000007
   161    -0.000061
   162    -0.000165
   163     0.000011
   164    -0.000060
   165     0.000333
   166     0.000005
   167    -0.000004
   168    -0.000024
   169     0.000128
   170    -0.000009
   171    -0.000122
   172    -0.000058
   173    -0.000054
   174    -0.000043
   175     0.000005
   176    -0.000008
   177     0.000010
   178    -0.000493
   179    -0.000469
   180     0.000029
   181     0.000144
   182    -0.000180
Sym=    14a
Ene=   -0.485222E+01
Spin= Alpha
Occup= 1.999830
     1     0.000098
     2    -0.000691
     3    -0.000037
     4    -0.000011
     5     0.000028
     6     0.000003
     7     0.000070
     8    -0.000158
     9     0.000487
    10    -0.000028
    11    -0.000038
    12    -0.000023
    13     0.000013
    14     0.000545
    15     0.000147
    16     0.000321
    17     0.001043
    18    -0.000582
    19    -0.000015
    20    -0.000402
    21    -0.000093
    22     0.000194
    23     0.000213
    24    -0.000007
    25     0.000014
    26    -0.000140
    27    -0.001453
    28    -0.003025
    29    -0.000142
    30    -0.000145
    31     0.000009
    32     0.000337
    33    -0.000534
    34    -0.000168
    35    -0.000593
    36     0.000455
    37    -0.000512
    38     0.000107
    39     0.001062
    40     0.000608
    41    -0.000327
    42     0.000232
    43    -0.001077
    44     0.000002
    45    -0.000188
    46     0.001244
    47     0.000060
    48     0.000048
    49    -0.000042
    50     0.000818
    51     0.000246
    52    -0.000319
    53    -0.000132
    54    -0.000001
    55     0.000013
    56     0.000011
    57     0.000039
    58     0.000091
    59     0.000017
    60     0.000073
    61     0.000058
    62    -0.000201
    63     0.000189
    64     0.000055
    65     0.000752
    66     0.001106
    67     0.000266
    68     0.000033
    69    -0.000012
    70    -0.000049
    71     0.000029
    72    -0.000082
    73    -0.000001
    74     0.164903
    75     0.579835
    76    -0.010585
    77     0.010677
    78    -0.390433
    79    -0.454605
    80     0.555948
    81    -0.013515
    82    -0.020213
    83     0.022042
    84     0.001833
    85     0.003340
    86    -0.005330
    87     0.000580
    88    -0.002322
    89    -0.001136
    90     0.001398
    91    -0.000327
    92     0.000375
    93     0.000001
    94     0.000073
    95    -0.000389
    96     0.000030
    97    -0.000024
    98     0.000005
    99    -0.000131
   100     0.000261
   101     0.000029
   102     0.000034
   103     0.000019
   104     0.000046
   105    -0.000007
   106    -0.000002
   107     0.000003
   108     0.000114
   109    -0.000413
   110     0.000032
   111     0.000089
   112    -0.000102
   113     0.000044
   114    -0.000753
   115     0.002424
   116    -0.000036
   117     0.000258
   118    -0.000178
   119     0.001598
   120    -0.001456
   121    -0.000903
   122     0.000088
   123     0.000296
   124    -0.000222
   125    -0.000340
   126    -0.000009
   127     0.000234
   128    -0.000448
   129    -0.001289
   130    -0.000257
   131     0.000297
   132     0.000266
   133     0.000124
   134     0.000405
   135     0.000438
   136     0.000119
   137     0.000046
   138    -0.000037
   139    -0.000083
   140    -0.000015
   141    -0.000009
   142     0.000034
   143     0.000028
   144     0.000354
   145     0.000038
   146     0.000002
   147     0.000031
   148    -0.000108
   149    -0.000249
   150    -0.004939
   151     0.000812
   152     0.000623
   153     0.001104
   154    -0.003416
   155    -0.002235
   156    -0.001020
   157    -0.000143
   158    -0.000059
   159     0.000175
   160    -0.000121
   161    -0.000113
   162    -0.000050
   163     0.000002
   164     0.000102
   165    -0.000441
   166    -0.000045
   167     0.000001
   168     0.000013
   169    -0.000096
   170    -0.000025
   171     0.000077
   172     0.000045
   173     0.000044
   174     0.000045
   175    -0.000005
   176     0.000008
   177    -0.000010
   178     0.000198
   179    -0.000317
   180    -0.000025
   181    -0.000058
   182     0.000059
Sym=    15a
Ene=   -0.477237E+01
Spin= Alpha
Occup= 1.999829
     1     0.000096
     2    -0.000863
     3    -0.000028
     4    -0.000023
     5    -0.000001
     6     0.000007
     7     0.000052
     8     0.000680
     9    -0.000458
    10    -0.000032
    11    -0.000008
    12    -0.000003
    13     0.000283
    14     0.000073
    15    -0.000020
    16    -0.000147
    17     0.001331
    18    -0.000655
    19     0.000234
    20    -0.000111
    21    -0.000054
    22     0.000117
    23    -0.000178
    24     0.000052
    25    -0.000046
    26    -0.000157
    27     0.000116
    28     0.001222
    29     0.000144
    30     0.000426
    31     0.000366
    32    -0.000081
    33    -0.000155
    34    -0.000022
    35    -0.000057
    36    -0.000989
    37     0.000240
    38    -0.000022
    39    -0.000135
    40    -0.000563
    41    -0.000034
    42    -0.000133
    43     0.000320
    44    -0.000018
    45     0.000231
    46    -0.000095
    47    -0.000009
    48     0.000044
    49     0.000027
    50    -0.001777
    51     0.000033
    52    -0.000146
    53     0.000105
    54    -0.000010
    55     0.000042
    56    -0.000011
    57     0.000011
    58     0.000034
    59     0.000004
    60    -0.000125
    61     0.001258
    62    -0.000072
    63     0.000057
    64    -0.000049
    65     0.000781
    66     0.000220
    67    -0.000370
    68    -0.000006
    69    -0.000057
    70    -0.000059
    71     0.000029
    72     0.000041
    73    -0.000003
    74     0.154123
    75     0.544066
    76    -0.006056
    77     0.005021
    78    -0.301005
    79    -0.065111
    80    -0.782201
    81    -0.009850
    82    -0.003543
    83    -0.030771
    84     0.003144
    85    -0.000636
    86     0.006783
    87    -0.000817
    88    -0.002472
    89    -0.000994
    90     0.000066
    91     0.000538
    92    -0.000555
    93     0.000006
    94    -0.000147
    95     0.000895
    96    -0.000059
    97     0.000026
    98    -0.000037
    99     0.000237
   100    -0.000308
   101     0.000024
   102    -0.000052
   103    -0.000053
   104    -0.000058
   105    -0.000007
   106    -0.000013
   107     0.000002
   108     0.000059
   109    -0.000220
   110     0.000001
   111    -0.000099
   112     0.000055
   113     0.000064
   114    -0.000539
   115     0.003137
   116     0.000015
   117     0.000287
   118    -0.000113
   119     0.001889
   120    -0.001390
   121     0.001097
   122     0.000031
   123     0.000152
   124    -0.000143
   125    -0.000170
   126     0.000210
   127    -0.000067
   128    -0.000796
   129    -0.001797
   130    -0.000102
   131     0.000557
   132    -0.000006
   133    -0.000435
   134    -0.000734
   135    -0.000114
   136    -0.000133
   137    -0.000049
   138    -0.000019
   139     0.000118
   140    -0.000001
   141     0.000023
   142    -0.000032
   143     0.000001
   144    -0.001198
   145    -0.000053
   146     0.000010
   147    -0.000007
   148     0.000003
   149    -0.000202
   150     0.001048
   151    -0.000326
   152    -0.000383
   153    -0.001474
   154     0.000243
   155    -0.000490
   156     0.002084
   157    -0.000070
   158    -0.000047
   159    -0.000087
   160    -0.000016
   161     0.000209
   162     0.000092
   163     0.000000
   164    -0.000176
   165     0.000781
   166     0.000063
   167     0.000023
   168    -0.000008
   169     0.000143
   170     0.000102
   171    -0.000039
   172    -0.000077
   173    -0.000074
   174    -0.000077
   175     0.000004
   176    -0.000005
   177     0.000006
   178    -0.000026
   179     0.000452
   180    -0.000019
   181    -0.000004
   182     0.000072
Sym=    16a
Ene=   -0.365610E+01
Spin= Alpha
Occup= 1.999781
     1    -0.000464
     2     0.000349
     3     0.000324
     4    -0.000461
     5     0.000103
     6    -0.143954
     7    -0.524001
     8     0.003013
     9     0.000652
    10     0.343012
    11     0.652765
    12     0.425525
    13     0.015604
    14     0.026468
    15     0.018260
    16    -0.000581
    17    -0.006906
    18    -0.003612
    19     0.005368
    20     0.000662
    21     0.004478
    22     0.000111
    23    -0.000439
    24    -0.000393
    25     0.000004
    26     0.000059
    27     0.000466
    28    -0.000143
    29    -0.000018
    30    -0.000071
    31     0.000063
    32    -0.000167
    33    -0.000042
    34     0.000055
    35    -0.000242
    36     0.000325
    37    -0.000551
    38    -0.000033
    39     0.000059
    40    -0.000196
    41    -0.000056
    42     0.000152
    43     0.000170
    44    -0.000000
    45    -0.000300
    46    -0.003050
    47     0.000139
    48     0.000107
    49    -0.000031
    50    -0.000147
    51    -0.001706
    52     0.000176
    53    -0.000061
    54     0.000076
    55    -0.000113
    56    -0.000080
    57    -0.000073
    58    -0.000206
    59    -0.000092
    60    -0.000815
    61     0.005562
    62    -0.000009
    63     0.000134
    64    -0.000028
    65     0.000303
    66     0.002862
    67    -0.000724
    68    -0.000016
    69    -0.000286
    70    -0.000034
    71    -0.000035
    72     0.000086
    73    -0.000038
    74     0.000002
    75    -0.000012
    76     0.000077
    77    -0.000592
    78     0.000068
    79    -0.000074
    80    -0.000027
    81    -0.000253
    82    -0.000140
    83     0.000034
    84    -0.000105
    85    -0.000449
    86     0.000026
    87     0.000385
    88    -0.000234
    89     0.000165
    90    -0.000021
    91    -0.000112
    92     0.000074
    93    -0.000029
    94     0.000244
    95    -0.002307
    96     0.000259
    97     0.000316
    98     0.000014
    99    -0.000894
   100    -0.001937
   101     0.001447
   102     0.000023
   103    -0.000030
   104     0.000206
   105     0.000063
   106     0.000065
   107    -0.000002
   108     0.000388
   109    -0.002171
   110    -0.000111
   111    -0.000083
   112     0.000058
   113    -0.000006
   114     0.000995
   115    -0.006213
   116     0.000703
   117    -0.000130
   118    -0.000210
   119     0.003032
   120    -0.001835
   121    -0.001688
   122     0.000517
   123     0.000023
   124     0.000057
   125    -0.000075
   126    -0.000065
   127    -0.000214
   128     0.000930
   129     0.002384
   130    -0.000743
   131     0.000055
   132     0.000050
   133    -0.000169
   134    -0.000001
   135    -0.000047
   136    -0.000012
   137     0.000017
   138     0.000275
   139     0.002033
   140     0.000267
   141     0.000282
   142    -0.000328
   143     0.000116
   144     0.000452
   145     0.000032
   146     0.000042
   147     0.000046
   148    -0.000001
   149     0.000298
   150    -0.002418
   151    -0.000069
   152    -0.000039
   153    -0.000004
   154     0.000160
   155    -0.001455
   156     0.000224
   157     0.000013
   158     0.000064
   159     0.000069
   160     0.000041
   161    -0.000027
   162     0.000004
   163     0.000001
   164    -0.000008
   165     0.000027
   166     0.000004
   167     0.000026
   168     0.000016
   169     0.000066
   170     0.000210
   171     0.000087
   172    -0.000013
   173     0.000013
   174    -0.000022
   175     0.000002
   176    -0.000015
   177     0.000007
   178    -0.000636
   179    -0.002319
   180    -0.000099
   181    -0.000478
   182     0.000013
Sym=    17a
Ene=   -0.481562E+01
Spin= Alpha
Occup= 1.999776
     1    -0.000041
     2    -0.000733
     3    -0.000059
     4     0.000037
     5    -0.000005
     6    -0.000048
     7    -0.000213
     8     0.000740
     9    -0.000432
    10    -0.000063
    11     0.000040
    12    -0.000260
    13     0.000854
    14    -0.000084
    15    -0.000045
    16     0.000115
    17     0.001706
    18    -0.001154
    19     0.000711
    20     0.000189
    21    -0.000204
    22    -0.000180
    23     0.000021
    24    -0.000005
    25     0.163549
    26     0.576789
    27    -0.006950
    28     0.009523
    29    -0.323096
    30     0.550184
    31     0.516121
    32    -0.011159
    33     0.022373
    34     0.019278
    35     0.003056
    36    -0.004687
    37    -0.003716
    38    -0.000811
    39    -0.001259
    40     0.000204
    41    -0.000213
    42    -0.000558
    43     0.000149
    44    -0.000000
    45    -0.000154
    46     0.001278
    47     0.000022
    48    -0.000013
    49    -0.000069
    50     0.000155
    51     0.000477
    52    -0.000344
    53    -0.000035
    54    -0.000001
    55    -0.000015
    56    -0.000006
    57     0.000008
    58     0.000005
    59    -0.000001
    60     0.000001
    61     0.000307
    62     0.000013
    63    -0.000062
    64     0.000048
    65     0.000141
    66     0.000116
    67    -0.000032
    68     0.000005
    69    -0.000022
    70    -0.000006
    71    -0.000012
    72    -0.000006
    73     0.000022
    74     0.000002
    75    -0.000139
    76    -0.000497
    77    -0.000755
    78     0.000271
    79    -0.000231
    80     0.000435
    81    -0.000270
    82     0.000535
    83    -0.000363
    84    -0.001160
    85     0.000761
    86     0.000476
    87     0.000463
    88     0.000859
    89     0.000385
    90    -0.000470
    91     0.000147
    92    -0.000597
    93    -0.000013
    94    -0.000119
    95     0.000186
    96    -0.000068
    97    -0.000035
    98     0.000027
    99     0.000199
   100     0.000084
   101    -0.000107
   102    -0.000024
   103    -0.000029
   104    -0.000013
   105     0.000007
   106    -0.000014
   107    -0.000013
   108    -0.000143
   109    -0.002182
   110     0.000021
   111    -0.000244
   112    -0.000374
   113    -0.000100
   114     0.000459
   115    -0.005307
   116     0.000379
   117     0.000385
   118    -0.001248
   119     0.000316
   120     0.000006
   121     0.004120
   122     0.000190
   123     0.000226
   124    -0.000240
   125     0.000016
   126     0.000019
   127     0.000087
   128    -0.000084
   129     0.000253
   130     0.000030
   131     0.000162
   132    -0.000279
   133     0.000010
   134     0.000197
   135     0.000020
   136     0.000003
   137    -0.000044
   138     0.000043
   139     0.000135
   140    -0.000003
   141    -0.000021
   142    -0.000007
   143    -0.000012
   144    -0.000133
   145     0.000009
   146    -0.000015
   147     0.000013
   148    -0.000020
   149     0.000101
   150    -0.000724
   151     0.000019
   152     0.000003
   153     0.000068
   154    -0.000042
   155    -0.000213
   156     0.000186
   157     0.000044
   158     0.000042
   159     0.000045
   160     0.000001
   161    -0.000007
   162     0.000041
   163     0.000002
   164     0.000005
   165     0.000009
   166    -0.000010
   167     0.000001
   168     0.000023
   169    -0.000034
   170    -0.000010
   171     0.000018
   172     0.000003
   173     0.000003
   174    -0.000002
   175     0.000001
   176     0.000001
   177    -0.000001
   178     0.000122
   179    -0.000121
   180    -0.000005
   181    -0.000002
   182    -0.000011
Sym=    18a
Ene=   -0.478692E+01
Spin= Alpha
Occup= 1.999761
     1     0.000042
     2     0.001072
     3     0.000040
     4     0.000004
     5    -0.000037
     6     0.000002
     7    -0.000004
     8     0.000314
     9    -0.001079
    10    -0.000010
    11    -0.000102
    12    -0.000084
    13     0.000260
    14    -0.000155
    15    -0.000023
    16    -0.000363
    17    -0.001531
    18     0.002084
    19     0.000172
    20     0.000118
    21     0.000110
    22    -0.000124
    23    -0.000099
    24    -0.000010
    25     0.159178
    26     0.561308
    27    -0.007265
    28     0.006573
    29     0.036546
    30    -0.779131
    31     0.283124
    32     0.003119
    33    -0.030642
    34     0.010254
    35     0.000141
    36     0.006574
    37    -0.002447
    38    -0.001273
    39    -0.000430
    40    -0.000481
    41     0.000330
    42    -0.000177
    43    -0.000714
    44    -0.000007
    45     0.000101
    46    -0.001168
    47    -0.000013
    48    -0.000038
    49    -0.000011
    50    -0.000327
    51    -0.000384
    52     0.000303
    53     0.000049
    54     0.000015
    55    -0.000006
    56     0.000002
    57    -0.000033
    58     0.000004
    59    -0.000001
    60     0.000033
    61    -0.000478
    62     0.000019
    63    -0.000048
    64     0.000029
    65    -0.000396
    66     0.000073
    67    -0.000152
    68    -0.000044
    69     0.000001
    70     0.000000
    71    -0.000004
    72     0.000029
    73    -0.000009
    74    -0.000049
    75    -0.000105
    76     0.000787
    77     0.000628
    78    -0.000199
    79     0.000367
    80    -0.000234
    81    -0.000126
    82     0.000362
    83    -0.000210
    84     0.000150
    85     0.000045
    86    -0.000567
    87    -0.000219
    88    -0.000385
    89    -0.000239
    90     0.000136
    91    -0.000266
    92     0.000423
    93    -0.000012
    94     0.000046
    95    -0.000459
    96    -0.000004
    97    -0.000002
    98     0.000001
    99    -0.000148
   100    -0.000161
   101     0.000183
   102     0.000039
   103     0.000039
   104     0.000025
   105     0.000001
   106    -0.000000
   107     0.000007
   108    -0.000072
   109     0.000219
   110     0.000108
   111     0.000334
   112    -0.000134
   113     0.000016
   114     0.000086
   115     0.000187
   116     0.000090
   117     0.000049
   118    -0.000091
   119     0.000246
   120     0.001510
   121     0.000479
   122     0.000032
   123     0.000113
   124    -0.000074
   125     0.000110
   126     0.000022
   127    -0.000116
   128    -0.000410
   129    -0.000907
   130     0.000111
   131    -0.000066
   132     0.000257
   133     0.000219
   134     0.000062
   135    -0.000000
   136     0.000069
   137     0.000006
   138     0.000033
   139    -0.000153
   140    -0.000009
   141     0.000007
   142    -0.000001
   143    -0.000006
   144     0.000025
   145    -0.000012
   146     0.000016
   147    -0.000018
   148    -0.000011
   149    -0.000223
   150     0.000960
   151     0.000016
   152     0.000059
   153    -0.000210
   154    -0.000114
   155     0.000772
   156    -0.000030
   157    -0.000071
   158    -0.000114
   159    -0.000090
   160    -0.000028
   161    -0.000012
   162    -0.000023
   163     0.000002
   164    -0.000019
   165     0.000111
   166     0.000022
   167     0.000006
   168    -0.000000
   169     0.000044
   170     0.000030
   171    -0.000048
   172    -0.000016
   173    -0.000010
   174    -0.000012
   175    -0.000002
   176    -0.000002
   177    -0.000001
   178    -0.000064
   179     0.000246
   180     0.000002
   181     0.000013
   182     0.000003
Sym=    19a
Ene=   -0.378905E+01
Spin= Alpha
Occup= 1.999742
     1     0.000233
     2     0.000254
     3    -0.000004
     4    -0.000016
     5    -0.000053
     6     0.164817
     7     0.596227
     8    -0.009803
     9     0.006985
    10    -0.371850
    11     0.184209
    12     0.690603
    13    -0.018167
    14     0.009115
    15     0.028905
    16     0.003827
    17    -0.002058
    18    -0.005841
    19    -0.006029
    20    -0.004597
    21    -0.002452
    22     0.000749
    23     0.000480
    24    -0.000960
    25     0.000004
    26    -0.000019
    27    -0.001284
    28    -0.001950
    29    -0.000045
    30    -0.000012
    31     0.000293
    32    -0.000050
    33     0.000154
    34    -0.001204
    35     0.000310
    36    -0.000346
    37    -0.000304
    38     0.000788
    39    -0.000152
    40    -0.000463
    41     0.000045
    42    -0.000236
    43     0.000075
    44    -0.000006
    45     0.000085
    46     0.001462
    47    -0.000011
    48     0.000012
    49     0.000041
    50    -0.001349
    51    -0.000022
    52    -0.001270
    53    -0.000056
    54    -0.000068
    55    -0.000005
    56    -0.000081
    57    -0.000041
    58     0.000129
    59     0.000060
    60    -0.000844
    61     0.005867
    62     0.000228
    63    -0.000009
    64    -0.000184
    65     0.002088
    66     0.001816
    67    -0.001888
    68    -0.000036
    69    -0.000151
    70    -0.000128
    71     0.000077
    72     0.000111
    73    -0.000083
    74     0.000000
    75     0.000049
    76    -0.000766
    77    -0.001100
    78    -0.000136
    79     0.000131
    80    -0.000007
    81     0.000819
    82    -0.000904
    83     0.000056
    84     0.001011
    85    -0.000084
    86    -0.000106
    87    -0.000516
    88    -0.000605
    89    -0.000150
    90     0.000493
    91     0.000027
    92     0.000148
    93     0.000065
    94     0.000062
    95    -0.002450
    96     0.000079
    97    -0.000054
    98     0.000102
    99    -0.000086
   100    -0.001265
   101     0.001961
   102    -0.000027
   103    -0.000066
   104     0.000317
   105     0.000063
   106    -0.000084
   107    -0.000123
   108     0.001037
   109    -0.000419
   110    -0.000527
   111     0.000193
   112     0.001614
   113    -0.000048
   114    -0.001683
   115     0.007101
   116    -0.000754
   117    -0.000209
   118    -0.000327
   119    -0.004114
   120    -0.002033
   121    -0.002653
   122    -0.000756
   123    -0.000221
   124    -0.000340
   125    -0.000039
   126     0.000059
   127     0.000019
   128     0.000620
   129    -0.000297
   130     0.000150
   131    -0.000270
   132    -0.000010
   133     0.000241
   134     0.000586
   135    -0.000108
   136     0.000155
   137    -0.000120
   138     0.000296
   139     0.001472
   140     0.000083
   141     0.000158
   142    -0.000278
   143    -0.000001
   144    -0.001443
   145    -0.000010
   146     0.000012
   147     0.000056
   148     0.000009
   149     0.000007
   150    -0.002267
   151    -0.000060
   152     0.000154
   153     0.000055
   154     0.001333
   155    -0.000156
   156     0.000513
   157    -0.000088
   158    -0.000193
   159    -0.000113
   160     0.000122
   161    -0.000072
   162     0.000102
   163     0.000002
   164    -0.000090
   165     0.000470
   166     0.000015
   167     0.000044
   168     0.000030
   169     0.000079
   170     0.000167
   171     0.000091
   172    -0.000038
   173    -0.000026
   174    -0.000045
   175    -0.000007
   176     0.000001
   177    -0.000009
   178    -0.000628
   179    -0.002679
   180    -0.000343
   181    -0.000391
   182     0.000109
Sym=    20a
Ene=   -0.379823E+01
Spin= Alpha
Occup= 1.999733
     1    -0.000422
     2     0.000281
     3     0.000060
     4    -0.000030
     5     0.000139
     6     0.165900
     7     0.599281
     8    -0.010684
     9     0.005557
    10     0.311551
    11     0.578580
    12    -0.461894
    13     0.013942
    14     0.026896
    15    -0.020694
    16    -0.001439
    17    -0.003980
    18     0.003791
    19    -0.002339
    20    -0.007031
    21    -0.005239
    22    -0.000998
    23     0.001132
    24     0.001666
    25    -0.000015
    26    -0.000041
    27    -0.000044
    28     0.001356
    29    -0.000147
    30    -0.000039
    31     0.000067
    32     0.000058
    33    -0.000044
    34    -0.000039
    35    -0.000177
    36     0.000260
    37     0.000594
    38    -0.000226
    39    -0.000037
    40    -0.000006
    41    -0.000084
    42     0.000144
    43     0.000114
    44     0.000033
    45    -0.003065
    46     0.002344
    47     0.000291
    48     0.000419
    49    -0.000501
    50    -0.002999
    51     0.000431
    52    -0.000558
    53    -0.000657
    54     0.000398
    55     0.000088
    56     0.000363
    57    -0.000161
    58    -0.000606
    59    -0.000018
    60    -0.002139
    61     0.009327
    62     0.000154
    63     0.000521
    64     0.000196
    65     0.001276
    66     0.004823
    67     0.001765
    68    -0.000244
    69    -0.000192
    70    -0.000240
    71    -0.000038
    72     0.000103
    73     0.000142
    74     0.000003
    75     0.000021
    76     0.000129
    77    -0.001911
    78     0.000028
    79    -0.000028
    80     0.000004
    81     0.000096
    82    -0.000272
    83    -0.000025
    84     0.000668
    85    -0.000591
    86    -0.000151
    87     0.000084
    88    -0.000284
    89     0.000029
    90     0.000113
    91     0.000011
    92    -0.000147
    93     0.000088
    94    -0.000860
    95     0.006772
    96    -0.000060
    97     0.000379
    98    -0.000010
    99     0.000680
   100     0.000987
   101    -0.004629
   102    -0.000124
   103    -0.000133
   104    -0.000387
   105    -0.000138
   106    -0.000007
   107     0.000183
   108     0.000094
   109    -0.000108
   110     0.000011
   111    -0.000072
   112    -0.000033
   113     0.000077
   114    -0.000122
   115     0.000715
   116     0.000125
   117    -0.000159
   118     0.000091
   119     0.000469
   120    -0.001557
   121     0.000638
   122    -0.000104
   123    -0.000056
   124    -0.000095
   125     0.000034
   126    -0.000031
   127    -0.000025
   128     0.000171
   129    -0.000229
   130    -0.000084
   131     0.000181
   132    -0.000172
   133     0.000193
   134     0.000520
   135    -0.000064
   136     0.000186
   137     0.000009
   138    -0.000300
   139    -0.001872
   140     0.000086
   141    -0.000075
   142     0.000549
   143     0.000597
   144    -0.004252
   145     0.000121
   146    -0.000152
   147     0.000156
   148     0.000008
   149    -0.000053
   150    -0.001557
   151    -0.000140
   152     0.000169
   153     0.000047
   154     0.000572
   155    -0.000383
   156    -0.000443
   157    -0.000077
   158    -0.000240
   159    -0.000162
   160     0.000130
   161     0.000105
   162     0.000012
   163     0.000006
   164    -0.000028
   165     0.000304
   166    -0.000006
   167    -0.000018
   168     0.000007
   169     0.000219
   170     0.000122
   171     0.000005
   172    -0.000064
   173     0.000025
   174     0.000011
   175     0.000057
   176    -0.000054
   177    -0.000013
   178    -0.000246
   179    -0.001445
   180     0.000139
   181    -0.000509
   182    -0.000066
Sym=    21a
Ene=   -0.766021E+01
Spin= Alpha
Occup= 1.999592
     1     0.000210
     2     0.001183
     3     0.000038
     4    -0.000176
     5     0.000049
     6    -0.000026
     7    -0.000085
     8    -0.002127
     9    -0.001439
    10    -0.000046
    11    -0.000196
    12     0.000095
    13     0.000571
    14     0.002092
    15    -0.000886
    16     0.002307
    17     0.000646
    18     0.000222
    19    -0.000380
    20    -0.001458
    21    -0.000386
    22    -0.000027
    23     0.000200
    24     0.000648
    25     0.000003
    26     0.000037
    27     0.000028
    28    -0.000943
    29     0.000033
    30     0.000011
    31     0.000012
    32     0.000012
    33     0.000047
    34    -0.000110
    35     0.000668
    36    -0.000110
    37    -0.000052
    38    -0.000186
    39     0.000041
    40    -0.000094
    41    -0.000030
    42    -0.000020
    43    -0.000039
    44     0.995053
    45    -0.029831
    46     0.013006
    47     0.004694
    48     0.001127
    49     0.000603
    50    -0.004325
    51     0.001711
    52    -0.001611
    53    -0.001327
    54    -0.002996
    55    -0.002374
    56     0.000222
    57    -0.000189
    58     0.000947
    59     0.000592
    60    -0.000844
    61     0.011845
    62     0.001192
    63     0.000652
    64    -0.002067
    65    -0.001302
    66     0.000511
    67     0.006983
    68    -0.000182
    69    -0.000437
    70     0.000272
    71    -0.000021
    72    -0.000438
    73     0.000073
    74     0.000003
    75     0.000029
    76     0.000033
    77    -0.000160
    78     0.000030
    79     0.000003
    80     0.000056
    81    -0.000073
    82     0.000036
    83     0.000027
    84    -0.000000
    85    -0.000252
    86    -0.000010
    87     0.000072
    88    -0.000162
    89     0.000008
    90     0.000018
    91    -0.000073
    92    -0.000062
    93     0.000340
    94    -0.000816
    95     0.007388
    96    -0.000731
    97    -0.001644
    98    -0.000095
    99    -0.002506
   100    -0.004958
   101    -0.001387
   102    -0.000320
   103     0.000273
   104    -0.000344
   105     0.000294
   106    -0.000127
   107     0.000336
   108    -0.000239
   109     0.001899
   110     0.000078
   111    -0.000002
   112     0.000074
   113     0.000012
   114     0.000029
   115     0.000020
   116     0.000101
   117    -0.000006
   118    -0.000097
   119     0.000146
   120    -0.000203
   121    -0.000256
   122     0.000036
   123     0.000030
   124     0.000016
   125     0.000037
   126    -0.000005
   127    -0.000012
   128     0.000078
   129    -0.000331
   130     0.000003
   131     0.000006
   132     0.000038
   133    -0.000014
   134    -0.000743
   135     0.000081
   136    -0.000088
   137     0.000112
   138    -0.001121
   139    -0.001342
   140     0.000303
   141     0.000711
   142     0.000330
   143     0.004402
   144    -0.004113
   145    -0.000307
   146    -0.000023
   147     0.000091
   148    -0.000011
   149     0.000136
   150    -0.001861
   151    -0.000140
   152     0.000109
   153     0.000151
   154     0.001320
   155    -0.000961
   156    -0.001591
   157    -0.000148
   158    -0.000103
   159     0.000019
   160     0.000143
   161     0.000224
   162    -0.000142
   163     0.000481
   164    -0.000011
   165     0.007590
   166     0.000878
   167    -0.001781
   168     0.001582
   169    -0.001973
   170     0.004725
   171    -0.004192
   172    -0.000395
   173    -0.000454
   174    -0.000480
   175     0.000079
   176    -0.000058
   177     0.000089
   178    -0.000648
   179    -0.001459
   180     0.000439
   181    -0.000041
   182    -0.000578
Sym=    22a
Ene=   -0.879543E+00
Spin= Alpha
Occup= 1.989365
     1     0.000199
     2    -0.010624
     3    -0.000102
     4     0.000213
     5    -0.000105
     6    -0.000008
     7    -0.000166
     8     0.004996
     9    -0.015819
    10     0.000440
    11    -0.000925
    12    -0.002482
    13    -0.000234
    14     0.000530
    15     0.003488
    16    -0.016618
    17     0.018753
    18     0.005462
    19    -0.000333
    20    -0.000421
    21     0.001440
    22     0.000135
    23    -0.001084
    24    -0.001915
    25     0.000129
    26     0.000801
    27     0.001089
    28     0.007232
    29     0.000682
    30     0.000055
    31     0.000043
    32    -0.001279
    33    -0.000230
    34    -0.000053
    35    -0.003984
    36    -0.001292
    37     0.002627
    38     0.000755
    39    -0.000237
    40     0.000061
    41    -0.000029
    42     0.000269
    43    -0.000029
    44    -0.002290
    45    -0.020617
    46     0.026673
    47     0.016414
    48    -0.044551
    49    -0.029900
    50     0.005247
    51     0.026141
    52     0.062139
    53    -0.008676
    54    -0.018804
    55     0.021420
    56     0.009423
    57     0.005290
    58    -0.007191
    59     0.005423
    60     0.011641
    61     0.042533
    62     0.007716
    63     0.005705
    64    -0.016680
    65    -0.015442
    66    -0.005726
    67     0.025812
    68     0.001130
    69     0.000276
    70    -0.001139
    71    -0.000390
    72     0.000485
    73     0.001496
    74     0.000046
    75     0.000301
    76     0.000332
    77     0.001336
    78    -0.000140
    79     0.000040
    80    -0.000298
    81     0.000852
    82     0.000603
    83     0.000757
    84    -0.001222
    85    -0.002992
    86     0.002618
    87    -0.000615
    88    -0.000510
    89     0.000797
    90    -0.000137
    91    -0.001674
    92    -0.000588
    93    -0.004363
    94    -0.006623
    95    -0.034209
    96     0.002941
    97     0.013462
    98    -0.002607
    99     0.004801
   100     0.023676
   101    -0.002844
   102     0.000489
   103     0.001278
   104     0.000854
   105     0.000285
   106     0.000281
   107    -0.000396
   108     0.001418
   109     0.002035
   110    -0.000034
   111     0.000112
   112     0.000089
   113     0.000164
   114    -0.001136
   115     0.009894
   116    -0.000373
   117     0.000190
   118     0.000177
   119    -0.002289
   120    -0.003396
   121     0.000790
   122    -0.000313
   123    -0.000318
   124    -0.000270
   125    -0.000184
   126    -0.000100
   127    -0.000026
   128    -0.000504
   129     0.002198
   130    -0.000149
   131    -0.000047
   132    -0.000140
   133     0.002781
   134    -0.017772
   135     0.001171
   136    -0.000893
   137    -0.001911
   138     0.000919
   139    -0.015873
   140     0.000279
   141     0.001151
   142     0.000310
   143    -0.002734
   144    -0.005314
   145     0.000672
   146     0.000601
   147    -0.001354
   148     0.001275
   149     0.005749
   150     0.006357
   151     0.002084
   152     0.002823
   153    -0.002908
   154     0.005747
   155    -0.002498
   156    -0.007189
   157     0.001190
   158     0.000951
   159    -0.000350
   160     0.000085
   161     0.000668
   162     0.000423
   163     0.160066
   164     0.339666
   165     0.237484
   166     0.084898
   167    -0.206672
   168    -0.500066
   169    -0.061625
   170     0.145853
   171     0.353800
   172     0.006694
   173     0.012175
   174    -0.005921
   175    -0.004030
   176    -0.002731
   177     0.003239
   178    -0.002388
   179     0.014747
   180    -0.000414
   181    -0.000911
   182     0.001774
Sym=    23a
Ene=   -0.894613E+00
Spin= Alpha
Occup= 1.989344
     1     0.000977
     2     0.003530
     3     0.000074
     4     0.000246
     5    -0.000064
     6    -0.000089
     7    -0.000365
     8    -0.001023
     9     0.023682
    10    -0.000285
    11     0.001247
    12     0.001395
    13    -0.000399
    14    -0.002169
    15    -0.000562
    16     0.002993
    17    -0.017049
    18    -0.000447
    19    -0.000637
    20     0.000817
    21    -0.002668
    22     0.000814
    23     0.000937
    24    -0.003560
    25    -0.000052
    26    -0.000315
    27    -0.001630
    28     0.005134
    29    -0.000124
    30    -0.000236
    31     0.000142
    32     0.000419
    33     0.000418
    34    -0.000422
    35    -0.001432
    36    -0.000610
    37     0.001028
    38    -0.000036
    39    -0.000274
    40    -0.000106
    41    -0.000081
    42    -0.000029
    43     0.000177
    44    -0.005630
    45    -0.024146
    46     0.036376
    47     0.030990
    48     0.023634
    49     0.032925
    50    -0.060827
    51    -0.063376
    52    -0.010662
    53    -0.016660
    54     0.019397
    55    -0.013397
    56     0.002815
    57    -0.013485
    58    -0.005356
    59    -0.000129
    60    -0.000025
    61     0.004192
    62    -0.000458
    63    -0.001427
    64     0.001887
    65     0.007084
    66     0.006841
    67    -0.000486
    68     0.000314
    69     0.000620
    70    -0.000477
    71     0.000175
    72    -0.000527
    73     0.000037
    74     0.000099
    75     0.000462
    76     0.005296
    77    -0.016322
    78     0.000542
    79     0.000362
    80    -0.000376
    81    -0.002424
    82    -0.001535
    83     0.001205
    84     0.007124
    85    -0.001224
    86     0.000386
    87     0.001269
    88     0.000364
    89     0.001625
    90     0.000633
    91    -0.000638
    92    -0.000186
    93     0.006284
    94     0.011530
    95     0.047086
    96    -0.003018
    97    -0.017739
    98     0.002735
    99    -0.003809
   100    -0.026445
   101    -0.000657
   102     0.000139
   103    -0.002158
   104     0.000136
   105     0.000395
   106    -0.000394
   107     0.000924
   108    -0.000220
   109    -0.006933
   110    -0.000058
   111     0.000124
   112    -0.000037
   113     0.000005
   114    -0.000328
   115     0.000219
   116     0.000200
   117    -0.000435
   118    -0.000046
   119    -0.000235
   120    -0.001293
   121     0.001184
   122    -0.000105
   123    -0.000029
   124    -0.000188
   125     0.000045
   126     0.000087
   127    -0.000011
   128     0.000206
   129    -0.000496
   130     0.000053
   131     0.000079
   132    -0.000164
   133    -0.000448
   134     0.012646
   135    -0.000483
   136     0.000883
   137     0.000785
   138    -0.000824
   139    -0.000855
   140    -0.000039
   141    -0.001237
   142     0.000886
   143    -0.010134
   144    -0.078016
   145     0.001351
   146     0.002077
   147    -0.000964
   148    -0.000251
   149     0.001004
   150    -0.009144
   151    -0.001101
   152    -0.002277
   153    -0.000911
   154     0.000672
   155     0.003000
   156    -0.001150
   157     0.000333
   158     0.000143
   159    -0.000113
   160     0.000064
   161     0.000274
   162     0.000026
   163     0.165183
   164     0.346502
   165     0.256305
   166     0.266478
   167     0.460016
   168     0.105895
   169    -0.185330
   170    -0.320908
   171    -0.078147
   172     0.008369
   173    -0.006237
   174     0.008770
   175    -0.001164
   176     0.005861
   177     0.004023
   178     0.001201
   179    -0.019041
   180     0.000247
   181    -0.000292
   182    -0.000786
Sym=    24a
Ene=   -0.862719E+00
Spin= Alpha
Occup= 1.988741
     1     0.000430
     2    -0.013330
     3    -0.000183
     4     0.000002
     5    -0.000023
     6    -0.000001
     7    -0.000201
     8    -0.001753
     9    -0.027178
    10    -0.000048
    11     0.000145
    12     0.000825
    13     0.002534
    14    -0.000570
    15    -0.003504
    16    -0.016845
    17     0.023433
    18    -0.010652
    19    -0.000290
    20     0.001719
    21     0.000532
    22    -0.000777
    23     0.000052
    24     0.002787
    25    -0.000078
    26    -0.000527
    27    -0.001510
    28     0.002421
    29    -0.000431
    30     0.000211
    31    -0.000177
    32     0.000813
    33     0.000116
    34     0.000433
    35     0.000234
    36    -0.002698
    37     0.001925
    38    -0.000201
    39    -0.000165
    40     0.000453
    41     0.000558
    42    -0.000354
    43    -0.000473
    44    -0.000313
    45    -0.013003
    46     0.025263
    47    -0.031553
    48    -0.016968
    49     0.031648
    50     0.114355
    51     0.023337
    52    -0.032349
    53     0.017759
    54    -0.003879
    55    -0.012015
    56    -0.016300
    57     0.011729
    58     0.007785
    59    -0.005552
    60    -0.005537
    61    -0.083369
    62    -0.006033
    63    -0.003893
    64     0.013142
    65    -0.005714
    66     0.009605
    67    -0.039768
    68     0.000645
    69     0.000286
    70     0.002127
    71     0.000104
    72    -0.000301
    73    -0.000245
    74    -0.000134
    75    -0.000805
    76    -0.001752
    77     0.007747
    78    -0.000387
    79    -0.000505
    80     0.001094
    81     0.001103
    82     0.000785
    83    -0.002469
    84    -0.004043
    85     0.002153
    86    -0.001889
    87    -0.000856
    88     0.000125
    89    -0.000060
    90    -0.000443
    91     0.002766
    92     0.001030
    93    -0.002359
    94    -0.001394
    95    -0.034358
    96    -0.001243
    97     0.004115
    98    -0.001036
    99    -0.006306
   100     0.015284
   101    -0.000792
   102     0.001353
   103     0.001056
   104     0.000725
   105    -0.000433
   106     0.000571
   107     0.000421
   108    -0.000759
   109     0.002366
   110    -0.000033
   111    -0.000426
   112     0.000385
   113    -0.000097
   114    -0.000074
   115     0.002150
   116     0.000041
   117    -0.000085
   118     0.000058
   119    -0.002810
   120     0.001953
   121     0.000734
   122     0.000100
   123     0.000024
   124     0.000027
   125     0.000046
   126    -0.000014
   127     0.000073
   128    -0.000217
   129     0.005324
   130    -0.000067
   131    -0.000226
   132     0.000077
   133    -0.003427
   134     0.012659
   135    -0.000507
   136     0.001104
   137     0.001695
   138     0.000691
   139     0.005604
   140    -0.000663
   141    -0.000569
   142     0.000022
   143     0.016676
   144     0.103505
   145    -0.001882
   146    -0.000315
   147     0.000196
   148    -0.001013
   149    -0.004826
   150     0.008248
   151     0.001608
   152    -0.002697
   153     0.005730
   154    -0.014917
   155     0.010536
   156    -0.001716
   157    -0.000209
   158    -0.000912
   159     0.000638
   160    -0.000438
   161    -0.000933
   162    -0.000101
   163     0.152147
   164     0.320597
   165     0.232116
   166    -0.543651
   167     0.016278
   168     0.135916
   169     0.377505
   170    -0.015321
   171    -0.095615
   172    -0.002457
   173     0.004776
   174     0.008451
   175     0.007452
   176    -0.006073
   177    -0.003005
   178     0.000018
   179     0.000600
   180    -0.000154
   181    -0.000343
   182    -0.000724
Sym=    25a
Ene=   -0.755567E+00
Spin= Alpha
Occup= 1.984612
     1     0.005849
     2     0.041097
     3     0.000265
     4    -0.000308
     5     0.000076
     6    -0.000037
     7    -0.001689
     8    -0.037908
     9     0.109248
    10    -0.013849
    11     0.000315
    12    -0.007009
    13     0.014545
    14     0.003219
    15     0.012569
    16     0.077353
    17    -0.067274
    18     0.011505
    19    -0.014258
    20     0.000436
    21     0.019502
    22    -0.005237
    23     0.017068
    24    -0.005921
    25     0.000254
    26     0.001590
    27     0.004539
    28    -0.020137
    29    -0.000741
    30     0.000164
    31    -0.002001
    32     0.001312
    33    -0.000936
    34     0.003125
    35     0.006384
    36     0.001054
    37    -0.007268
    38     0.000189
    39     0.000081
    40    -0.000068
    41    -0.000810
    42     0.001959
    43    -0.000055
    44    -0.001347
    45     0.004512
    46    -0.043570
    47    -0.009924
    48     0.020334
    49    -0.011414
    50     0.022192
    51    -0.030945
    52     0.021922
    53     0.009284
    54    -0.007026
    55     0.001707
    56     0.011980
    57     0.006412
    58     0.008888
    59     0.000272
    60     0.003067
    61    -0.014334
    62    -0.002739
    63    -0.001858
    64     0.002563
    65    -0.010708
    66     0.003011
    67     0.001075
    68     0.000693
    69    -0.000078
    70     0.000935
    71     0.001319
    72     0.000653
    73    -0.000526
    74    -0.000099
    75    -0.000620
    76     0.002069
    77    -0.032939
    78    -0.000449
    79    -0.000377
    80     0.001322
    81     0.000371
    82     0.000477
    83    -0.002877
    84     0.019294
    85    -0.005977
    86    -0.004344
    87    -0.002344
    88     0.000827
    89     0.000785
    90     0.001818
    91     0.000506
    92    -0.000792
    93     0.150741
    94     0.326122
    95     0.225312
    96     0.454044
    97    -0.060987
    98     0.263881
    99     0.348938
   100    -0.040734
   101     0.213291
   102     0.000859
   103     0.013176
   104     0.011192
   105     0.001515
   106    -0.008218
   107     0.000759
   108    -0.000297
   109    -0.016873
   110    -0.000094
   111     0.000562
   112    -0.001152
   113    -0.003015
   114    -0.003826
   115    -0.031076
   116    -0.007418
   117    -0.001271
   118     0.005081
   119     0.020851
   120     0.002684
   121    -0.014505
   122     0.000717
   123    -0.000109
   124     0.000789
   125    -0.000108
   126    -0.000483
   127    -0.000081
   128    -0.000115
   129    -0.011823
   130     0.000402
   131     0.000014
   132     0.000158
   133     0.000982
   134    -0.002219
   135     0.000175
   136    -0.000498
   137    -0.000120
   138    -0.012496
   139    -0.007344
   140     0.016065
   141    -0.002152
   142     0.012681
   143     0.015928
   144     0.051108
   145    -0.001030
   146    -0.000440
   147    -0.000884
   148    -0.000996
   149    -0.000024
   150    -0.007439
   151    -0.000938
   152     0.001611
   153     0.002975
   154     0.004633
   155    -0.006380
   156    -0.005778
   157     0.000278
   158     0.000866
   159     0.000532
   160    -0.000349
   161    -0.000116
   162     0.000127
   163    -0.004786
   164    -0.006777
   165    -0.032746
   166     0.001154
   167     0.017280
   168    -0.003480
   169    -0.001332
   170    -0.017684
   171     0.006540
   172     0.001524
   173     0.001125
   174     0.001352
   175     0.000418
   176     0.000523
   177     0.000337
   178     0.001068
   179    -0.003509
   180    -0.000266
   181    -0.000098
   182     0.000448
Sym=    26a
Ene=   -0.866574E+00
Spin= Alpha
Occup= 1.983768
     1    -0.009201
     2    -0.045223
     3     0.001706
     4    -0.003088
     5     0.001991
     6     0.014231
     7     0.081927
     8     0.119328
     9    -0.050543
    10     0.026017
    11     0.014155
    12    -0.076779
    13    -0.035600
    14    -0.023659
    15     0.097111
    16    -0.061233
    17     0.033846
    18     0.041322
    19    -0.014130
    20    -0.016630
    21     0.054113
    22     0.011328
    23    -0.034699
    24    -0.012794
    25     0.000496
    26     0.003310
    27     0.007549
    28     0.008874
    29     0.000657
    30     0.000341
    31    -0.001486
    32    -0.001247
    33    -0.000524
    34     0.002994
    35    -0.004743
    36     0.001112
    37     0.005928
    38    -0.001028
    39     0.000048
    40    -0.000148
    41     0.000240
    42     0.002095
    43     0.000144
    44    -0.006707
    45    -0.011258
    46    -0.025284
    47     0.008830
    48     0.013636
    49     0.024997
    50     0.013161
    51    -0.008288
    52    -0.006960
    53    -0.003132
    54     0.002645
    55    -0.005288
    56    -0.002199
    57    -0.002235
    58    -0.011716
    59    -0.009104
    60    -0.016977
    61    -0.040407
    62    -0.000732
    63     0.014313
    64     0.008750
    65     0.002870
    66    -0.024128
    67    -0.023703
    68    -0.000744
    69     0.000717
    70    -0.001547
    71     0.000037
    72     0.000728
    73     0.000960
    74     0.000179
    75     0.001280
    76    -0.000648
    77     0.017203
    78    -0.000449
    79    -0.000366
    80    -0.000064
    81     0.002819
    82     0.000058
    83     0.000016
    84    -0.008363
    85     0.004447
    86     0.000244
    87    -0.001498
    88    -0.000704
    89    -0.000520
    90     0.001175
    91     0.000328
    92    -0.001496
    93     0.152018
    94     0.308071
    95     0.254411
    96     0.029320
    97     0.256193
    98    -0.415684
    99     0.013103
   100     0.188556
   101    -0.305972
   102     0.002561
   103     0.005096
   104     0.013384
   105    -0.002688
   106     0.003132
   107    -0.003823
   108     0.000801
   109     0.020565
   110     0.001143
   111    -0.000844
   112    -0.001982
   113    -0.003136
   114    -0.010846
   115     0.016484
   116    -0.010218
   117    -0.001290
   118     0.005861
   119    -0.001094
   120    -0.003067
   121    -0.004552
   122     0.001063
   123    -0.001670
   124    -0.000880
   125     0.000166
   126    -0.001632
   127     0.000020
   128    -0.000556
   129     0.009489
   130     0.000629
   131    -0.000103
   132    -0.000870
   133    -0.000524
   134    -0.004903
   135    -0.000074
   136     0.000247
   137    -0.000315
   138    -0.021519
   139    -0.028173
   140    -0.001570
   141     0.011105
   142    -0.012210
   143    -0.001600
   144     0.017616
   145     0.000170
   146    -0.000268
   147    -0.000542
   148     0.001170
   149     0.000360
   150     0.016600
   151     0.002079
   152    -0.001109
   153    -0.001687
   154    -0.003024
   155     0.010393
   156     0.004683
   157     0.000125
   158    -0.000908
   159    -0.000322
   160     0.000495
   161     0.000053
   162     0.000257
   163     0.003958
   164     0.008478
   165     0.013000
   166     0.003269
   167    -0.014532
   168     0.000783
   169    -0.003053
   170     0.016671
   171    -0.000529
   172     0.000147
   173    -0.000966
   174     0.000109
   175    -0.000008
   176    -0.000044
   177    -0.000165
   178     0.002972
   179     0.013416
   180    -0.000406
   181    -0.000603
   182     0.000058
Sym=    27a
Ene=   -0.726031E+00
Spin= Alpha
Occup= 1.980356
     1     0.000698
     2     0.004719
     3     0.000643
     4    -0.000981
     5     0.000256
     6     0.001217
     7     0.008128
     8     0.020294
     9    -0.004731
    10     0.000737
    11     0.003580
    12     0.000227
    13    -0.002387
    14    -0.011638
    15     0.000713
    16     0.002104
    17    -0.009078
    18     0.004183
    19     0.000744
    20     0.004229
    21    -0.000885
    22     0.006589
    23    -0.000743
    24     0.002855
    25     0.000050
    26     0.000148
    27    -0.000681
    28    -0.032418
    29    -0.002569
    30     0.011237
    31    -0.001343
    32     0.006375
    33    -0.020035
    34     0.002730
    35    -0.006274
    36    -0.012042
    37    -0.010184
    38    -0.001947
    39     0.002300
    40    -0.001499
    41     0.001007
    42     0.000641
    43    -0.005242
    44     0.004291
    45     0.020790
    46    -0.017312
    47    -0.008137
    48    -0.001975
    49     0.014958
    50    -0.025444
    51    -0.001493
    52    -0.001945
    53     0.000519
    54     0.001818
    55     0.003008
    56     0.000390
    57    -0.000887
    58    -0.002080
    59     0.005659
    60     0.014034
    61     0.053634
    62    -0.006452
    63    -0.000377
    64     0.003487
    65     0.030424
    66    -0.000599
    67     0.010079
    68    -0.006058
    69     0.007684
    70     0.001925
    71    -0.004867
    72    -0.010139
    73     0.003610
    74    -0.020359
    75    -0.125062
    76    -0.189954
    77     0.063570
    78    -0.081041
    79    -0.044103
    80     0.038293
    81     0.136639
    82     0.074028
    83    -0.070491
    84     0.034770
    85     0.040843
    86    -0.079848
    87    -0.058052
    88     0.020969
    89     0.017929
    90    -0.043773
    91     0.039984
    92     0.017829
    93    -0.000249
    94    -0.001321
    95     0.000907
    96     0.003808
    97    -0.000572
    98     0.003242
    99     0.005004
   100    -0.003052
   101     0.005337
   102    -0.000691
   103    -0.000327
   104     0.000068
   105     0.000199
   106    -0.000011
   107     0.000255
   108    -0.000947
   109     0.005677
   110     0.000166
   111    -0.001131
   112     0.000421
   113     0.008310
   114     0.018750
   115     0.014573
   116     0.000376
   117     0.023289
   118    -0.009382
   119    -0.005868
   120    -0.026526
   121     0.013910
   122     0.002624
   123    -0.002569
   124     0.001345
   125    -0.000789
   126    -0.000418
   127     0.001714
   128    -0.002761
   129    -0.003938
   130    -0.000033
   131    -0.001919
   132     0.000917
   133     0.021408
   134     0.044532
   135    -0.007922
   136    -0.003527
   137    -0.011546
   138     0.000741
   139     0.005080
   140     0.000459
   141     0.000172
   142     0.000149
   143    -0.000128
   144    -0.015915
   145    -0.000191
   146     0.000080
   147    -0.000225
   148    -0.138237
   149    -0.286064
   150    -0.225306
   151     0.250302
   152     0.224853
   153     0.296385
   154    -0.152410
   155    -0.175052
   156    -0.260182
   157    -0.015161
   158    -0.011135
   159    -0.010718
   160    -0.005531
   161    -0.002537
   162    -0.003661
   163     0.001687
   164     0.002737
   165     0.009914
   166    -0.007523
   167    -0.001706
   168     0.003600
   169     0.007679
   170     0.002643
   171    -0.002229
   172    -0.000944
   173    -0.000136
   174    -0.000129
   175     0.000150
   176     0.000281
   177     0.000034
   178    -0.032853
   179    -0.031156
   180     0.001254
   181    -0.000259
   182    -0.000653
Sym=    28a
Ene=   -0.928667E+00
Spin= Alpha
Occup= 1.980178
     1    -0.002015
     2     0.006561
     3     0.000025
     4     0.000021
     5     0.000045
     6     0.000599
     7     0.003792
     8     0.005247
     9     0.018651
    10     0.000358
    11     0.000374
    12    -0.000420
    13    -0.000985
    14     0.000237
    15     0.000003
    16     0.009537
    17    -0.017996
    18     0.007309
    19     0.000993
    20    -0.000463
    21     0.000703
    22    -0.001598
    23    -0.000181
    24     0.004049
    25    -0.000091
    26    -0.000531
    27    -0.000679
    28    -0.004452
    29    -0.000553
    30    -0.000067
    31    -0.000073
    32     0.000980
    33    -0.000029
    34     0.000021
    35     0.002278
    36     0.002940
    37    -0.001803
    38    -0.000269
    39    -0.000509
    40     0.000000
    41    -0.000127
    42    -0.000047
    43     0.000346
    44     0.097848
    45     0.207725
    46    -0.088685
    47    -0.113602
    48     0.195805
    49    -0.183054
    50    -0.025120
    51    -0.006222
    52     0.002603
    53    -0.008140
    54     0.023676
    55     0.017738
    56    -0.031884
    57     0.026876
    58    -0.046379
    59    -0.004080
    60    -0.011882
    61     0.013180
    62    -0.007640
    63    -0.005842
    64     0.015121
    65     0.005236
    66     0.006602
    67    -0.005729
    68    -0.002221
    69    -0.000863
    70     0.003877
    71     0.001238
    72    -0.000366
    73    -0.001789
    74    -0.000030
    75    -0.000137
    76    -0.002411
    77     0.003886
    78    -0.000170
    79     0.000041
    80     0.000151
    81     0.001038
    82     0.000040
    83    -0.000471
    84    -0.002378
    85     0.002653
    86    -0.001042
    87    -0.000663
    88    -0.000031
    89    -0.000344
    90    -0.000588
    91     0.000794
    92     0.000113
    93    -0.005171
    94    -0.014813
    95     0.008613
    96    -0.002487
    97     0.017948
    98    -0.007503
    99    -0.004897
   100     0.008311
   101    -0.013946
   102    -0.001938
   103     0.002964
   104    -0.001926
   105    -0.000189
   106    -0.000460
   107    -0.000845
   108    -0.001026
   109    -0.000724
   110    -0.000043
   111    -0.000036
   112    -0.000144
   113    -0.000244
   114     0.000776
   115    -0.009098
   116    -0.000738
   117     0.000320
   118     0.000118
   119     0.003822
   120     0.002892
   121    -0.001675
   122     0.000272
   123     0.000217
   124     0.000241
   125     0.000062
   126     0.000009
   127     0.000086
   128     0.000488
   129    -0.003786
   130     0.000193
   131     0.000074
   132     0.000198
   133     0.000209
   134    -0.000382
   135    -0.000589
   136    -0.000157
   137     0.000065
   138     0.001240
   139     0.012105
   140     0.000304
   141     0.001161
   142    -0.000784
   143    -0.008106
   144    -0.014521
   145     0.005845
   146    -0.002510
   147     0.002899
   148    -0.001298
   149    -0.004837
   150     0.001796
   151    -0.003941
   152     0.001938
   153     0.002602
   154     0.002239
   155    -0.005197
   156     0.004990
   157    -0.000715
   158    -0.000341
   159     0.000168
   160    -0.000134
   161    -0.000117
   162    -0.000336
   163     0.093362
   164     0.191095
   165     0.028998
   166     0.210498
   167    -0.372667
   168     0.343377
   169    -0.114949
   170     0.207072
   171    -0.191230
   172     0.000232
   173     0.010278
   174     0.008436
   175    -0.008445
   176     0.007937
   177    -0.014893
   178     0.002255
   179     0.007630
   180     0.000719
   181     0.000668
   182    -0.001315
Sym=    29a
Ene=   -0.746076E+00
Spin= Alpha
Occup= 1.979037
     1     0.005598
     2     0.020891
     3    -0.000996
     4     0.001343
     5    -0.000707
     6    -0.001287
     7    -0.009175
     8    -0.019400
     9     0.001051
    10     0.003374
    11     0.016164
    12    -0.004646
    13    -0.011011
    14    -0.019742
    15     0.007393
    16    -0.011168
    17    -0.022521
    18     0.006661
    19    -0.000817
    20     0.002225
    21    -0.004824
    22    -0.022191
    23     0.010816
    24     0.000204
    25     0.000638
    26     0.002686
    27     0.005408
    28    -0.048544
    29    -0.006131
    30     0.025205
    31    -0.005142
    32     0.011424
    33    -0.042722
    34     0.003719
    35     0.008337
    36    -0.013557
    37    -0.033971
    38    -0.006476
    39    -0.000207
    40     0.003260
    41     0.002784
    42     0.010039
    43    -0.024306
    44     0.000124
    45    -0.000408
    46    -0.007284
    47    -0.000740
    48     0.000837
    49     0.001238
    50    -0.002733
    51    -0.001747
    52     0.001692
    53    -0.000028
    54    -0.000058
    55     0.000075
    56     0.000223
    57    -0.000148
    58    -0.000297
    59    -0.003878
    60    -0.007116
    61    -0.018131
    62     0.007306
    63     0.005911
    64    -0.001496
    65    -0.011092
    66    -0.009748
    67     0.002955
    68    -0.000437
    69     0.000346
    70    -0.000093
    71     0.000345
    72    -0.000057
    73     0.000160
    74     0.021697
    75     0.132250
    76     0.182521
    77    -0.004264
    78     0.033818
    79    -0.100835
    80    -0.009942
    81    -0.055667
    82     0.171548
    83     0.018178
    84    -0.038295
    85     0.090003
    86     0.004090
    87    -0.016213
    88     0.063865
    89    -0.016437
    90    -0.053773
    91    -0.002211
    92     0.011299
    93    -0.001042
    94    -0.002662
    95    -0.000581
    96    -0.002866
    97    -0.000557
    98     0.000026
    99    -0.004266
   100    -0.000759
   101    -0.001789
   102     0.000072
   103    -0.000294
   104     0.000108
   105    -0.000261
   106    -0.000059
   107     0.000025
   108     0.000288
   109     0.021750
   110     0.000544
   111    -0.000753
   112    -0.000870
   113     0.124549
   114     0.253874
   115     0.192207
   116    -0.128641
   117     0.392733
   118    -0.067547
   119     0.098765
   120    -0.314606
   121     0.059886
   122     0.009680
   123     0.019133
   124     0.006153
   125    -0.006202
   126    -0.001706
   127     0.003879
   128    -0.015858
   129    -0.025210
   130     0.004702
   131    -0.009812
   132     0.003803
   133     0.011577
   134     0.020370
   135    -0.001237
   136    -0.000885
   137    -0.000627
   138     0.000738
   139     0.000185
   140    -0.000064
   141     0.000113
   142     0.000228
   143    -0.000713
   144    -0.003856
   145    -0.000076
   146    -0.000019
   147    -0.000046
   148    -0.010738
   149    -0.021777
   150    -0.034586
   151     0.018972
   152     0.012660
   153     0.005008
   154    -0.020204
   155    -0.018303
   156    -0.009528
   157    -0.000792
   158     0.002697
   159    -0.001184
   160     0.003569
   161     0.000033
   162    -0.000110
   163    -0.000081
   164    -0.000037
   165    -0.000536
   166     0.000496
   167    -0.000418
   168    -0.000848
   169    -0.000774
   170     0.000523
   171     0.000969
   172     0.000021
   173     0.000081
   174     0.000103
   175    -0.000011
   176     0.000011
   177     0.000035
   178     0.000653
   179    -0.002258
   180     0.000092
   181    -0.000419
   182    -0.000148
Sym=    30a
Ene=   -0.716237E+00
Spin= Alpha
Occup= 1.978995
     1    -0.001071
     2    -0.010600
     3     0.001050
     4    -0.001480
     5     0.000413
     6     0.001151
     7     0.005633
     8     0.005768
     9    -0.021123
    10    -0.010507
    11    -0.006965
    12     0.016562
    13     0.005623
    14     0.009964
    15    -0.018212
    16    -0.011652
    17     0.017563
    18    -0.010990
    19     0.002328
    20    -0.007624
    21    -0.002308
    22     0.013278
    23    -0.021848
    24    -0.001404
    25     0.019592
    26     0.119317
    27     0.161456
    28     0.014494
    29    -0.001268
    30    -0.006932
    31    -0.098663
    32     0.007326
    33     0.014730
    34     0.168355
    35     0.000553
    36     0.009597
    37     0.101985
    38    -0.030527
    39    -0.017691
    40     0.079852
    41    -0.007786
    42    -0.014105
    43    -0.000025
    44    -0.000550
    45    -0.000637
    46     0.001533
    47     0.000612
    48     0.000028
    49    -0.000565
    50     0.011961
    51    -0.000131
    52     0.000447
    53    -0.000103
    54     0.000199
    55    -0.000097
    56    -0.000035
    57     0.000202
    58    -0.000096
    59     0.001066
    60     0.001961
    61     0.014191
    62    -0.000750
    63    -0.000728
    64     0.001258
    65     0.002603
    66     0.006505
    67    -0.005246
    68     0.000276
    69     0.000082
    70     0.000019
    71    -0.000218
    72     0.000381
    73    -0.000381
    74     0.000924
    75     0.004249
    76     0.010417
    77    -0.054614
    78    -0.000430
    79    -0.007332
    80     0.024906
    81     0.002775
    82     0.006712
    83    -0.043026
    84     0.022619
    85    -0.026589
    86    -0.011211
    87    -0.006860
    88     0.009261
    89    -0.005024
    90     0.003933
    91     0.008424
    92    -0.029920
    93     0.003176
    94     0.007559
    95     0.009360
    96     0.005697
    97     0.002530
    98    -0.002135
    99     0.007213
   100     0.003263
   101    -0.001754
   102    -0.000465
   103     0.000589
   104     0.000412
   105    -0.000044
   106     0.000531
   107     0.000023
   108    -0.031367
   109    -0.057404
   110     0.001231
   111     0.000750
   112    -0.000119
   113     0.114500
   114     0.228258
   115     0.199445
   116    -0.039575
   117    -0.123686
   118     0.410261
   119     0.031687
   120     0.104135
   121    -0.341423
   122     0.006542
   123     0.003539
   124     0.020803
   125    -0.001050
   126    -0.003846
   127     0.000866
   128    -0.015379
   129    -0.025286
   130     0.001776
   131     0.005326
   132    -0.010268
   133    -0.001289
   134    -0.003237
   135     0.000513
   136     0.000364
   137     0.001151
   138    -0.002288
   139    -0.001247
   140     0.000535
   141     0.000234
   142    -0.000295
   143     0.000520
   144     0.011605
   145     0.000159
   146     0.000026
   147    -0.000049
   148     0.001635
   149     0.003451
   150     0.019413
   151    -0.004559
   152    -0.004481
   153    -0.016517
   154     0.010256
   155     0.006695
   156     0.017561
   157     0.000858
   158    -0.000390
   159     0.000344
   160    -0.000164
   161    -0.000571
   162    -0.000949
   163     0.000013
   164     0.000293
   165    -0.001854
   166     0.000067
   167    -0.000465
   168    -0.000244
   169    -0.000208
   170     0.000208
   171     0.000211
   172     0.000111
   173     0.000050
   174     0.000033
   175    -0.000000
   176    -0.000032
   177     0.000008
   178     0.000592
   179     0.001179
   180    -0.000273
   181     0.000025
   182     0.000184
Sym=    31a
Ene=   -0.869328E+00
Spin= Alpha
Occup= 1.978881
     1    -0.004093
     2    -0.014280
     3    -0.000011
     4    -0.000036
     5     0.000133
     6     0.002016
     7     0.013288
     8     0.017314
     9     0.014176
    10    -0.003776
    11    -0.005958
    12    -0.008646
    13     0.004324
    14     0.008097
    15     0.014238
    16    -0.007063
    17     0.008084
    18     0.029293
    19    -0.006478
    20    -0.004437
    21     0.013647
    22    -0.005375
    23     0.004608
    24     0.011964
    25     0.000166
    26     0.001026
    27     0.001700
    28     0.000430
    29    -0.000314
    30     0.000737
    31    -0.001127
    32     0.000673
    33    -0.001357
    34     0.001998
    35    -0.000086
    36    -0.001348
    37     0.003880
    38    -0.000364
    39     0.000183
    40     0.000614
    41     0.000193
    42     0.000799
    43    -0.000533
    44    -0.073345
    45    -0.128943
    46    -0.028745
    47     0.071919
    48     0.216573
    49     0.073288
    50     0.023871
    51    -0.022742
    52    -0.007358
    53     0.009996
    54    -0.054640
    55     0.008467
    56    -0.024077
    57    -0.002251
    58    -0.021112
    59     0.009732
    60     0.018828
    61     0.040967
    62     0.004952
    63    -0.009045
    64    -0.016713
    65    -0.004234
    66     0.025705
    67     0.019803
    68     0.001498
    69     0.002279
    70    -0.002017
    71     0.000937
    72     0.000286
    73    -0.001877
    74    -0.000012
    75    -0.000113
    76     0.000009
    77    -0.002194
    78    -0.000065
    79    -0.000364
    80     0.001355
    81    -0.000188
    82     0.000373
    83    -0.002442
    84     0.000519
    85    -0.001258
    86    -0.003635
    87     0.000013
    88    -0.000013
    89    -0.000141
    90     0.000956
    91     0.000670
    92    -0.000924
    93    -0.131794
    94    -0.275229
    95    -0.157722
    96     0.222385
    97     0.432325
    98     0.065327
    99     0.153405
   100     0.277279
   101     0.037803
   102    -0.008684
   103    -0.011117
   104    -0.004628
   105    -0.009959
   106    -0.002675
   107    -0.004746
   108    -0.000145
   109     0.009284
   110     0.000142
   111    -0.000188
   112    -0.000052
   113    -0.002137
   114    -0.005782
   115    -0.002719
   116    -0.006305
   117     0.000287
   118     0.002909
   119     0.006571
   120    -0.002392
   121    -0.003833
   122    -0.000124
   123    -0.000762
   124    -0.000233
   125    -0.000021
   126    -0.000592
   127     0.000098
   128    -0.000339
   129     0.000005
   130     0.000228
   131    -0.000035
   132    -0.000265
   133     0.001662
   134    -0.006185
   135     0.000117
   136    -0.000235
   137     0.000147
   138     0.021560
   139     0.023230
   140     0.010054
   141     0.015028
   142     0.000458
   143     0.016063
   144     0.056968
   145    -0.004232
   146    -0.002064
   147    -0.001331
   148    -0.000484
   149     0.000015
   150    -0.004545
   151    -0.001680
   152     0.000698
   153    -0.000850
   154     0.003872
   155    -0.006245
   156    -0.005862
   157     0.000121
   158     0.000440
   159    -0.000006
   160    -0.000114
   161    -0.000652
   162    -0.000088
   163     0.004711
   164     0.010815
   165     0.003150
   166    -0.005344
   167    -0.028114
   168    -0.005715
   169     0.005287
   170     0.031351
   171     0.012247
   172     0.000980
   173    -0.002627
   174     0.000970
   175     0.000298
   176     0.000909
   177     0.000836
   178    -0.010449
   179    -0.004669
   180    -0.000906
   181    -0.000310
   182     0.001420
Sym=    32a
Ene=   -0.736028E+00
Spin= Alpha
Occup= 1.978343
     1     0.010500
     2     0.020835
     3     0.000806
     4     0.003253
     5     0.000519
     6    -0.018638
     7    -0.109088
     8    -0.136510
     9    -0.018611
    10    -0.016515
    11    -0.095296
    12    -0.015954
    13     0.024945
    14     0.138399
    15     0.022663
    16     0.021547
    17     0.053369
    18     0.014701
    19     0.017012
    20    -0.081029
    21     0.013467
    22    -0.019438
    23    -0.003360
    24    -0.015566
    25     0.001210
    26     0.007682
    27     0.014660
    28    -0.010580
    29     0.006989
    30     0.000571
    31     0.001697
    32    -0.013388
    33    -0.001092
    34    -0.002243
    35    -0.013262
    36     0.001612
    37    -0.007165
    38     0.003538
    39    -0.000079
    40    -0.001562
    41    -0.000814
    42    -0.001182
    43     0.000829
    44     0.003691
    45     0.003240
    46     0.055362
    47    -0.005439
    48     0.025339
    49     0.014729
    50     0.002032
    51     0.009386
    52    -0.020798
    53     0.000941
    54    -0.000089
    55     0.001268
    56    -0.004761
    57     0.001094
    58     0.012063
    59    -0.142831
    60    -0.294548
    61    -0.244066
    62     0.094047
    63     0.437324
    64    -0.096939
    65    -0.074830
    66    -0.334361
    67     0.082297
    68    -0.010480
    69    -0.018580
    70    -0.009152
    71    -0.002399
    72     0.000608
    73     0.000446
    74     0.002753
    75     0.017801
    76     0.028142
    77     0.019471
    78     0.008998
    79     0.003182
    80    -0.000532
    81    -0.017542
    82    -0.007115
    83     0.001127
    84    -0.023680
    85     0.002059
    86    -0.001977
    87     0.004137
    88    -0.001379
    89    -0.000363
    90     0.002693
    91     0.000142
    92     0.001315
    93     0.012189
    94     0.023042
    95     0.055974
    96    -0.005847
    97    -0.006101
    98    -0.023181
    99    -0.004199
   100    -0.013377
   101    -0.039135
   102     0.000208
   103     0.001276
   104    -0.001697
   105     0.000854
   106     0.001213
   107    -0.000726
   108     0.007799
   109     0.023280
   110     0.001282
   111     0.002072
   112    -0.001604
   113     0.004846
   114     0.009934
   115     0.016547
   116     0.011336
   117     0.002670
   118    -0.005286
   119    -0.012635
   120    -0.002946
   121     0.007483
   122    -0.002940
   123     0.001157
   124     0.001002
   125    -0.001939
   126     0.000175
   127    -0.000174
   128    -0.005099
   129    -0.013933
   130    -0.000836
   131    -0.000054
   132     0.000600
   133    -0.026261
   134    -0.036137
   135    -0.000508
   136     0.000218
   137    -0.000140
   138    -0.010241
   139    -0.014478
   140     0.000118
   141     0.000410
   142    -0.001188
   143    -0.002110
   144    -0.020494
   145     0.000101
   146    -0.001037
   147    -0.000297
   148     0.003944
   149     0.010528
   150     0.037674
   151    -0.005362
   152     0.001703
   153     0.000230
   154    -0.004137
   155     0.027668
   156    -0.005699
   157     0.007889
   158    -0.008912
   159     0.002308
   160     0.009500
   161    -0.002571
   162     0.001672
   163    -0.002943
   164    -0.006212
   165    -0.009848
   166    -0.003697
   167     0.000743
   168    -0.012935
   169     0.000873
   170    -0.001864
   171     0.015924
   172    -0.000116
   173    -0.000242
   174     0.000723
   175     0.000042
   176     0.000085
   177    -0.000008
   178     0.014455
   179     0.033535
   180    -0.001459
   181    -0.011764
   182     0.005450
Sym=    33a
Ene=   -0.652390E+00
Spin= Alpha
Occup= 1.978079
     1     0.003111
     2     0.006997
     3     0.000497
     4    -0.000463
     5     0.000016
     6    -0.000888
     7    -0.005601
     8    -0.001926
     9    -0.028008
    10     0.000673
    11    -0.002938
    12    -0.001555
    13    -0.001547
    14     0.004517
    15     0.004125
    16    -0.002150
    17     0.011606
    18     0.005193
    19     0.002823
    20    -0.001340
    21    -0.002675
    22     0.002896
    23    -0.002274
    24     0.001078
    25    -0.000163
    26    -0.001656
    27    -0.013006
    28     0.003331
    29    -0.001407
    30     0.011159
    31    -0.000378
    32     0.004338
    33    -0.017742
    34     0.000009
    35    -0.013263
    36    -0.016801
    37     0.001105
    38    -0.004258
    39     0.007595
    40    -0.002529
    41     0.003929
    42    -0.002388
    43    -0.005699
    44     0.007923
    45     0.027603
    46     0.002329
    47    -0.011517
    48    -0.000077
    49     0.029732
    50    -0.010285
    51    -0.000837
    52    -0.014478
    53    -0.000036
    54     0.002746
    55     0.005286
    56     0.000206
    57    -0.000102
    58    -0.001357
    59    -0.000627
    60    -0.004271
    61    -0.017185
    62     0.002997
    63     0.005763
    64     0.002577
    65    -0.016469
    66    -0.005289
    67     0.025907
    68     0.001190
    69    -0.002060
    70    -0.000942
    71    -0.001453
    72    -0.014971
    73     0.005132
    74     0.012519
    75     0.075540
    76     0.095968
    77     0.020770
    78     0.055321
    79     0.029442
    80     0.048762
    81    -0.092865
    82    -0.049515
    83    -0.085020
    84    -0.066490
    85    -0.010825
    86    -0.097297
    87     0.036724
    88    -0.005343
    89    -0.017053
    90     0.033083
    91     0.047739
    92     0.019042
    93     0.000534
    94     0.000787
    95     0.003615
    96     0.003263
    97    -0.000774
    98     0.001342
    99     0.004071
   100     0.000041
   101     0.003199
   102    -0.000518
   103     0.000060
   104     0.000346
   105     0.000088
   106     0.000189
   107     0.000438
   108    -0.008484
   109    -0.008255
   110     0.000077
   111    -0.001537
   112    -0.000038
   113    -0.004116
   114    -0.004502
   115    -0.032609
   116     0.004076
   117    -0.009988
   118    -0.007646
   119    -0.002476
   120     0.013731
   121     0.012535
   122    -0.000423
   123     0.001708
   124    -0.000113
   125     0.000387
   126     0.000233
   127     0.002507
   128     0.009311
   129     0.018674
   130    -0.000715
   131    -0.000182
   132     0.000283
   133    -0.018805
   134    -0.016289
   135     0.001745
   136    -0.002899
   137    -0.013773
   138    -0.000605
   139     0.005398
   140     0.000364
   141     0.000327
   142     0.000369
   143    -0.002903
   144    -0.017602
   145     0.000144
   146    -0.000195
   147    -0.000709
   148     0.134110
   149     0.283440
   150     0.192240
   151    -0.109793
   152    -0.021112
   153     0.453852
   154     0.047695
   155    -0.001911
   156    -0.391217
   157     0.016376
   158     0.011281
   159     0.007812
   160     0.003818
   161    -0.002384
   162    -0.004074
   163     0.002780
   164     0.005737
   165     0.009932
   166    -0.008159
   167    -0.000969
   168     0.004806
   169     0.006663
   170     0.002288
   171    -0.002693
   172    -0.000898
   173    -0.000006
   174     0.000056
   175     0.000305
   176     0.000635
   177    -0.000202
   178    -0.029380
   179    -0.012584
   180     0.001781
   181    -0.001229
   182     0.000922
Sym=    34a
Ene=   -0.702584E+00
Spin= Alpha
Occup= 1.977340
     1     0.013144
     2     0.025422
     3    -0.003754
     4     0.000289
     5    -0.000417
     6    -0.021729
     7    -0.129188
     8    -0.160699
     9     0.008021
    10     0.108605
    11     0.006693
    12     0.006842
    13    -0.148980
    14    -0.010202
    15    -0.009980
    16    -0.053346
    17    -0.027418
    18     0.000662
    19    -0.080368
    20     0.023998
    21     0.024765
    22    -0.002331
    23    -0.006004
    24    -0.003108
    25     0.004033
    26     0.025738
    27     0.035864
    28     0.004173
    29    -0.007339
    30     0.007739
    31    -0.017105
    32     0.010955
    33    -0.014874
    34     0.028993
    35    -0.010497
    36    -0.007304
    37     0.042566
    38    -0.003313
    39    -0.001681
    40     0.008527
    41     0.001208
    42     0.017816
    43    -0.009398
    44    -0.000784
    45     0.002091
    46    -0.003881
    47    -0.001619
    48    -0.000524
    49     0.002734
    50     0.004997
    51    -0.001913
    52    -0.001350
    53     0.001503
    54     0.000992
    55     0.000412
    56     0.001010
    57    -0.000093
    58    -0.002463
    59     0.004068
    60     0.011979
    61    -0.006014
    62    -0.003052
    63    -0.017324
    64     0.002977
    65    -0.001059
    66     0.013990
    67    -0.011411
    68     0.000998
    69    -0.001351
    70     0.001368
    71    -0.002098
    72     0.000166
    73    -0.000703
    74     0.004462
    75     0.028393
    76     0.046569
    77    -0.041499
    78    -0.003180
    79    -0.022980
    80     0.006804
    81     0.004718
    82     0.038529
    83    -0.013065
    84     0.004880
    85     0.025095
    86     0.000995
    87    -0.014809
    88     0.019004
    89    -0.003184
    90     0.010878
    91     0.005803
    92    -0.012478
    93     0.006291
    94     0.015610
    95     0.011213
    96     0.013217
    97     0.007786
    98    -0.006338
    99     0.012277
   100     0.010735
   101     0.001552
   102    -0.000406
   103     0.001250
   104     0.000112
   105    -0.000810
   106     0.001896
   107     0.000552
   108     0.018622
   109     0.032900
   110     0.001808
   111     0.000282
   112     0.000762
   113    -0.137879
   114    -0.285433
   115    -0.203182
   116    -0.411901
   117     0.045511
   118     0.128163
   119     0.325330
   120    -0.041541
   121    -0.110814
   122    -0.017830
   123    -0.010269
   124    -0.008448
   125    -0.000667
   126    -0.002096
   127     0.001273
   128     0.017554
   129     0.023989
   130     0.010485
   131    -0.003553
   132    -0.005623
   133    -0.000251
   134     0.003343
   135     0.000801
   136     0.000527
   137     0.000358
   138    -0.006074
   139    -0.008643
   140     0.000943
   141     0.001295
   142    -0.000448
   143     0.000666
   144    -0.000675
   145    -0.000761
   146    -0.000517
   147     0.000182
   148     0.004429
   149     0.007286
   150     0.031939
   151    -0.004334
   152    -0.008479
   153    -0.009880
   154     0.005733
   155     0.017487
   156     0.009925
   157     0.000759
   158    -0.000321
   159    -0.000008
   160     0.000536
   161    -0.000172
   162    -0.000362
   163     0.000258
   164     0.001061
   165    -0.002056
   166     0.000325
   167    -0.000978
   168     0.000698
   169    -0.000474
   170     0.000173
   171     0.000520
   172     0.000190
   173     0.000042
   174     0.000061
   175     0.000093
   176    -0.000071
   177     0.000097
   178    -0.003665
   179    -0.013750
   180    -0.000039
   181     0.001281
   182    -0.000776
Sym=    35a
Ene=   -0.785541E+00
Spin= Alpha
Occup= 1.975882
     1    -0.002737
     2    -0.011396
     3     0.000263
     4     0.000400
     5    -0.000154
     6     0.001470
     7     0.010604
     8     0.009794
     9     0.021358
    10    -0.002897
    11     0.000059
    12     0.009155
    13     0.005420
    14     0.004115
    15    -0.014566
    16    -0.002240
    17    -0.010877
    18    -0.015396
    19     0.000870
    20    -0.008644
    21     0.003442
    22    -0.008010
    23     0.003128
    24     0.016223
    25    -0.000723
    26    -0.004520
    27    -0.006485
    28     0.000886
    29    -0.003939
    30    -0.002662
    31    -0.000399
    32     0.006703
    33     0.004962
    34     0.000472
    35     0.014710
    36     0.001084
    37     0.001220
    38    -0.001054
    39    -0.000474
    40     0.000779
    41     0.000304
    42     0.000325
    43     0.000408
    44    -0.087154
    45    -0.176252
    46     0.007078
    47     0.138079
    48    -0.017743
    49    -0.248852
    50     0.008218
    51     0.017390
    52     0.011161
    53    -0.004000
    54     0.009755
    55    -0.047480
    56    -0.002321
    57     0.036946
    58    -0.001146
    59    -0.142414
    60    -0.308041
    61    -0.151142
    62    -0.175258
    63    -0.093616
    64     0.390088
    65     0.116532
    66     0.085571
    67    -0.253421
    68    -0.009944
    69    -0.011992
    70    -0.020078
    71    -0.001037
    72     0.006405
    73     0.001161
    74    -0.001131
    75    -0.007306
    76    -0.011598
    77    -0.012214
    78    -0.004923
    79    -0.003232
    80    -0.007674
    81     0.010472
    82     0.006779
    83     0.013215
    84     0.019248
    85     0.001882
    86     0.022200
    87    -0.000090
    88    -0.002961
    89     0.000601
    90    -0.003292
    91    -0.005664
    92    -0.003040
    93     0.010394
    94     0.021626
    95     0.039994
    96    -0.004374
    97    -0.013349
    98    -0.013775
    99    -0.002286
   100    -0.013127
   101    -0.027267
   102     0.001771
   103    -0.000900
   104     0.000698
   105     0.001181
   106    -0.000052
   107    -0.003084
   108    -0.004130
   109    -0.010491
   110    -0.000883
   111    -0.001454
   112     0.000785
   113    -0.001254
   114    -0.003962
   115    -0.000444
   116    -0.002216
   117    -0.001298
   118     0.002113
   119     0.003615
   120     0.000147
   121    -0.004063
   122    -0.000163
   123    -0.000387
   124    -0.000670
   125     0.000576
   126     0.000017
   127    -0.000318
   128     0.000126
   129    -0.000094
   130     0.000160
   131     0.000172
   132    -0.000243
   133     0.018090
   134     0.017242
   135    -0.000247
   136     0.000426
   137     0.001318
   138    -0.014313
   139    -0.015610
   140    -0.001185
   141    -0.001786
   142     0.000246
   143     0.018408
   144     0.046641
   145    -0.003040
   146     0.000400
   147     0.001845
   148     0.003830
   149     0.011223
   150    -0.001815
   151     0.013034
   152    -0.009873
   153    -0.011680
   154    -0.007683
   155     0.009258
   156     0.039484
   157    -0.004186
   158     0.005110
   159     0.000368
   160    -0.001960
   161     0.009684
   162    -0.003907
   163     0.006334
   164     0.012488
   165     0.019269
   166    -0.009019
   167    -0.003066
   168     0.031870
   169     0.012611
   170    -0.000653
   171    -0.040636
   172     0.000956
   173     0.000161
   174    -0.002672
   175    -0.001296
   176     0.000223
   177     0.001145
   178     0.026122
   179     0.018445
   180     0.006878
   181     0.005439
   182    -0.010409
Sym=    36a
Ene=   -0.569923E+00
Spin= Alpha
Occup= 1.974028
     1    -0.013762
     2    -0.009474
     3     0.001020
     4    -0.001413
     5    -0.000100
     6     0.004238
     7     0.022045
     8     0.009161
     9     0.003037
    10    -0.007427
    11     0.005772
    12     0.037113
    13     0.012025
    14    -0.009122
    15    -0.057558
    16     0.016542
    17    -0.038645
    18    -0.010920
    19    -0.007890
    20    -0.014836
    21     0.055918
    22     0.001318
    23    -0.026721
    24     0.006286
    25     0.024485
    26     0.151673
    27     0.229288
    28    -0.023386
    29     0.109420
    30     0.021052
    31     0.013928
    32    -0.210202
    33    -0.040230
    34    -0.025466
    35    -0.132853
    36    -0.027076
    37     0.000699
    38     0.082365
    39    -0.013913
    40    -0.030748
    41     0.024448
    42    -0.009392
    43    -0.002473
    44     0.001447
    45     0.005946
    46    -0.007621
    47    -0.002710
    48     0.002309
    49     0.006124
    50    -0.007393
    51    -0.006859
    52    -0.003437
    53     0.000642
    54     0.000853
    55     0.000249
    56    -0.000290
    57    -0.000668
    58     0.000586
    59    -0.006274
    60    -0.014399
    61    -0.019257
    62     0.003394
    63     0.018898
    64    -0.009882
    65     0.000445
    66    -0.027193
    67     0.009820
    68    -0.001475
    69    -0.000286
    70    -0.000066
    71     0.000250
    72    -0.000470
    73    -0.001708
    74    -0.000109
    75    -0.000625
    76    -0.008684
    77     0.018038
    78     0.000270
    79     0.002225
    80    -0.004896
    81     0.001320
    82    -0.007431
    83     0.011795
    84     0.002144
    85     0.004982
    86     0.011641
    87    -0.000457
    88    -0.005429
    89     0.001402
    90    -0.001488
    91     0.004327
    92     0.004598
    93     0.001665
    94     0.006217
    95    -0.006168
    96    -0.000574
    97     0.002304
    98    -0.004390
    99    -0.002720
   100    -0.003854
   101     0.004969
   102     0.000909
   103     0.000647
   104    -0.000509
   105    -0.000064
   106     0.000631
   107     0.000662
   108     0.437029
   109     0.310641
   110     0.016782
   111     0.005119
   112     0.010757
   113    -0.015728
   114    -0.030156
   115    -0.097733
   116    -0.012556
   117     0.004632
   118    -0.029216
   119     0.019985
   120    -0.011847
   121     0.043243
   122    -0.002296
   123    -0.002525
   124     0.001254
   125     0.000485
   126     0.005139
   127     0.000456
   128     0.022470
   129     0.028041
   130     0.000193
   131    -0.001755
   132     0.001097
   133     0.001015
   134    -0.000530
   135    -0.000672
   136     0.000310
   137     0.000572
   138    -0.000008
   139     0.006194
   140     0.000328
   141     0.000811
   142    -0.001799
   143    -0.000232
   144    -0.004993
   145    -0.000102
   146    -0.000019
   147    -0.000097
   148    -0.003542
   149    -0.006208
   150    -0.024714
   151     0.003205
   152     0.002712
   153    -0.010242
   154     0.001488
   155    -0.007782
   156     0.010161
   157    -0.000378
   158    -0.000775
   159     0.000693
   160     0.000631
   161    -0.000067
   162    -0.000362
   163    -0.000482
   164    -0.001447
   165     0.000411
   166     0.000646
   167    -0.000187
   168    -0.003450
   169     0.000238
   170     0.000976
   171     0.003834
   172    -0.000183
   173    -0.000209
   174    -0.000088
   175     0.000049
   176    -0.000083
   177     0.000025
   178    -0.004738
   179    -0.006499
   180    -0.000433
   181    -0.000269
   182    -0.000271
Sym=    37a
Ene=   -0.564191E+00
Spin= Alpha
Occup= 1.973119
     1    -0.002836
     2    -0.003467
     3     0.000137
     4     0.000010
     5    -0.000101
     6     0.000191
     7     0.001288
     8    -0.013394
     9     0.030177
    10    -0.000611
    11    -0.000814
    12     0.000068
    13     0.004989
    14     0.005608
    15    -0.002850
    16     0.012521
    17    -0.011818
    18     0.005165
    19    -0.000079
    20    -0.004924
    21     0.001335
    22    -0.001923
    23     0.002488
    24     0.006485
    25    -0.000021
    26    -0.000119
    27    -0.000887
    28     0.000584
    29    -0.000532
    30    -0.000108
    31    -0.000526
    32     0.001033
    33     0.000376
    34     0.000685
    35     0.002361
    36    -0.002443
    37     0.002224
    38    -0.000110
    39    -0.000298
    40     0.000086
    41     0.000150
    42     0.000302
    43    -0.000239
    44     0.116392
    45     0.226908
    46     0.050281
    47     0.335280
    48     0.002943
    49     0.033346
    50    -0.018208
    51     0.024523
    52    -0.022817
    53     0.040379
    54    -0.000740
    55     0.002319
    56    -0.003330
    57     0.008835
    58     0.001921
    59    -0.013244
    60    -0.029618
    61    -0.074458
    62    -0.010860
    63    -0.007741
    64     0.022249
    65     0.005889
    66     0.009955
    67    -0.032484
    68     0.003320
    69    -0.002805
    70    -0.004453
    71    -0.000490
    72    -0.004307
    73    -0.001171
    74    -0.000377
    75    -0.002366
    76    -0.003878
    77    -0.009700
    78    -0.002035
    79    -0.001777
    80    -0.001029
    81     0.004584
    82     0.003290
    83     0.001522
    84     0.011903
    85     0.000015
    86     0.004911
    87    -0.000976
    88    -0.001272
    89     0.000233
    90    -0.001047
    91    -0.000773
    92    -0.000744
    93    -0.008578
    94    -0.019219
    95    -0.043503
    96     0.028741
    97     0.022596
    98     0.010874
    99     0.034647
   100     0.028358
   101     0.015831
   102     0.001381
   103    -0.001250
   104    -0.001579
   105     0.003763
   106     0.001467
   107    -0.000663
   108     0.000229
   109    -0.002610
   110    -0.000131
   111    -0.000206
   112     0.000109
   113    -0.000827
   114    -0.001385
   115    -0.008286
   116    -0.000715
   117    -0.000986
   118     0.001063
   119     0.003493
   120     0.000332
   121    -0.002535
   122    -0.000073
   123    -0.000099
   124     0.000047
   125     0.000047
   126    -0.000168
   127    -0.000057
   128     0.000096
   129    -0.002840
   130     0.000006
   131     0.000068
   132    -0.000039
   133     0.002425
   134     0.006758
   135    -0.000361
   136     0.000438
   137     0.000502
   138    -0.013574
   139    -0.006187
   140     0.000253
   141    -0.000482
   142     0.000711
   143     0.430857
   144     0.287619
   145     0.019844
   146     0.001324
   147     0.001487
   148     0.003821
   149     0.009010
   150     0.018760
   151     0.013685
   152    -0.007472
   153    -0.002412
   154    -0.015909
   155     0.014430
   156     0.003291
   157     0.000178
   158     0.001262
   159     0.000208
   160    -0.000498
   161     0.001111
   162    -0.000557
   163    -0.008872
   164    -0.020755
   165    -0.024397
   166    -0.036670
   167     0.004348
   168    -0.007396
   169     0.044783
   170    -0.001517
   171     0.005503
   172     0.001878
   173    -0.002151
   174    -0.001633
   175    -0.001681
   176     0.001881
   177     0.001065
   178    -0.015936
   179    -0.010728
   180    -0.000853
   181     0.000012
   182     0.000507
Sym=    38a
Ene=   -0.932551E+00
Spin= Alpha
Occup= 1.972639
     1    -0.001935
     2    -0.015894
     3    -0.000024
     4     0.001017
     5    -0.001804
     6    -0.003734
     7    -0.022117
     8    -0.027450
     9    -0.017337
    10    -0.002369
    11    -0.007378
    12     0.020502
    13     0.006071
    14     0.010627
    15    -0.033314
    16    -0.020952
    17     0.027180
    18    -0.000734
    19     0.008548
    20    -0.000305
    21    -0.015691
    22    -0.004519
    23    -0.000914
    24     0.017324
    25    -0.000225
    26    -0.001419
    27    -0.003837
    28     0.006608
    29     0.000018
    30     0.000239
    31     0.001313
    32     0.000149
    33    -0.000245
    34    -0.002450
    35    -0.000985
    36    -0.001694
    37     0.002471
    38    -0.000154
    39     0.000117
    40    -0.000208
    41     0.000400
    42    -0.001702
    43    -0.000354
    44    -0.013659
    45    -0.029853
    46     0.030651
    47     0.015849
    48     0.036075
    49     0.007345
    50    -0.008762
    51     0.011911
    52    -0.000063
    53    -0.006961
    54    -0.003631
    55     0.005771
    56    -0.014402
    57    -0.002019
    58     0.006109
    59     0.009940
    60     0.020200
    61     0.046545
    62     0.005130
    63    -0.011762
    64    -0.016867
    65     0.001917
    66     0.018122
    67     0.014280
    68     0.001426
    69     0.001639
    70     0.000558
    71    -0.000013
    72    -0.000410
    73    -0.001387
    74     0.000012
    75    -0.000030
    76     0.000445
    77     0.003545
    78     0.000590
    79     0.000312
    80     0.000179
    81    -0.001739
    82    -0.000184
    83     0.000119
    84    -0.003010
    85    -0.000096
    86    -0.001684
    87     0.001509
    88    -0.000023
    89     0.000098
    90    -0.001152
    91     0.000558
    92     0.000802
    93     0.103923
    94     0.212076
    95     0.012179
    96    -0.290117
    97     0.228230
    98     0.280947
    99    -0.145325
   100     0.110186
   101     0.131761
   102     0.010783
   103     0.002799
   104     0.002997
   105    -0.009242
   106    -0.008757
   107     0.004657
   108    -0.000811
   109     0.007345
   110    -0.000168
   111    -0.000257
   112     0.000690
   113     0.002395
   114     0.005043
   115     0.011473
   116     0.006676
   117     0.001525
   118    -0.004501
   119    -0.007910
   120    -0.002710
   121     0.006783
   122    -0.000461
   123     0.000603
   124    -0.000128
   125    -0.000027
   126     0.000550
   127     0.000141
   128     0.000711
   129     0.000473
   130    -0.000294
   131     0.000035
   132     0.000284
   133     0.001122
   134     0.003313
   135    -0.000145
   136     0.000265
   137     0.000138
   138     0.420744
   139     0.054726
   140     0.028091
   141    -0.025530
   142    -0.031364
   143    -0.011964
   144    -0.027362
   145    -0.000773
   146    -0.002054
   147    -0.000233
   148    -0.000557
   149    -0.001388
   150    -0.004386
   151    -0.002250
   152     0.000337
   153    -0.001341
   154     0.003659
   155    -0.001675
   156    -0.001018
   157    -0.000372
   158     0.000004
   159    -0.000340
   160    -0.000184
   161    -0.000660
   162    -0.000091
   163     0.001152
   164     0.003320
   165     0.000450
   166    -0.003628
   167    -0.004734
   168     0.002970
   169     0.003588
   170     0.003317
   171    -0.002445
   172     0.000424
   173    -0.000405
   174     0.000590
   175    -0.000182
   176     0.000127
   177     0.000230
   178    -0.010111
   179    -0.006946
   180    -0.001228
   181     0.000313
   182     0.000635
Sym=    39a
Ene=   -0.826257E+00
Spin= Alpha
Occup= 1.971672
     1    -0.001863
     2    -0.010114
     3     0.000309
     4    -0.000517
     5     0.000247
     6     0.001698
     7     0.010701
     8     0.020957
     9     0.008686
    10     0.002745
    11     0.006687
    12     0.001801
    13    -0.005484
    14    -0.016157
    15    -0.003116
    16    -0.011250
    17    -0.009008
    18    -0.004385
    19     0.000160
    20     0.006135
    21     0.001673
    22     0.007657
    23     0.001313
    24     0.002229
    25     0.000132
    26     0.000932
    27     0.005780
    28    -0.011742
    29    -0.001071
    30    -0.000276
    31    -0.000076
    32     0.001875
    33    -0.000016
    34     0.000455
    35     0.006656
    36     0.002523
    37    -0.005636
    38     0.001187
    39    -0.002098
    40     0.000856
    41    -0.001251
    42     0.001359
    43     0.000318
    44    -0.003458
    45    -0.011693
    46    -0.015068
    47     0.007841
    48    -0.007326
    49    -0.012079
    50     0.006823
    51     0.003055
    52     0.012799
    53    -0.002122
    54    -0.000430
    55    -0.001855
    56     0.000753
    57     0.000955
    58    -0.003606
    59    -0.006418
    60    -0.021209
    61     0.019886
    62     0.015788
    63    -0.024882
    64     0.004627
    65    -0.006379
    66     0.018460
    67    -0.007870
    68    -0.006951
    69     0.006251
    70    -0.002985
    71    -0.007692
    72     0.002807
    73    -0.001480
    74    -0.005639
    75    -0.036204
    76    -0.062466
    77     0.008635
    78    -0.026275
    79    -0.005447
    80    -0.005956
    81     0.050844
    82     0.014607
    83     0.010024
    84     0.023290
    85     0.004459
    86     0.007517
    87    -0.027072
    88     0.015841
    89     0.002470
    90    -0.001439
    91    -0.006546
    92    -0.003693
    93    -0.001019
    94    -0.001394
    95    -0.008455
    96     0.001394
    97    -0.000115
    98     0.002490
    99     0.000220
   100     0.001244
   101     0.004537
   102     0.000223
   103     0.000077
   104     0.000421
   105     0.000102
   106    -0.000103
   107     0.000085
   108     0.002655
   109     0.004709
   110    -0.000095
   111     0.000103
   112     0.000230
   113     0.005979
   114     0.010637
   115     0.028240
   116    -0.001898
   117     0.017628
   118    -0.000772
   119    -0.000491
   120    -0.023446
   121    -0.000313
   122     0.001194
   123    -0.000912
   124     0.000463
   125    -0.000788
   126    -0.000356
   127    -0.000250
   128    -0.006273
   129    -0.003510
   130     0.000231
   131    -0.000950
   132     0.000213
   133     0.423914
   134     0.089211
   135    -0.000305
   136     0.032991
   137    -0.010373
   138     0.000593
   139    -0.001216
   140    -0.000014
   141     0.000091
   142     0.000461
   143     0.000915
   144     0.010372
   145     0.000502
   146    -0.000075
   147     0.000010
   148     0.124239
   149     0.253736
   150     0.052161
   151     0.064034
   152     0.382581
   153    -0.110830
   154    -0.023545
   155    -0.189393
   156     0.052783
   157     0.002008
   158     0.022167
   159     0.005718
   160     0.003675
   161    -0.000132
   162    -0.007515
   163    -0.001845
   164    -0.004000
   165    -0.004561
   166     0.007982
   167    -0.004137
   168    -0.006169
   169    -0.007037
   170     0.002317
   171     0.002336
   172     0.000096
   173    -0.000194
   174    -0.000320
   175    -0.000265
   176    -0.000419
   177     0.000449
   178    -0.015070
   179    -0.005555
   180    -0.000401
   181     0.002836
   182    -0.001602
Sym=    40a
Ene=   -0.818037E+00
Spin= Alpha
Occup= 1.971670
     1     0.001222
     2     0.001697
     3    -0.000322
     4    -0.000560
     5     0.000457
     6    -0.004197
     7    -0.026142
     8    -0.037899
     9     0.025949
    10     0.018176
    11    -0.005712
    12    -0.005473
    13    -0.022035
    14     0.007009
    15     0.007196
    16     0.001347
    17    -0.011728
    18     0.009771
    19    -0.009506
    20     0.001530
    21     0.004205
    22     0.013275
    23     0.009496
    24    -0.000201
    25    -0.002618
    26    -0.016413
    27    -0.030344
    28     0.009817
    29    -0.000066
    30    -0.009569
    31     0.014382
    32    -0.002338
    33     0.016491
    34    -0.026362
    35    -0.005482
    36     0.006604
    37    -0.004049
    38     0.003162
    39    -0.003114
    40    -0.004894
    41     0.001768
    42     0.012166
    43     0.015128
    44     0.000353
    45     0.003016
    46    -0.011983
    47    -0.001331
    48    -0.001310
    49     0.001384
    50    -0.007585
    51    -0.002737
    52     0.001897
    53     0.000588
    54     0.000086
    55     0.000162
    56     0.000443
    57     0.000046
    58    -0.000795
    59     0.002817
    60     0.006603
    61     0.006036
    62    -0.003905
    63    -0.009347
    64     0.000821
    65     0.003847
    66     0.008090
    67     0.000473
    68     0.000422
    69    -0.000298
    70     0.000537
    71    -0.000919
    72    -0.000411
    73    -0.000054
    74    -0.002798
    75    -0.018050
    76    -0.030769
    77     0.000166
    78    -0.010055
    79     0.010250
    80    -0.009752
    81     0.015825
    82    -0.019877
    83     0.017149
    84     0.009501
    85    -0.004355
    86     0.009667
    87    -0.006361
    88     0.005874
    89    -0.001679
    90     0.017433
    91    -0.002478
    92     0.015079
    93    -0.000011
    94     0.001039
    95    -0.001875
    96    -0.000005
    97     0.000704
    98    -0.000940
    99    -0.004940
   100     0.000320
   101     0.002511
   102     0.000297
   103     0.000505
   104     0.000242
   105    -0.000170
   106     0.000314
   107     0.000191
   108     0.021144
   109     0.033292
   110     0.001169
   111     0.000529
   112    -0.000153
   113     0.112730
   114     0.231834
   115     0.016727
   116    -0.244512
   117    -0.241731
   118    -0.206397
   119     0.141945
   120     0.137998
   121     0.115515
   122     0.013319
   123     0.009913
   124     0.006530
   125     0.009509
   126     0.007923
   127     0.005612
   128     0.414820
   129     0.087348
   130    -0.018311
   131    -0.020527
   132    -0.017360
   133    -0.007494
   134    -0.004956
   135     0.000702
   136     0.000082
   137     0.000037
   138    -0.001506
   139    -0.004631
   140    -0.000026
   141     0.000641
   142     0.000372
   143    -0.000177
   144    -0.003819
   145    -0.000212
   146     0.000089
   147    -0.000050
   148     0.005872
   149     0.012847
   150     0.016921
   151    -0.008226
   152    -0.007195
   153     0.007668
   154     0.008387
   155     0.005624
   156    -0.006897
   157     0.001284
   158    -0.000577
   159     0.000908
   160    -0.000524
   161     0.000248
   162     0.000242
   163     0.000261
   164     0.000073
   165     0.003036
   166     0.000004
   167     0.000320
   168     0.001051
   169     0.000802
   170     0.000117
   171    -0.001207
   172    -0.000203
   173    -0.000204
   174    -0.000186
   175     0.000042
   176     0.000000
   177    -0.000016
   178    -0.002621
   179    -0.003451
   180     0.000170
   181     0.000735
   182    -0.000287
Sym=    41a
Ene=   -0.843535E+00
Spin= Alpha
Occup= 1.971307
     1    -0.001634
     2    -0.001683
     3    -0.000879
     4     0.000143
     5    -0.000448
     6     0.003228
     7     0.019785
     8     0.035055
     9    -0.021244
    10    -0.000221
    11     0.015652
    12    -0.002669
    13    -0.001186
    14    -0.023111
    15     0.003018
    16    -0.010840
    17     0.004048
    18     0.008797
    19    -0.002156
    20     0.013328
    21    -0.001720
    22    -0.002168
    23    -0.002165
    24    -0.010768
    25     0.000077
    26     0.000304
    27    -0.001516
    28    -0.002542
    29     0.000593
    30     0.003049
    31    -0.000692
    32    -0.000608
    33    -0.005473
    34     0.001153
    35    -0.006929
    36    -0.002949
    37     0.001912
    38     0.000918
    39     0.000634
    40    -0.001004
    41     0.001070
    42    -0.000348
    43    -0.001207
    44     0.014313
    45     0.031487
    46    -0.025827
    47    -0.020303
    48    -0.008705
    49     0.031186
    50    -0.002218
    51     0.000863
    52     0.010296
    53     0.007719
    54     0.000497
    55    -0.002677
    56     0.003430
    57    -0.009054
    58    -0.008525
    59    -0.117423
    60    -0.245687
    61    -0.004862
    62    -0.204644
    63    -0.193117
    64    -0.308214
    65     0.105545
    66     0.103489
    67     0.157131
    68    -0.007650
    69    -0.007826
    70    -0.016022
    71    -0.006842
    72    -0.011516
    73    -0.008074
    74    -0.001234
    75    -0.007924
    76    -0.021576
    77     0.019181
    78    -0.004815
    79    -0.003152
    80     0.008364
    81     0.012227
    82     0.007021
    83    -0.014545
    84     0.001840
    85     0.010579
    86    -0.022850
    87    -0.002479
    88    -0.001843
    89    -0.000335
    90    -0.004354
    91     0.006994
    92     0.002858
    93    -0.008454
    94    -0.017115
    95    -0.035481
    96     0.003133
    97     0.010469
    98     0.011542
    99     0.001296
   100     0.010893
   101     0.019463
   102    -0.000524
   103    -0.000590
   104    -0.000109
   105    -0.000758
   106    -0.000480
   107     0.001244
   108     0.004714
   109     0.006080
   110    -0.000322
   111    -0.000318
   112     0.001118
   113    -0.002496
   114    -0.004834
   115    -0.010838
   116    -0.005412
   117    -0.001005
   118    -0.000510
   119     0.004742
   120     0.002167
   121     0.000713
   122     0.000414
   123    -0.000539
   124    -0.000292
   125     0.000656
   126    -0.000004
   127     0.000447
   128     0.003482
   129     0.005966
   130     0.000197
   131    -0.000153
   132    -0.000080
   133     0.014917
   134     0.012265
   135    -0.002241
   136     0.000166
   137    -0.001668
   138     0.010531
   139     0.007930
   140     0.000662
   141     0.000887
   142     0.000401
   143     0.012773
   144     0.018863
   145     0.001513
   146     0.000167
   147    -0.001701
   148     0.005929
   149     0.017002
   150    -0.007489
   151     0.018441
   152    -0.000181
   153     0.017045
   154    -0.003155
   155    -0.006946
   156    -0.037946
   157    -0.005883
   158     0.006104
   159     0.001618
   160    -0.003039
   161    -0.007680
   162     0.002392
   163    -0.000995
   164    -0.002940
   165     0.000669
   166     0.002556
   167     0.004455
   168    -0.003415
   169    -0.002649
   170    -0.003915
   171     0.003063
   172    -0.000549
   173    -0.000411
   174    -0.000013
   175     0.000287
   176    -0.000191
   177    -0.000217
   178    -0.430916
   179    -0.078530
   180    -0.019567
   181    -0.011411
   182    -0.026063
Sym=    42a
Ene=   -0.492869E+00
Spin= Alpha
Occup= 1.969800
     1    -0.423622
     2    -0.277012
     3    -0.009339
     4     0.012324
     5    -0.005563
     6    -0.028677
     7    -0.173226
     8    -0.265641
     9    -0.046563
    10    -0.067257
    11     0.087899
    12    -0.036571
    13     0.111931
    14    -0.145737
    15     0.063349
    16     0.079205
    17    -0.102628
    18     0.040671
    19    -0.030520
    20    -0.054718
    21     0.003667
    22     0.049223
    23    -0.025001
    24     0.023732
    25     0.001656
    26     0.010570
    27     0.013750
    28     0.009388
    29     0.009149
    30     0.003122
    31     0.000944
    32    -0.017705
    33    -0.005108
    34    -0.002291
    35    -0.018725
    36    -0.006972
    37     0.005321
    38     0.003477
    39    -0.001135
    40    -0.000747
    41     0.003861
    42    -0.001650
    43     0.000571
    44    -0.000237
    45    -0.000489
    46    -0.004635
    47     0.004075
    48     0.000894
    49     0.003313
    50    -0.027123
    51     0.005051
    52    -0.010604
    53    -0.000265
    54     0.000444
    55    -0.000686
    56     0.000906
    57    -0.000448
    58    -0.001964
    59     0.005917
    60     0.009939
    61     0.032890
    62    -0.003353
    63    -0.019035
    64     0.006046
    65     0.016366
    66     0.025532
    67    -0.003315
    68     0.000491
    69    -0.000707
    70     0.000503
    71     0.001331
    72    -0.000194
    73     0.000883
    74    -0.000877
    75    -0.005465
    76    -0.009262
    77    -0.028574
    78    -0.001511
    79     0.005031
    80    -0.000371
    81     0.004886
    82    -0.009845
    83     0.001041
    84     0.020713
    85    -0.020083
    86     0.000121
    87    -0.000408
    88    -0.004806
    89     0.000552
    90    -0.000279
    91     0.001143
    92    -0.000312
    93     0.008988
    94     0.018852
    95     0.035645
    96    -0.003134
    97     0.022458
    98    -0.029084
    99    -0.004655
   100     0.026523
   101    -0.033980
   102     0.001208
   103    -0.000242
   104    -0.000699
   105    -0.000483
   106    -0.000359
   107     0.002058
   108     0.014853
   109     0.035364
   110     0.001957
   111    -0.001554
   112    -0.000327
   113     0.006929
   114     0.012345
   115     0.036074
   116     0.020488
   117    -0.009522
   118    -0.000583
   119    -0.033551
   120     0.005577
   121    -0.001597
   122    -0.001343
   123     0.000050
   124     0.001209
   125     0.002335
   126     0.000010
   127     0.000178
   128     0.003764
   129    -0.000160
   130    -0.000624
   131     0.000306
   132    -0.000329
   133     0.004829
   134     0.008969
   135    -0.000055
   136     0.000820
   137    -0.000042
   138     0.002825
   139     0.001025
   140    -0.000105
   141     0.000841
   142    -0.001018
   143     0.003405
   144    -0.012470
   145     0.000029
   146    -0.000241
   147     0.000397
   148    -0.001905
   149    -0.005028
   150    -0.018429
   151    -0.002416
   152     0.003235
   153    -0.002121
   154     0.010710
   155    -0.002046
   156     0.001980
   157    -0.001182
   158    -0.000447
   159    -0.000522
   160    -0.000442
   161     0.000476
   162    -0.000118
   163     0.000911
   164     0.000434
   165     0.011829
   166    -0.000777
   167    -0.003411
   168     0.000302
   169     0.001810
   170     0.003559
   171    -0.000105
   172    -0.000438
   173    -0.000636
   174    -0.000501
   175    -0.000009
   176    -0.000004
   177    -0.000069
   178     0.003361
   179    -0.003441
   180     0.000148
   181     0.000518
   182     0.000130
Sym=    43a
Ene=   -0.840081E+00
Spin= Alpha
Occup= 1.953946
     1     0.005525
     2     0.002399
     3    -0.000092
     4     0.000844
     5    -0.000133
     6    -0.002527
     7    -0.015385
     8    -0.013827
     9    -0.013049
    10    -0.008733
    11    -0.012826
    12    -0.002697
    13     0.012025
    14     0.022310
    15     0.002118
    16     0.004315
    17     0.022510
    18    -0.000846
    19     0.000875
    20    -0.011127
    21     0.002477
    22    -0.011531
    23    -0.001079
    24    -0.000570
    25     0.000031
    26     0.000133
    27     0.004488
    28    -0.018746
    29     0.000118
    30     0.000392
    31    -0.001170
    32    -0.001393
    33    -0.001647
    34     0.003448
    35     0.002077
    36     0.003096
    37    -0.003381
    38     0.001535
    39    -0.000595
    40     0.000993
    41    -0.001115
    42     0.000419
    43     0.000835
    44    -0.011607
    45    -0.020098
    46     0.038010
    47     0.022877
    48     0.004411
    49    -0.043883
    50    -0.021152
    51     0.014338
    52    -0.006791
    53     0.003371
    54     0.000405
    55    -0.011802
    56    -0.002246
    57     0.002954
    58     0.005240
    59     0.084530
    60     0.177265
    61     0.038829
    62    -0.350877
    63     0.204563
    64     0.006478
    65     0.202043
    66    -0.127460
    67    -0.002383
    68     0.028684
    69     0.005360
    70    -0.003598
    71    -0.018897
    72    -0.000314
    73     0.000231
    74    -0.005939
    75    -0.036742
    76    -0.052917
    77     0.045028
    78    -0.024889
    79    -0.020601
    80    -0.001430
    81     0.044344
    82     0.032460
    83     0.002778
    84     0.018950
    85     0.016778
    86     0.003659
    87    -0.009855
    88    -0.003563
    89     0.006773
    90    -0.018748
    91    -0.001944
    92    -0.000714
    93     0.003380
    94     0.007024
    95     0.014128
    96    -0.007418
    97    -0.001631
    98    -0.013196
    99    -0.003493
   100    -0.000898
   101    -0.014987
   102     0.000844
   103     0.000254
   104    -0.000398
   105     0.000163
   106    -0.000068
   107    -0.000858
   108     0.001203
   109     0.007293
   110     0.000290
   111    -0.000060
   112    -0.000174
   113    -0.002159
   114    -0.002421
   115    -0.012280
   116    -0.003755
   117    -0.003705
   118     0.002717
   119     0.005543
   120     0.010732
   121    -0.001314
   122     0.000092
   123    -0.000800
   124     0.000554
   125    -0.000179
   126     0.000018
   127    -0.000135
   128    -0.001082
   129    -0.006240
   130     0.000258
   131    -0.000067
   132     0.000156
   133    -0.049246
   134    -0.020676
   135    -0.006445
   136    -0.002692
   137     0.001860
   138    -0.005292
   139    -0.010536
   140    -0.000991
   141    -0.000105
   142    -0.000604
   143     0.015065
   144    -0.000631
   145    -0.000323
   146    -0.000338
   147     0.000497
   148     0.087014
   149     0.182098
   150     0.021968
   151     0.351509
   152    -0.152657
   153    -0.030798
   154    -0.181121
   155     0.078265
   156     0.027225
   157     0.029665
   158     0.003206
   159    -0.003440
   160    -0.016947
   161    -0.002693
   162     0.001946
   163    -0.002818
   164    -0.005819
   165    -0.005216
   166     0.001303
   167     0.005445
   168    -0.011366
   169     0.000534
   170    -0.005913
   171     0.011404
   172     0.000579
   173    -0.000115
   174    -0.000671
   175    -0.000342
   176    -0.000223
   177     0.000612
   178    -0.042843
   179    -0.017935
   180     0.002751
   181    -0.005437
   182    -0.003904
Sym=    44a
Ene=   -0.408569E+00
Spin= Alpha
Occup= 1.891033
     1     0.006866
     2     0.005676
     3    -0.000912
     4     0.001365
     5     0.000502
     6    -0.000918
     7    -0.004385
     8    -0.004484
     9     0.024856
    10    -0.000487
    11    -0.001902
    12    -0.023007
    13     0.004310
    14     0.003116
    15     0.035842
    16     0.005220
    17     0.015034
    18     0.020778
    19     0.006794
    20     0.008528
    21    -0.025436
    22    -0.004010
    23     0.020691
    24    -0.003302
    25     0.054648
    26     0.349649
    27     0.565719
    28     0.421445
    29    -0.086105
    30    -0.014289
    31     0.066752
    32     0.179815
    33     0.029037
    34    -0.129596
    35     0.181827
    36     0.052196
    37    -0.146084
    38     0.017562
    39     0.068369
    40     0.028460
    41    -0.012697
    42     0.018351
    43    -0.005094
    44    -0.001866
    45    -0.007595
    46     0.004782
    47     0.003669
    48    -0.003033
    49    -0.008811
    50     0.000388
    51     0.004862
    52     0.002576
    53    -0.000620
    54    -0.000522
    55    -0.000813
    56     0.000049
    57     0.000516
    58    -0.000146
    59     0.002722
    60     0.006470
    61    -0.001031
    62    -0.000178
    63    -0.014921
    64     0.010953
    65    -0.004180
    66     0.017310
    67    -0.009861
    68     0.000701
    69     0.000048
    70    -0.000034
    71     0.000262
    72     0.001490
    73     0.001032
    74    -0.000686
    75    -0.006030
    76    -0.018331
    77     0.001735
    78     0.003585
    79    -0.007613
    80     0.020036
    81    -0.008409
    82     0.016981
    83    -0.036055
    84    -0.043928
    85     0.027786
    86    -0.037320
    87    -0.004459
    88    -0.008350
    89     0.019201
    90     0.002053
    91    -0.008826
    92    -0.011599
    93    -0.004089
    94    -0.009713
    95    -0.011358
    96    -0.006660
    97    -0.004997
    98     0.005311
    99    -0.005791
   100    -0.002504
   101    -0.000145
   102     0.000098
   103    -0.000572
   104    -0.000083
   105     0.000203
   106    -0.000664
   107    -0.000339
   108    -0.092745
   109    -0.161855
   110    -0.000516
   111    -0.000514
   112    -0.006897
   113    -0.023247
   114    -0.040215
   115    -0.107018
   116     0.039936
   117     0.006900
   118    -0.093462
   119    -0.047620
   120     0.002596
   121     0.131445
   122    -0.001302
   123    -0.000845
   124    -0.001649
   125     0.000556
   126    -0.004551
   127    -0.001338
   128    -0.008195
   129    -0.012901
   130    -0.001176
   131     0.000880
   132     0.001171
   133     0.006471
   134     0.002514
   135     0.000432
   136     0.000247
   137     0.000282
   138     0.003485
   139    -0.004416
   140    -0.000570
   141    -0.000841
   142     0.000910
   143    -0.000174
   144    -0.000697
   145     0.000040
   146     0.000086
   147     0.000156
   148    -0.000315
   149     0.000288
   150    -0.006179
   151    -0.000277
   152    -0.001058
   153    -0.017361
   154    -0.006663
   155     0.003711
   156     0.020318
   157    -0.000722
   158     0.001015
   159     0.000328
   160    -0.000133
   161    -0.000262
   162     0.000140
   163     0.000153
   164     0.000541
   165    -0.000293
   166     0.000720
   167     0.000744
   168     0.002958
   169    -0.000909
   170    -0.001326
   171    -0.003315
   172     0.000174
   173     0.000150
   174     0.000023
   175    -0.000081
   176     0.000007
   177    -0.000009
   178     0.008741
   179     0.004258
   180     0.000027
   181     0.000207
   182     0.000201
Sym=    45a
Ene=   -0.403219E+00
Spin= Alpha
Occup= 1.882796
     1    -0.007028
     2    -0.026037
     3     0.000556
     4    -0.000335
     5     0.000199
     6     0.002860
     7     0.017910
     8     0.033770
     9     0.013055
    10    -0.010608
    11    -0.004598
    12     0.001459
    13     0.021824
    14     0.004740
    15    -0.003082
    16     0.022248
    17     0.024600
    18    -0.015634
    19     0.008185
    20    -0.000050
    21     0.003371
    22     0.008704
    23    -0.002274
    24     0.001502
    25    -0.002446
    26    -0.016898
    27    -0.029572
    28    -0.037676
    29    -0.004653
    30     0.022953
    31    -0.009080
    32     0.006578
    33    -0.041212
    34     0.019380
    35    -0.008073
    36    -0.049611
    37     0.031211
    38     0.001149
    39     0.008979
    40    -0.010483
    41    -0.013137
    42     0.001784
    43    -0.004030
    44    -0.001310
    45    -0.002738
    46     0.012489
    47     0.003261
    48    -0.000742
    49    -0.009077
    50    -0.000262
    51     0.005431
    52     0.001292
    53     0.000079
    54     0.000221
    55    -0.001485
    56    -0.000502
    57    -0.000318
    58     0.000850
    59     0.011238
    60     0.023107
    61     0.053450
    62    -0.035811
    63     0.010106
    64     0.002892
    65     0.049114
    66    -0.004731
    67    -0.005960
    68    -0.000040
    69     0.003042
    70     0.000937
    71    -0.001412
    72     0.000128
    73    -0.000227
    74     0.052823
    75     0.337842
    76     0.551514
    77     0.423051
    78    -0.117306
    79     0.037523
    80     0.008508
    81     0.234129
    82    -0.073026
    83    -0.016790
    84     0.245804
    85    -0.086451
    86     0.009206
    87     0.016062
    88     0.030032
    89     0.070506
    90     0.000591
    91     0.002624
    92    -0.009232
    93    -0.001056
    94    -0.001873
    95    -0.005487
    96    -0.003690
    97    -0.001969
    98     0.000446
    99    -0.002499
   100    -0.001049
   101     0.000217
   102     0.000207
   103    -0.000038
   104    -0.000138
   105     0.000301
   106    -0.000191
   107    -0.000187
   108     0.002868
   109    -0.001563
   110    -0.000007
   111    -0.000495
   112     0.001130
   113    -0.026842
   114    -0.049323
   115    -0.127065
   116     0.053770
   117    -0.078360
   118    -0.007638
   119    -0.065338
   120     0.112868
   121     0.017166
   122     0.000442
   123    -0.003828
   124    -0.002235
   125    -0.003705
   126    -0.000000
   127    -0.000757
   128    -0.007114
   129    -0.006247
   130    -0.000553
   131     0.000423
   132     0.000849
   133    -0.006033
   134     0.001403
   135     0.000940
   136     0.000049
   137     0.000639
   138     0.001009
   139     0.000886
   140    -0.000211
   141    -0.000457
   142    -0.000160
   143     0.003439
   144     0.005178
   145     0.000098
   146     0.000046
   147     0.000467
   148    -0.037077
   149    -0.074573
   150    -0.165266
   151     0.053698
   152     0.033100
   153    -0.008785
   154    -0.068949
   155    -0.053334
   156     0.010352
   157     0.002647
   158    -0.007735
   159    -0.002819
   160    -0.002398
   161    -0.000398
   162     0.000506
   163    -0.000676
   164    -0.001039
   165    -0.003772
   166    -0.000122
   167     0.001234
   168    -0.000695
   169     0.000023
   170    -0.002068
   171     0.000578
   172     0.000253
   173     0.000167
   174     0.000076
   175    -0.000115
   176    -0.000043
   177     0.000093
   178    -0.008313
   179    -0.010957
   180     0.000615
   181    -0.000549
   182    -0.000484
Sym=    46a
Ene=   -0.167125E+00
Spin= Alpha
Occup= 1.000000
     1    -0.014029
     2     0.004802
     3    -0.000097
     4     0.000686
     5    -0.000848
     6    -0.001416
     7    -0.009549
     8     0.006590
     9    -0.059833
    10     0.001238
    11     0.003683
    12     0.005128
    13     0.002833
    14    -0.009948
    15    -0.009222
    16     0.001945
    17    -0.003445
    18    -0.005189
    19    -0.002666
    20     0.002271
    21     0.008841
    22     0.002288
    23    -0.011329
    24    -0.012666
    25     0.002800
    26     0.020353
    27     0.054241
    28     0.005731
    29     0.025098
    30    -0.184793
    31     0.026529
    32    -0.050235
    33     0.361794
    34    -0.056611
    35    -0.041441
    36     0.513313
    37    -0.095984
    38     0.017754
    39    -0.050651
    40     0.015005
    41     0.006557
    42    -0.007917
    43     0.038890
    44     0.003785
    45     0.015004
    46     0.005826
    47    -0.006170
    48     0.002045
    49     0.016018
    50    -0.015296
    51     0.008755
    52    -0.010085
    53     0.000486
    54     0.001183
    55     0.002336
    56     0.000590
    57    -0.000605
    58    -0.001622
    59     0.006856
    60     0.013768
    61     0.040047
    62    -0.012421
    63    -0.005100
    64    -0.010889
    65     0.019918
    66     0.003157
    67     0.011721
    68    -0.000172
    69     0.001117
    70    -0.000067
    71    -0.001422
    72    -0.005859
    73     0.002454
    74     0.005911
    75     0.041264
    76     0.097294
    77     0.066879
    78    -0.031858
    79     0.020789
    80    -0.112257
    81     0.062602
    82    -0.043975
    83     0.217635
    84     0.134574
    85    -0.058019
    86     0.243819
    87     0.011715
    88     0.023326
    89    -0.052120
    90     0.001238
    91     0.005977
    92     0.059410
    93     0.000800
    94     0.002563
    95    -0.000487
    96     0.004296
    97     0.008595
    98    -0.001086
    99     0.007123
   100     0.007255
   101     0.004769
   102    -0.000087
   103    -0.000021
   104    -0.000029
   105    -0.000477
   106     0.000252
   107     0.000562
   108     0.001912
   109     0.042419
   110    -0.001987
   111     0.008373
   112     0.000493
   113     0.011061
   114     0.012116
   115     0.139050
   116    -0.028902
   117     0.084336
   118     0.046757
   119     0.048736
   120    -0.098143
   121    -0.059781
   122    -0.000789
   123     0.000706
   124    -0.001382
   125    -0.003455
   126     0.001496
   127    -0.013992
   128    -0.075322
   129    -0.044890
   130     0.005630
   131    -0.002208
   132    -0.000829
   133    -0.027446
   134    -0.007665
   135     0.000056
   136    -0.001712
   137    -0.006075
   138     0.002425
   139     0.006779
   140     0.000400
   141     0.000498
   142    -0.000713
   143    -0.000157
   144    -0.012572
   145    -0.000077
   146    -0.000281
   147    -0.000133
   148     0.004566
   149     0.003705
   150     0.047117
   151     0.005995
   152     0.017592
   153     0.149430
   154     0.004274
   155    -0.012550
   156    -0.167258
   157     0.002368
   158    -0.002766
   159    -0.003870
   160    -0.001274
   161     0.004643
   162     0.003176
   163     0.001683
   164     0.002977
   165     0.009251
   166    -0.005250
   167    -0.001070
   168     0.004549
   169     0.003902
   170     0.001302
   171    -0.001595
   172    -0.000501
   173    -0.000210
   174    -0.000146
   175     0.000199
   176     0.000294
   177    -0.000124
   178    -0.026772
   179    -0.015541
   180     0.000627
   181    -0.001353
   182     0.000148
Sym=    47a
Ene=   -0.236461E-01
Spin= Alpha
Occup= 0.068075
     1    -0.010951
     2     0.070486
     3    -0.000629
     4     0.000859
     5    -0.000830
     6    -0.001310
     7    -0.010177
     8    -0.066843
     9     0.109891
    10     0.003921
    11     0.009197
    12     0.006349
    13    -0.003969
    14    -0.016105
    15    -0.019539
    16     0.094055
    17    -0.129782
    18     0.009480
    19    -0.000405
    20     0.000232
    21     0.020900
    22    -0.016780
    23    -0.009333
    24    -0.016977
    25    -0.008198
    26    -0.053041
    27    -0.022486
    28    -0.416816
    29     0.033548
    30    -0.103680
    31     0.019292
    32    -0.085007
    33     0.220611
    34    -0.038140
    35     0.002705
    36     0.419565
    37    -0.190679
    38     0.022627
    39    -0.043466
    40     0.012594
    41    -0.029709
    42    -0.001710
    43     0.006865
    44    -0.006056
    45    -0.039173
    46     0.073875
    47     0.014096
    48    -0.001377
    49    -0.023128
    50     0.084221
    51     0.019422
    52    -0.023803
    53    -0.002766
    54     0.000917
    55    -0.002285
    56     0.001074
    57    -0.000405
    58     0.000525
    59    -0.000233
    60     0.012348
    61    -0.085500
    62    -0.005077
    63     0.004165
    64     0.016660
    65    -0.005185
    66    -0.020368
    67    -0.039903
    68     0.003717
    69     0.001875
    70     0.001411
    71     0.000718
    72     0.005093
    73    -0.001034
    74     0.008059
    75     0.056892
    76     0.196511
    77    -0.048145
    78    -0.019024
    79     0.036755
    80     0.221527
    81     0.055994
    82    -0.092742
    83    -0.548155
    84     0.038336
    85    -0.051825
    86    -0.546271
    87     0.021530
    88     0.035698
    89    -0.060490
    90    -0.090655
    91    -0.354836
    92     0.106267
    93     0.001111
    94     0.013425
    95    -0.063200
    96     0.002129
    97     0.000793
    98    -0.004385
    99    -0.017382
   100     0.019693
   101     0.001285
   102     0.003762
   103     0.002594
   104     0.002267
   105    -0.000264
   106     0.000547
   107    -0.000094
   108     0.030629
   109     0.122283
   110     0.000626
   111     0.010725
   112     0.001072
   113     0.017443
   114     0.025121
   115     0.166603
   116    -0.035111
   117     0.060384
   118    -0.023033
   119     0.064772
   120    -0.092415
   121     0.004858
   122    -0.000760
   123    -0.004749
   124    -0.000876
   125     0.006361
   126    -0.000191
   127    -0.001962
   128     0.011559
   129     0.009374
   130     0.003697
   131    -0.004576
   132     0.001321
   133     0.008362
   134    -0.001978
   135     0.001186
   136    -0.001315
   137     0.002240
   138    -0.001447
   139    -0.010069
   140    -0.000453
   141    -0.000037
   142    -0.000133
   143     0.002454
   144     0.042127
   145     0.001050
   146    -0.000383
   147     0.001393
   148     0.000496
   149     0.017244
   150    -0.035940
   151     0.004280
   152    -0.009596
   153    -0.051738
   154     0.017102
   155     0.023700
   156     0.156812
   157     0.002379
   158     0.002452
   159     0.004963
   160    -0.001836
   161    -0.007865
   162    -0.002307
   163    -0.001083
   164     0.004316
   165    -0.034616
   166     0.000070
   167    -0.001041
   168    -0.000023
   169    -0.011167
   170    -0.006546
   171     0.004881
   172     0.002749
   173     0.002128
   174     0.002218
   175    -0.000228
   176    -0.000217
   177     0.000210
   178     0.024700
   179    -0.042739
   180    -0.003660
   181     0.000158
   182    -0.000969
Sym=    48a
Ene=   -0.100187E-01
Spin= Alpha
Occup= 0.025023
     1    -0.001493
     2     0.034358
     3     0.002230
     4     0.002399
     5     0.001683
     6    -0.000616
     7     0.000149
     8    -0.043714
     9     0.043462
    10     0.007921
    11     0.000784
    12    -0.036605
    13    -0.031698
    14     0.005522
    15     0.082893
    16    -0.146673
    17    -0.123263
    18     0.202540
    19    -0.006284
    20     0.028672
    21    -0.072602
    22     0.001441
    23     0.083046
    24     0.019114
    25    -0.002494
    26    -0.024008
    27    -0.367173
    28     1.034616
    29     0.112251
    30    -0.037087
    31    -0.089471
    32    -0.273786
    33     0.087087
    34     0.238656
    35    -0.466111
    36     0.049015
    37     0.333302
    38    -0.389389
    39     0.567076
    40    -0.175740
    41     0.009595
    42     0.340957
    43    -0.108699
    44    -0.002351
    45     0.008947
    46    -0.212359
    47     0.008546
    48     0.000391
    49    -0.014847
    50    -0.047687
    51    -0.068273
    52     0.085603
    53     0.002870
    54    -0.006033
    55    -0.001225
    56    -0.004693
    57    -0.000545
    58    -0.000004
    59     0.000630
    60    -0.007294
    61     0.044172
    62    -0.008017
    63     0.006191
    64     0.008761
    65    -0.015579
    66     0.022032
    67     0.005213
    68     0.000327
    69    -0.002435
    70     0.001560
    71    -0.000219
    72     0.000852
    73     0.001639
    74    -0.002995
    75    -0.024105
    76    -0.117977
    77     0.107815
    78     0.008551
    79    -0.015343
    80     0.002691
    81    -0.011988
    82     0.028859
    83     0.013517
    84    -0.139174
    85     0.011403
    86     0.029320
    87    -0.050795
    88    -0.061210
    89     0.132298
    90    -0.013089
    91     0.061094
    92    -0.083367
    93    -0.002381
    94     0.005111
    95    -0.023712
    96    -0.003490
    97     0.002898
    98     0.003321
    99    -0.023856
   100    -0.035114
   101    -0.000413
   102     0.000906
   103    -0.000445
   104     0.002855
   105     0.000247
   106    -0.000988
   107    -0.001467
   108    -0.005645
   109    -0.496715
   110     0.018247
   111    -0.002289
   112    -0.008757
   113    -0.008929
   114     0.043669
   115    -0.358837
   116     0.007613
   117     0.004177
   118    -0.005518
   119    -0.070787
   120     0.023749
   121     0.191886
   122     0.000422
   123     0.008026
   124     0.018259
   125     0.001673
   126    -0.011080
   127    -0.003815
   128    -0.015802
   129    -0.021597
   130    -0.003544
   131     0.004057
   132     0.003280
   133     0.008271
   134    -0.008296
   135     0.001300
   136    -0.006092
   137     0.002228
   138     0.009654
   139    -0.030867
   140    -0.001415
   141    -0.002228
   142     0.004429
   143     0.000062
   144     0.008708
   145    -0.000338
   146     0.001867
   147    -0.000988
   148    -0.000245
   149     0.043676
   150    -0.155515
   151    -0.020063
   152     0.007740
   153     0.016156
   154    -0.051192
   155    -0.051312
   156     0.070223
   157     0.004082
   158     0.005990
   159     0.010037
   160    -0.000428
   161     0.002486
   162     0.000455
   163    -0.000217
   164    -0.000546
   165     0.000843
   166     0.000883
   167     0.001496
   168     0.000108
   169     0.004082
   170    -0.001194
   171    -0.013018
   172    -0.000181
   173    -0.000476
   174    -0.000010
   175    -0.000364
   176    -0.000374
   177    -0.000016
   178     0.002958
   179     0.028039
   180     0.001553
   181     0.001580
   182    -0.001051
Sym=    49a
Ene=   -0.327803E-01
Spin= Alpha
Occup= 0.043675
     1    -0.003859
     2     0.000147
     3    -0.000103
     4    -0.000530
     5    -0.000247
     6    -0.000712
     7    -0.004844
     8    -0.008125
     9    -0.025096
    10     0.001235
    11    -0.002829
    12    -0.000244
    13     0.002447
    14     0.010922
    15     0.002814
    16    -0.000533
    17     0.016311
    18     0.007400
    19     0.000653
    20    -0.006801
    21     0.002286
    22     0.003243
    23    -0.003199
    24    -0.001114
    25    -0.000445
    26    -0.002584
    27    -0.003201
    28    -0.009998
    29     0.001922
    30    -0.004929
    31     0.000171
    32    -0.004140
    33     0.012037
    34    -0.001373
    35     0.001890
    36     0.010735
    37     0.002450
    38     0.001511
    39    -0.004603
    40    -0.001582
    41     0.002066
    42    -0.003282
    43     0.006279
    44     0.001817
    45    -0.005002
    46    -0.037107
    47    -0.021147
    48     0.003021
    49     0.001026
    50    -0.009451
    51    -0.009281
    52     0.012901
    53    -0.013293
    54    -0.004057
    55     0.011576
    56     0.004228
    57     0.004738
    58    -0.004552
    59    -0.127524
    60    -0.403628
    61    -0.108820
    62     0.619442
    63    -0.324216
    64    -0.005454
    65    -0.213401
    66     0.101276
    67     0.024959
    68    -0.021676
    69    -0.007013
    70     0.001266
    71     0.030855
    72    -0.005538
    73     0.004325
    74     0.001391
    75     0.009541
    76     0.030483
    77     0.070216
    78    -0.015611
    79    -0.001894
    80    -0.002125
    81     0.020117
    82    -0.011093
    83     0.006635
    84    -0.004788
    85    -0.022718
    86     0.009314
    87     0.004675
    88    -0.004404
    89     0.016002
    90    -0.016117
    91     0.000195
    92    -0.001435
    93     0.000130
    94    -0.001810
    95     0.016363
    96     0.002982
    97     0.000248
    98     0.004789
    99     0.003459
   100    -0.003606
   101     0.008800
   102    -0.000867
   103     0.000130
   104    -0.000965
   105    -0.000143
   106    -0.000396
   107    -0.000395
   108     0.001265
   109     0.017797
   110    -0.000038
   111    -0.000141
   112     0.000980
   113    -0.000741
   114     0.000794
   115    -0.008708
   116     0.004507
   117    -0.005640
   118    -0.000105
   119    -0.012597
   120     0.016844
   121    -0.004479
   122    -0.000582
   123    -0.000226
   124    -0.000150
   125    -0.000699
   126     0.000386
   127    -0.000452
   128    -0.000076
   129     0.001676
   130    -0.000477
   131     0.000113
   132     0.000003
   133    -0.027062
   134     0.006316
   135    -0.009929
   136    -0.006363
   137    -0.002642
   138    -0.000016
   139     0.002783
   140    -0.000112
   141     0.000864
   142    -0.000333
   143    -0.016469
   144    -0.016840
   145     0.000170
   146     0.000300
   147     0.002311
   148     0.130130
   149     0.399528
   150     0.124029
   151     0.622369
   152    -0.289742
   153    -0.041603
   154    -0.241266
   155     0.106148
   156    -0.015690
   157     0.050516
   158     0.002173
   159    -0.014541
   160    -0.023602
   161    -0.012882
   162     0.005541
   163     0.000653
   164    -0.000972
   165     0.008016
   166     0.004206
   167    -0.002804
   168     0.004512
   169    -0.004172
   170     0.005118
   171    -0.011129
   172    -0.001013
   173    -0.000306
   174     0.000478
   175     0.000371
   176     0.000074
   177    -0.000539
   178     0.015212
   179     0.002382
   180    -0.003591
   181     0.002178
   182     0.008061
Sym=    50a
Ene=   -0.376449E-02
Spin= Alpha
Occup= 0.005052
     1    -0.028841
     2     0.002571
     3     0.483874
     4     0.406022
     5     0.093006
     6    -0.000236
     7    -0.002793
     8     0.099377
     9    -0.403351
    10    -0.034748
    11    -0.032878
    12    -0.013836
    13     0.081271
    14     0.039346
    15     0.030383
    16     0.327160
    17     0.456197
    18    -0.138854
    19    -0.386197
    20     0.446356
    21    -0.037694
    22     0.075839
    23    -0.128781
    24    -0.014443
    25     0.000259
    26     0.002150
    27     0.043175
    28    -0.209596
    29    -0.000771
    30     0.006503
    31     0.000348
    32    -0.005784
    33    -0.011235
    34     0.006269
    35     0.127854
    36    -0.005463
    37    -0.031922
    38    -0.017812
    39     0.025800
    40     0.000293
    41     0.036545
    42     0.021711
    43     0.006975
    44    -0.000558
    45    -0.024259
    46     0.497801
    47    -0.018666
    48     0.022957
    49    -0.000396
    50     0.104083
    51     0.224722
    52    -0.161688
    53     0.015680
    54    -0.006126
    55    -0.005682
    56    -0.003310
    57    -0.017643
    58    -0.006950
    59    -0.010426
    60    -0.008129
    61    -0.280802
    62     0.006731
    63     0.089806
    64    -0.033092
    65    -0.165612
    66     0.084654
    67    -0.181857
    68     0.005966
    69    -0.025068
    70     0.019521
    71    -0.014511
    72     0.002878
    73     0.003920
    74     0.001011
    75     0.011792
    76     0.012747
    77     0.011719
    78    -0.006171
    79     0.006958
    80     0.000197
    81     0.042257
    82    -0.059251
    83    -0.005859
    84    -0.057474
    85    -0.048080
    86    -0.024090
    87    -0.042055
    88    -0.009785
    89    -0.026376
    90    -0.007628
    91    -0.006362
    92     0.013488
    93    -0.000769
    94    -0.010737
    95    -0.004168
    96     0.002380
    97    -0.015114
    98     0.029906
    99    -0.019260
   100     0.060645
   101    -0.066448
   102     0.003084
   103    -0.004055
   104    -0.005109
   105    -0.002827
   106     0.008331
   107    -0.001809
   108    -0.027030
   109     0.204162
   110     0.004046
   111    -0.007922
   112     0.018560
   113     0.013481
   114     0.083782
   115    -0.014421
   116     0.124618
   117    -0.065919
   118    -0.000359
   119     0.107815
   120    -0.245030
   121     0.031295
   122     0.045780
   123    -0.020234
   124     0.008618
   125     0.014922
   126    -0.024305
   127    -0.004659
   128     0.052922
   129    -0.046102
   130     0.011799
   131     0.008643
   132    -0.013337
   133    -0.008371
   134    -0.014400
   135     0.007070
   136    -0.008211
   137     0.000271
   138    -0.007511
   139     0.024170
   140    -0.000300
   141     0.004196
   142    -0.001874
   143    -0.027227
   144     0.012296
   145    -0.006520
   146    -0.003317
   147    -0.000094
   148     0.001759
   149    -0.003904
   150     0.204802
   151    -0.012431
   152     0.004988
   153     0.004937
   154    -0.132946
   155     0.063164
   156     0.050778
   157     0.006152
   158     0.001721
   159    -0.004488
   160    -0.007958
   161    -0.003873
   162     0.002050
   163    -0.001440
   164    -0.014564
   165     0.028665
   166    -0.003756
   167     0.001183
   168    -0.007060
   169    -0.015346
   170    -0.011085
   171    -0.010258
   172    -0.002120
   173    -0.002811
   174    -0.001821
   175    -0.000710
   176     0.000871
   177     0.000807
   178    -0.054170
   179     0.075619
   180     0.008323
   181     0.004300
   182    -0.014042
Sym=    51a
Ene=   -0.250391E-02
Spin= Alpha
Occup= 0.001873
     1     0.037389
     2    -0.017198
     3     0.005917
     4    -0.004311
     5     0.001936
     6     0.002233
     7     0.007040
     8     0.075595
     9    -0.055982
    10     0.013886
    11     0.031444
    12     0.011592
    13    -0.049904
    14    -0.139898
    15    -0.014068
    16    -0.024066
    17    -0.015131
    18     0.029714
    19     0.018184
    20     0.092675
    21     0.006340
    22     0.112357
    23     0.008138
    24    -0.003726
    25     0.000330
    26     0.002243
    27    -0.001266
    28     0.039251
    29     0.001670
    30     0.002212
    31     0.001114
    32    -0.006844
    33    -0.004187
    34    -0.004367
    35     0.007902
    36    -0.018909
    37     0.013174
    38    -0.003667
    39     0.007542
    40    -0.003673
    41     0.012163
    42     0.007857
    43     0.002466
    44    -0.001758
    45     0.062668
    46     0.015730
    47    -0.005930
    48     0.035077
    49     0.024385
    50     0.032190
    51     0.063183
    52    -0.000181
    53    -0.029396
    54     0.006075
    55     0.049138
    56     0.017462
    57     0.026405
    58    -0.088699
    59    -0.006957
    60     0.031480
    61    -0.124686
    62     0.106034
    63    -0.116259
    64    -0.041729
    65     0.027609
    66    -0.181470
    67    -0.165657
    68    -0.206158
    69     0.272921
    70    -0.033089
    71     0.029823
    72    -0.219160
    73     0.370462
    74     0.001328
    75     0.007768
    76     0.023163
    77    -0.109981
    78    -0.002044
    79     0.003794
    80     0.005608
    81     0.031020
    82    -0.006987
    83    -0.030752
    84    -0.012219
    85    -0.019674
    86     0.022473
    87     0.006603
    88    -0.019200
    89     0.023092
    90     0.013007
    91    -0.035706
    92    -0.010280
    93     0.007838
    94     0.060095
    95    -0.119885
    96    -0.015243
    97    -0.002961
    98    -0.022454
    99     0.024006
   100    -0.004781
   101     0.072940
   102    -0.000941
   103     0.013838
   104    -0.007978
   105     0.006979
   106    -0.003407
   107    -0.009827
   108    -0.012132
   109     0.021917
   110    -0.004169
   111    -0.002633
   112     0.010320
   113     0.001562
   114     0.006217
   115     0.005664
   116     0.000156
   117     0.000794
   118    -0.001393
   119     0.002766
   120    -0.040211
   121    -0.017446
   122     0.002426
   123    -0.000056
   124    -0.001187
   125     0.005531
   126     0.000249
   127    -0.003328
   128     0.008596
   129     0.038589
   130    -0.001049
   131     0.001233
   132    -0.001825
   133     0.017540
   134     0.017495
   135     0.011743
   136     0.013683
   137     0.030527
   138     0.006405
   139     0.007864
   140     0.001237
   141     0.005964
   142     0.003812
   143     0.001849
   144     0.027474
   145    -0.004670
   146     0.002681
   147    -0.003602
   148     0.010699
   149     0.058839
   150    -0.094721
   151     0.057599
   152    -0.026446
   153     0.018454
   154     0.129720
   155     0.062766
   156     0.121330
   157    -0.023569
   158     0.034399
   159     0.000491
   160    -0.076626
   161    -0.043974
   162    -0.003857
   163    -0.004553
   164    -0.023576
   165    -0.010054
   166    -0.002686
   167     0.018909
   168    -0.028110
   169     0.029373
   170    -0.012644
   171    -0.033978
   172    -0.006606
   173    -0.004727
   174     0.006486
   175     0.013918
   176    -0.006104
   177     0.008195
   178    -0.056773
   179     0.028984
   180     0.369470
   181    -0.566993
   182    -0.017638
Sym=    52a
Ene=   -0.188038E-01
Spin= Alpha
Occup= 0.023105
     1    -0.001544
     2    -0.008872
     3     0.000847
     4     0.000370
     5    -0.000161
     6    -0.001080
     7    -0.007200
     8    -0.044982
     9    -0.022166
    10     0.003661
    11    -0.001358
    12    -0.001964
    13    -0.041037
    14     0.007723
    15     0.006170
    16    -0.028033
    17     0.028678
    18     0.000160
    19    -0.015167
    20    -0.004522
    21    -0.004570
    22     0.002009
    23     0.012298
    24     0.000856
    25    -0.000993
    26    -0.007029
    27    -0.013667
    28    -0.047970
    29     0.000455
    30    -0.005092
    31     0.002095
    32     0.000606
    33     0.011228
    34    -0.015021
    35     0.010520
    36     0.017461
    37    -0.031460
    38    -0.006854
    39    -0.007135
    40     0.010705
    41    -0.010325
    42     0.007830
    43    -0.005418
    44     0.000455
    45    -0.001302
    46     0.011324
    47    -0.001649
    48    -0.000768
    49     0.000519
    50     0.014740
    51     0.002819
    52     0.000091
    53    -0.000071
    54    -0.000054
    55     0.000016
    56     0.000341
    57    -0.000484
    58    -0.000543
    59     0.000434
    60     0.000840
    61     0.015135
    62    -0.001816
    63     0.000388
    64     0.000436
    65     0.002327
    66     0.006909
    67    -0.002551
    68     0.000118
    69     0.000101
    70     0.000408
    71    -0.000290
    72     0.000323
    73     0.000229
    74    -0.000756
    75    -0.005362
    76    -0.017151
    77    -0.006156
    78     0.000063
    79    -0.001377
    80     0.001175
    81     0.003642
    82    -0.007108
    83    -0.003705
    84     0.007294
    85    -0.007456
    86    -0.013969
    87    -0.006673
    88     0.005876
    89    -0.003834
    90     0.000396
    91    -0.001668
    92     0.002480
    93     0.000102
    94    -0.000701
    95     0.006551
    96     0.000005
    97    -0.000114
    98    -0.000127
    99    -0.001144
   100     0.001395
   101    -0.004812
   102    -0.000412
   103    -0.000388
   104     0.000084
   105    -0.000255
   106     0.000434
   107    -0.000116
   108    -0.001889
   109     0.022274
   110     0.000566
   111     0.000932
   112    -0.002065
   113    -0.155111
   114    -0.623795
   115     0.078764
   116     0.474251
   117     0.483149
   118     0.420359
   119    -0.077980
   120    -0.069498
   121    -0.055623
   122    -0.020029
   123    -0.004719
   124     0.008938
   125    -0.045860
   126    -0.044935
   127    -0.040834
   128     0.907658
   129     0.193562
   130    -0.001973
   131     0.001999
   132    -0.000347
   133    -0.002722
   134    -0.004818
   135     0.000110
   136    -0.001480
   137     0.000476
   138    -0.001639
   139    -0.002612
   140    -0.000076
   141     0.000189
   142     0.000661
   143    -0.000031
   144     0.005629
   145     0.000158
   146    -0.000146
   147    -0.000025
   148     0.000456
   149     0.004896
   150     0.004051
   151    -0.000716
   152    -0.000972
   153     0.000216
   154     0.001623
   155    -0.012645
   156     0.001598
   157     0.000701
   158     0.000263
   159     0.001620
   160    -0.000186
   161     0.000045
   162     0.000151
   163    -0.000052
   164     0.000846
   165    -0.004853
   166     0.000072
   167    -0.000070
   168    -0.000134
   169    -0.001492
   170    -0.001032
   171     0.000351
   172     0.000399
   173     0.000399
   174     0.000326
   175     0.000018
   176    -0.000034
   177    -0.000006
   178     0.000148
   179     0.004901
   180     0.000088
   181     0.000115
   182    -0.000395
Sym=    53a
Ene=   -0.253200E-02
Spin= Alpha
Occup= 0.001959
     1     0.048799
     2    -0.040311
     3     0.004165
     4     0.004963
     5    -0.000544
     6     0.002438
     7     0.010032
     8     0.060942
     9    -0.006464
    10    -0.002299
    11     0.022758
    12     0.001146
    13     0.006771
    14    -0.098172
    15     0.007063
    16    -0.021950
    17    -0.040185
    18     0.015136
    19     0.007514
    20     0.072018
    21     0.007097
    22     0.036310
    23     0.011932
    24     0.013040
    25    -0.000261
    26    -0.001552
    27     0.005027
    28    -0.059176
    29    -0.004064
    30    -0.003661
    31    -0.003863
    32     0.013704
    33    -0.002182
    34     0.017501
    35    -0.004308
    36     0.090428
    37    -0.042250
    38     0.032917
    39    -0.023576
    40    -0.011114
    41    -0.039258
    42     0.018867
    43    -0.002449
    44     0.000838
    45     0.113617
    46    -0.100993
    47    -0.068188
    48     0.019707
    49     0.064053
    50    -0.208806
    51    -0.035626
    52     0.021066
    53    -0.003052
    54     0.006454
    55     0.046358
    56     0.002303
    57    -0.010846
    58    -0.025186
    59     0.012593
    60     0.169220
    61    -0.601405
    62    -0.154799
    63     0.038063
    64    -0.045634
    65    -0.324201
    66     0.193837
    67    -0.145060
    68     0.074920
    69    -0.018305
    70     0.009321
    71     0.013023
    72    -0.029783
    73     0.030331
    74     0.002552
    75     0.015329
    76     0.073486
    77     0.141028
    78     0.016074
    79     0.010963
    80     0.005153
    81    -0.069272
    82    -0.052993
    83     0.001660
    84    -0.123302
    85    -0.014748
    86    -0.111326
    87     0.033545
    88     0.057099
    89    -0.060189
    90     0.091002
    91     0.197932
    92     0.117562
    93     0.001640
    94    -0.009152
    95     0.075015
    96    -0.012639
    97     0.003859
    98    -0.010459
    99     0.044012
   100    -0.042443
   101     0.021935
   102    -0.008004
   103    -0.001289
   104    -0.009164
   105    -0.001899
   106    -0.003408
   107    -0.002952
   108     0.003385
   109    -0.001056
   110     0.000468
   111     0.002141
   112    -0.004586
   113    -0.003342
   114    -0.024782
   115     0.015983
   116    -0.006245
   117     0.000270
   118     0.014980
   119    -0.026789
   120    -0.012366
   121     0.015009
   122    -0.013456
   123    -0.000636
   124     0.009995
   125     0.023703
   126     0.002542
   127    -0.001710
   128    -0.004790
   129     0.019466
   130    -0.004351
   131    -0.006188
   132    -0.007241
   133    -0.214360
   134     0.172256
   135    -0.433590
   136     0.068768
   137     0.492437
   138     0.007475
   139     0.011425
   140     0.004554
   141     0.001157
   142    -0.001662
   143     0.031136
   144    -0.160569
   145    -0.002901
   146     0.001869
   147     0.001661
   148     0.005966
   149     0.055625
   150     0.217383
   151    -0.121121
   152     0.063589
   153     0.085555
   154    -0.438226
   155    -0.054000
   156     0.174028
   157     0.058113
   158    -0.190914
   159     0.155652
   160     0.318977
   161    -0.068691
   162    -0.240813
   163     0.000990
   164    -0.006111
   165     0.037937
   166    -0.013941
   167     0.025001
   168    -0.000609
   169     0.001690
   170     0.047052
   171     0.001596
   172    -0.004584
   173    -0.004040
   174    -0.002963
   175     0.010762
   176    -0.001721
   177    -0.000932
   178     0.043381
   179    -0.074354
   180     0.012941
   181    -0.002800
   182     0.010261
Sym=    54a
Ene=   -0.219364E-01
Spin= Alpha
Occup= 0.023361
     1    -0.002034
     2    -0.025577
     3    -0.000301
     4    -0.000147
     5    -0.000896
     6    -0.001794
     7    -0.012152
     8    -0.020306
     9    -0.043441
    10    -0.001213
    11    -0.002639
    12     0.004095
    13     0.006347
    14     0.006832
    15    -0.022246
    16    -0.028500
    17     0.043938
    18    -0.015380
    19    -0.001305
    20    -0.001203
    21    -0.003719
    22    -0.003747
    23    -0.001226
    24     0.007672
    25    -0.000136
    26    -0.000868
    27    -0.000376
    28    -0.007475
    29     0.000563
    30    -0.000333
    31    -0.000023
    32    -0.001110
    33     0.001184
    34    -0.000448
    35     0.002206
    36     0.000425
    37    -0.000924
    38     0.001374
    39    -0.000623
    40    -0.001568
    41     0.001018
    42    -0.003621
    43     0.000750
    44    -0.006157
    45    -0.020469
    46     0.027271
    47     0.010720
    48     0.010848
    49    -0.010729
    50    -0.035874
    51     0.009312
    52    -0.000503
    53    -0.003766
    54     0.005237
    55    -0.001476
    56    -0.004344
    57    -0.005168
    58     0.007436
    59     0.001796
    60     0.007508
    61     0.017815
    62     0.001557
    63    -0.000938
    64    -0.000345
    65    -0.005673
    66    -0.002507
    67    -0.003850
    68     0.000657
    69    -0.000525
    70    -0.001702
    71     0.001170
    72    -0.000036
    73    -0.003492
    74     0.000221
    75     0.001371
    76    -0.000076
    77     0.016992
    78     0.000382
    79     0.000018
    80    -0.000106
    81     0.000594
    82    -0.000111
    83     0.000124
    84    -0.010459
    85     0.005680
    86    -0.000613
    87     0.000833
    88    -0.000863
    89     0.000778
    90    -0.001040
    91    -0.000415
    92     0.000030
    93    -0.144247
    94    -0.532930
    95    -0.047244
    96     0.483411
    97    -0.409310
    98    -0.482091
    99     0.026082
   100    -0.015897
   101    -0.042965
   102    -0.001096
   103     0.014180
   104     0.006549
   105     0.045759
   106     0.042025
   107    -0.032331
   108     0.001134
   109     0.013119
   110     0.000264
   111    -0.000369
   112    -0.000216
   113     0.000745
   114    -0.001405
   115     0.020939
   116     0.000667
   117     0.000550
   118    -0.001379
   119    -0.009923
   120    -0.000529
   121    -0.001068
   122    -0.000153
   123    -0.000194
   124    -0.000403
   125    -0.000129
   126     0.000475
   127    -0.000026
   128     0.001284
   129     0.005608
   130    -0.000197
   131    -0.000467
   132     0.000171
   133    -0.000975
   134     0.004609
   135    -0.000072
   136     0.000401
   137    -0.000358
   138     0.926094
   139     0.111166
   140     0.024381
   141    -0.032577
   142    -0.032418
   143    -0.007400
   144    -0.045971
   145     0.000912
   146     0.000306
   147    -0.000080
   148     0.000532
   149    -0.001796
   150     0.014720
   151     0.000781
   152    -0.001403
   153    -0.000335
   154    -0.003806
   155     0.009185
   156     0.008893
   157    -0.000649
   158    -0.000377
   159    -0.000772
   160    -0.000510
   161    -0.000802
   162    -0.000175
   163     0.000322
   164    -0.001139
   165     0.011733
   166     0.000693
   167     0.000730
   168     0.001206
   169     0.006326
   170    -0.001549
   171    -0.007560
   172    -0.000422
   173    -0.000986
   174     0.000461
   175    -0.000619
   176     0.000421
   177     0.000064
   178     0.000815
   179     0.001659
   180    -0.001452
   181     0.000491
   182    -0.000137
Sym=    55a
Ene=   -0.115220E-01
Spin= Alpha
Occup= 0.017573
     1     0.001101
     2     0.008711
     3    -0.000496
     4    -0.000800
     5     0.000196
     6    -0.000380
     7    -0.001923
     8     0.015382
     9    -0.080223
    10     0.000408
    11    -0.000776
    12    -0.000006
    13    -0.000440
    14     0.002351
    15     0.001160
    16     0.012088
    17     0.033013
    18    -0.006928
    19     0.004317
    20    -0.003066
    21    -0.011847
    22     0.005162
    23    -0.006585
    24    -0.010861
    25    -0.000187
    26    -0.001322
    27    -0.003190
    28    -0.017050
    29    -0.000516
    30    -0.000497
    31    -0.000137
    32     0.002654
    33     0.001404
    34     0.001165
    35     0.011037
    36     0.006394
    37    -0.002107
    38     0.002798
    39     0.004232
    40    -0.007265
    41    -0.000205
    42    -0.005720
    43     0.001541
    44    -0.159036
    45    -0.754264
    46     0.078828
    47    -0.902856
    48    -0.029971
    49    -0.089908
    50    -0.096658
    51     0.003644
    52    -0.009181
    53    -0.150448
    54     0.055050
    55     0.039285
    56     0.014793
    57    -0.045451
    58    -0.006303
    59     0.001196
    60    -0.023746
    61     0.104864
    62     0.045393
    63    -0.005599
    64     0.018243
    65    -0.019156
    66    -0.017299
    67     0.048777
    68    -0.004908
    69     0.001092
    70    -0.003406
    71    -0.000356
    72     0.002710
    73     0.003426
    74     0.000489
    75     0.003044
    76     0.001684
    77     0.025894
    78     0.003086
    79     0.000467
    80    -0.001007
    81    -0.006031
    82    -0.001690
    83     0.004114
    84    -0.022552
    85     0.009766
    86    -0.001498
    87     0.002231
    88    -0.003905
    89     0.004116
    90    -0.000902
    91     0.004354
    92     0.002679
    93     0.001824
    94    -0.008979
    95     0.049677
    96    -0.012394
    97     0.012104
    98     0.009972
    99    -0.066626
   100    -0.037670
   101    -0.028606
   102    -0.000703
   103    -0.003656
   104    -0.002191
   105    -0.004648
   106     0.002709
   107     0.000134
   108    -0.001842
   109     0.038076
   110    -0.000300
   111     0.000545
   112    -0.000679
   113    -0.000248
   114    -0.006487
   115     0.013875
   116    -0.004641
   117     0.001413
   118     0.001151
   119    -0.013571
   120    -0.000514
   121     0.008913
   122    -0.001193
   123    -0.000241
   124     0.000282
   125     0.000064
   126     0.000465
   127    -0.000494
   128    -0.000162
   129    -0.000024
   130    -0.000083
   131    -0.000086
   132     0.000421
   133     0.002362
   134    -0.001916
   135    -0.001443
   136    -0.000407
   137     0.000340
   138     0.013093
   139    -0.010355
   140    -0.002119
   141     0.004153
   142    -0.001005
   143     0.862685
   144     0.202986
   145    -0.152901
   146     0.000985
   147    -0.017239
   148     0.000162
   149     0.003554
   150    -0.015751
   151    -0.002969
   152    -0.002396
   153     0.000862
   154     0.007953
   155    -0.008814
   156    -0.016441
   157     0.000975
   158    -0.000506
   159     0.000610
   160     0.001329
   161     0.000672
   162     0.000144
   163     0.002027
   164    -0.012232
   165     0.051258
   166     0.014940
   167     0.002651
   168    -0.000423
   169    -0.118325
   170    -0.010728
   171     0.000320
   172    -0.000204
   173    -0.006444
   174    -0.003139
   175    -0.000967
   176    -0.004739
   177    -0.003653
   178     0.002270
   179    -0.010919
   180    -0.000434
   181    -0.001484
   182    -0.001609
Sym=    56a
Ene=   -0.787729E-02
Spin= Alpha
Occup= 0.012235
     1     0.043998
     2    -0.096096
     3    -0.005259
     4     0.001780
     5     0.002249
     6    -0.000699
     7    -0.004786
     8    -0.012465
     9    -0.073025
    10    -0.020076
    11    -0.002147
    12    -0.006157
    13     0.028806
    14    -0.003188
    15     0.035711
    16    -0.024145
    17     0.075307
    18     0.001221
    19    -0.015379
    20    -0.012052
    21    -0.002589
    22     0.000811
    23     0.021365
    24     0.005223
    25    -0.025526
    26    -0.170469
    27    -0.547353
    28     0.224078
    29    -0.192794
    30    -0.034119
    31     0.004533
    32     0.599233
    33     0.101222
    34     0.013222
    35     0.028214
    36     0.003607
    37    -0.175024
    38    -0.568268
    39     0.182344
    40     0.297480
    41    -0.181885
    42     0.083227
    43     0.001099
    44     0.002397
    45     0.002576
    46     0.025979
    47    -0.006361
    48    -0.001857
    49     0.010963
    50     0.008553
    51     0.008489
    52    -0.004756
    53    -0.000794
    54    -0.000131
    55     0.002658
    56    -0.000163
    57     0.000403
    58    -0.001932
    59     0.001533
    60     0.013699
    61     0.000826
    62     0.001500
    63    -0.009915
    64     0.001040
    65     0.006503
    66    -0.017893
    67     0.014616
    68     0.000958
    69     0.001299
    70    -0.002265
    71     0.000699
    72     0.001503
    73     0.001529
    74     0.000624
    75     0.000043
    76     0.036932
    77    -0.057467
    78     0.007798
    79    -0.009719
    80     0.006052
    81    -0.021329
    82     0.038488
    83    -0.016999
    84    -0.024617
    85    -0.020770
    86     0.033791
    87    -0.002031
    88     0.008086
    89     0.047677
    90    -0.013794
    91     0.061653
    92    -0.084336
    93    -0.000288
    94    -0.008890
    95     0.028619
    96     0.001970
    97    -0.001661
    98     0.006987
    99    -0.007374
   100     0.005649
   101    -0.026402
   102    -0.000179
   103    -0.001638
   104    -0.001738
   105    -0.000208
   106     0.000843
   107     0.000719
   108     0.602458
   109     0.215351
   110    -0.267026
   111    -0.045504
   112    -0.053661
   113    -0.004527
   114    -0.071262
   115     0.192191
   116     0.008750
   117     0.042919
   118    -0.022527
   119    -0.051487
   120     0.083469
   121    -0.086989
   122    -0.003463
   123     0.002004
   124    -0.008247
   125    -0.000370
   126     0.003896
   127     0.006125
   128    -0.024550
   129    -0.026323
   130    -0.003439
   131     0.001819
   132    -0.004922
   133     0.000217
   134    -0.000934
   135     0.000385
   136    -0.001127
   137     0.000645
   138     0.000796
   139    -0.002313
   140    -0.000407
   141     0.001085
   142    -0.000145
   143    -0.000220
   144     0.005845
   145    -0.000337
   146    -0.000709
   147     0.000782
   148     0.001845
   149     0.013699
   150    -0.015371
   151    -0.002008
   152    -0.004595
   153     0.005609
   154     0.000108
   155     0.000723
   156     0.010959
   157     0.001480
   158     0.001445
   159     0.002196
   160     0.000795
   161     0.000022
   162    -0.000496
   163    -0.000079
   164     0.000265
   165    -0.001959
   166     0.000182
   167     0.000485
   168     0.000658
   169    -0.001427
   170     0.001348
   171     0.007089
   172     0.000492
   173     0.000179
   174    -0.000033
   175     0.000132
   176    -0.000245
   177    -0.000358
   178    -0.000918
   179     0.008771
   180    -0.001389
   181    -0.001405
   182     0.003646
Sym=    57a
Ene=   -0.134765E-05
Spin= Alpha
Occup= 0.000000
     1     0.169090
     2    -0.332612
     3    -0.010596
     4    -0.080927
     5    -0.088703
     6     0.000798
     7     0.036018
     8     0.079807
     9    -0.543771
    10     0.003152
    11    -0.000199
    12     0.002290
    13     0.022754
    14     0.116430
    15    -0.033659
    16     0.271254
    17     1.089236
    18     0.741587
    19    -0.031656
    20    -0.445430
    21     0.107406
    22     0.001247
    23    -0.008173
    24     0.014997
    25    -0.000100
    26    -0.000387
    27    -0.035923
    28    -0.068797
    29    -0.000474
    30     0.000471
    31     0.002677
    32     0.006491
    33     0.000661
    34    -0.021255
    35     0.139008
    36    -0.009349
    37     0.080458
    38    -0.022028
    39    -0.020223
    40     0.027600
    41    -0.004132
    42     0.027015
    43    -0.009681
    44     0.009926
    45    -0.222850
    46     3.604356
    47    -0.005876
    48     0.100008
    49     0.091604
    50    -1.031234
    51    -0.039280
    52    -1.474954
    53     0.092921
    54    -0.283706
    55     0.069450
    56    -0.104716
    57    -0.026624
    58     0.052429
    59    -0.004310
    60     0.244525
    61    -2.495802
    62     0.025712
    63     0.147317
    64    -0.106592
    65     1.025800
    66     1.354788
    67     0.362304
    68    -0.053002
    69     0.188355
    70    -0.105155
    71    -0.092468
    72    -0.135103
    73    -0.159455
    74     0.000112
    75     0.002332
    76     0.075872
    77     0.195662
    78     0.004703
    79     0.002390
    80     0.000309
    81    -0.078624
    82    -0.046727
    83    -0.003741
    84    -0.153691
    85    -0.140582
    86     0.075844
    87     0.053485
    88    -0.004229
    89    -0.025369
    90     0.077756
    91    -0.027164
    92     0.015364
    93    -0.010845
    94     0.082128
    95    -0.276023
    96    -0.013636
    97     0.061023
    98    -0.051866
    99    -0.193328
   100    -0.167513
   101     0.430923
   102     0.066493
   103     0.115763
   104     0.093886
   105    -0.016726
   106    -0.011473
   107     0.064762
   108    -0.076640
   109     0.671728
   110    -0.006178
   111     0.002088
   112     0.087950
   113    -0.004754
   114     0.043493
   115    -0.171091
   116     0.049098
   117    -0.035620
   118    -0.032216
   119     0.133388
   120    -0.172571
   121    -0.143133
   122     0.033558
   123     0.047620
   124     0.017862
   125     0.002452
   126    -0.007337
   127    -0.017806
   128     0.112370
   129    -0.208397
   130     0.022050
   131    -0.011420
   132     0.018019
   133    -0.009457
   134    -0.156160
   135     0.065252
   136     0.072664
   137    -0.004795
   138    -0.044762
   139    -0.521074
   140    -0.111399
   141     0.136033
   142     0.141409
   143    -0.029535
   144    -2.324105
   145    -0.164054
   146    -0.007830
   147     0.180601
   148    -0.002279
   149     0.000400
   150     0.039754
   151    -0.001170
   152    -0.011338
   153     0.009439
   154    -0.453212
   155    -0.149840
   156    -0.097355
   157     0.097563
   158    -0.071450
   159     0.001008
   160     0.048806
   161     0.032102
   162    -0.023644
   163    -0.004315
   164     0.059013
   165    -0.243320
   166     0.026658
   167     0.047963
   168     0.059529
   169     0.048666
   170     0.154209
   171     0.195111
   172     0.055182
   173     0.027172
   174     0.044490
   175    -0.027002
   176     0.006330
   177    -0.025271
   178     0.553523
   179     1.312104
   180     0.418173
   181     0.160684
   182     0.466550
Sym=    58a
Ene=   -0.141289E-01
Spin= Alpha
Occup= 0.018956
     1    -0.016551
     2     0.047053
     3     0.005641
     4     0.004698
     5     0.001036
     6    -0.027289
     7    -0.168423
     8    -0.281208
     9     0.122246
    10     0.189337
    11     0.018203
    12     0.021736
    13    -0.413241
    14    -0.026696
    15    -0.051930
    16    -0.125823
    17    -0.070855
    18    -0.027905
    19    -0.204162
    20     0.034416
    21     0.061884
    22    -0.016417
    23    -0.049432
    24    -0.003439
    25     0.003531
    26     0.024156
    27     0.072451
    28    -0.019378
    29     0.005725
    30     0.000979
    31    -0.004189
    32    -0.020585
    33    -0.007826
    34     0.012236
    35    -0.048773
    36     0.023488
    37     0.050134
    38     0.013820
    39    -0.023341
    40     0.023357
    41    -0.005596
    42     0.011581
    43    -0.017553
    44    -0.004832
    45    -0.004556
    46    -0.067171
    47     0.015470
    48     0.016606
    49    -0.000931
    50     0.051604
    51    -0.028141
    52     0.010838
    53     0.006105
    54     0.002037
    55    -0.004325
    56     0.008408
    57     0.001826
    58    -0.009506
    59     0.003917
    60    -0.004465
    61     0.026350
    62    -0.032248
    63     0.010003
    64    -0.012408
    65    -0.002189
    66     0.052663
    67    -0.027164
    68    -0.001507
    69    -0.005160
    70     0.003943
    71    -0.006710
    72     0.001695
    73     0.000460
    74     0.003594
    75     0.024675
    76     0.083501
    77    -0.073244
    78    -0.000869
    79    -0.003852
    80     0.001019
    81    -0.007223
    82     0.010912
    83    -0.003036
    84    -0.004342
    85     0.015254
    86     0.021094
    87    -0.008922
    88     0.033786
    89    -0.014002
    90     0.023448
    91     0.002807
    92    -0.017369
    93     0.002479
    94    -0.028944
    95     0.091806
    96     0.009392
    97    -0.005126
    98    -0.008739
    99     0.075246
   100     0.042339
   101     0.017839
   102    -0.006592
   103     0.002700
   104    -0.002266
   105    -0.000128
   106    -0.002010
   107     0.004044
   108     0.006930
   109     0.026909
   110    -0.001832
   111     0.002562
   112     0.008143
   113     0.178974
   114     0.839843
   115    -0.560594
   116     0.794318
   117    -0.093718
   118    -0.235199
   119     0.369649
   120    -0.039184
   121    -0.135170
   122     0.054997
   123    -0.046106
   124    -0.042953
   125    -0.018094
   126    -0.040827
   127     0.006416
   128     0.006969
   129     0.083591
   130     0.006697
   131     0.007113
   132    -0.000140
   133    -0.000852
   134    -0.011949
   135     0.002774
   136     0.002544
   137    -0.000135
   138    -0.035061
   139    -0.017280
   140     0.007088
   141     0.004007
   142     0.000059
   143    -0.002546
   144     0.049518
   145    -0.000637
   146    -0.000840
   147    -0.001580
   148     0.003527
   149    -0.007355
   150     0.048676
   151     0.017481
   152    -0.019546
   153    -0.002471
   154     0.011577
   155     0.020484
   156     0.012263
   157     0.001479
   158    -0.003391
   159    -0.001471
   160    -0.002263
   161    -0.001728
   162    -0.002129
   163     0.000092
   164     0.003379
   165    -0.017106
   166    -0.001225
   167    -0.000388
   168     0.000151
   169    -0.005443
   170     0.002755
   171     0.001296
   172     0.001384
   173     0.000559
   174     0.000410
   175     0.000269
   176     0.000088
   177     0.000387
   178    -0.021686
   179    -0.044895
   180     0.003219
   181     0.003010
   182    -0.003090
Sym=    59a
Ene=   -0.132305E-02
Spin= Alpha
Occup= 0.000922
     1    -0.014035
     2     0.013298
     3    -0.004949
     4    -0.005823
     5    -0.001311
     6    -0.000837
     7     0.000529
     8     0.055817
     9    -0.176426
    10     0.006578
    11    -0.010014
    12    -0.005731
    13    -0.040497
    14     0.031925
    15     0.025024
    16    -0.045430
    17     0.088736
    18     0.049708
    19    -0.012039
    20    -0.039758
    21    -0.028476
    22     0.023825
    23     0.020470
    24    -0.039677
    25    -0.001308
    26    -0.005528
    27    -0.036695
    28    -0.093453
    29    -0.006873
    30    -0.006625
    31     0.001095
    32     0.032486
    33     0.022429
    34    -0.010748
    35    -0.067285
    36     0.133271
    37    -0.045086
    38     0.037095
    39    -0.057914
    40    -0.032717
    41    -0.021304
    42    -0.031932
    43     0.019010
    44    -0.001259
    45     0.146935
    46    -0.045690
    47    -0.045207
    48     0.016840
    49     0.099040
    50    -0.425332
    51     0.033614
    52    -0.027706
    53     0.043845
    54     0.018584
    55     0.025689
    56     0.009307
    57     0.018738
    58     0.005265
    59    -0.002373
    60    -0.050254
    61    -0.020660
    62     0.076750
    63    -0.055941
    64    -0.105452
    65     0.039005
    66     0.080007
    67    -0.215852
    68    -0.054454
    69    -0.012802
    70    -0.047658
    71     0.026911
    72     0.081112
    73    -0.019132
    74     0.000501
    75     0.007493
    76    -0.056268
    77     0.650544
    78     0.003992
    79     0.002253
    80     0.026778
    81    -0.049359
    82    -0.050927
    83    -0.055867
    84    -0.359134
    85     0.111226
    86    -0.267348
    87     0.062623
    88     0.091781
    89    -0.169727
    90     0.094192
    91     0.337517
    92     0.156014
    93     0.001145
    94    -0.020120
    95     0.116341
    96    -0.019432
    97     0.008209
    98    -0.002693
    99     0.086831
   100    -0.050844
   101    -0.000186
   102    -0.015027
   103    -0.010058
   104    -0.004265
   105    -0.000493
   106    -0.000780
   107    -0.006056
   108    -0.001017
   109     0.025016
   110    -0.012594
   111     0.013697
   112    -0.021011
   113     0.001519
   114     0.019328
   115    -0.160027
   116    -0.000936
   117     0.006402
   118    -0.004586
   119    -0.077581
   120     0.044588
   121    -0.008540
   122    -0.011913
   123    -0.021201
   124     0.025655
   125     0.027353
   126    -0.012201
   127    -0.023421
   128     0.028469
   129     0.016721
   130    -0.004444
   131    -0.011333
   132    -0.015004
   133    -0.510824
   134     0.204339
   135     0.070247
   136    -0.092349
   137     0.044018
   138     0.017379
   139    -0.000704
   140     0.005506
   141     0.002532
   142    -0.004199
   143    -0.036585
   144    -0.275143
   145    -0.016091
   146    -0.004100
   147    -0.007054
   148     0.032433
   149     0.101374
   150     0.018514
   151    -0.080225
   152     0.095881
   153     0.205885
   154    -0.494546
   155    -0.182793
   156     0.624694
   157    -0.067943
   158     0.316549
   159    -0.401432
   160    -0.042155
   161     0.803806
   162    -0.257365
   163     0.002615
   164    -0.002109
   165     0.091447
   166    -0.010041
   167     0.010859
   168     0.025412
   169    -0.001460
   170     0.035699
   171     0.063857
   172    -0.003606
   173     0.001945
   174    -0.012284
   175     0.002955
   176     0.001811
   177    -0.003646
   178    -0.001529
   179    -0.084710
   180    -0.005250
   181     0.011665
   182     0.060864
Sym=    60a
Ene=   -0.149374E-01
Spin= Alpha
Occup= 0.019176
     1    -0.019304
     2     0.052057
     3    -0.004270
     4    -0.002220
     5     0.000264
     6    -0.024785
     7    -0.148227
     8    -0.222547
     9     0.008297
    10    -0.035613
    11    -0.176653
    12    -0.041906
    13     0.069485
    14     0.357698
    15     0.082616
    16     0.066005
    17     0.113629
    18     0.039354
    19     0.038476
    20    -0.204737
    21     0.056692
    22    -0.050856
    23    -0.027158
    24    -0.071783
    25     0.000475
    26     0.002238
    27     0.020738
    28    -0.143830
    29     0.005681
    30     0.006430
    31    -0.010318
    32     0.000586
    33    -0.013617
    34     0.029215
    35     0.043409
    36     0.006249
    37     0.011466
    38     0.038389
    39    -0.005211
    40    -0.023436
    41    -0.001050
    42    -0.030745
    43    -0.008776
    44     0.003924
    45     0.017691
    46     0.188201
    47    -0.007642
    48    -0.032619
    49    -0.013768
    50    -0.011252
    51     0.049039
    52    -0.070457
    53     0.006651
    54     0.007428
    55     0.001461
    56     0.001667
    57     0.002641
    58     0.003159
    59     0.183518
    60     0.897950
    61    -0.822947
    62    -0.127168
    63    -0.798025
    64     0.149046
    65    -0.135671
    66    -0.452252
    67     0.111891
    68    -0.046856
    69     0.044426
    70    -0.051139
    71     0.032138
    72    -0.012482
    73    -0.014188
    74     0.003645
    75     0.025183
    76     0.046345
    77     0.003476
    78     0.015550
    79    -0.003484
    80     0.001508
    81    -0.019820
    82     0.007461
    83    -0.005153
    84    -0.046580
    85     0.015178
    86    -0.015156
    87    -0.019751
    88     0.003265
    89     0.002318
    90    -0.019612
    91    -0.005248
    92     0.010825
    93     0.006666
    94    -0.019285
    95     0.092986
    96     0.009420
    97    -0.016334
    98    -0.023588
    99    -0.009855
   100    -0.009987
   101    -0.084255
   102     0.000320
   103    -0.000856
   104    -0.012140
   105     0.001132
   106     0.002511
   107    -0.000638
   108     0.012168
   109     0.216262
   110    -0.011585
   111     0.010464
   112     0.000026
   113     0.002648
   114    -0.016083
   115     0.050795
   116     0.005481
   117     0.019177
   118     0.009418
   119    -0.032832
   120    -0.017125
   121     0.041890
   122    -0.008595
   123    -0.001278
   124     0.005120
   125    -0.002941
   126     0.003620
   127    -0.000315
   128    -0.015962
   129    -0.047046
   130    -0.001198
   131    -0.002026
   132     0.002963
   133     0.006799
   134    -0.025006
   135    -0.002198
   136     0.001605
   137    -0.000192
   138    -0.021096
   139    -0.048892
   140    -0.000524
   141    -0.001882
   142    -0.008647
   143    -0.004005
   144    -0.066996
   145    -0.004493
   146    -0.000418
   147     0.000135
   148     0.002595
   149     0.000489
   150     0.154190
   151    -0.010757
   152     0.001969
   153     0.000672
   154    -0.046522
   155     0.100143
   156    -0.008022
   157     0.002404
   158    -0.008584
   159     0.001284
   160     0.004217
   161     0.001236
   162     0.002137
   163    -0.001412
   164     0.000970
   165    -0.015482
   166    -0.001763
   167    -0.000754
   168    -0.003352
   169     0.004586
   170    -0.012697
   171     0.010700
   172    -0.000552
   173    -0.000138
   174     0.002209
   175     0.000861
   176    -0.000376
   177     0.000575
   178     0.022539
   179     0.090869
   180     0.002098
   181    -0.008164
   182    -0.001896
Sym=    61a
Ene=   -0.186029E-01
Spin= Alpha
Occup= 0.020082
     1     0.002841
     2    -0.029774
     3    -0.000111
     4     0.000605
     5     0.000155
     6     0.002631
     7     0.016587
     8     0.022532
     9     0.003539
    10    -0.000524
    11     0.008674
    12    -0.001034
    13    -0.000290
    14    -0.019378
    15     0.006050
    16    -0.027838
    17     0.017763
    18     0.040920
    19    -0.009737
    20     0.013514
    21     0.015152
    22    -0.006178
    23     0.008908
    24     0.026077
    25     0.000213
    26     0.001637
    27     0.003066
    28     0.015220
    29     0.000502
    30    -0.001674
    31     0.000696
    32    -0.002246
    33     0.003754
    34    -0.002737
    35    -0.007240
    36     0.000581
    37     0.003528
    38    -0.005261
    39    -0.002378
    40     0.005405
    41     0.000113
    42     0.003328
    43     0.000614
    44    -0.102037
    45    -0.240921
    46    -0.031525
    47     0.191338
    48     0.563874
    49     0.197872
    50     0.093970
    51     0.008356
    52    -0.009099
    53     0.016008
    54    -0.130102
    55     0.019489
    56    -0.045501
    57     0.005579
    58    -0.053358
    59     0.006866
    60    -0.022842
    61     0.111028
    62    -0.010335
    63    -0.025942
    64    -0.034366
    65    -0.014154
    66     0.068130
    67     0.036350
    68     0.003362
    69    -0.005134
    70    -0.009503
    71     0.001424
    72     0.002221
    73    -0.005084
    74    -0.000477
    75    -0.003148
    76    -0.003066
    77    -0.016211
    78    -0.002940
    79    -0.000225
    80     0.000518
    81     0.006505
    82     0.001781
    83    -0.000063
    84     0.014334
    85    -0.010968
    86    -0.001649
    87    -0.002699
    88     0.000259
    89     0.001243
    90     0.002494
    91     0.003266
    92    -0.003499
    93     0.167373
    94     0.710782
    95    -0.381430
    96    -0.331158
    97    -0.705660
    98    -0.128738
    99     0.153182
   100     0.272282
   101     0.044234
   102    -0.034432
   103     0.029592
   104    -0.063001
   105     0.068776
   106     0.013529
   107     0.019618
   108    -0.001949
   109     0.003139
   110     0.001462
   111    -0.001351
   112     0.000723
   113    -0.000717
   114     0.002152
   115     0.000473
   116     0.000504
   117    -0.002299
   118    -0.000002
   119     0.016047
   120    -0.009156
   121    -0.012524
   122     0.001274
   123    -0.000978
   124    -0.001039
   125     0.000121
   126    -0.001337
   127     0.000478
   128    -0.001382
   129     0.009255
   130     0.000440
   131    -0.000021
   132    -0.000831
   133     0.009210
   134    -0.017774
   135     0.000661
   136    -0.002016
   137    -0.000846
   138     0.013980
   139     0.027934
   140     0.009227
   141     0.011639
   142    -0.001926
   143     0.009077
   144     0.150263
   145    -0.003431
   146    -0.005646
   147    -0.011135
   148    -0.001315
   149    -0.004054
   150     0.006146
   151    -0.001513
   152     0.005232
   153     0.001633
   154     0.011760
   155    -0.010640
   156    -0.018616
   157    -0.000389
   158     0.001661
   159    -0.000754
   160    -0.001100
   161    -0.001823
   162     0.000523
   163     0.003674
   164    -0.004415
   165     0.011471
   166    -0.012507
   167    -0.028593
   168    -0.013265
   169     0.033587
   170     0.124634
   171     0.068781
   172     0.001444
   173    -0.002903
   174    -0.003231
   175     0.005286
   176     0.003303
   177    -0.000355
   178    -0.033664
   179    -0.014469
   180     0.001836
   181     0.001703
   182     0.005141
Sym=    62a
Ene=   -0.124624E-01
Spin= Alpha
Occup= 0.016822
     1     0.016595
     2    -0.058591
     3    -0.004706
     4    -0.001969
     5     0.001170
     6     0.002292
     7     0.013628
     8     0.032392
     9    -0.073978
    10    -0.014090
    11    -0.003936
    12     0.010595
    13    -0.003939
    14    -0.004326
    15    -0.007512
    16    -0.024108
    17     0.098279
    18    -0.074490
    19    -0.001241
    20     0.000575
    21    -0.012060
    22     0.020920
    23    -0.037283
    24    -0.008280
    25     0.018506
    26     0.118429
    27     0.297839
    28    -0.259568
    29     0.027370
    30    -0.007853
    31    -0.132132
    32    -0.041342
    33     0.018927
    34     0.280251
    35    -0.139704
    36    -0.072260
    37    -0.107698
    38    -0.197998
    39    -0.185266
    40     0.393581
    41    -0.050317
    42    -0.074915
    43     0.058322
    44    -0.001008
    45    -0.003049
    46     0.051681
    47     0.003608
    48     0.000028
    49    -0.005176
    50     0.062211
    51     0.017679
    52    -0.015214
    53     0.000068
    54     0.002452
    55     0.000898
    56     0.002951
    57     0.000516
    58    -0.003089
    59     0.001000
    60    -0.005182
    61     0.032511
    62    -0.003520
    63     0.005397
    64    -0.000715
    65     0.007428
    66     0.029486
    67    -0.023607
    68     0.000727
    69    -0.000574
    70    -0.000982
    71    -0.001835
    72    -0.000490
    73     0.000002
    74     0.001802
    75     0.011830
    76     0.082787
    77    -0.222846
    78     0.002332
    79    -0.007212
    80     0.013622
    81    -0.007039
    82     0.008439
    83    -0.039288
    84     0.147431
    85    -0.090432
    86     0.047487
    87     0.000572
    88     0.033746
    89    -0.047783
    90     0.020952
    91     0.016860
    92    -0.036653
    93     0.001117
    94    -0.007035
    95     0.031791
    96     0.002148
    97    -0.002251
    98    -0.003980
    99     0.026385
   100     0.018461
   101     0.006709
   102    -0.002355
   103     0.001410
   104     0.000524
   105    -0.000164
   106    -0.000258
   107     0.001290
   108     0.008164
   109    -0.185433
   110     0.004846
   111    -0.001113
   112    -0.008982
   113    -0.156708
   114    -0.773566
   115     0.803943
   116     0.071227
   117     0.199062
   118    -0.829268
   119     0.046383
   120     0.100374
   121    -0.483459
   122     0.036512
   123     0.029691
   124    -0.084668
   125    -0.000705
   126     0.021335
   127     0.034650
   128    -0.004269
   129    -0.012246
   130    -0.003626
   131     0.000011
   132    -0.012516
   133    -0.001747
   134     0.004441
   135     0.000564
   136     0.002070
   137     0.001761
   138    -0.006918
   139     0.005131
   140     0.002576
   141     0.000969
   142     0.000673
   143    -0.000256
   144     0.041448
   145     0.000487
   146    -0.000470
   147     0.000223
   148     0.000751
   149    -0.019583
   150     0.126953
   151     0.015886
   152    -0.002367
   153    -0.005471
   154     0.036748
   155     0.035705
   156    -0.006562
   157    -0.000986
   158    -0.002959
   159    -0.003205
   160    -0.000497
   161    -0.001095
   162    -0.002049
   163    -0.000057
   164     0.001472
   165    -0.011517
   166    -0.000673
   167    -0.000233
   168    -0.000075
   169    -0.000603
   170    -0.002016
   171    -0.001042
   172     0.000706
   173     0.000753
   174     0.000609
   175     0.000126
   176     0.000174
   177     0.000397
   178     0.005120
   179     0.004796
   180    -0.001915
   181    -0.000405
   182     0.000178
Sym=    63a
Ene=   -0.110673E-02
Spin= Alpha
Occup= 0.000819
     1     0.027278
     2    -0.040096
     3    -0.000529
     4    -0.007389
     5     0.006621
     6     0.001428
     7     0.004173
     8     0.083058
     9    -0.078661
    10    -0.021662
    11     0.002761
    12    -0.002389
    13     0.156445
    14    -0.005144
    15    -0.020446
    16    -0.033332
    17     0.069151
    18     0.046996
    19     0.142490
    20     0.006680
    21    -0.063546
    22     0.027171
    23    -0.019327
    24    -0.007105
    25     0.006069
    26     0.007716
    27     0.087147
    28     0.107268
    29    -0.010892
    30     0.025338
    31    -0.041326
    32     0.018265
    33    -0.081808
    34     0.181916
    35     0.063823
    36    -0.154297
    37     0.335541
    38     0.055615
    39     0.167610
    40     0.254935
    41    -0.182588
    42    -0.053845
    43    -0.447236
    44     0.000401
    45    -0.002900
    46    -0.047013
    47     0.038372
    48     0.031957
    49    -0.027142
    50     0.075660
    51     0.011606
    52     0.013295
    53    -0.005017
    54    -0.013175
    55    -0.011765
    56    -0.009730
    57     0.017025
    58     0.008727
    59    -0.004356
    60    -0.079201
    61     0.174811
    62     0.049754
    63     0.027660
    64    -0.009988
    65     0.083426
    66     0.052861
    67     0.019958
    68    -0.033128
    69    -0.034971
    70     0.009103
    71     0.010410
    72     0.014993
    73    -0.005289
    74     0.004204
    75     0.014066
    76     0.349420
    77    -0.781883
    78    -0.021090
    79     0.002610
    80    -0.022457
    81     0.060850
    82     0.083850
    83     0.045419
    84     0.064692
    85    -0.128661
    86     0.215957
    87     0.008819
    88     0.099864
    89     0.160615
    90     0.038290
    91    -0.055073
    92     0.240416
    93     0.000076
    94    -0.002535
    95     0.007416
    96    -0.014718
    97     0.006160
    98    -0.005125
    99     0.042012
   100    -0.007748
   101    -0.012280
   102    -0.005646
   103     0.009400
   104    -0.001529
   105     0.008730
   106    -0.005847
   107    -0.003597
   108     0.058811
   109     0.048965
   110    -0.015425
   111    -0.029884
   112    -0.123257
   113    -0.000909
   114     0.108290
   115    -0.344282
   116     0.052597
   117     0.188398
   118     0.096844
   119     0.071818
   120     0.207552
   121     0.342691
   122     0.107309
   123    -0.229364
   124     0.119131
   125    -0.390182
   126     0.264789
   127    -0.592656
   128     0.451593
   129    -0.508916
   130    -0.112162
   131     0.101638
   132    -0.246393
   133     0.024134
   134     0.016272
   135     0.015041
   136     0.001876
   137    -0.015538
   138     0.008466
   139     0.006920
   140    -0.004964
   141    -0.007821
   142     0.006227
   143    -0.031328
   144     0.112279
   145     0.002230
   146     0.001510
   147    -0.005680
   148    -0.004698
   149    -0.088336
   150     0.224149
   151     0.002885
   152     0.008952
   153    -0.027193
   154     0.039771
   155     0.090219
   156    -0.081831
   157    -0.012665
   158    -0.004284
   159    -0.030785
   160     0.005197
   161     0.000624
   162    -0.029279
   163    -0.000695
   164     0.005140
   165    -0.027715
   166     0.002905
   167    -0.005978
   168     0.001284
   169     0.002791
   170    -0.020400
   171     0.007955
   172     0.005203
   173     0.004188
   174     0.003031
   175    -0.002891
   176    -0.001479
   177     0.000939
   178    -0.022626
   179     0.048387
   180     0.004759
   181     0.010320
   182    -0.003994
Sym=    64a
Ene=   -0.205387E-02
Spin= Alpha
Occup= 0.001196
     1    -0.073161
     2     0.125510
     3    -0.007662
     4    -0.004393
     5    -0.001944
     6    -0.000950
     7    -0.004953
     8    -0.018220
     9     0.192968
    10     0.002251
    11    -0.007485
    12     0.000812
    13    -0.034608
    14    -0.015747
    15     0.000058
    16     0.114903
    17    -0.125771
    18     0.031614
    19    -0.001410
    20     0.030061
    21    -0.020421
    22    -0.013236
    23     0.032464
    24    -0.032383
    25     0.003640
    26     0.013599
    27     0.069664
    28    -0.169567
    29    -0.003106
    30     0.015371
    31    -0.006052
    32     0.004008
    33    -0.026317
    34     0.016656
    35     0.058205
    36    -0.090596
    37     0.030219
    38    -0.082991
    39     0.221790
    40     0.005781
    41    -0.010169
    42     0.010864
    43    -0.103873
    44     0.034042
    45     0.522426
    46    -0.496962
    47    -0.202225
    48     0.277712
    49    -0.280747
    50    -0.227703
    51    -0.053783
    52     0.060862
    53    -0.066831
    54     0.061657
    55     0.108740
    56    -0.142956
    57     0.110508
    58    -0.267280
    59    -0.000366
    60     0.009977
    61    -0.002188
    62    -0.059694
    63    -0.010949
    64     0.031524
    65    -0.157572
    66    -0.117954
    67     0.106397
    68    -0.023991
    69     0.032758
    70     0.022705
    71     0.008745
    72     0.011567
    73    -0.026262
    74    -0.006015
    75    -0.021383
    76    -0.215357
    77     0.284954
    78     0.006074
    79    -0.000766
    80    -0.007058
    81    -0.005865
    82     0.035126
    83    -0.000200
    84     0.140383
    85    -0.070368
    86     0.106697
    87     0.062632
    88     0.142444
    89    -0.491984
    90     0.109266
    91    -0.100984
    92     0.050341
    93    -0.002915
    94    -0.041033
    95     0.155368
    96    -0.011784
    97     0.002307
    98    -0.017414
    99     0.015489
   100    -0.070178
   101     0.029744
   102    -0.009203
   103     0.018765
   104    -0.000858
   105     0.000155
   106    -0.002745
   107    -0.000539
   108     0.051651
   109     0.013927
   110    -0.010126
   111    -0.013663
   112     0.002819
   113    -0.002759
   114    -0.012375
   115    -0.020225
   116     0.014139
   117    -0.028040
   118     0.021794
   119    -0.032219
   120     0.007134
   121     0.007161
   122    -0.022351
   123    -0.012006
   124     0.013695
   125     0.018628
   126     0.005984
   127    -0.030313
   128     0.046574
   129    -0.110666
   130    -0.010626
   131     0.001980
   132    -0.017752
   133     0.062838
   134    -0.031455
   135     0.010151
   136     0.028252
   137     0.001050
   138    -0.013443
   139     0.034179
   140     0.005692
   141    -0.006144
   142     0.011215
   143     0.027786
   144    -0.001509
   145     0.029954
   146    -0.051087
   147     0.052306
   148    -0.009494
   149    -0.110493
   150     0.223381
   151     0.123492
   152     0.020783
   153    -0.002725
   154     0.075327
   155     0.160117
   156    -0.012802
   157    -0.063564
   158    -0.029759
   159     0.011055
   160     0.010688
   161    -0.013044
   162    -0.023682
   163    -0.007674
   164     0.159468
   165    -0.731487
   166     0.059590
   167    -0.088622
   168     0.059910
   169     0.307658
   170    -0.476397
   171     0.375135
   172    -0.056010
   173     0.276926
   174     0.076183
   175    -0.345052
   176     0.248119
   177    -0.427707
   178    -0.008450
   179     0.015387
   180    -0.014315
   181    -0.001413
   182     0.006803
Sym=    65a
Ene=   -0.126039E-01
Spin= Alpha
Occup= 0.016124
     1    -0.008038
     2     0.041271
     3     0.002351
     4    -0.001249
     5     0.000307
     6     0.002859
     7     0.019058
     8     0.025303
     9    -0.016868
    10    -0.009452
    11     0.000888
    12    -0.002808
    13     0.017495
    14     0.013981
    15     0.008788
    16     0.016190
    17    -0.045491
    18     0.020881
    19     0.015182
    20    -0.015999
    21    -0.002163
    22     0.000666
    23     0.009098
    24     0.009018
    25     0.000613
    26     0.002901
    27     0.023188
    28    -0.056365
    29    -0.006402
    30     0.004618
    31    -0.007150
    32     0.022498
    33    -0.020793
    34     0.027440
    35    -0.010396
    36     0.063839
    37    -0.020381
    38     0.003542
    39     0.023057
    40    -0.010864
    41     0.009377
    42     0.012566
    43    -0.034233
    44     0.009542
    45     0.025416
    46    -0.034175
    47    -0.019516
    48    -0.001934
    49     0.013000
    50    -0.082662
    51    -0.012929
    52    -0.012568
    53    -0.010746
    54     0.003501
    55     0.004462
    56    -0.001277
    57     0.007314
    58     0.002348
    59     0.004797
    60     0.002196
    61     0.190600
    62    -0.004418
    63     0.003997
    64    -0.007688
    65     0.107361
    66     0.006954
    67     0.074761
    68    -0.003501
    69     0.000375
    70    -0.006429
    71     0.001219
    72    -0.011610
    73     0.000771
    74    -0.023156
    75    -0.149772
    76    -0.332735
    77     0.322488
    78    -0.138718
    79    -0.059856
    80     0.027752
    81     0.303339
    82     0.146316
    83    -0.054448
    84     0.062830
    85    -0.130283
    86     0.002676
    87    -0.211470
    88     0.147346
    89     0.000924
    90    -0.198683
    91     0.236847
    92     0.103580
    93    -0.000134
    94     0.002274
    95     0.000076
    96     0.002717
    97     0.002017
    98    -0.001288
    99     0.001674
   100    -0.008691
   101     0.022690
   102    -0.000024
   103     0.000535
   104     0.002213
   105     0.000057
   106    -0.001001
   107     0.000079
   108    -0.002398
   109     0.024179
   110    -0.000936
   111    -0.000257
   112    -0.001467
   113    -0.001705
   114    -0.066133
   115     0.144884
   116     0.023279
   117    -0.017945
   118     0.017439
   119    -0.002735
   120    -0.126661
   121     0.060479
   122    -0.005915
   123    -0.018207
   124     0.003865
   125     0.003279
   126    -0.000983
   127     0.000974
   128    -0.020852
   129    -0.026768
   130    -0.004555
   131    -0.009606
   132     0.000564
   133    -0.008186
   134     0.084397
   135     0.002413
   136     0.000702
   137     0.001993
   138    -0.007335
   139     0.012461
   140    -0.000995
   141     0.000195
   142     0.001409
   143     0.009339
   144    -0.060806
   145     0.001981
   146    -0.000175
   147     0.001818
   148     0.179237
   149     0.876331
   150    -0.784666
   151    -0.530542
   152    -0.413088
   153    -0.493643
   154    -0.174406
   155    -0.261357
   156    -0.450696
   157    -0.040892
   158    -0.024081
   159     0.017595
   160     0.021446
   161     0.052381
   162     0.048569
   163     0.001490
   164    -0.008603
   165     0.042341
   166    -0.001520
   167    -0.000961
   168     0.001866
   169     0.033956
   170     0.007311
   171    -0.011664
   172    -0.005297
   173    -0.000029
   174    -0.001265
   175     0.000443
   176     0.002101
   177     0.000175
   178     0.005123
   179    -0.025960
   180     0.003620
   181    -0.002568
   182     0.003600
Sym=    66a
Ene=   -0.142921E-01
Spin= Alpha
Occup= 0.014473
     1     0.055436
     2    -0.111543
     3     0.005583
     4    -0.000515
     5     0.004396
     6     0.014633
     7     0.080067
     8     0.134008
     9    -0.199694
    10     0.045274
    11     0.021664
    12    -0.151923
    13    -0.066902
    14    -0.051242
    15     0.263184
    16    -0.113764
    17     0.052563
    18     0.128416
    19    -0.036762
    20    -0.080147
    21     0.162544
    22     0.014334
    23    -0.124166
    24    -0.013658
    25     0.001409
    26     0.010100
    27     0.035951
    28    -0.051575
    29     0.005334
    30    -0.004442
    31    -0.007282
    32    -0.005260
    33     0.012269
    34     0.017604
    35    -0.006411
    36     0.018353
    37     0.023081
    38     0.009624
    39    -0.033039
    40     0.019681
    41    -0.010503
    42    -0.020552
    43     0.005322
    44    -0.005218
    45    -0.009402
    46    -0.075981
    47     0.005571
    48     0.017960
    49    -0.033538
    50     0.064227
    51    -0.028839
    52     0.000689
    53    -0.009126
    54    -0.001902
    55    -0.010725
    56    -0.001122
    57     0.002428
    58    -0.013391
    59    -0.002959
    60     0.043298
    61    -0.122247
    62     0.003482
    63     0.012035
    64     0.017562
    65     0.001024
    66    -0.061452
    67    -0.052908
    68    -0.003258
    69     0.010635
    70     0.004523
    71     0.002427
    72    -0.002520
    73     0.000848
    74     0.000809
    75     0.006172
    76     0.014969
    77     0.023375
    78     0.000269
    79     0.002726
    80     0.001527
    81     0.001060
    82    -0.006689
    83    -0.006248
    84    -0.004206
    85     0.013600
    86    -0.003885
    87     0.003802
    88     0.003532
    89    -0.014902
    90     0.014695
    91    -0.006819
    92    -0.002363
    93    -0.191779
    94    -0.890668
    95     0.694490
    96    -0.080776
    97    -0.409205
    98     0.687825
    99    -0.000312
   100     0.312348
   101    -0.499857
   102     0.082619
   103     0.044965
   104    -0.016496
   105    -0.006643
   106     0.012162
   107     0.077065
   108    -0.015065
   109     0.185902
   110    -0.008343
   111    -0.001458
   112     0.001244
   113     0.002338
   114     0.021664
   115     0.017714
   116     0.014391
   117    -0.004097
   118     0.002143
   119     0.019811
   120    -0.002691
   121    -0.020119
   122     0.006507
   123    -0.002588
   124    -0.003082
   125    -0.001348
   126    -0.003567
   127     0.002566
   128    -0.000870
   129     0.026223
   130     0.003969
   131     0.000790
   132    -0.003889
   133    -0.000316
   134    -0.017692
   135     0.000234
   136     0.001890
   137    -0.000039
   138    -0.041348
   139    -0.075383
   140    -0.003010
   141     0.014078
   142    -0.003204
   143     0.003142
   144     0.066525
   145     0.002534
   146     0.001491
   147     0.001301
   148     0.001005
   149    -0.012812
   150     0.067430
   151     0.012150
   152    -0.009551
   153    -0.002495
   154     0.001681
   155     0.030229
   156     0.010547
   157    -0.000153
   158    -0.003775
   159    -0.001317
   160     0.001230
   161     0.000581
   162    -0.001567
   163     0.001438
   164    -0.005965
   165     0.017267
   166    -0.001666
   167    -0.002285
   168    -0.002878
   169    -0.008101
   170     0.023380
   171    -0.005614
   172     0.001022
   173    -0.002245
   174     0.000559
   175     0.000269
   176     0.001029
   177    -0.000638
   178     0.005400
   179     0.058898
   180    -0.003432
   181    -0.003395
   182    -0.004050
Sym=    67a
Ene=   -0.122128E-01
Spin= Alpha
Occup= 0.012785
     1     0.019188
     2    -0.107795
     3    -0.000625
     4     0.003996
     5     0.001289
     6     0.000442
     7     0.004850
     8     0.104549
     9    -0.333458
    10    -0.000519
    11     0.003146
    12     0.014170
    13     0.024678
    14    -0.021744
    15    -0.013964
    16    -0.181757
    17     0.190240
    18    -0.017742
    19     0.038389
    20     0.005137
    21    -0.041712
    22     0.009480
    23    -0.031787
    24     0.016528
    25    -0.001042
    26    -0.007375
    27    -0.039322
    28     0.089609
    29    -0.003514
    30    -0.001509
    31     0.003589
    32     0.010307
    33     0.007125
    34    -0.004729
    35    -0.000634
    36    -0.003378
    37     0.036228
    38     0.004125
    39     0.025498
    40    -0.029342
    41     0.007530
    42     0.000406
    43    -0.001634
    44     0.000434
    45    -0.006495
    46     0.107397
    47    -0.043015
    48     0.052461
    49     0.000451
    50    -0.013964
    51     0.093476
    52    -0.030542
    53    -0.005120
    54    -0.001694
    55     0.008965
    56    -0.020110
    57    -0.006496
    58    -0.014958
    59     0.001108
    60    -0.014159
    61     0.069929
    62    -0.010363
    63    -0.001874
    64    -0.004029
    65     0.029526
    66     0.001338
    67     0.006618
    68    -0.001758
    69    -0.000425
    70    -0.005116
    71    -0.002936
    72     0.000270
    73     0.000394
    74     0.000188
    75     0.000466
    76    -0.018361
    77     0.107488
    78     0.000921
    79    -0.001762
    80    -0.004407
    81     0.000986
    82     0.003324
    83     0.011718
    84    -0.063118
    85     0.019035
    86     0.004240
    87     0.007979
    88    -0.015876
    89     0.012702
    90    -0.016115
    91    -0.014771
    92     0.009097
    93     0.188250
    94     0.889190
    95    -0.725845
    96     0.717934
    97    -0.092942
    98     0.386507
    99    -0.686123
   100     0.072825
   101    -0.420225
   102     0.023313
   103    -0.121592
   104    -0.070396
   105    -0.029698
   106     0.108026
   107    -0.021868
   108     0.000329
   109     0.062930
   110    -0.001939
   111    -0.003331
   112     0.001941
   113    -0.003171
   114    -0.049340
   115     0.119598
   116    -0.033779
   117     0.001473
   118     0.007644
   119    -0.100745
   120    -0.009098
   121     0.070813
   122    -0.010677
   123    -0.001083
   124     0.002136
   125     0.002204
   126     0.001274
   127    -0.003318
   128     0.000155
   129     0.029373
   130    -0.003070
   131     0.000175
   132     0.001719
   133     0.000336
   134     0.002039
   135     0.000142
   136    -0.000422
   137     0.000342
   138     0.042903
   139     0.018752
   140    -0.017303
   141     0.000579
   142    -0.025665
   143    -0.001045
   144    -0.079662
   145    -0.001247
   146     0.001753
   147     0.006649
   148     0.001288
   149     0.003255
   150    -0.007998
   151    -0.011178
   152     0.001723
   153     0.006822
   154    -0.013777
   155     0.006567
   156     0.031299
   157    -0.001630
   158    -0.001443
   159     0.000606
   160    -0.000029
   161    -0.001338
   162    -0.000566
   163     0.001208
   164    -0.026346
   165     0.075849
   166    -0.002724
   167     0.000155
   168    -0.003183
   169     0.018119
   170     0.065861
   171     0.011795
   172    -0.003784
   173    -0.001187
   174    -0.004191
   175     0.002254
   176    -0.000179
   177    -0.001712
   178     0.002238
   179     0.026760
   180     0.000878
   181     0.000573
   182     0.002052
Sym=    68a
Ene=   -0.160718E-02
Spin= Alpha
Occup= 0.000811
     1     0.012938
     2    -0.032388
     3    -0.002054
     4     0.000404
     5     0.006875
     6    -0.000012
     7    -0.002526
     8     0.023344
     9    -0.093219
    10     0.001434
    11     0.001223
    12    -0.002124
    13    -0.006919
    14    -0.027578
    15    -0.014624
    16    -0.059446
    17     0.065959
    18     0.047864
    19     0.002198
    20     0.012783
    21     0.012810
    22    -0.005811
    23    -0.009777
    24     0.040721
    25     0.001092
    26     0.002946
    27    -0.014562
    28     0.079721
    29    -0.001033
    30     0.003723
    31    -0.002270
    32     0.004107
    33    -0.000412
    34     0.007240
    35    -0.010956
    36    -0.060359
    37     0.087013
    38    -0.020602
    39     0.049103
    40     0.030053
    41    -0.000728
    42     0.032362
    43    -0.041561
    44    -0.000754
    45     0.014414
    46    -0.307470
    47     0.038051
    48    -0.038525
    49    -0.094211
    50     0.091237
    51     0.142099
    52     0.164870
    53     0.082893
    54    -0.264052
    55     0.242707
    56     0.024408
    57     0.093005
    58    -0.029928
    59    -0.001385
    60    -0.034831
    61     0.086072
    62    -0.083381
    63    -0.010919
    64     0.041922
    65    -0.174074
    66    -0.046775
    67     0.142687
    68    -0.035531
    69     0.009668
    70    -0.017273
    71     0.004372
    72     0.021185
    73    -0.017338
    74    -0.001997
    75    -0.004895
    76    -0.067442
    77     0.112920
    78     0.002181
    79    -0.000458
    80    -0.003963
    81    -0.002525
    82     0.015720
    83     0.005992
    84     0.040276
    85    -0.041546
    86     0.066267
    87     0.012771
    88     0.064249
    89    -0.198027
    90     0.044137
    91    -0.037839
    92     0.025956
    93     0.007845
    94     0.078143
    95    -0.144367
    96    -0.026964
    97    -0.053099
    98    -0.005850
    99     0.023535
   100     0.061975
   101    -0.053306
   102     0.031162
   103     0.010150
   104     0.016015
   105     0.023509
   106     0.020158
   107     0.034550
   108    -0.005697
   109     0.045380
   110    -0.018787
   111    -0.007637
   112     0.028558
   113    -0.000688
   114     0.001941
   115    -0.023167
   116     0.002167
   117    -0.011548
   118     0.018087
   119    -0.045783
   120    -0.010021
   121     0.053278
   122    -0.012567
   123    -0.004985
   124     0.007202
   125     0.004395
   126     0.002038
   127    -0.014186
   128     0.028183
   129    -0.037282
   130    -0.009290
   131     0.006151
   132    -0.016381
   133     0.041770
   134    -0.047386
   135     0.014659
   136     0.023374
   137    -0.018334
   138     0.020932
   139    -0.016787
   140    -0.015966
   141    -0.006328
   142     0.000546
   143    -0.108881
   144     0.278319
   145    -0.009167
   146    -0.068305
   147     0.015568
   148    -0.002741
   149    -0.053098
   150     0.187289
   151     0.039248
   152    -0.010138
   153    -0.012044
   154    -0.025764
   155     0.081622
   156    -0.053781
   157    -0.029642
   158    -0.014915
   159    -0.005739
   160     0.013167
   161     0.004186
   162    -0.022888
   163    -0.016161
   164    -0.072436
   165     0.056611
   166     0.027588
   167     0.020959
   168     0.033495
   169     0.004138
   170    -0.119104
   171    -0.081590
   172    -0.261195
   173     0.007981
   174     0.303738
   175    -0.274653
   176    -0.797019
   177     0.054650
   178     0.016650
   179     0.051415
   180     0.014290
   181     0.000181
   182     0.025961
Sym=    69a
Ene=   -0.114386E-01
Spin= Alpha
Occup= 0.009436
     1    -0.002720
     2    -0.001082
     3     0.000048
     4     0.000683
     5     0.000094
     6     0.000291
     7     0.001863
     8     0.001885
     9     0.016191
    10     0.000810
    11     0.004301
    12     0.003048
    13    -0.003593
    14    -0.006852
    15    -0.003893
    16    -0.010066
    17    -0.006535
    18    -0.023438
    19    -0.004277
    20     0.008249
    21    -0.008662
    22     0.005320
    23     0.004514
    24    -0.014210
    25    -0.000231
    26    -0.001446
    27    -0.008051
    28     0.028532
    29    -0.000397
    30    -0.000944
    31     0.001071
    32     0.000512
    33     0.002306
    34    -0.003145
    35    -0.004937
    36    -0.006235
    37     0.003323
    38     0.000386
    39    -0.001671
    40    -0.001228
    41    -0.000066
    42     0.000037
    43     0.003019
    44    -0.012361
    45    -0.096283
    46     0.226435
    47    -0.032088
    48    -0.064903
    49     0.000883
    50    -0.063808
    51    -0.129691
    52    -0.012205
    53    -0.034858
    54     0.019260
    55    -0.030082
    56     0.008679
    57    -0.009672
    58     0.001309
    59     0.001359
    60     0.019627
    61    -0.035675
    62     0.014901
    63     0.002314
    64    -0.010794
    65     0.026864
    66     0.025521
    67    -0.031030
    68    -0.000205
    69     0.001327
    70     0.005149
    71    -0.001005
    72    -0.003068
    73     0.002089
    74     0.000586
    75     0.003078
    76     0.022752
    77    -0.051081
    78     0.003246
    79     0.001818
    80    -0.001295
    81    -0.011545
    82    -0.006765
    83     0.005435
    84     0.015786
    85    -0.004575
    86     0.001412
    87     0.002659
    88    -0.004463
    89     0.015547
    90     0.002761
    91     0.002086
    92    -0.003553
    93    -0.002048
    94    -0.047504
    95     0.120263
    96     0.006994
    97     0.014277
    98     0.006020
    99    -0.013303
   100    -0.063864
   101    -0.001036
   102    -0.001476
   103    -0.007544
   104     0.002866
   105    -0.000531
   106    -0.001706
   107     0.003336
   108     0.002128
   109    -0.029798
   110     0.001926
   111     0.000281
   112    -0.000659
   113     0.000453
   114    -0.000917
   115     0.013251
   116    -0.000966
   117     0.000798
   118    -0.000642
   119    -0.005733
   120    -0.006751
   121     0.002823
   122    -0.000319
   123    -0.000462
   124    -0.001199
   125    -0.000198
   126    -0.000039
   127    -0.000241
   128     0.000308
   129     0.009322
   130     0.000116
   131     0.000037
   132    -0.000613
   133    -0.015562
   134     0.019402
   135    -0.001030
   136     0.005296
   137     0.002063
   138     0.001621
   139    -0.014227
   140     0.000787
   141    -0.005142
   142     0.005588
   143     0.033715
   144    -0.207061
   145     0.000855
   146     0.013865
   147    -0.007408
   148     0.001482
   149     0.018109
   150    -0.039611
   151    -0.000184
   152     0.003192
   153    -0.007959
   154     0.009604
   155     0.007796
   156    -0.019673
   157     0.001496
   158     0.003794
   159     0.000021
   160    -0.000477
   161     0.000990
   162    -0.000593
   163    -0.205501
   164    -0.931059
   165     0.698290
   166    -0.372630
   167    -0.671955
   168    -0.142882
   169    -0.396205
   170    -0.697901
   171    -0.153946
   172     0.085573
   173     0.003248
   174     0.131843
   175    -0.099146
   176    -0.030445
   177    -0.047976
   178     0.006514
   179    -0.037261
   180     0.000516
   181    -0.000978
   182    -0.004343
Sym=    70a
Ene=   -0.701443E-03
Spin= Alpha
Occup= 0.000331
     1     0.006021
     2     0.054180
     3     0.008274
     4     0.006026
     5    -0.007364
     6     0.000055
     7    -0.009105
     8    -0.074983
     9     0.408674
    10    -0.000665
    11    -0.000063
    12    -0.001079
    13    -0.023619
    14    -0.027975
    15     0.044535
    16     0.104847
    17    -0.244382
    18    -0.006821
    19     0.010078
    20    -0.008699
    21     0.130573
    22     0.014497
    23    -0.032882
    24    -0.037859
    25     0.000500
    26    -0.004090
    27    -0.085149
    28     0.371851
    29     0.001170
    30     0.002026
    31     0.001104
    32    -0.024197
    33     0.013971
    34    -0.000486
    35    -0.015812
    36    -0.193547
    37     0.148226
    38     0.006462
    39    -0.073268
    40     0.163536
    41     0.015217
    42     0.306675
    43    -0.085313
    44    -0.001909
    45     0.072572
    46    -0.204961
    47    -0.130343
    48     0.129493
    49     0.246065
    50    -0.465011
    51    -0.101850
    52     0.395975
    53     0.169159
    54     0.388036
    55    -0.525555
    56    -0.440808
    57    -0.008386
    58     0.002550
    59     0.000360
    60     0.052149
    61     0.011337
    62     0.073956
    63    -0.030206
    64    -0.063195
    65    -0.121761
    66    -0.025830
    67    -0.035302
    68     0.134731
    69     0.037851
    70    -0.030763
    71    -0.009908
    72    -0.002704
    73     0.074348
    74    -0.000310
    75     0.004490
    76     0.037456
    77    -0.223208
    78    -0.005176
    79     0.002031
    80    -0.001615
    81     0.038913
    82     0.032775
    83    -0.017898
    84     0.046616
    85    -0.080287
    86     0.198110
    87     0.003961
    88     0.003546
    89    -0.080111
    90    -0.014217
    91    -0.046862
    92     0.162703
    93    -0.002789
    94    -0.044942
    95     0.120161
    96     0.022922
    97    -0.007866
    98    -0.024758
    99     0.045144
   100    -0.092537
   101     0.085160
   102    -0.063971
   103     0.053071
   104    -0.044141
   105    -0.045346
   106    -0.020001
   107    -0.019524
   108     0.027263
   109    -0.339500
   110    -0.025064
   111    -0.011237
   112     0.161303
   113     0.000304
   114     0.065521
   115    -0.313531
   116     0.006695
   117     0.034286
   118     0.022968
   119    -0.061795
   120     0.085290
   121     0.037820
   122     0.017714
   123     0.025433
   124    -0.009097
   125    -0.023344
   126     0.033585
   127     0.018981
   128     0.051473
   129    -0.066912
   130    -0.032602
   131    -0.017203
   132     0.003791
   133     0.070950
   134     0.053971
   135    -0.013072
   136    -0.002996
   137     0.036323
   138     0.036029
   139    -0.143312
   140     0.061086
   141    -0.008675
   142    -0.013426
   143    -0.068734
   144    -0.227021
   145     0.005906
   146    -0.038649
   147     0.110194
   148    -0.000841
   149    -0.016787
   150     0.116567
   151     0.016177
   152     0.052053
   153    -0.014381
   154     0.026588
   155     0.153178
   156     0.004339
   157     0.003269
   158    -0.038776
   159     0.008548
   160    -0.001614
   161     0.009638
   162     0.012688
   163     0.009737
   164     0.020886
   165    -0.037109
   166     0.009332
   167     0.036154
   168    -0.020967
   169     0.007682
   170     0.129976
   171     0.152414
   172     0.114883
   173     0.422222
   174    -0.646239
   175    -0.347337
   176    -0.123043
   177     0.325254
   178    -0.084220
   179     0.077736
   180    -0.017606
   181    -0.042661
   182    -0.015461
Sym=    71a
Ene=   -0.227330E-03
Spin= Alpha
Occup= 0.000025
     1     0.015774
     2    -0.112184
     3    -0.016264
     4     0.035577
     5     0.017129
     6    -0.000226
     7    -0.025712
     8     0.100751
     9     0.007336
    10     0.007855
    11     0.016226
    12    -0.011730
    13    -0.082157
    14    -0.206739
    15     0.131222
    16    -0.159738
    17    -0.008914
    18     0.034893
    19     0.094235
    20     0.173039
    21     0.176714
    22     0.070774
    23    -0.090484
    24    -0.087448
    25    -0.000265
    26    -0.014250
    27    -0.034508
    28     0.072020
    29     0.002960
    30     0.001613
    31    -0.001674
    32    -0.026927
    33     0.004356
    34     0.015437
    35     0.011331
    36    -0.058706
    37     0.057987
    38    -0.003895
    39     0.083753
    40     0.076106
    41    -0.028013
    42     0.091915
    43    -0.044363
    44    -0.007590
    45    -0.311856
    46    -0.222321
    47     0.340620
    48    -1.382728
    49     0.971699
    50     0.051285
    51    -0.031485
    52    -0.050209
    53     0.116454
    54    -0.155971
    55    -0.088701
    56     0.309038
    57    -0.069179
    58     0.400721
    59    -0.006502
    60     0.084906
    61    -0.275739
    62     0.076085
    63    -0.034111
    64    -0.129231
    65     0.373511
    66    -0.431936
    67    -0.472650
    68     0.107738
    69     0.121762
    70    -0.045931
    71    -0.061507
    72     0.138821
    73     0.033921
    74     0.000325
    75     0.026715
    76    -0.031930
    77     0.175089
    78    -0.005063
    79    -0.002796
    80     0.001043
    81     0.056442
    82     0.044327
    83    -0.024764
    84     0.024824
    85    -0.031650
    86     0.092361
    87    -0.064395
    88    -0.008986
    89    -0.246823
    90     0.010898
    91    -0.039548
    92     0.058528
    93    -0.009317
    94     0.238545
    95    -0.909069
    96    -0.056211
    97    -0.104477
    98    -0.024052
    99     0.160034
   100     0.447782
   101     0.327273
   102     0.210823
   103    -0.042833
   104     0.184347
   105    -0.103496
   106    -0.054028
   107    -0.034707
   108     0.043143
   109    -0.109490
   110     0.000661
   111    -0.027547
   112     0.018384
   113     0.000451
   114     0.024887
   115    -0.089209
   116     0.009742
   117    -0.005782
   118     0.019938
   119    -0.020047
   120    -0.013839
   121     0.042888
   122    -0.023136
   123    -0.007678
   124     0.023614
   125    -0.021858
   126    -0.003532
   127    -0.015473
   128     0.058802
   129    -0.029266
   130    -0.029709
   131     0.017227
   132    -0.029285
   133     0.162929
   134    -0.058539
   135     0.011188
   136     0.037788
   137    -0.042874
   138    -0.081009
   139     0.141866
   140    -0.120168
   141     0.010685
   142    -0.022063
   143    -0.083580
   144     0.069763
   145    -0.170582
   146    -0.103325
   147     0.024607
   148     0.006676
   149     0.003088
   150    -0.196519
   151     0.016971
   152     0.032755
   153    -0.015272
   154     0.292822
   155     0.172813
   156     0.028778
   157    -0.068696
   158    -0.089658
   159     0.008995
   160     0.047807
   161    -0.034125
   162     0.019015
   163     0.003128
   164    -0.498924
   165     2.010826
   166    -0.128830
   167     0.225900
   168    -0.221061
   169    -0.630562
   170     1.057614
   171    -1.044322
   172    -0.298530
   173    -0.095621
   174    -0.110230
   175    -0.241194
   176     0.249046
   177    -0.371875
   178    -0.104650
   179     0.021043
   180    -0.075237
   181     0.053138
   182     0.008769
Sym=    72a
Ene=   -0.877089E-04
Spin= Alpha
Occup= 0.000018
     1    -0.008891
     2    -0.043002
     3     0.334086
     4     0.319494
     5    -0.009318
     6    -0.001629
     7    -0.045428
     8    -0.204452
     9     0.144480
    10    -0.008695
    11    -0.004918
    12     0.001714
    13     0.166065
    14     0.120055
    15    -0.051291
    16     0.171749
    17    -0.016510
    18    -0.121074
    19     0.629253
    20    -0.406432
    21     0.144773
    22    -0.399522
    23     0.302380
    24     0.654017
    25    -0.000006
    26     0.008822
    27     0.028250
    28    -0.159778
    29    -0.004453
    30     0.005153
    31     0.001118
    32     0.028319
    33    -0.041530
    34    -0.020963
    35    -0.063016
    36     0.115445
    37    -0.155562
    38    -0.006517
    39    -0.023947
    40    -0.101050
    41    -0.058580
    42    -0.089030
    43     0.007151
    44    -0.012431
    45    -0.189470
    46     0.076264
    47     0.004755
    48     0.079461
    49     0.041031
    50    -0.122648
    51     0.012059
    52    -0.086683
    53    -0.166912
    54     0.072134
    55     0.273081
    56    -0.084905
    57    -0.254614
    58     0.226653
    59     0.004006
    60    -0.054667
    61     0.126156
    62    -0.017034
    63    -0.117117
    64     0.072789
    65     0.310239
    66     0.155624
    67     0.351354
    68     0.114503
    69     0.155362
    70    -0.372465
    71    -0.211713
    72     0.001354
    73     0.165598
    74     0.000703
    75     0.021070
    76     0.031399
    77     0.249537
    78     0.003355
    79     0.000503
    80    -0.002193
    81    -0.036787
    82     0.016207
    83     0.015699
    84    -0.010176
    85     0.063720
    86    -0.022762
    87    -0.043246
    88    -0.076916
    89    -0.050964
    90    -0.008025
    91    -0.036341
    92    -0.045117
    93     0.001365
    94    -0.044256
    95     0.189471
    96     0.029269
    97     0.043407
    98    -0.039663
    99     0.063395
   100    -0.273515
   101    -0.260643
   102    -0.066784
   103    -0.113185
   104     0.138509
   105    -0.048855
   106     0.053673
   107     0.063486
   108    -0.032243
   109    -0.059669
   110     0.070464
   111     0.008147
   112    -0.096573
   113     0.002251
   114     0.071794
   115    -0.377365
   116     0.018609
   117     0.027919
   118    -0.078141
   119     0.381171
   120     0.185289
   121    -0.290353
   122    -0.218309
   123     0.120232
   124     0.064158
   125    -0.180360
   126     0.077673
   127    -0.021733
   128     0.032789
   129    -0.045639
   130     0.028268
   131    -0.068324
   132    -0.000965
   133    -0.037449
   134    -0.026403
   135     0.000007
   136     0.036661
   137    -0.052405
   138     0.181468
   139    -0.014769
   140     0.116112
   141     0.011420
   142    -0.000459
   143     0.215672
   144    -0.235102
   145    -0.002996
   146     0.063532
   147     0.009910
   148     0.014273
   149     0.006193
   150     0.004057
   151    -0.086244
   152     0.010339
   153     0.009037
   154     0.019058
   155    -0.103364
   156    -0.059923
   157    -0.151462
   158    -0.070296
   159    -0.043707
   160     0.083874
   161     0.014365
   162    -0.055071
   163    -0.003222
   164     0.021697
   165    -0.009976
   166     0.017509
   167    -0.056535
   168     0.054802
   169     0.036301
   170    -0.034843
   171     0.064859
   172     0.029290
   173     0.048902
   174     0.020981
   175     0.014613
   176     0.007765
   177    -0.034336
   178     0.344730
   179    -0.080290
   180     0.035373
   181     0.045924
   182     0.094400
Sym=    73a
Ene=   -0.581156E-04
Spin= Alpha
Occup= 0.000012
     1     0.137932
     2     0.077427
     3     0.145826
     4    -0.189534
     5     0.218618
     6    -0.001095
     7    -0.006903
     8    -0.254401
     9     0.408062
    10     0.016006
    11     0.007785
    12    -0.033456
    13    -0.287839
    14    -0.055936
    15     0.411459
    16    -0.026427
    17     0.002882
    18    -0.082847
    19    -0.634780
    20    -0.507737
    21     1.066813
    22    -0.098427
    23    -0.294615
    24     0.231451
    25     0.000356
    26     0.024802
    27     0.178503
    28    -0.289877
    29    -0.002681
    30    -0.000662
    31     0.000975
    32    -0.019469
    33    -0.007368
    34    -0.020211
    35     0.234132
    36     0.041892
    37    -0.319923
    38    -0.158282
    39     0.035859
    40    -0.173099
    41    -0.019111
    42     0.075534
    43     0.020169
    44    -0.005534
    45    -0.113835
    46    -0.146684
    47     0.047037
    48    -0.029496
    49    -0.179559
    50    -0.067123
    51    -0.038505
    52    -0.004054
    53     0.080351
    54     0.303145
    55    -0.242640
    56     0.113743
    57     0.164915
    58    -0.573175
    59     0.000060
    60    -0.173037
    61     0.683894
    62    -0.009878
    63     0.021434
    64     0.012091
    65    -0.058099
    66     0.214999
    67     0.418119
    68    -0.111568
    69    -0.026043
    70     0.088514
    71     0.035852
    72    -0.082798
    73    -0.137995
    74    -0.000455
    75    -0.013350
    76    -0.037658
    77     0.030478
    78    -0.000322
    79     0.001194
    80    -0.000403
    81     0.008925
    82    -0.022618
    83     0.001455
    84    -0.005384
    85     0.043169
    86    -0.008132
    87     0.003290
    88     0.042060
    89     0.063511
    90     0.047895
    91     0.010836
    92    -0.001155
    93    -0.012826
    94     0.270111
    95    -1.068262
    96     0.000763
    97     0.116862
    98    -0.065241
    99    -0.317517
   100    -0.468843
   101     0.746025
   102     0.382661
   103    -0.008483
   104     0.001210
   105     0.007258
   106    -0.030842
   107    -0.074834
   108     0.082068
   109    -0.276641
   110     0.178475
   111    -0.005665
   112    -0.325447
   113     0.004899
   114    -0.191164
   115     0.892000
   116    -0.039233
   117     0.042910
   118    -0.012543
   119    -0.496208
   120     0.041756
   121    -0.209966
   122     0.188265
   123    -0.188683
   124    -0.146059
   125    -0.042352
   126    -0.052242
   127    -0.031589
   128     0.047014
   129    -0.026092
   130    -0.112428
   131     0.011252
   132     0.026189
   133     0.026109
   134     0.021498
   135    -0.009930
   136    -0.000711
   137     0.014834
   138    -0.042941
   139     0.106646
   140     0.156200
   141     0.342440
   142     0.020684
   143    -0.073036
   144    -0.021308
   145    -0.057244
   146    -0.073323
   147     0.005771
   148    -0.001848
   149     0.011127
   150    -0.134058
   151     0.001914
   152     0.002034
   153    -0.006832
   154    -0.017127
   155    -0.029181
   156    -0.117672
   157     0.023840
   158    -0.004003
   159     0.015078
   160    -0.028861
   161     0.053956
   162    -0.006365
   163     0.003831
   164     0.016222
   165    -0.161285
   166    -0.020874
   167     0.039772
   168    -0.040830
   169     0.112307
   170    -0.081635
   171     0.116478
   172    -0.046144
   173    -0.011694
   174    -0.039039
   175     0.060548
   176    -0.080526
   177     0.080947
   178     0.085048
   179    -0.066595
   180     0.007733
   181    -0.083150
   182     0.086341
Sym=    74a
Ene=   -0.561139E-06
Spin= Alpha
Occup= 0.000000
     1    -0.304454
     2     1.531597
     3     0.036944
     4    -0.092913
     5    -0.017637
     6    -0.001131
     7    -0.056841
     8     0.459304
     9    -4.511139
    10     0.002335
    11     0.005808
    12    -0.002999
    13     0.036589
    14    -0.115590
    15    -0.028638
    16    -0.128836
    17     0.613192
    18     0.904856
    19     0.011544
    20     0.190987
    21     0.342226
    22     0.051033
    23     0.068498
    24     0.026231
    25     0.000261
    26     0.015628
    27    -0.116049
    28     0.330701
    29    -0.003673
    30     0.001041
    31     0.002559
    32     0.047245
    33    -0.005118
    34    -0.027629
    35     0.061623
    36     0.151712
    37     0.263347
    38    -0.126572
    39    -0.020042
    40    -0.061297
    41    -0.068300
    42    -0.044132
    43    -0.021205
    44     0.027471
    45    -0.265424
    46     5.839937
    47    -0.059421
    48     0.037378
    49    -0.023333
    50    -0.476300
    51     0.806351
    52    -0.682023
    53     0.017036
    54    -0.176789
    55    -0.144876
    56     0.047105
    57     0.014365
    58    -0.046319
    59    -0.001945
    60     0.094487
    61    -0.492021
    62     0.046835
    63     0.057556
    64    -0.065955
    65    -0.003255
    66     0.062160
    67    -0.926478
    68     0.060243
    69    -0.065882
    70     0.112954
    71     0.074357
    72     0.056534
    73     0.070274
    74     0.000273
    75     0.010563
    76    -0.056771
    77     0.681138
    78    -0.001360
    79    -0.002352
    80     0.000202
    81     0.011693
    82     0.021973
    83     0.003450
    84    -0.370787
    85    -0.009670
    86     0.019241
    87     0.040509
    88    -0.019991
    89    -0.127274
    90    -0.004544
    91     0.006522
    92     0.012574
    93    -0.008815
    94     0.202694
    95    -1.133575
    96    -0.051349
    97    -0.051459
    98    -0.010427
    99     0.140491
   100     0.389261
   101     0.172993
   102     0.103522
   103     0.092751
   104     0.065004
   105     0.039993
   106    -0.015539
   107     0.058393
   108    -0.121947
   109     1.531637
   110     0.004576
   111    -0.030591
   112     0.086795
   113     0.003933
   114    -0.087860
   115     0.509575
   116    -0.022569
   117     0.016837
   118     0.007767
   119    -0.278533
   120     0.047277
   121    -0.010694
   122    -0.045093
   123    -0.012487
   124    -0.037845
   125    -0.006497
   126     0.025504
   127    -0.007545
   128    -0.061759
   129     0.368585
   130    -0.048726
   131    -0.005428
   132     0.009982
   133    -0.012290
   134    -0.572182
   135     0.028056
   136    -0.113837
   137     0.008693
   138     0.067881
   139    -0.530029
   140    -0.019058
   141     0.120647
   142     0.023435
   143     0.014784
   144    -2.576339
   145    -0.260526
   146    -0.035860
   147    -0.058620
   148     0.002708
   149    -0.024600
   150     0.405306
   151     0.006715
   152     0.000765
   153    -0.052784
   154    -0.120754
   155    -0.153335
   156    -0.015492
   157    -0.017358
   158     0.038759
   159    -0.054807
   160     0.014750
   161    -0.031516
   162     0.010088
   163    -0.016655
   164     0.296871
   165    -1.370262
   166     0.029885
   167    -0.015745
   168    -0.032026
   169     0.100542
   170    -0.163920
   171    -0.010643
   172     0.158340
   173     0.163745
   174     0.186031
   175    -0.026836
   176     0.027551
   177    -0.024059
   178    -0.160210
   179    -0.465418
   180    -0.110917
   181    -0.034632
   182    -0.276020
Sym=    75a
Ene=   -0.106536E-02
Spin= Alpha
Occup= 0.000207
     1    -0.050315
     2    -0.170305
     3    -0.006179
     4     0.015871
     5    -0.000126
     6    -0.000345
     7    -0.013932
     8     0.185094
     9     0.015417
    10    -0.012788
    11     0.002801
    12     0.009001
    13     0.219491
    14    -0.046609
    15    -0.080835
    16     0.047632
    17     0.319578
    18    -0.349482
    19     0.200192
    20     0.068416
    21     0.005540
    22    -0.055278
    23    -0.099897
    24    -0.003595
    25    -0.080620
    26    -0.867208
    27    -2.706195
    28     0.365564
    29     0.115401
    30    -0.170551
    31    -0.176386
    32    -0.496520
    33     0.685480
    34     0.810768
    35     0.355804
    36    -0.812586
    37    -0.394953
    38     1.266747
    39     0.932467
    40     1.299792
    41    -0.081314
    42    -0.110335
    43    -0.100472
    44    -0.000707
    45     0.019543
    46     0.148168
    47    -0.015503
    48     0.008144
    49    -0.008004
    50     0.004365
    51     0.061457
    52    -0.041904
    53    -0.002946
    54     0.026353
    55     0.004641
    56    -0.020831
    57    -0.002628
    58    -0.007565
    59     0.000277
    60     0.012305
    61    -0.039715
    62    -0.001701
    63     0.004573
    64     0.003331
    65    -0.030628
    66    -0.013739
    67    -0.006994
    68    -0.001508
    69    -0.002867
    70     0.006331
    71    -0.006168
    72    -0.004184
    73     0.009136
    74    -0.000658
    75    -0.003261
    76     0.109686
    77    -0.193809
    78     0.000040
    79    -0.000255
    80    -0.012348
    81    -0.011444
    82     0.070645
    83     0.023611
    84    -0.131557
    85     0.020457
    86     0.142952
    87     0.077723
    88     0.140847
    89    -0.164526
    90    -0.128288
    91     0.064158
    92    -0.100825
    93     0.000774
    94    -0.007578
    95     0.049137
    96    -0.009382
    97     0.003470
    98    -0.010947
    99     0.074281
   100    -0.012371
   101    -0.004046
   102    -0.006231
   103    -0.001308
   104    -0.003735
   105     0.002089
   106    -0.001838
   107    -0.007182
   108    -0.157769
   109    -0.167504
   110    -0.118635
   111    -0.065158
   112    -0.065429
   113    -0.001352
   114     0.308342
   115    -0.936478
   116     0.026541
   117    -0.033269
   118     0.095982
   119     0.241259
   120     0.176023
   121     0.674542
   122     0.137287
   123     0.150222
   124    -0.104621
   125     0.005767
   126     0.076081
   127     0.002096
   128    -0.148181
   129     0.132329
   130     0.059167
   131     0.086727
   132    -0.094704
   133     0.030939
   134     0.033363
   135     0.006801
   136     0.002565
   137    -0.015406
   138     0.025834
   139     0.048855
   140     0.007540
   141    -0.005491
   142    -0.010223
   143     0.004430
   144    -0.017289
   145     0.003458
   146    -0.006180
   147     0.004647
   148     0.001926
   149    -0.002239
   150     0.021354
   151     0.006864
   152     0.015006
   153     0.024080
   154     0.003352
   155     0.087127
   156     0.043129
   157     0.010982
   158    -0.014114
   159    -0.002939
   160     0.009979
   161    -0.016790
   162     0.027202
   163    -0.002509
   164    -0.003565
   165    -0.021645
   166     0.000642
   167    -0.001996
   168     0.003669
   169     0.010398
   170    -0.014933
   171     0.024500
   172     0.009675
   173     0.007565
   174     0.001368
   175     0.004549
   176    -0.004281
   177     0.004183
   178    -0.000202
   179    -0.001968
   180     0.001345
   181    -0.004198
   182    -0.000252
Sym=    76a
Ene=   -0.784488E-03
Spin= Alpha
Occup= 0.000179
     1    -0.086081
     2    -0.127262
     3     0.150864
     4     0.032944
     5     0.059664
     6    -0.070920
     7    -0.858240
     8    -3.232493
     9     0.110740
    10     0.116682
    11     0.237916
    12     0.148880
    13    -0.637256
    14    -1.313543
    15    -0.642541
    16    -0.018465
    17     0.759913
    18     0.197569
    19     1.104617
    20     1.677366
    21     1.141736
    22    -0.032207
    23    -0.010218
    24    -0.092790
    25    -0.000523
    26    -0.006922
    27     0.070344
    28    -0.216531
    29    -0.005501
    30    -0.001497
    31    -0.006427
    32    -0.005491
    33     0.008110
    34     0.056904
    35     0.162502
    36    -0.056492
    37    -0.010137
    38    -0.059846
    39     0.064818
    40     0.069131
    41     0.056028
    42     0.039795
    43    -0.017384
    44    -0.002404
    45     0.284369
    46     0.375140
    47    -0.084606
    48    -0.079392
    49     0.046571
    50     0.157706
    51     0.304908
    52    -0.025356
    53     0.145173
    54    -0.003751
    55     0.028660
    56     0.000343
    57     0.002577
    58    -0.009611
    59     0.000990
    60     0.485913
    61    -1.875680
    62    -0.013774
    63    -0.214392
    64     0.011815
    65    -0.430173
    66    -1.065944
    67    -0.214522
    68     0.184831
    69    -0.137758
    70     0.233317
    71    -0.062479
    72    -0.015947
    73    -0.020064
    74     0.000135
    75     0.000604
    76    -0.052949
    77     0.116620
    78    -0.005773
    79    -0.013595
    80     0.000977
    81     0.068596
    82     0.115426
    83    -0.005795
    84     0.063399
    85     0.116059
    86    -0.024078
    87    -0.104781
    88     0.120080
    89    -0.022898
    90    -0.026516
    91     0.059818
    92     0.024338
    93    -0.005003
    94    -0.082680
    95     0.148816
    96    -0.040922
    97    -0.080192
    98     0.093182
    99     0.185042
   100     0.264495
   101    -0.194070
   102    -0.054758
   103     0.009780
   104    -0.068787
   105     0.012893
   106    -0.035623
   107    -0.004462
   108     0.065162
   109     0.217332
   110     0.032842
   111    -0.011111
   112    -0.116634
   113    -0.005966
   114    -0.167666
   115     0.702790
   116    -0.190333
   117     0.078145
   118     0.075284
   119    -0.575523
   120     0.335512
   121     0.258463
   122     0.123416
   123    -0.144341
   124    -0.133256
   125    -0.054356
   126    -0.025707
   127     0.036047
   128    -0.019403
   129    -0.309907
   130     0.053163
   131    -0.021289
   132    -0.015984
   133     0.079336
   134    -0.009620
   135     0.041209
   136    -0.005094
   137    -0.041364
   138     0.052680
   139    -0.234095
   140    -0.048924
   141    -0.099013
   142     0.005199
   143    -0.101319
   144     0.057976
   145    -0.037491
   146     0.010307
   147    -0.033231
   148     0.003063
   149    -0.128079
   150     0.888908
   151    -0.026074
   152     0.013714
   153    -0.002398
   154    -0.149956
   155     0.588628
   156     0.049859
   157    -0.060498
   158    -0.004577
   159    -0.039776
   160    -0.048216
   161    -0.010287
   162     0.000462
   163    -0.000427
   164     0.020446
   165    -0.089875
   166    -0.002701
   167    -0.009256
   168     0.008744
   169    -0.021200
   170    -0.082557
   171     0.037553
   172     0.018669
   173    -0.005372
   174     0.006060
   175     0.001737
   176     0.002012
   177     0.012251
   178    -0.055564
   179     0.290272
   180    -0.049485
   181     0.151037
   182    -0.057764
Sym=    77a
Ene=   -0.746592E-03
Spin= Alpha
Occup= 0.000149
     1     0.012334
     2    -0.059512
     3     0.012970
     4     0.011718
     5     0.004693
     6    -0.000301
     7    -0.009702
     8     0.038230
     9    -0.075413
    10    -0.011495
    11     0.000575
    12    -0.000034
    13     0.153710
    14     0.032450
    15    -0.012497
    16    -0.038576
    17     0.079828
    18    -0.018536
    19     0.137952
    20    -0.020579
    21     0.002954
    22    -0.016770
    23    -0.019538
    24     0.031155
    25     0.001601
    26     0.009999
    27    -0.020835
    28     0.882329
    29     0.003307
    30     0.003031
    31    -0.009478
    32    -0.011771
    33    -0.019907
    34     0.109662
    35    -0.053579
    36    -0.390706
    37     0.319897
    38     0.017367
    39     0.078580
    40    -0.008846
    41     0.037508
    42    -0.089366
    43     0.163350
    44    -0.001463
    45     0.002138
    46    -0.013539
    47    -0.013525
    48     0.033465
    49     0.046146
    50    -0.014890
    51    -0.014519
    52     0.008212
    53     0.020613
    54    -0.002709
    55     0.017198
    56    -0.021669
    57     0.029877
    58     0.040661
    59     0.000179
    60    -0.018013
    61     0.007817
    62    -0.012719
    63     0.030580
    64    -0.030528
    65     0.104917
    66     0.265207
    67     0.004936
    68     0.064283
    69    -0.033284
    70    -0.023934
    71     0.038438
    72     0.018132
    73    -0.008086
    74    -0.069389
    75    -0.795803
    76    -2.142111
    77    -0.911857
    78     0.091443
    79     0.023624
    80     0.230779
    81    -0.450826
    82    -0.115799
    83    -0.960648
    84     0.262684
    85    -0.179145
    86     1.272138
    87     1.489907
    88     1.068998
    89     1.032680
    90    -0.059666
    91     0.010640
    92    -0.063516
    93     0.000391
    94     0.000007
    95     0.021144
    96     0.002804
    97     0.009543
    98    -0.000345
    99     0.008777
   100    -0.029667
   101    -0.017166
   102    -0.003664
   103    -0.002771
   104     0.005976
   105     0.006526
   106     0.003006
   107     0.004638
   108    -0.039653
   109    -0.131546
   110    -0.015101
   111    -0.018509
   112     0.021883
   113    -0.002536
   114     0.081997
   115    -0.253332
   116     0.060464
   117    -0.067221
   118     0.102479
   119     0.237493
   120    -0.052579
   121     0.334847
   122     0.034849
   123    -0.061039
   124     0.031263
   125    -0.106043
   126     0.070113
   127    -0.020348
   128     0.025233
   129    -0.216140
   130    -0.021728
   131     0.113925
   132    -0.132067
   133    -0.048516
   134    -0.026578
   135     0.036495
   136    -0.016707
   137     0.002519
   138     0.011767
   139     0.018600
   140     0.000201
   141     0.002610
   142    -0.004088
   143    -0.008680
   144     0.005800
   145     0.000965
   146    -0.009230
   147     0.013635
   148     0.000618
   149     0.048822
   150    -0.044861
   151     0.026230
   152     0.016821
   153    -0.040419
   154    -0.350432
   155    -0.327171
   156    -0.172854
   157    -0.068429
   158    -0.086922
   159     0.098037
   160    -0.054138
   161     0.072566
   162     0.022010
   163     0.002106
   164     0.003184
   165     0.016182
   166    -0.003458
   167     0.000968
   168    -0.002669
   169    -0.017961
   170     0.001847
   171    -0.005419
   172     0.003456
   173    -0.010967
   174    -0.008372
   175    -0.009530
   176     0.002447
   177     0.002682
   178     0.043375
   179     0.058457
   180     0.004756
   181    -0.016184
   182     0.035105
Sym=    78a
Ene=   -0.819935E-03
Spin= Alpha
Occup= 0.000154
     1     0.017374
     2    -0.029476
     3     0.002494
     4    -0.005914
     5    -0.001387
     6    -0.000057
     7     0.001893
     8     0.178230
     9    -0.054217
    10     0.004608
    11     0.009006
    12     0.004153
    13    -0.025878
    14    -0.128820
    15    -0.024755
    16    -0.135876
    17    -0.051313
    18     0.034016
    19    -0.047724
    20     0.079760
    21    -0.013942
    22     0.025964
    23    -0.035494
    24     0.020608
    25     0.001167
    26     0.007365
    27    -0.004611
    28     0.697776
    29     0.000746
    30     0.009986
    31    -0.006054
    32    -0.006738
    33    -0.051685
    34     0.079067
    35     0.050801
    36    -0.285921
    37     0.253824
    38     0.069245
    39     0.041882
    40    -0.042067
    41    -0.028729
    42    -0.020388
    43     0.057072
    44    -0.001035
    45     0.046647
    46    -0.437950
    47    -0.021693
    48     0.025278
    49    -0.010919
    50    -0.263602
    51    -0.094536
    52     0.124410
    53     0.032311
    54     0.010847
    55    -0.025093
    56    -0.033720
    57    -0.000014
    58    -0.048560
    59    -0.001571
    60     0.015674
    61     0.105236
    62    -0.033181
    63    -0.029867
    64    -0.015192
    65    -0.253762
    66    -0.350199
    67     0.045978
    68    -0.024361
    69     0.018549
    70     0.037869
    71    -0.018856
    72     0.048849
    73    -0.001210
    74     0.076191
    75     0.852941
    76     2.631658
    77    -0.771437
    78    -0.129255
    79    -0.150310
    80     0.172057
    81     0.686901
    82     0.750092
    83    -0.736510
    84     0.074317
    85    -0.736839
    86     0.957088
    87    -1.548065
    88    -1.120465
    89    -1.037175
    90    -0.077474
    91     0.018167
    92    -0.127131
    93     0.001100
    94    -0.043169
    95     0.218858
    96    -0.003785
    97     0.023914
    98     0.007393
    99     0.028688
   100    -0.137211
   101    -0.030809
   102    -0.016382
   103    -0.002994
   104    -0.018849
   105     0.001850
   106    -0.004229
   107    -0.002616
   108    -0.050648
   109    -0.045273
   110    -0.012964
   111    -0.014879
   112     0.012901
   113     0.001512
   114     0.067121
   115    -0.028574
   116    -0.059749
   117     0.097579
   118     0.045238
   119    -0.061358
   120     0.020087
   121     0.202139
   122     0.055300
   123    -0.001935
   124     0.120221
   125     0.076031
   126     0.056386
   127    -0.018297
   128    -0.120161
   129     0.181415
   130     0.059148
   131     0.057433
   132    -0.079073
   133     0.143480
   134    -0.102097
   135    -0.152215
   136     0.018653
   137    -0.018574
   138     0.005753
   139     0.047781
   140     0.010228
   141     0.019894
   142    -0.002510
   143     0.007930
   144    -0.078208
   145    -0.006225
   146    -0.006082
   147    -0.003348
   148    -0.002706
   149    -0.268643
   150     0.996171
   151     0.039350
   152     0.023067
   153    -0.004878
   154     0.728806
   155     0.682137
   156    -0.169190
   157     0.161438
   158    -0.023595
   159    -0.216963
   160     0.231016
   161    -0.013347
   162     0.027523
   163    -0.003089
   164    -0.047823
   165     0.132840
   166     0.013042
   167    -0.004011
   168    -0.010726
   169     0.062980
   170    -0.012643
   171    -0.017877
   172    -0.008663
   173    -0.007158
   174    -0.014036
   175     0.002226
   176    -0.012580
   177     0.017725
   178    -0.108813
   179     0.028229
   180     0.030607
   181     0.024773
   182    -0.031458
Sym=    79a
Ene=   -0.785121E-03
Spin= Alpha
Occup= 0.000147
     1    -0.046634
     2     0.193678
     3     0.022063
     4     0.020015
     5    -0.007835
     6    -0.001141
     7    -0.013197
     8     0.077766
     9     0.090305
    10    -0.003312
    11     0.008684
    12     0.003704
    13     0.115083
    14    -0.116095
    15    -0.037433
    16     0.033249
    17    -0.368739
    18     0.121142
    19     0.090947
    20     0.081424
    21     0.007438
    22    -0.091991
    23    -0.073496
    24     0.010360
    25     0.000090
    26     0.012361
    27     0.135843
    28     0.281537
    29     0.002726
    30     0.002232
    31    -0.005597
    32    -0.014177
    33    -0.060157
    34     0.122221
    35    -0.028711
    36     0.036874
    37     0.169815
    38     0.057443
    39    -0.159743
    40     0.076024
    41    -0.017309
    42    -0.022019
    43    -0.026594
    44    -0.000578
    45    -0.020592
    46    -0.140200
    47    -0.004956
    48    -0.042284
    49    -0.008389
    50     0.061720
    51    -0.054772
    52     0.056373
    53     0.011504
    54     0.004738
    55    -0.011063
    56    -0.007999
    57    -0.007274
    58    -0.023677
    59    -0.000345
    60     0.031029
    61     0.044885
    62    -0.007536
    63    -0.037552
    64     0.000383
    65    -0.073662
    66    -0.337060
    67    -0.015974
    68     0.005791
    69     0.010067
    70     0.001845
    71    -0.026002
    72     0.020073
    73    -0.010980
    74    -0.076247
    75    -0.824215
    76    -2.596977
    77    -0.407942
    78    -0.080748
    79    -0.244507
    80    -0.067587
    81     0.424747
    82     1.192585
    83     0.267083
    84    -0.078148
    85    -0.744709
    86    -0.260931
    87     1.060695
    88     1.094237
    89     1.055407
    90    -0.358860
    91    -0.042709
    92    -0.064632
    93    -0.000973
    94     0.004953
    95    -0.068647
    96     0.000906
    97    -0.005767
    98    -0.002536
    99    -0.001312
   100     0.001489
   101     0.004453
   102     0.002733
   103     0.000002
   104    -0.002209
   105     0.010524
   106    -0.004808
   107    -0.001098
   108    -0.038459
   109    -0.043345
   110    -0.000374
   111     0.005866
   112     0.001445
   113    -0.001311
   114     0.319673
   115    -0.902037
   116    -0.015079
   117     0.082840
   118    -0.003865
   119     0.054839
   120     0.600198
   121     0.287428
   122     0.161603
   123    -0.157129
   124     0.232303
   125     0.175844
   126     0.035332
   127    -0.020217
   128    -0.193765
   129     0.335498
   130     0.141166
   131    -0.042743
   132     0.001158
   133     0.030126
   134    -0.138845
   135    -0.141873
   136     0.018556
   137     0.030406
   138     0.024143
   139    -0.015934
   140     0.008132
   141    -0.007156
   142    -0.007285
   143     0.006736
   144     0.060863
   145    -0.000451
   146    -0.004546
   147     0.001228
   148    -0.008667
   149    -0.236175
   150     0.549124
   151     0.151282
   152     0.083715
   153     0.005793
   154     0.787827
   155     0.340170
   156    -0.026047
   157     0.176553
   158    -0.046973
   159    -0.290027
   160     0.107394
   161    -0.059677
   162    -0.059278
   163     0.001476
   164     0.006357
   165    -0.019275
   166    -0.005857
   167    -0.003364
   168    -0.006414
   169    -0.014902
   170    -0.014202
   171    -0.012943
   172    -0.002365
   173    -0.006265
   174    -0.001519
   175    -0.007030
   176     0.000769
   177     0.003780
   178    -0.047882
   179    -0.064450
   180     0.029388
   181    -0.009895
   182    -0.018698
Sym=    80a
Ene=   -0.732960E-03
Spin= Alpha
Occup= 0.000144
     1     0.002199
     2     0.129075
     3     0.010942
     4     0.001696
     5     0.011962
     6     0.000023
     7     0.011297
     8    -0.203913
     9     0.204060
    10     0.010877
    11    -0.005457
    12    -0.009326
    13    -0.174899
    14     0.042499
    15     0.065440
    16     0.092946
    17    -0.172476
    18     0.244953
    19    -0.153426
    20    -0.047053
    21    -0.026653
    22     0.046383
    23     0.142612
    24    -0.019796
    25    -0.065530
    26    -0.694451
    27    -2.416427
    28     0.118147
    29     0.104543
    30    -0.014309
    31     0.252716
    32    -0.430010
    33     0.063756
    34    -1.149486
    35     0.652617
    36    -0.115608
    37     0.892282
    38     0.884757
    39     0.968922
    40     0.629208
    41    -0.043444
    42     0.076997
    43     0.101556
    44     0.000079
    45     0.004025
    46    -0.106026
    47    -0.011927
    48     0.034413
    49    -0.002558
    50    -0.129350
    51    -0.021726
    52     0.022095
    53    -0.007072
    54     0.001761
    55     0.006855
    56    -0.015350
    57     0.021940
    58    -0.008374
    59    -0.001030
    60     0.016313
    61    -0.014840
    62    -0.028883
    63    -0.013580
    64     0.006612
    65     0.010160
    66    -0.009937
    67     0.033148
    68     0.022275
    69     0.020744
    70     0.012990
    71     0.007742
    72    -0.011059
    73    -0.001868
    74    -0.000224
    75    -0.007463
    76    -0.067826
    77    -0.447881
    78    -0.006981
    79     0.009688
    80    -0.007564
    81     0.058917
    82    -0.150033
    83     0.047456
    84     0.005580
    85    -0.261697
    86     0.141400
    87    -0.048496
    88    -0.046300
    89     0.068841
    90     0.020325
    91     0.057675
    92     0.019886
    93    -0.001703
    94    -0.018760
    95     0.043074
    96     0.000942
    97     0.006216
    98     0.013645
    99    -0.042592
   100    -0.027207
   101    -0.032524
   102    -0.014578
   103    -0.000396
   104     0.007904
   105    -0.008405
   106     0.008436
   107    -0.003026
   108    -0.079073
   109     0.415125
   110    -0.217782
   111    -0.048587
   112    -0.005466
   113     0.003021
   114    -0.349996
   115     1.057561
   116     0.063883
   117     0.028510
   118    -0.239145
   119    -0.069732
   120    -0.254720
   121    -0.705328
   122    -0.219857
   123    -0.342968
   124     0.134694
   125    -0.042241
   126    -0.072901
   127    -0.068258
   128     0.269752
   129    -0.405154
   130    -0.119781
   131    -0.019655
   132    -0.006072
   133    -0.050498
   134    -0.002305
   135    -0.004044
   136    -0.023962
   137     0.015260
   138    -0.000508
   139    -0.069497
   140     0.001721
   141     0.008878
   142     0.012844
   143     0.005699
   144    -0.076086
   145     0.001632
   146    -0.010934
   147     0.013707
   148    -0.001730
   149     0.051101
   150    -0.140116
   151    -0.024787
   152    -0.030160
   153     0.006180
   154    -0.035127
   155    -0.125956
   156     0.018198
   157     0.013536
   158     0.047200
   159     0.048620
   160     0.028241
   161     0.003856
   162     0.017207
   163    -0.001946
   164    -0.009899
   165     0.010196
   166     0.005463
   167     0.000769
   168     0.001834
   169     0.023025
   170    -0.010594
   171     0.013688
   172     0.005012
   173     0.000469
   174    -0.001094
   175     0.003683
   176    -0.005212
   177     0.006650
   178     0.018630
   179    -0.002535
   180    -0.006171
   181     0.004022
   182     0.006998
Sym=    81a
Ene=   -0.260021E-02
Spin= Alpha
Occup= 0.000151
     1     0.008967
     2    -0.023581
     3     0.004806
     4    -0.004793
     5     0.003005
     6    -0.000291
     7     0.004172
     8     0.100023
     9    -0.006211
    10     0.001321
    11     0.000163
    12     0.000707
    13     0.018068
    14    -0.039276
    15    -0.012078
    16    -0.032624
    17     0.019942
    18     0.015213
    19    -0.006337
    20    -0.013582
    21    -0.020108
    22     0.013044
    23    -0.010111
    24    -0.012176
    25    -0.000756
    26    -0.006449
    27    -0.021236
    28     0.110880
    29     0.001250
    30    -0.002472
    31     0.000371
    32    -0.006728
    33     0.000392
    34     0.009451
    35    -0.007908
    36    -0.036276
    37     0.045355
    38     0.007054
    39    -0.002828
    40     0.021724
    41    -0.009555
    42    -0.016016
    43    -0.003641
    44     0.001594
    45     0.006606
    46    -0.124030
    47     0.008469
    48     0.009002
    49    -0.029564
    50     0.010548
    51    -0.016275
    52     0.049845
    53     0.002890
    54    -0.003670
    55    -0.039969
    56     0.000062
    57     0.004608
    58    -0.012791
    59     0.000042
    60    -0.043518
    61    -0.059014
    62    -0.096204
    63     0.040989
    64     0.013846
    65    -0.178076
    66    -0.089244
    67     0.033290
    68     0.077506
    69     0.034201
    70     0.045569
    71    -0.063384
    72     0.029136
    73     0.011386
    74     0.004216
    75     0.015590
    76    -0.039977
    77    -0.258370
    78     0.028875
    79     0.014528
    80    -0.002486
    81     0.006999
    82     0.010416
    83    -0.001391
    84     0.105240
    85    -0.001345
    86     0.052011
    87     0.057519
    88     0.003953
    89     0.013968
    90     0.053991
    91    -0.030470
    92    -0.018271
    93     0.000740
    94    -0.008830
    95     0.038373
    96    -0.003758
    97     0.006256
    98     0.006226
    99     0.011424
   100    -0.031057
   101    -0.022136
   102    -0.004832
   103    -0.000843
   104    -0.009256
   105     0.004454
   106    -0.000223
   107    -0.001399
   108     0.006112
   109    -0.024528
   110     0.003252
   111    -0.004210
   112    -0.002707
   113    -0.000481
   114     0.032247
   115    -0.059967
   116    -0.004298
   117     0.025207
   118    -0.003074
   119     0.037805
   120     0.049361
   121     0.035057
   122     0.020170
   123     0.008859
   124     0.017895
   125    -0.007287
   126     0.004004
   127     0.004855
   128    -0.024381
   129     0.006438
   130     0.010756
   131     0.007113
   132     0.003900
   133     0.282720
   134     0.010799
   135     0.008173
   136     0.075152
   137    -0.035272
   138     0.008153
   139     0.012341
   140     0.000718
   141    -0.000247
   142     0.000133
   143    -0.000684
   144     0.041399
   145     0.000700
   146    -0.001770
   147    -0.003032
   148     0.844148
   149     3.186456
   150     0.622347
   151     0.090187
   152     0.014352
   153    -0.017397
   154     0.153595
   155     0.328339
   156    -0.102539
   157    -1.655193
   158    -1.677900
   159    -1.565091
   160     0.012223
   161    -0.021359
   162     0.021207
   163    -0.001300
   164    -0.002897
   165    -0.003876
   166     0.000148
   167    -0.000286
   168     0.002316
   169     0.001685
   170    -0.001377
   171     0.007360
   172     0.004337
   173     0.005064
   174     0.001180
   175    -0.000230
   176    -0.003884
   177     0.001060
   178    -0.094436
   179     0.046376
   180    -0.013107
   181     0.008952
   182    -0.033255
Sym=    82a
Ene=   -0.908891E-04
Spin= Alpha
Occup= 0.000006
     1     0.092064
     2    -0.059492
     3     0.068926
     4    -0.041042
     5     0.041650
     6    -0.000267
     7    -0.001722
     8    -0.074042
     9    -0.110051
    10     0.001016
    11    -0.005609
    12    -0.000207
    13     0.026062
    14     0.129115
    15     0.026858
    16    -0.095912
    17     0.171113
    18     0.100611
    19     0.053194
    20    -0.248186
    21     0.137031
    22     0.124755
    23    -0.064663
    24     0.074182
    25    -0.000181
    26    -0.005563
    27    -0.050739
    28     0.152515
    29     0.000298
    30    -0.001172
    31     0.000937
    32    -0.002735
    33     0.011443
    34    -0.000772
    35     0.001861
    36    -0.066860
    37     0.127681
    38     0.013881
    39    -0.004691
    40     0.049122
    41     0.005294
    42     0.018855
    43    -0.015966
    44     0.002651
    45    -0.129439
    46     0.201422
    47     0.028359
    48     0.002546
    49    -0.036348
    50    -0.193810
    51     0.005142
    52    -0.164256
    53    -0.261703
    54     0.046136
    55     0.086834
    56     0.021282
    57     0.087108
    58     0.128992
    59    -0.048255
    60     0.112381
    61    -0.169305
    62     0.538185
    63     0.386753
    64     0.676753
    65     0.796849
    66     0.591068
    67     0.795310
    68     0.277125
    69     0.261213
    70     0.450922
    71     0.056313
    72     0.348393
    73     0.139116
    74    -0.000103
    75    -0.005129
    76     0.047907
    77     0.032440
    78     0.005278
    79    -0.000225
    80     0.000600
    81    -0.061551
    82    -0.008790
    83    -0.005065
    84    -0.143418
    85    -0.066400
    86     0.144979
    87     0.103717
    88    -0.008227
    89    -0.004034
    90     0.031312
    91    -0.064000
    92    -0.004394
    93    -0.005596
    94     0.080951
    95    -0.288832
    96    -0.021470
    97     0.026990
    98    -0.031238
    99     0.044127
   100     0.012191
   101     0.214907
   102     0.049353
   103     0.039023
   104     0.058366
   105    -0.040093
   106     0.009561
   107     0.031470
   108    -0.051416
   109     0.110358
   110    -0.019667
   111    -0.000295
   112     0.018867
   113    -0.002327
   114     0.023506
   115    -0.089275
   116     0.012781
   117    -0.000772
   118     0.009961
   119     0.082229
   120    -0.006640
   121     0.084161
   122     0.011994
   123     0.036740
   124     0.004908
   125     0.046430
   126    -0.001276
   127     0.011924
   128    -0.034118
   129    -0.044477
   130     0.004423
   131     0.023185
   132     0.020408
   133    -0.044182
   134    -0.001121
   135    -0.050987
   136     0.032503
   137     0.119993
   138    -0.025525
   139    -0.030484
   140    -0.081098
   141     0.029544
   142     0.001510
   143     0.042839
   144    -0.042537
   145     0.154384
   146    -0.002368
   147    -0.001127
   148     0.003042
   149     0.059269
   150    -0.406943
   151    -0.021439
   152     0.000861
   153    -0.027526
   154    -0.038316
   155    -0.348103
   156    -0.316521
   157    -0.018571
   158    -0.009199
   159    -0.009669
   160     0.049409
   161     0.146529
   162    -0.010964
   163     0.000116
   164    -0.022364
   165     0.107826
   166     0.018367
   167    -0.001060
   168     0.009372
   169     0.052744
   170     0.033908
   171    -0.005994
   172    -0.012490
   173    -0.006026
   174     0.001600
   175     0.010073
   176    -0.009816
   177    -0.022498
   178    -0.004400
   179     0.270638
   180    -0.646954
   181    -0.484900
   182    -0.871709
Sym=    83a
Ene=   -0.988190E-04
Spin= Alpha
Occup= 0.000006
     1    -0.027363
     2     0.086070
     3    -0.065776
     4     0.061056
     5    -0.041181
     6     0.000136
     7    -0.019666
     8     0.067931
     9     0.279706
    10    -0.004995
    11     0.000377
    12     0.001889
    13     0.159254
    14    -0.018002
    15    -0.002125
    16     0.314431
    17    -0.326982
    18    -0.026490
    19     0.246611
    20     0.086917
    21     0.057878
    22    -0.125694
    23    -0.151050
    24    -0.021586
    25     0.000061
    26    -0.000368
    27     0.059632
    28    -0.070936
    29     0.001155
    30    -0.000281
    31    -0.003298
    32    -0.006537
    33    -0.000041
    34     0.057011
    35    -0.172924
    36    -0.040226
    37    -0.042211
    38     0.054450
    39    -0.038687
    40     0.035431
    41     0.041956
    42    -0.122076
    43    -0.027935
    44     0.000313
    45     0.028398
    46    -0.056115
    47    -0.003308
    48    -0.025602
    49    -0.013092
    50    -0.226119
    51    -0.015490
    52    -0.058270
    53    -0.030885
    54     0.014416
    55     0.018631
    56     0.014936
    57    -0.042243
    58    -0.022505
    59     0.004308
    60     0.014982
    61    -0.097332
    62     0.008570
    63    -0.001556
    64     0.013653
    65    -0.028591
    66    -0.067440
    67     0.056650
    68    -0.046309
    69    -0.005990
    70    -0.027131
    71    -0.044925
    72    -0.014688
    73    -0.008475
    74     0.000198
    75     0.004204
    76     0.010220
    77    -0.007409
    78     0.002545
    79    -0.000974
    80    -0.001095
    81    -0.007624
    82     0.031384
    83     0.012637
    84    -0.075558
    85     0.013947
    86    -0.136858
    87     0.032215
    88    -0.015228
    89    -0.039841
    90    -0.137507
    91    -0.003789
    92    -0.080240
    93    -0.002585
    94     0.038544
    95    -0.145483
    96     0.005487
    97     0.005804
    98    -0.020933
    99    -0.031023
   100    -0.018171
   101     0.129843
   102     0.031546
   103     0.037134
   104     0.005629
   105    -0.015605
   106    -0.009021
   107     0.009238
   108    -0.068765
   109    -0.145137
   110     0.003388
   111     0.001858
   112    -0.016047
   113     0.049406
   114    -0.110475
   115     0.216172
   116     0.611591
   117     0.561473
   118     0.480674
   119     0.911609
   120     0.673372
   121     0.543565
   122    -0.327143
   123    -0.315154
   124    -0.334093
   125    -0.129311
   126    -0.113936
   127    -0.061333
   128    -0.097828
   129    -0.342227
   130    -0.650954
   131    -0.737235
   132    -0.586619
   133     0.055565
   134     0.104369
   135    -0.007055
   136     0.040448
   137    -0.025140
   138    -0.038189
   139     0.061418
   140    -0.015165
   141     0.020812
   142    -0.005220
   143     0.031955
   144    -0.185042
   145    -0.005077
   146     0.017747
   147    -0.012040
   148     0.002093
   149    -0.006463
   150    -0.074389
   151    -0.004923
   152     0.023789
   153     0.025464
   154     0.039617
   155     0.143677
   156     0.037613
   157     0.033482
   158    -0.045405
   159    -0.031070
   160    -0.014223
   161    -0.013109
   162     0.009761
   163     0.000775
   164    -0.019356
   165     0.096455
   166     0.006424
   167     0.004223
   168     0.002630
   169     0.038757
   170     0.024917
   171     0.000950
   172    -0.023485
   173    -0.000194
   174    -0.004391
   175     0.017919
   176    -0.007407
   177    -0.006836
   178     0.051347
   179    -0.083069
   180     0.004311
   181     0.007043
   182     0.025220
Sym=    84a
Ene=   -0.109241E-03
Spin= Alpha
Occup= 0.000026
     1    -0.431910
     2     0.381321
     3    -0.065845
     4     0.248594
     5    -0.075716
     6     0.004347
     7     0.097573
     8     0.168077
     9    -0.133711
    10     0.014670
    11    -0.020767
    12     0.007699
    13    -0.157001
    14     0.234413
    15    -0.107099
    16     0.155773
    17    -0.227344
    18     0.176995
    19    -0.463545
    20    -0.194477
    21    -0.146776
    22    -0.510031
    23     0.774545
    24    -0.423701
    25    -0.000382
    26    -0.009934
    27    -0.224248
    28     0.461826
    29    -0.002902
    30    -0.001589
    31     0.008139
    32     0.051709
    33     0.015268
    34    -0.104083
    35    -0.255250
    36    -0.101865
    37     0.182035
    38     0.070468
    39    -0.152155
    40     0.094931
    41     0.039909
    42     0.060063
    43    -0.035402
    44    -0.004461
    45    -0.108847
    46     0.055956
    47    -0.023611
    48     0.093042
    49     0.100653
    50    -0.074135
    51    -0.024661
    52    -0.015960
    53    -0.083271
    54     0.004390
    55     0.134205
    56     0.125481
    57     0.072714
    58    -0.149893
    59    -0.002595
    60    -0.026616
    61     0.015028
    62     0.047365
    63     0.045152
    64    -0.053666
    65     0.121230
    66     0.360515
    67    -0.092418
    68     0.122516
    69     0.027786
    70    -0.120495
    71    -0.109261
    72     0.011885
    73    -0.345860
    74     0.000584
    75     0.015569
    76     0.100378
    77    -0.057630
    78     0.000055
    79    -0.000398
    80    -0.001830
    81    -0.028618
    82     0.022393
    83     0.033933
    84     0.032983
    85    -0.115483
    86     0.009790
    87    -0.009194
    88    -0.073312
    89    -0.020145
    90     0.043113
    91     0.053475
    92     0.015971
    93    -0.001812
    94    -0.066673
    95     0.273807
    96     0.039130
    97     0.019009
    98     0.150604
    99    -0.308960
   100     0.058174
   101    -0.326732
   102    -0.081570
   103    -0.036872
   104     0.110222
   105     0.019764
   106     0.106225
   107    -0.104801
   108     0.042187
   109    -0.243337
   110    -0.028733
   111     0.008017
   112     0.175629
   113    -0.003093
   114    -0.051420
   115     0.151556
   116     0.014128
   117     0.024945
   118    -0.048185
   119    -0.201761
   120     0.221434
   121    -0.215566
   122     0.157861
   123     0.040036
   124    -0.139448
   125    -0.171324
   126     0.300253
   127     0.064146
   128    -0.079482
   129     0.012587
   130     0.054078
   131    -0.026152
   132     0.047822
   133     0.151933
   134    -0.030812
   135     0.000262
   136     0.041012
   137     0.001860
   138    -0.066943
   139     0.041554
   140    -0.042254
   141     0.097099
   142     0.021315
   143     0.061454
   144    -0.102554
   145     0.000472
   146    -0.013885
   147     0.007362
   148     0.000694
   149     0.070686
   150    -0.256501
   151    -0.013393
   152     0.013364
   153     0.019152
   154    -0.040669
   155    -0.039019
   156     0.014330
   157     0.062011
   158    -0.133565
   159     0.067456
   160     0.064245
   161     0.061564
   162     0.070981
   163     0.002870
   164    -0.037908
   165     0.103062
   166    -0.001866
   167     0.039160
   168    -0.036675
   169     0.060630
   170     0.042014
   171    -0.078677
   172    -0.072487
   173    -0.041543
   174     0.010523
   175     0.047899
   176    -0.033412
   177    -0.003673
   178     0.189191
   179    -0.013141
   180     0.216012
   181    -0.203817
   182     0.016717
Sym=    85a
Ene=   -0.103877E-03
Spin= Alpha
Occup= 0.000019
     1     0.025664
     2    -0.018489
     3    -0.025303
     4    -0.029212
     5    -0.026211
     6     0.000358
     7     0.008637
     8    -0.185800
     9     0.258177
    10     0.012700
    11    -0.001781
    12    -0.008393
    13    -0.238691
    14     0.024195
    15     0.096334
    16     0.211880
    17    -0.013991
    18    -0.252555
    19    -0.167759
    20    -0.008470
    21     0.044683
    22     0.043873
    23    -0.005417
    24    -0.041803
    25     0.001166
    26     0.028006
    27     0.143451
    28    -0.348900
    29     0.000856
    30    -0.005069
    31     0.009850
    32    -0.004632
    33     0.032813
    34    -0.013036
    35    -0.044703
    36     0.025166
    37    -0.581822
    38     0.164777
    39    -0.155372
    40    -0.237828
    41     0.220363
    42     0.513397
    43     0.175515
    44     0.005140
    45    -0.056032
    46     0.420573
    47     0.044286
    48    -0.148670
    49    -0.193562
    50    -0.199115
    51    -0.003572
    52    -0.239525
    53    -0.439609
    54     0.267660
    55     0.037080
    56     0.255242
    57    -0.400255
    58    -0.143327
    59     0.002521
    60    -0.059599
    61     0.249085
    62    -0.138173
    63     0.015193
    64     0.137603
    65    -0.009863
    66    -0.066789
    67     0.221232
    68    -0.172303
    69     0.016529
    70     0.059463
    71     0.006725
    72    -0.061194
    73     0.031263
    74    -0.000037
    75     0.002506
    76    -0.087451
    77     0.196032
    78     0.001341
    79     0.005982
    80    -0.001094
    81     0.007201
    82    -0.077597
    83     0.013339
    84     0.058421
    85     0.122394
    86    -0.137075
    87    -0.004907
    88    -0.044367
    89    -0.026620
    90     0.082176
    91    -0.009394
    92    -0.160863
    93    -0.001572
    94     0.039950
    95    -0.126263
    96     0.005199
    97    -0.024185
    98    -0.030787
    99    -0.025746
   100     0.228650
   101     0.276087
   102     0.065333
   103     0.024571
   104    -0.043412
   105    -0.137465
   106    -0.044611
   107    -0.052137
   108    -0.061523
   109    -0.282106
   110    -0.205481
   111     0.082499
   112     0.400613
   113     0.006044
   114    -0.179446
   115     0.632520
   116    -0.024820
   117    -0.013893
   118    -0.005681
   119    -0.443891
   120    -0.377006
   121    -0.322562
   122    -0.117863
   123    -0.235584
   124     0.160810
   125    -0.268271
   126     0.082294
   127    -0.066320
   128     0.345366
   129     0.004007
   130    -0.032932
   131     0.089930
   132    -0.317866
   133    -0.393521
   134     0.077539
   135    -0.030620
   136    -0.106761
   137     0.031628
   138    -0.189284
   139     0.089357
   140    -0.026114
   141    -0.024381
   142     0.055242
   143     0.395323
   144    -0.582254
   145     0.052757
   146     0.163505
   147    -0.169500
   148    -0.006718
   149     0.017048
   150    -0.098745
   151     0.054454
   152    -0.029717
   153    -0.043462
   154     0.113475
   155    -0.352783
   156    -0.043113
   157    -0.137447
   158     0.308682
   159    -0.029213
   160    -0.025031
   161    -0.039913
   162    -0.148006
   163     0.000947
   164    -0.028477
   165     0.139873
   166     0.030796
   167     0.032895
   168     0.002717
   169     0.216873
   170     0.197042
   171    -0.032327
   172    -0.155275
   173     0.099832
   174     0.017868
   175     0.145779
   176    -0.092507
   177    -0.101156
   178     0.020564
   179    -0.108605
   180    -0.147514
   181     0.095957
   182     0.078149
Sym=    86a
Ene=   -0.123484E-03
Spin= Alpha
Occup= 0.000025
     1     0.003623
     2    -0.057054
     3     0.016801
     4    -0.047534
     5    -0.002945
     6    -0.000050
     7     0.001840
     8     0.080640
     9     0.111560
    10    -0.006303
    11     0.004184
    12    -0.000709
    13     0.080364
    14    -0.052604
    15     0.019615
    16    -0.012622
    17     0.120187
    18    -0.082889
    19     0.018989
    20     0.022138
    21    -0.046050
    22     0.086211
    23     0.076493
    24     0.011757
    25    -0.002526
    26    -0.059771
    27    -0.343636
    28     0.105392
    29     0.010415
    30     0.000675
    31     0.010210
    32    -0.062234
    33     0.049475
    34    -0.173274
    35     0.133787
    36    -0.356546
    37     0.114522
    38     0.096909
    39     0.226665
    40     0.062042
    41    -0.130333
    42     0.045051
    43    -0.263085
    44    -0.003869
    45     0.011598
    46    -0.001349
    47    -0.004485
    48    -0.007642
    49     0.000629
    50    -0.305707
    51    -0.028297
    52    -0.018587
    53    -0.110105
    54     0.055499
    55     0.129491
    56     0.061833
    57    -0.096532
    58    -0.129559
    59     0.001987
    60     0.074580
    61    -0.053523
    62    -0.052008
    63    -0.017268
    64     0.023653
    65    -0.066870
    66    -0.041158
    67     0.093139
    68    -0.008306
    69    -0.029764
    70     0.011835
    71     0.077982
    72     0.089265
    73    -0.114672
    74     0.002659
    75     0.126554
    76     0.173644
    77     0.103674
    78    -0.042627
    79     0.016037
    80     0.014615
    81     0.277804
    82    -0.073359
    83    -0.142258
    84     0.050007
    85    -0.022854
    86     0.585848
    87    -0.167774
    88    -1.061073
    89    -0.183527
    90    -0.405038
    91    -0.290703
    92     0.369140
    93     0.002931
    94    -0.046590
    95     0.227081
    96    -0.023932
    97    -0.012415
    98     0.000004
    99     0.084369
   100    -0.004352
   101    -0.016571
   102    -0.031255
   103     0.001611
   104    -0.057556
   105    -0.009881
   106    -0.010089
   107    -0.039608
   108     0.091056
   109    -0.159633
   110    -0.075932
   111    -0.053615
   112    -0.065215
   113     0.005177
   114    -0.130217
   115     0.388063
   116     0.077963
   117    -0.039017
   118    -0.106662
   119     0.320938
   120    -0.202986
   121    -0.607339
   122    -0.012453
   123     0.162360
   124    -0.303490
   125    -0.205910
   126    -0.204153
   127     0.063957
   128     0.154201
   129    -0.119878
   130    -0.068167
   131    -0.241795
   132     0.241108
   133    -0.552894
   134     0.022910
   135    -0.131724
   136    -0.107425
   137     0.103019
   138     0.018066
   139    -0.021116
   140     0.004880
   141    -0.045995
   142     0.013436
   143     0.129646
   144    -0.344347
   145    -0.015010
   146     0.041004
   147    -0.033186
   148     0.002631
   149    -0.172218
   150     0.917732
   151     0.004940
   152     0.009589
   153    -0.076971
   154     0.415021
   155    -0.338113
   156    -0.177473
   157     0.129774
   158     0.153226
   159    -0.318467
   160    -0.033454
   161    -0.060454
   162    -0.256620
   163     0.001671
   164    -0.029565
   165     0.115115
   166     0.003646
   167     0.022031
   168    -0.015985
   169     0.100794
   170     0.044777
   171    -0.037325
   172    -0.068289
   173    -0.005347
   174     0.012341
   175     0.072328
   176    -0.034241
   177    -0.016111
   178     0.045430
   179    -0.038977
   180     0.032133
   181    -0.037346
   182     0.022385
Sym=    87a
Ene=   -0.168846E-02
Spin= Alpha
Occup= 0.000077
     1    -0.014635
     2     0.071393
     3     0.001173
     4    -0.008622
     5     0.000332
     6    -0.000415
     7     0.014181
     8     0.099319
     9     0.030087
    10    -0.005937
    11     0.003995
    12     0.009729
    13    -0.035186
    14    -0.036382
    15     0.143849
    16     0.108293
    17    -0.074015
    18     0.025915
    19    -0.043691
    20    -0.008878
    21     0.017055
    22     0.018348
    23     0.038805
    24    -0.054614
    25    -0.000280
    26     0.000936
    27    -0.021814
    28     0.040786
    29    -0.001079
    30     0.000007
    31     0.003091
    32     0.008081
    33     0.000377
    34    -0.020771
    35    -0.006493
    36    -0.006195
    37    -0.005295
    38    -0.003681
    39    -0.002832
    40    -0.040125
    41     0.002737
    42    -0.015972
    43    -0.001044
    44     0.005135
    45     0.141480
    46     0.418309
    47    -0.016884
    48     0.028073
    49     0.009820
    50     0.161370
    51     0.203606
    52    -0.076288
    53     0.029595
    54    -0.111444
    55    -0.004859
    56    -0.004128
    57     0.014292
    58    -0.073855
    59     0.001929
    60    -0.043955
    61     0.073814
    62     0.005451
    63     0.006788
    64     0.013579
    65     0.176805
    66    -0.012650
    67     0.036337
    68    -0.009132
    69    -0.020144
    70    -0.031272
    71    -0.017619
    72     0.001637
    73     0.019755
    74    -0.000162
    75    -0.002029
    76     0.024037
    77    -0.098035
    78     0.001465
    79    -0.000555
    80    -0.001962
    81    -0.017410
    82    -0.004330
    83     0.012052
    84     0.048353
    85    -0.019331
    86    -0.007125
    87     0.006902
    88    -0.022080
    89     0.031759
    90    -0.006933
    91    -0.004726
    92    -0.005417
    93    -0.726134
    94    -2.246180
    95    -1.333913
    96     0.072996
    97    -0.056066
    98    -0.069161
    99    -0.347350
   100     0.291976
   101     0.420142
   102     1.503320
   103     1.511024
   104     1.488475
   105    -0.043616
   106    -0.095530
   107     0.069785
   108    -0.003125
   109    -0.010662
   110     0.001722
   111     0.001065
   112    -0.003883
   113    -0.000936
   114    -0.018827
   115     0.033791
   116    -0.010271
   117    -0.005504
   118    -0.005870
   119    -0.001865
   120    -0.021787
   121    -0.052815
   122    -0.000284
   123    -0.009669
   124    -0.002098
   125     0.000072
   126     0.007167
   127    -0.003173
   128     0.004351
   129    -0.005515
   130     0.000489
   131    -0.001480
   132     0.008585
   133     0.005850
   134    -0.009190
   135    -0.003502
   136    -0.001537
   137     0.004313
   138    -0.452594
   139     0.045940
   140    -0.080738
   141     0.071202
   142     0.054099
   143    -0.052288
   144    -0.024147
   145    -0.024924
   146    -0.012379
   147     0.006703
   148    -0.000892
   149     0.041887
   150    -0.259640
   151    -0.011589
   152    -0.005355
   153    -0.007158
   154     0.103549
   155    -0.107964
   156    -0.063981
   157     0.009340
   158     0.001936
   159     0.013152
   160     0.009781
   161     0.006884
   162    -0.005294
   163    -0.001804
   164     0.009893
   165    -0.104434
   166    -0.005937
   167     0.005672
   168     0.000448
   169    -0.017690
   170    -0.032347
   171     0.031973
   172     0.004276
   173     0.008049
   174     0.002150
   175     0.010155
   176    -0.001199
   177     0.011383
   178     0.034956
   179    -0.025064
   180     0.002643
   181     0.003627
   182     0.020578
Sym=    88a
Ene=   -0.101235E-02
Spin= Alpha
Occup= 0.000037
     1    -0.017955
     2     0.116731
     3    -0.001833
     4     0.001445
     5     0.001829
     6     0.000013
     7    -0.000846
     8    -0.033174
     9     0.073216
    10     0.000856
    11    -0.000119
    12    -0.000854
    13    -0.003056
    14    -0.000673
    15    -0.007345
    16     0.168952
    17    -0.116060
    18     0.037418
    19     0.008324
    20     0.013165
    21    -0.012200
    22    -0.006662
    23     0.009611
    24     0.006094
    25     0.000291
    26    -0.003198
    27     0.010032
    28    -0.142400
    29    -0.000109
    30     0.002359
    31    -0.001395
    32    -0.002928
    33    -0.004251
    34     0.003839
    35     0.050522
    36     0.006225
    37    -0.029687
    38    -0.013433
    39     0.076900
    40    -0.002650
    41    -0.017881
    42    -0.014314
    43    -0.022730
    44     0.000408
    45    -0.204742
    46    -0.271863
    47    -0.021567
    48     0.019403
    49    -0.037561
    50    -0.379403
    51     0.117079
    52    -0.124362
    53     0.013891
    54     0.014365
    55     0.051000
    56    -0.019692
    57     0.028464
    58    -0.043447
    59    -0.001723
    60     0.000421
    61     0.056905
    62    -0.016368
    63     0.002458
    64    -0.002842
    65    -0.063445
    66    -0.043947
    67     0.088660
    68     0.007400
    69     0.011757
    70     0.023954
    71    -0.003122
    72    -0.008807
    73     0.006000
    74    -0.000417
    75     0.009517
    76    -0.052132
    77     0.174570
    78    -0.000345
    79    -0.001583
    80    -0.000348
    81     0.016860
    82     0.015754
    83    -0.007934
    84    -0.000587
    85     0.001266
    86     0.033880
    87    -0.016701
    88     0.017550
    89    -0.164933
    90     0.028626
    91    -0.023236
    92     0.008289
    93     0.000915
    94    -0.015361
    95     0.117749
    96     0.001124
    97    -0.010369
    98     0.000636
    99     0.008481
   100    -0.049726
   101    -0.026404
   102     0.000078
   103     0.000337
   104    -0.003897
   105     0.009288
   106     0.008133
   107     0.012127
   108     0.010558
   109     0.049284
   110    -0.000443
   111    -0.002197
   112    -0.013539
   113    -0.000525
   114     0.006349
   115    -0.059424
   116     0.005831
   117    -0.005595
   118    -0.000355
   119     0.021157
   120     0.025204
   121    -0.021176
   122    -0.009143
   123    -0.001452
   124     0.010147
   125     0.007743
   126    -0.001482
   127    -0.012806
   128     0.015281
   129    -0.065538
   130    -0.000118
   131     0.003375
   132    -0.003368
   133     0.040325
   134     0.022757
   135    -0.011514
   136     0.021821
   137     0.004084
   138     0.005460
   139     0.028603
   140    -0.000153
   141    -0.007846
   142    -0.007740
   143     0.056697
   144    -0.220534
   145     0.021808
   146     0.008342
   147    -0.010608
   148    -0.000098
   149    -0.009954
   150     0.007331
   151     0.038392
   152     0.007809
   153    -0.012185
   154     0.042247
   155     0.071834
   156    -0.023577
   157    -0.018608
   158    -0.009748
   159     0.004641
   160     0.010833
   161    -0.001858
   162     0.002004
   163     0.620575
   164     1.540442
   165     1.958675
   166     0.016281
   167    -0.009512
   168     0.000967
   169     0.035820
   170     0.029699
   171    -0.047450
   172    -1.401580
   173    -1.400084
   174    -1.410551
   175     0.038456
   176     0.003431
   177     0.006043
   178    -0.002286
   179    -0.003306
   180     0.008410
   181    -0.004821
   182    -0.007052
Sym=    89a
Ene=   -0.175316E-05
Spin= Alpha
Occup= 0.000000
     1     0.093422
     2    -0.477026
     3    -0.024421
     4     0.130709
     5     0.012265
     6    -0.000314
     7    -0.009274
     8    -0.206694
     9     0.123317
    10     0.002324
    11    -0.002738
    12     0.000107
    13    -0.184473
    14    -0.021803
    15    -0.034205
    16    -0.635364
    17    -0.068212
    18     0.016690
    19    -0.300896
    20     0.308755
    21     0.026765
    22     0.071129
    23     0.164526
    24    -0.037838
    25    -0.001916
    26    -0.050921
    27    -0.184989
    28     0.344531
    29    -0.005690
    30    -0.003338
    31    -0.003078
    32     0.058718
    33     0.027870
    34    -0.015350
    35    -0.055517
    36    -0.252543
    37     0.239367
    38     0.075812
    39     0.183463
    40     0.174774
    41    -0.037701
    42     0.074283
    43     0.015380
    44     0.002874
    45     0.019118
    46     1.174693
    47    -0.000323
    48     0.027241
    49     0.086789
    50    -0.783279
    51     0.436773
    52    -0.199811
    53     0.100797
    54    -0.065397
    55    -0.026610
    56     0.040618
    57    -0.032367
    58     0.064443
    59    -0.007835
    60     0.204575
    61    -1.217985
    62     0.028644
    63    -0.070250
    64     0.011805
    65    -0.263220
    66    -0.279102
    67    -0.146834
    68     0.030988
    69     0.062893
    70     0.110179
    71     0.052063
    72     0.021865
    73    -0.023188
    74    -0.001035
    75    -0.027956
    76     0.287860
    77    -1.731751
    78    -0.003381
    79    -0.007904
    80    -0.002388
    81     0.049355
    82     0.076287
    83    -0.002866
    84     0.953748
    85    -0.424246
    86     0.133725
    87    -0.215156
    88     0.156912
    89     0.278110
    90     0.105916
    91    -0.007434
    92     0.104763
    93     0.003465
    94     0.017331
    95    -0.326021
    96    -0.034802
    97    -0.003329
    98    -0.016892
    99     0.361410
   100    -0.148794
   101    -0.170648
   102    -0.063598
   103    -0.005899
   104    -0.022370
   105     0.050460
   106     0.068288
   107    -0.075767
   108     0.021849
   109    -0.005464
   110    -0.049116
   111    -0.030024
   112     0.013744
   113    -0.000629
   114     0.015815
   115    -0.997233
   116    -0.002228
   117     0.021379
   118     0.082751
   119    -1.408542
   120    -1.287616
   121    -0.731037
   122     0.001012
   123    -0.104028
   124    -0.048026
   125    -0.304655
   126    -0.290381
   127    -0.345442
   128     0.770403
   129     2.183262
   130    -0.578127
   131    -0.567983
   132    -0.483370
   133    -0.021695
   134     0.107068
   135     0.048507
   136     0.020089
   137    -0.024357
   138     0.279351
   139    -0.135633
   140     0.163448
   141    -0.083364
   142    -0.085655
   143     0.001997
   144    -1.279038
   145    -0.126161
   146    -0.113705
   147    -0.001388
   148     0.010216
   149    -0.268142
   150     1.759751
   151    -0.016196
   152     0.010497
   153    -0.001101
   154    -0.161457
   155     0.527703
   156     0.045173
   157    -0.077277
   158    -0.082818
   159    -0.089840
   160    -0.020692
   161    -0.015159
   162    -0.006165
   163     0.001053
   164    -0.051409
   165     0.265404
   166     0.035760
   167    -0.018109
   168    -0.001209
   169     0.078285
   170     0.003462
   171    -0.071413
   172    -0.017050
   173    -0.016062
   174    -0.016668
   175    -0.009952
   176     0.019107
   177    -0.014311
   178     0.017948
   179    -0.212560
   180    -0.030306
   181     0.011840
   182    -0.094097
Sym=    90a
Ene=   -0.218102E-05
Spin= Alpha
Occup= 0.000000
     1     0.109585
     2    -0.888218
     3    -0.002643
     4     0.122869
     5    -0.011069
     6    -0.000238
     7    -0.016221
     8     0.062366
     9    -0.980974
    10    -0.002379
    11    -0.001666
    12    -0.009968
    13    -0.029516
    14     0.074099
    15     0.108512
    16    -0.893486
    17     1.141805
    18    -0.727820
    19    -0.043722
    20     0.081736
    21     0.180888
    22     0.025172
    23    -0.021753
    24    -0.104416
    25    -0.001522
    26    -0.055924
    27     0.506016
    28    -3.098736
    29     0.005491
    30     0.002970
    31    -0.004570
    32    -0.081248
    33    -0.055100
    34     0.086398
    35     0.494201
    36     1.047397
    37    -1.152437
    38     0.264310
    39     0.148657
    40     0.199357
    41    -0.080003
    42     0.093390
    43     0.203728
    44     0.001026
    45    -0.084149
    46     1.674791
    47    -0.035246
    48    -0.061099
    49    -0.067647
    50     1.456503
    51     0.466443
    52    -0.926639
    53    -0.070675
    54     0.089308
    55     0.041403
    56    -0.040427
    57     0.039326
    58    -0.030090
    59    -0.001188
    60    -0.014725
    61     0.329327
    62     0.040403
    63    -0.018027
    64    -0.015887
    65     0.996785
    66    -0.316182
    67    -0.415531
    68     0.114556
    69    -0.068766
    70     0.001395
    71    -0.031068
    72     0.015741
    73     0.009460
    74     0.000241
    75    -0.011731
    76    -0.885069
    77     5.119884
    78    -0.000690
    79     0.004875
    80    -0.008048
    81    -0.039989
    82    -0.114800
    83     0.111784
    84    -2.879814
    85     1.346568
    86    -0.621273
    87     0.554524
    88     0.236915
    89    -0.462627
    90    -0.007222
    91    -0.062955
    92    -0.156828
    93    -0.008240
    94     0.160772
    95    -0.714834
    96    -0.000426
    97    -0.027138
    98    -0.014627
    99    -0.128091
   100     0.418428
   101     0.368312
   102     0.072458
   103     0.094966
   104     0.072651
   105    -0.014013
   106    -0.040429
   107     0.046653
   108     0.103754
   109     0.520480
   110    -0.029066
   111    -0.059175
   112    -0.025135
   113    -0.004423
   114     0.197884
   115    -1.381566
   116    -0.076036
   117     0.149547
   118    -0.037813
   119    -0.686731
   120     0.717065
   121    -0.468635
   122     0.123841
   123    -0.082744
   124     0.050983
   125    -0.114353
   126    -0.033483
   127    -0.061343
   128     0.199633
   129     0.625483
   130    -0.148431
   131    -0.133028
   132    -0.118936
   133     0.019870
   134    -0.437673
   135     0.046543
   136    -0.176107
   137     0.103705
   138    -0.182795
   139     0.009023
   140    -0.127060
   141     0.002233
   142     0.096556
   143     0.004863
   144     0.550313
   145     0.020073
   146    -0.048869
   147     0.213854
   148    -0.027726
   149     0.666357
   150    -4.222518
   151    -0.042632
   152    -0.033604
   153    -0.083817
   154    -0.185226
   155    -1.259734
   156    -0.165162
   157     0.080343
   158     0.297869
   159     0.313917
   160     0.021447
   161     0.013861
   162    -0.018075
   163    -0.003565
   164     0.093633
   165    -0.469252
   166    -0.103655
   167    -0.009409
   168     0.048164
   169    -0.337616
   170    -0.134461
   171     0.259104
   172     0.081609
   173     0.003855
   174     0.028301
   175    -0.017715
   176    -0.032548
   177     0.017221
   178    -0.024485
   179    -0.245996
   180    -0.059051
   181     0.021104
   182    -0.017829
Sym=    91a
Ene=   -0.147786E-05
Spin= Alpha
Occup= 0.000000
     1    -0.112848
     2     0.929273
     3     0.012949
     4    -0.127129
     5    -0.051187
     6    -0.000842
     7    -0.043073
     8    -0.347877
     9     0.838304
    10    -0.003704
    11     0.001068
    12    -0.000164
    13     0.105035
    14     0.084204
    15     0.017306
    16     1.244673
    17    -0.639734
    18     0.711942
    19     0.601581
    20    -0.206511
    21     0.092929
    22     0.156187
    23    -0.046295
    24    -0.055630
    25    -0.001274
    26    -0.045792
    27     0.072049
    28    -0.979070
    29     0.002706
    30     0.003453
    31    -0.003483
    32    -0.017459
    33    -0.033602
    34     0.027473
    35     0.033450
    36     0.303812
    37    -0.309211
    38     0.204756
    39     0.136422
    40     0.136694
    41    -0.051616
    42    -0.056063
    43     0.093978
    44    -0.009002
    45     0.150511
    46    -1.826442
    47    -0.014049
    48     0.011077
    49    -0.062868
    50     0.457254
    51    -0.221521
    52     1.648399
    53    -0.195802
    54     0.298963
    55     0.128055
    56     0.073404
    57     0.190117
    58    -0.054234
    59     0.004890
    60    -0.210301
    61     1.091481
    62    -0.055838
    63     0.055083
    64    -0.005074
    65     0.280136
    66     0.380446
    67     0.600316
    68    -0.049428
    69    -0.036579
    70    -0.102280
    71    -0.026078
    72    -0.100064
    73    -0.045532
    74    -0.000097
    75    -0.011788
    76    -0.036775
    77     0.325072
    78     0.009687
    79    -0.002552
    80    -0.004595
    81    -0.103387
    82    -0.018615
    83     0.051508
    84    -0.238623
    85     0.045644
    86    -0.295500
    87     0.155793
    88     0.028746
    89     0.016392
    90     0.013011
    91     0.020024
    92    -0.056357
    93    -0.012605
    94     0.193303
    95    -0.621488
    96     0.081726
    97     0.011383
    98     0.074864
    99    -0.478468
   100     0.309158
   101     0.031666
   102     0.195614
   103     0.020242
   104     0.130256
   105    -0.087840
   106    -0.007271
   107     0.030314
   108     0.022269
   109     0.074057
   110    -0.100915
   111     0.029543
   112    -0.077145
   113    -0.010044
   114     0.285753
   115    -1.854375
   116     0.099631
   117    -0.021038
   118    -0.050904
   119     0.394302
   120    -0.368362
   121    -0.531858
   122    -0.013811
   123     0.119067
   124     0.100998
   125    -0.086481
   126    -0.096457
   127    -0.130147
   128     0.322815
   129     0.430389
   130    -0.234993
   131    -0.124972
   132    -0.110550
   133    -0.148928
   134    -0.617207
   135    -0.058430
   136    -0.264423
   137     0.142799
   138    -0.094509
   139    -0.307141
   140    -0.136639
   141     0.169148
   142     0.074941
   143     0.093330
   144     1.141526
   145     0.088506
   146     0.113570
   147    -0.216850
   148    -0.007105
   149     0.157945
   150    -0.625637
   151     0.002767
   152     0.000375
   153    -0.004589
   154     0.068115
   155    -0.889960
   156     0.065334
   157    -0.008525
   158     0.183328
   159     0.037523
   160     0.027895
   161     0.043803
   162    -0.063863
   163    -0.005022
   164     0.155100
   165    -0.762295
   166     0.012873
   167    -0.047055
   168    -0.098210
   169     0.154736
   170    -0.305704
   171    -0.196120
   172     0.040595
   173     0.058297
   174     0.083136
   175     0.030520
   176    -0.006935
   177     0.047977
   178     0.038862
   179     1.185189
   180     0.030286
   181     0.083158
   182     0.323645
Sym=    92a
Ene=   -0.384970E-02
Spin= Alpha
Occup= 0.007756
     1     0.049039
     2    -0.130564
     3    -0.006815
     4    -0.005031
     5    -0.002048
     6     0.002562
     7     0.017676
     8     0.092565
     9    -0.184566
    10    -0.007124
    11     0.007713
    12     0.007760
    13    -0.017122
    14    -0.037831
    15    -0.010665
    16    -0.036321
    17     0.217449
    18    -0.115400
    19    -0.038730
    20    -0.004320
    21     0.019970
    22     0.042587
    23    -0.015575
    24    -0.014520
    25    -0.003881
    26    -0.025142
    27     0.052740
    28    -0.522226
    29     0.019603
    30    -0.030139
    31     0.013006
    32    -0.059872
    33     0.079963
    34    -0.040716
    35     0.020639
    36     0.171048
    37    -0.189891
    38     0.037539
    39    -0.114549
    40     0.069705
    41    -0.078793
    42    -0.022054
    43    -0.019106
    44    -0.000815
    45     0.010142
    46     0.061864
    47     0.002126
    48     0.010155
    49    -0.012707
    50    -0.044005
    51     0.027109
    52    -0.023669
    53     0.002355
    54     0.006043
    55    -0.005686
    56    -0.002281
    57    -0.004459
    58    -0.006275
    59    -0.002777
    60    -0.032358
    61     0.081711
    62    -0.000547
    63     0.008502
    64    -0.005923
    65    -0.005279
    66     0.015218
    67    -0.005808
    68    -0.014399
    69     0.001924
    70     0.006519
    71     0.000821
    72     0.001176
    73     0.000372
    74    -0.029804
    75    -0.223906
    76    -1.159285
    77     1.665504
    78     0.174202
    79    -0.066199
    80     0.038951
    81    -0.645580
    82     0.235214
    83    -0.128030
    84     0.244231
    85    -0.030541
    86    -0.019772
    87    -0.537627
    88     0.220804
    89     0.377127
    90     0.319052
    91    -0.132693
    92     0.047613
    93    -0.000248
    94    -0.011147
    95     0.052399
    96    -0.006254
    97    -0.002304
    98     0.004690
    99     0.023571
   100     0.002005
   101    -0.001563
   102    -0.001841
   103    -0.002089
   104    -0.003652
   105    -0.000106
   106     0.000190
   107     0.000761
   108     0.007205
   109     0.093600
   110     0.009548
   111     0.011061
   112    -0.006153
   113    -0.005440
   114    -0.019608
   115     0.026035
   116     0.013876
   117     0.033320
   118    -0.013688
   119    -0.151014
   120     0.069007
   121    -0.106372
   122    -0.007493
   123     0.005408
   124    -0.009331
   125    -0.003316
   126     0.003902
   127     0.000147
   128     0.009991
   129    -0.055820
   130    -0.007398
   131    -0.018300
   132    -0.005472
   133     0.021590
   134    -0.057799
   135     0.003871
   136     0.013847
   137    -0.007822
   138     0.000080
   139     0.027537
   140    -0.000412
   141     0.001116
   142    -0.001189
   143    -0.003009
   144    -0.025641
   145    -0.001808
   146     0.001615
   147    -0.001953
   148     0.005518
   149     0.091623
   150    -0.259955
   151     0.023418
   152    -0.065031
   153     0.023263
   154    -0.124521
   155     0.053861
   156     0.006577
   157     0.005792
   158     0.011361
   159     0.003603
   160     0.009073
   161     0.000975
   162     0.001754
   163    -0.000564
   164    -0.006334
   165     0.018811
   166     0.000356
   167    -0.000450
   168    -0.001026
   169     0.009619
   170    -0.002592
   171     0.000065
   172    -0.000620
   173     0.000213
   174    -0.000752
   175     0.000335
   176    -0.000150
   177     0.000703
   178    -0.001044
   179    -0.007257
   180     0.003705
   181     0.003264
   182    -0.005815
Sym=    93a
Ene=   -0.399973E-02
Spin= Alpha
Occup= 0.007950
     1     0.011244
     2    -0.053265
     3    -0.001201
     4     0.001246
     5     0.001536
     6    -0.001591
     7    -0.011037
     8    -0.060747
     9     0.011341
    10     0.007288
    11     0.019327
    12    -0.004931
    13    -0.041553
    14    -0.040639
    15     0.016720
    16     0.017501
    17     0.037165
    18    -0.087439
    19    -0.015738
    20    -0.001409
    21     0.006508
    22    -0.027181
    23     0.008497
    24    -0.041124
    25    -0.006678
    26    -0.048697
    27    -0.341320
    28     0.694521
    29     0.014392
    30     0.115063
    31    -0.049461
    32    -0.046217
    33    -0.409648
    34     0.156267
    35    -0.068490
    36     0.193000
    37     0.057887
    38     0.142100
    39    -0.022160
    40    -0.148603
    41    -0.737019
    42     0.169564
    43     0.429549
    44    -0.000966
    45    -0.021134
    46     0.085290
    47     0.013321
    48     0.023171
    49    -0.022773
    50     0.058381
    51     0.057694
    52    -0.034364
    53    -0.010798
    54     0.003810
    55    -0.001881
    56     0.000650
    57     0.007082
    58    -0.002503
    59    -0.002697
    60    -0.021478
    61     0.040991
    62     0.007783
    63     0.014074
    64    -0.006925
    65     0.022800
    66     0.033745
    67     0.010264
    68     0.002718
    69    -0.001882
    70    -0.001923
    71    -0.000912
    72    -0.006265
    73     0.002034
    74     0.000913
    75     0.011026
    76     0.109312
    77    -0.339927
    78     0.005181
    79     0.019946
    80    -0.030528
    81     0.002511
    82    -0.076582
    83     0.075765
    84     0.051309
    85    -0.075151
    86     0.061943
    87     0.010317
    88     0.043872
    89    -0.097088
    90    -0.061468
    91    -0.065938
    92     0.118751
    93     0.000056
    94     0.005337
    95    -0.027613
    96    -0.005054
    97    -0.003095
    98     0.004834
    99     0.005771
   100     0.023790
   101     0.003996
   102     0.001711
   103    -0.000336
   104     0.000318
   105    -0.000022
   106     0.001087
   107    -0.000038
   108     0.061811
   109    -0.293623
   110     0.003427
   111     0.030525
   112     0.006353
   113    -0.003647
   114    -0.044313
   115     0.085107
   116     0.031253
   117    -0.039227
   118     0.063249
   119    -0.004587
   120    -0.212540
   121     0.076720
   122    -0.003878
   123    -0.015677
   124     0.003277
   125     0.015458
   126    -0.000684
   127    -0.007673
   128     0.012938
   129    -0.040930
   130     0.000901
   131    -0.007944
   132    -0.017341
   133    -0.024370
   134     0.011541
   135    -0.003190
   136    -0.003623
   137    -0.008204
   138     0.002424
   139     0.007514
   140    -0.001174
   141     0.001196
   142    -0.000256
   143    -0.000096
   144     0.024090
   145     0.001635
   146    -0.001882
   147     0.002012
   148    -0.004412
   149    -0.033753
   150     0.082636
   151     0.006137
   152    -0.015876
   153    -0.066756
   154     0.034010
   155    -0.041766
   156    -0.141838
   157     0.001819
   158     0.012566
   159    -0.009680
   160     0.002013
   161     0.001045
   162     0.001655
   163    -0.001079
   164    -0.006669
   165     0.002187
   166     0.001221
   167     0.001842
   168    -0.004288
   169     0.007411
   170    -0.006005
   171    -0.006060
   172    -0.000735
   173     0.001195
   174     0.001026
   175    -0.000096
   176     0.001232
   177     0.000732
   178     0.015453
   179    -0.023777
   180     0.004444
   181    -0.001889
   182    -0.002268
Sym=    94a
Ene=   -0.541172E-03
Spin= Alpha
Occup= 0.000303
     1     0.143331
     2    -0.048979
     3     0.054629
     4     0.001257
     5     0.014720
     6     0.000429
     7    -0.003898
     8     0.013464
     9    -0.144744
    10     0.010273
    11    -0.001068
    12     0.003547
    13    -0.032473
    14    -0.006278
    15    -0.014576
    16    -0.055400
    17     0.021830
    18     0.075171
    19     0.047651
    20    -0.047681
    21     0.042417
    22     0.222967
    23     0.029164
    24     0.097782
    25    -0.000182
    26     0.006005
    27    -0.015742
    28     0.223586
    29     0.000954
    30    -0.000015
    31    -0.000775
    32     0.009034
    33     0.001064
    34     0.011728
    35    -0.066350
    36    -0.000390
    37     0.035602
    38    -0.025605
    39    -0.016981
    40    -0.045845
    41     0.031676
    42    -0.032723
    43     0.061411
    44    -0.004027
    45     0.053048
    46    -0.135144
    47    -0.107202
    48    -0.012155
    49     0.107071
    50    -0.103595
    51    -0.044302
    52     0.101542
    53    -0.004380
    54     0.043325
    55     0.110779
    56    -0.031691
    57    -0.026826
    58    -0.001730
    59    -0.000401
    60     0.046336
    61    -0.214454
    62     0.005877
    63    -0.018443
    64    -0.037392
    65    -0.229008
    66     0.205270
    67    -0.172656
    68     0.387238
    69    -0.333259
    70    -0.030847
    71     0.149629
    72     0.394770
    73    -0.308139
    74     0.002198
    75    -0.007244
    76     0.093411
    77    -0.204450
    78     0.012615
    79     0.013164
    80    -0.016254
    81    -0.103083
    82    -0.099964
    83     0.052053
    84    -0.095054
    85    -0.103188
    86     0.022795
    87     0.131170
    88     0.165443
    89     0.028367
    90     0.217478
    91    -0.171829
    92    -0.204279
    93    -0.003308
    94    -0.050774
    95     0.137706
    96     0.001090
    97    -0.002003
    98    -0.003342
    99     0.050054
   100    -0.032731
   101    -0.025423
   102    -0.006555
   103    -0.021133
   104    -0.015839
   105    -0.019493
   106    -0.018565
   107     0.001703
   108    -0.013518
   109    -0.019227
   110     0.014682
   111    -0.003004
   112    -0.004375
   113    -0.000378
   114    -0.048270
   115     0.142785
   116     0.000792
   117    -0.012050
   118     0.032602
   119    -0.042298
   120    -0.197650
   121     0.082548
   122    -0.047401
   123    -0.020847
   124     0.026324
   125     0.096755
   126     0.040125
   127    -0.038951
   128     0.003279
   129     0.053874
   130    -0.002121
   131     0.021609
   132    -0.070676
   133    -0.439901
   134     0.246979
   135    -0.303119
   136    -0.032192
   137     0.235176
   138     0.025713
   139    -0.037909
   140     0.017426
   141    -0.005494
   142    -0.014944
   143     0.061509
   144    -0.070537
   145     0.001255
   146    -0.028144
   147     0.035552
   148    -0.000217
   149     0.042283
   150     0.084953
   151    -0.070429
   152     0.054248
   153    -0.046200
   154    -0.426829
   155    -0.237772
   156    -0.111416
   157    -0.297175
   158     0.471374
   159    -0.127156
   160    -0.311867
   161    -0.061995
   162     0.047005
   163     0.000123
   164     0.000560
   165    -0.009695
   166     0.001800
   167     0.011894
   168    -0.004755
   169     0.018536
   170     0.015492
   171    -0.005668
   172     0.003939
   173    -0.004077
   174    -0.003311
   175     0.009593
   176    -0.000316
   177    -0.001811
   178    -0.188897
   179     0.044829
   180     0.294221
   181    -0.390708
   182    -0.047981
Sym=    95a
Ene=   -0.101274E-01
Spin= Alpha
Occup= 0.017078
     1    -1.147341
     2     0.014103
     3     0.018897
     4    -0.030451
     5    -0.003026
     6     0.033449
     7     0.217258
     8     0.603562
     9     0.079265
    10     0.113583
    11    -0.143021
    12     0.070099
    13    -0.348563
    14     0.438811
    15    -0.207191
    16    -0.188110
    17     0.250932
    18    -0.147072
    19     0.095713
    20     0.162487
    21    -0.017329
    22    -0.134867
    23     0.095274
    24    -0.080663
    25    -0.001463
    26    -0.010280
    27     0.012604
    28    -0.001771
    29    -0.008681
    30     0.009337
    31     0.008578
    32     0.003906
    33    -0.031309
    34    -0.011866
    35     0.008940
    36    -0.004020
    37    -0.045297
    38    -0.003598
    39     0.020532
    40     0.003803
    41     0.003682
    42     0.031920
    43    -0.013088
    44     0.000835
    45     0.005189
    46     0.035132
    47    -0.014174
    48    -0.023920
    49     0.004769
    50     0.083313
    51    -0.020244
    52     0.033128
    53     0.005486
    54    -0.003312
    55     0.000844
    56     0.000997
    57     0.000297
    58     0.011106
    59     0.002222
    60     0.041647
    61    -0.114651
    62    -0.037844
    63    -0.006346
    64     0.000011
    65    -0.058505
    66    -0.070398
    67     0.017110
    68     0.002057
    69     0.003997
    70     0.003647
    71    -0.001544
    72     0.002667
    73    -0.005023
    74     0.002929
    75     0.019036
    76     0.059140
    77     0.035371
    78     0.014379
    79    -0.008750
    80     0.002548
    81    -0.034439
    82     0.017551
    83    -0.006791
    84    -0.099658
    85     0.021119
    86     0.002894
    87    -0.014962
    88     0.025743
    89     0.007155
    90    -0.020845
    91     0.007393
    92    -0.002975
    93    -0.002502
    94     0.019501
    95    -0.073774
    96     0.003083
    97    -0.001144
    98    -0.016876
    99     0.033404
   100    -0.068913
   101     0.116444
   102    -0.006828
   103     0.005301
   104     0.008948
   105     0.000254
   106    -0.001180
   107    -0.006994
   108    -0.010972
   109    -0.187865
   110     0.011779
   111     0.008978
   112    -0.008652
   113     0.000702
   114     0.042044
   115    -0.104527
   116     0.017905
   117     0.015326
   118     0.002533
   119     0.102465
   120    -0.021262
   121     0.013228
   122     0.008222
   123    -0.001526
   124     0.005573
   125    -0.001508
   126    -0.002202
   127     0.000082
   128    -0.007360
   129     0.012226
   130     0.002401
   131    -0.001806
   132     0.001207
   133    -0.008342
   134    -0.024484
   135     0.000395
   136    -0.002287
   137    -0.001269
   138    -0.021951
   139     0.001800
   140     0.003772
   141    -0.006126
   142     0.006097
   143    -0.002296
   144     0.031911
   145     0.001501
   146     0.000445
   147    -0.001354
   148     0.002544
   149     0.013493
   150     0.024415
   151     0.006387
   152    -0.019155
   153    -0.000019
   154    -0.041017
   155     0.006987
   156    -0.006632
   157     0.003907
   158     0.003391
   159     0.001317
   160     0.000453
   161    -0.002515
   162     0.000558
   163    -0.000549
   164     0.012179
   165    -0.050798
   166     0.001181
   167    -0.000610
   168     0.001161
   169    -0.013271
   170    -0.017871
   171    -0.002382
   172     0.002741
   173     0.002756
   174     0.003178
   175    -0.000680
   176    -0.000240
   177     0.000304
   178    -0.008629
   179     0.006031
   180     0.000323
   181    -0.000950
   182    -0.000890
Sym=    96a
Ene=   -0.202546E-01
Spin= Alpha
Occup= 0.024040
     1    -0.001749
     2     0.004742
     3    -0.000652
     4     0.000762
     5    -0.000381
     6     0.000807
     7     0.005646
     8     0.024596
     9     0.011936
    10     0.000092
    11     0.002260
    12     0.000142
    13     0.000914
    14    -0.022463
    15    -0.000551
    16     0.007738
    17    -0.018988
    18    -0.001568
    19     0.000104
    20     0.007209
    21    -0.000170
    22    -0.005616
    23    -0.001720
    24    -0.002561
    25     0.000064
    26     0.000463
    27    -0.000376
    28    -0.002892
    29     0.000158
    30     0.002568
    31    -0.000186
    32     0.000468
    33    -0.005085
    34    -0.000165
    35     0.003369
    36    -0.005964
    37     0.003991
    38     0.000157
    39     0.003138
    40    -0.004695
    41     0.001866
    42     0.002486
    43    -0.000056
    44     0.001746
    45     0.024721
    46     0.002736
    47    -0.016102
    48    -0.007685
    49     0.001729
    50     0.020414
    51     0.001879
    52    -0.004194
    53     0.002633
    54     0.003322
    55    -0.000133
    56    -0.002275
    57     0.003482
    58    -0.001408
    59     0.158040
    60     0.642504
    61    -0.094856
    62     0.428255
    63     0.327163
    64     0.591224
    65    -0.096622
    66    -0.013461
    67    -0.091669
    68    -0.002774
    69    -0.015565
    70     0.024733
    71     0.032475
    72     0.036690
    73     0.044806
    74     0.000033
    75     0.000216
    76    -0.004402
    77    -0.020737
    78     0.003406
    79     0.000475
    80    -0.000064
    81     0.000139
    82    -0.000231
    83    -0.001075
    84     0.003674
    85     0.003302
    86    -0.008279
    87    -0.001037
    88    -0.004457
    89    -0.000661
    90     0.000175
    91    -0.012130
    92    -0.004384
    93    -0.000343
    94    -0.005701
    95    -0.000235
    96     0.002087
    97    -0.000365
    98    -0.000143
    99     0.006241
   100    -0.007762
   101    -0.012996
   102    -0.001214
   103     0.000025
   104     0.000536
   105    -0.000153
   106    -0.000178
   107     0.001557
   108     0.003964
   109     0.008392
   110    -0.000645
   111    -0.000094
   112     0.000250
   113    -0.000275
   114     0.000468
   115    -0.009963
   116    -0.001489
   117    -0.000917
   118    -0.001435
   119     0.000909
   120    -0.001975
   121     0.001411
   122    -0.000940
   123     0.000334
   124    -0.000138
   125     0.000233
   126    -0.000327
   127    -0.000244
   128     0.002816
   129     0.002718
   130    -0.000373
   131     0.000248
   132    -0.000138
   133     0.007055
   134     0.009553
   135     0.000118
   136     0.000382
   137     0.002017
   138    -0.000829
   139     0.002845
   140     0.001664
   141    -0.000829
   142    -0.000103
   143     0.005315
   144     0.018891
   145    -0.003177
   146     0.000128
   147     0.001182
   148    -0.000304
   149    -0.004578
   150     0.080983
   151    -0.014414
   152     0.000266
   153    -0.012514
   154    -0.008396
   155     0.040528
   156     0.041365
   157    -0.004872
   158    -0.001561
   159     0.001335
   160     0.000941
   161     0.000704
   162    -0.002116
   163    -0.000111
   164    -0.000762
   165    -0.004909
   166    -0.001472
   167     0.000637
   168     0.001082
   169    -0.001058
   170    -0.003181
   171    -0.008462
   172    -0.000442
   173    -0.000506
   174     0.000388
   175     0.000384
   176    -0.000510
   177     0.000120
   178    -0.930543
   179    -0.164394
   180    -0.012686
   181    -0.002900
   182    -0.018199
Sym=    97a
Ene=   -0.238970E-02
Spin= Alpha
Occup= 0.001892
     1    -0.081125
     2     0.125740
     3     0.008855
     4     0.026068
     5    -0.000278
     6    -0.000466
     7    -0.002155
     8    -0.087667
     9     0.094014
    10     0.005577
    11     0.004005
    12    -0.009998
    13    -0.057993
    14    -0.011649
    15     0.035470
    16     0.088550
    17    -0.100894
    18     0.071594
    19    -0.053642
    20     0.026995
    21     0.009568
    22    -0.083362
    23     0.095025
    24    -0.014308
    25     0.001641
    26     0.012587
    27     0.012315
    28    -0.102089
    29     0.004900
    30     0.015292
    31     0.007817
    32    -0.014890
    33    -0.035892
    34    -0.039055
    35     0.095544
    36    -0.029764
    37    -0.010321
    38    -0.006840
    39     0.028731
    40    -0.041745
    41    -0.003284
    42    -0.029741
    43    -0.098038
    44     0.001019
    45    -0.005582
    46     0.040923
    47    -0.021937
    48     0.002259
    49     0.005991
    50    -0.077446
    51     0.015760
    52    -0.031288
    53    -0.000336
    54    -0.000210
    55     0.006711
    56     0.002642
    57    -0.001945
    58    -0.000374
    59     0.002403
    60     0.038280
    61    -0.105816
    62    -0.004928
    63    -0.031479
    64     0.003936
    65    -0.031045
    66    -0.056378
    67     0.009931
    68     0.005185
    69     0.003967
    70    -0.001084
    71    -0.008212
    72     0.005636
    73    -0.006341
    74    -0.001921
    75    -0.011451
    76    -0.059135
    77     0.082787
    78    -0.010861
    79    -0.002548
    80    -0.015257
    81     0.035296
    82    -0.023060
    83     0.032525
    84    -0.055547
    85    -0.037339
    86     0.077365
    87    -0.007243
    88    -0.106691
    89     0.072098
    90     0.004883
    91    -0.071276
    92     0.213613
    93     0.001254
    94     0.017382
    95    -0.041292
    96     0.013475
    97     0.006640
    98     0.006968
    99    -0.061172
   100    -0.011363
   101    -0.009302
   102    -0.000973
   103    -0.001965
   104     0.011119
   105    -0.003700
   106     0.011423
   107    -0.003718
   108    -0.042056
   109     0.172876
   110    -0.009013
   111     0.002570
   112    -0.001418
   113    -0.004035
   114    -0.073112
   115     0.162749
   116     0.020710
   117     0.063298
   118    -0.108968
   119    -0.028450
   120    -0.051664
   121    -0.112453
   122    -0.015960
   123     0.211796
   124    -0.231359
   125     0.260019
   126    -0.195941
   127    -0.080042
   128     0.033864
   129    -0.052497
   130     0.039749
   131     0.415931
   132    -0.604819
   133    -0.013212
   134     0.001123
   135    -0.006156
   136    -0.006640
   137     0.006296
   138    -0.001015
   139    -0.020163
   140     0.000287
   141     0.008435
   142     0.004108
   143     0.010436
   144    -0.088545
   145    -0.000221
   146    -0.005183
   147     0.004763
   148     0.006526
   149     0.066036
   150    -0.128848
   151    -0.042233
   152    -0.018170
   153    -0.020240
   154    -0.066682
   155    -0.076854
   156    -0.047936
   157     0.021061
   158    -0.005370
   159     0.001543
   160    -0.011086
   161     0.008518
   162    -0.007361
   163    -0.000325
   164    -0.005192
   165     0.020243
   166     0.000698
   167    -0.000137
   168     0.003490
   169     0.002991
   170     0.000132
   171     0.008162
   172    -0.000438
   173    -0.000116
   174    -0.001327
   175     0.000314
   176    -0.000902
   177     0.000408
   178     0.007259
   179    -0.035196
   180     0.004392
   181    -0.001412
   182     0.001010
Sym=    98a
Ene=   -0.192864E-01
Spin= Alpha
Occup= 0.023137
     1    -0.001602
     2    -0.004876
     3     0.000139
     4    -0.000471
     5     0.000161
     6    -0.001343
     7    -0.007922
     8     0.002432
     9    -0.006083
    10     0.001029
    11    -0.009275
    12    -0.002038
    13     0.001028
    14     0.015589
    15     0.001898
    16    -0.011892
    17     0.016778
    18     0.003861
    19     0.002153
    20    -0.011149
    21     0.004965
    22     0.001242
    23    -0.003262
    24    -0.003489
    25     0.000222
    26     0.001238
    27     0.009544
    28     0.000327
    29     0.000899
    30    -0.001515
    31    -0.000788
    32    -0.003437
    33     0.001062
    34     0.005573
    35     0.004920
    36    -0.003472
    37     0.002996
    38     0.001222
    39     0.001182
    40     0.004931
    41    -0.003659
    42    -0.000229
    43    -0.000269
    44    -0.000142
    45    -0.007049
    46    -0.006961
    47    -0.001281
    48    -0.006090
    49     0.002605
    50    -0.014730
    51     0.005613
    52     0.013969
    53    -0.001416
    54    -0.002562
    55    -0.001357
    56     0.000946
    57    -0.001064
    58     0.001532
    59     0.000120
    60    -0.006285
    61    -0.028192
    62     0.000957
    63     0.012805
    64    -0.000102
    65    -0.029073
    66    -0.025357
    67     0.024146
    68     0.004528
    69    -0.001120
    70    -0.002521
    71    -0.000717
    72    -0.000124
    73    -0.000824
    74    -0.001634
    75    -0.011878
    76    -0.031975
    77    -0.043802
    78    -0.000714
    79     0.001149
    80     0.001163
    81     0.010960
    82     0.002911
    83    -0.006618
    84     0.045334
    85    -0.018279
    86     0.012353
    87     0.002729
    88     0.003497
    89    -0.006725
    90     0.004084
    91    -0.004041
    92    -0.002999
    93     0.000244
    94    -0.001616
    95     0.008078
    96    -0.000415
    97    -0.000588
    98    -0.001017
    99     0.002969
   100    -0.001457
   101    -0.005416
   102    -0.000367
   103    -0.000092
   104    -0.000982
   105    -0.000018
   106     0.000265
   107     0.000154
   108     0.001490
   109     0.011897
   110    -0.000298
   111     0.000258
   112     0.000708
   113     0.000668
   114     0.004989
   115     0.016633
   116     0.001003
   117    -0.000347
   118     0.001721
   119     0.011114
   120     0.000591
   121     0.005462
   122     0.001078
   123    -0.000209
   124     0.000828
   125    -0.001126
   126     0.000342
   127     0.000389
   128    -0.001811
   129     0.001286
   130     0.000671
   131     0.000663
   132     0.000665
   133     0.931550
   134     0.166194
   135    -0.002350
   136     0.019432
   137    -0.004210
   138    -0.000963
   139    -0.005989
   140    -0.000085
   141     0.000512
   142    -0.000771
   143     0.000826
   144    -0.010701
   145     0.000311
   146    -0.000360
   147    -0.000465
   148    -0.161434
   149    -0.651322
   150     0.074649
   151    -0.073217
   152    -0.764122
   153     0.221390
   154    -0.027218
   155     0.121410
   156    -0.019375
   157     0.029669
   158    -0.059488
   159     0.029068
   160    -0.022747
   161    -0.001173
   162     0.024318
   163    -0.001425
   164    -0.000021
   165    -0.006149
   166     0.004219
   167    -0.002751
   168    -0.006217
   169    -0.015984
   170     0.015950
   171     0.016103
   172     0.000989
   173    -0.000430
   174    -0.001505
   175     0.000089
   176    -0.001162
   177    -0.000518
   178    -0.005186
   179     0.003548
   180    -0.001786
   181     0.000415
   182    -0.000226
Sym=    99a
Ene=   -0.327646E-02
Spin= Alpha
Occup= 0.002473
     1    -0.079718
     2     0.090224
     3    -0.002467
     4    -0.000082
     5    -0.009817
     6     0.003303
     7     0.012759
     8    -0.041689
     9     0.073564
    10     0.016289
    11    -0.011015
    12    -0.023388
    13    -0.044496
    14     0.034175
    15     0.039498
    16     0.005986
    17     0.024799
    18     0.017688
    19     0.037152
    20    -0.012174
    21     0.101844
    22     0.014682
    23    -0.058988
    24    -0.018654
    25     0.000394
    26     0.002504
    27     0.026471
    28    -0.018799
    29     0.000521
    30     0.002436
    31    -0.000011
    32    -0.008012
    33    -0.005837
    34     0.004719
    35     0.008540
    36    -0.012683
    37    -0.005176
    38    -0.008320
    39    -0.003717
    40     0.021929
    41     0.019729
    42     0.016624
    43    -0.001349
    44     0.004290
    45     0.041406
    46     0.302624
    47     0.103600
    48    -0.099107
    49    -0.098733
    50    -0.013161
    51     0.165307
    52    -0.011697
    53     0.009186
    54     0.096128
    55     0.042683
    56    -0.021328
    57     0.014897
    58     0.020628
    59     0.010067
    60     0.126250
    61    -0.304692
    62     0.008938
    63    -0.019036
    64    -0.020447
    65     0.039475
    66    -0.091263
    67    -0.119789
    68    -0.003377
    69     0.009948
    70     0.030421
    71     0.015090
    72    -0.011569
    73    -0.019445
    74     0.000919
    75     0.005346
    76     0.034120
    77    -0.071044
    78    -0.000395
    79     0.001437
    80     0.002781
    81     0.003213
    82    -0.002451
    83    -0.007446
    84     0.004961
    85    -0.002015
    86    -0.006799
    87    -0.000474
    88     0.007911
    89     0.008807
    90    -0.001373
    91     0.019145
    92    -0.003904
    93    -0.012969
    94     0.140798
    95    -1.067790
    96    -0.018284
    97    -0.005697
    98     0.005787
    99     0.701043
   100    -0.358499
   101    -0.516409
   102     0.141183
   103    -0.066704
   104     0.075351
   105    -0.140196
   106    -0.187142
   107     0.121908
   108     0.006655
   109    -0.035898
   110     0.006810
   111     0.004883
   112    -0.000409
   113     0.004382
   114     0.042601
   115    -0.071578
   116     0.034434
   117     0.004576
   118    -0.005341
   119     0.064488
   120    -0.003049
   121    -0.001348
   122     0.005375
   123     0.005295
   124     0.000825
   125     0.001198
   126     0.003127
   127     0.002325
   128     0.002993
   129    -0.009949
   130     0.000178
   131     0.000916
   132    -0.003577
   133     0.002297
   134     0.005459
   135    -0.001154
   136     0.001643
   137    -0.003867
   138     1.365615
   139    -0.656278
   140     0.235085
   141    -0.341013
   142    -0.305101
   143    -0.125479
   144     0.084434
   145    -0.012699
   146     0.005557
   147    -0.020490
   148     0.001123
   149    -0.004681
   150     0.041524
   151     0.011570
   152    -0.012825
   153    -0.007856
   154     0.001726
   155     0.014660
   156     0.011291
   157    -0.002046
   158     0.000879
   159    -0.001397
   160     0.002770
   161    -0.001239
   162     0.000749
   163    -0.002712
   164    -0.005095
   165    -0.038035
   166     0.003741
   167     0.019264
   168    -0.000222
   169     0.034471
   170     0.008210
   171     0.016112
   172    -0.001766
   173     0.005323
   174     0.000455
   175     0.006772
   176    -0.003970
   177     0.002776
   178    -0.010169
   179     0.013070
   180    -0.008210
   181     0.005197
   182    -0.006450
Sym=   100a
Ene=   -0.326494E-02
Spin= Alpha
Occup= 0.003422
     1    -0.026298
     2     0.047178
     3    -0.003413
     4     0.003137
     5    -0.002109
     6     0.000480
     7    -0.003755
     8     0.050768
     9     0.133272
    10     0.007394
    11     0.008405
    12     0.000111
    13    -0.025747
    14    -0.059206
    15     0.011198
    16    -0.032810
    17    -0.114084
    18     0.055892
    19     0.064760
    20     0.051890
    21    -0.016875
    22     0.030599
    23    -0.016265
    24    -0.043068
    25    -0.000129
    26    -0.001400
    27    -0.008382
    28     0.034095
    29    -0.001874
    30     0.001409
    31    -0.000975
    32     0.005934
    33    -0.006101
    34     0.006232
    35    -0.022294
    36     0.014550
    37     0.011174
    38     0.007522
    39    -0.002552
    40     0.003661
    41    -0.003334
    42    -0.000941
    43    -0.002068
    44     0.002876
    45     0.093175
    46    -0.730176
    47     0.086804
    48    -0.031483
    49     0.062827
    50     0.032320
    51    -0.373014
    52     0.377938
    53     0.072277
    54     0.004084
    55    -0.039204
    56     0.297645
    57    -0.279551
    58     0.055378
    59    -0.010613
    60    -0.064414
    61     0.155350
    62    -0.020951
    63    -0.009137
    64     0.083354
    65    -0.182341
    66    -0.026669
    67     0.076918
    68     0.023895
    69     0.008096
    70    -0.043827
    71    -0.003129
    72    -0.000285
    73     0.012586
    74     0.000228
    75     0.002815
    76    -0.012222
    77     0.030703
    78    -0.001253
    79    -0.000116
    80     0.001600
    81     0.016136
    82     0.001317
    83    -0.005774
    84    -0.029526
    85     0.005843
    86     0.001464
    87    -0.001404
    88    -0.000914
    89    -0.017673
    90    -0.007469
    91     0.006982
    92     0.013761
    93    -0.004396
    94    -0.050525
    95     0.192382
    96     0.031381
    97     0.052742
    98     0.036100
    99    -0.115066
   100    -0.043915
   101    -0.049162
   102     0.012570
   103    -0.026669
   104    -0.013841
   105    -0.001557
   106     0.017929
   107    -0.002232
   108     0.005394
   109    -0.035488
   110    -0.005665
   111     0.002464
   112     0.001474
   113    -0.001323
   114     0.001996
   115    -0.053441
   116    -0.005620
   117     0.000925
   118     0.006155
   119     0.020087
   120     0.011439
   121     0.023650
   122    -0.004695
   123     0.001711
   124     0.005795
   125     0.003060
   126    -0.001264
   127    -0.000875
   128    -0.001465
   129    -0.013691
   130    -0.001028
   131     0.003123
   132    -0.000562
   133     0.002731
   134    -0.020062
   135     0.000539
   136    -0.000151
   137    -0.003605
   138    -0.026961
   139     0.052708
   140    -0.013099
   141     0.005615
   142    -0.003191
   143    -0.191654
   144     0.464890
   145    -0.108363
   146    -0.516673
   147     0.471318
   148    -0.000562
   149    -0.012803
   150     0.106273
   151    -0.006229
   152     0.002021
   153     0.001176
   154    -0.040556
   155     0.044245
   156     0.008050
   157     0.001374
   158    -0.000796
   159    -0.005319
   160    -0.004431
   161     0.002170
   162     0.000348
   163     0.017632
   164     0.145914
   165    -0.177762
   166     0.093571
   167    -0.056512
   168     0.059149
   169     0.260925
   170     0.047863
   171    -0.007047
   172    -0.026418
   173     0.054777
   174     0.030104
   175     0.009169
   176     0.002577
   177    -0.028161
   178    -0.026965
   179     0.052860
   180    -0.020403
   181    -0.008110
   182     0.006395
Sym=   101a
Ene=   -0.615397E-02
Spin= Alpha
Occup= 0.008746
     1    -0.080285
     2    -0.033647
     3    -0.009795
     4     0.001396
     5     0.001035
     6     0.002342
     7     0.032098
     8     0.188874
     9    -0.009046
    10     0.014948
    11    -0.009666
    12    -0.068164
    13    -0.045508
    14     0.018289
    15     0.110662
    16    -0.169693
    17     0.201746
    18     0.001691
    19     0.046121
    20     0.116071
    21    -0.304977
    22     0.001282
    23     0.136008
    24     0.001189
    25    -0.008164
    26    -0.050167
    27     0.003937
    28     0.164218
    29    -0.015939
    30     0.000425
    31     0.004323
    32     0.027295
    33    -0.008066
    34    -0.011387
    35     0.044078
    36    -0.001134
    37    -0.198636
    38    -0.087812
    39    -0.124843
    40     0.069801
    41     0.039836
    42     0.218769
    43     0.038708
    44    -0.003942
    45    -0.003578
    46    -0.043581
    47     0.014714
    48     0.013763
    49    -0.027924
    50     0.050125
    51     0.001134
    52     0.056235
    53    -0.004576
    54    -0.011656
    55     0.006404
    56    -0.003849
    57    -0.003622
    58     0.002107
    59    -0.005385
    60    -0.073441
    61     0.132836
    62    -0.004166
    63     0.053884
    64     0.004838
    65    -0.001225
    66     0.124296
    67    -0.049041
    68    -0.004159
    69    -0.012782
    70     0.001375
    71    -0.003953
    72    -0.005555
    73     0.000137
    74     0.001753
    75     0.008855
    76     0.030729
    77    -0.031595
    78     0.007153
    79    -0.007759
    80     0.011524
    81    -0.021793
    82     0.033456
    83    -0.034035
    84     0.036185
    85    -0.018297
    86     0.012228
    87    -0.007257
    88     0.032077
    89     0.006287
    90     0.013340
    91     0.034113
    92    -0.048441
    93     0.006433
    94     0.036425
    95     0.002254
    96    -0.003409
    97     0.019439
    98    -0.029748
    99     0.032689
   100    -0.025789
   101     0.013500
   102    -0.010654
   103    -0.001898
   104     0.012250
   105     0.001327
   106    -0.005348
   107    -0.007522
   108     1.101402
   109    -1.088834
   110     0.319688
   111     0.005860
   112    -0.189388
   113    -0.002695
   114    -0.115307
   115     0.414851
   116     0.013796
   117     0.042471
   118     0.004310
   119    -0.092221
   120     0.044137
   121    -0.193337
   122    -0.016455
   123    -0.002708
   124    -0.009681
   125     0.002788
   126     0.003292
   127     0.006445
   128    -0.020836
   129    -0.030189
   130    -0.015648
   131    -0.002445
   132    -0.006479
   133     0.001316
   134     0.020122
   135     0.002136
   136     0.004752
   137    -0.003074
   138     0.006576
   139    -0.020832
   140     0.002259
   141    -0.010055
   142     0.016521
   143     0.007618
   144     0.038737
   145     0.003635
   146     0.001627
   147    -0.001406
   148    -0.002549
   149    -0.047140
   150     0.145010
   151     0.009568
   152     0.006687
   153    -0.028967
   154    -0.006524
   155     0.057272
   156    -0.070811
   157    -0.005736
   158    -0.000396
   159    -0.011774
   160    -0.000582
   161     0.000016
   162    -0.000282
   163    -0.000318
   164    -0.000289
   165    -0.011316
   166     0.001187
   167    -0.003071
   168    -0.005928
   169     0.009104
   170    -0.016690
   171    -0.035714
   172    -0.000436
   173     0.001211
   174     0.002813
   175    -0.000460
   176     0.001228
   177     0.001602
   178     0.005775
   179     0.064536
   180     0.000315
   181     0.003707
   182    -0.004052
Sym=   102a
Ene=   -0.173984E-01
Spin= Alpha
Occup= 0.021643
     1    -0.006762
     2     0.002359
     3     0.000030
     4     0.000768
     5    -0.000440
     6    -0.002008
     7    -0.012011
     8    -0.020455
     9     0.013131
    10    -0.002702
    11    -0.007164
    12     0.005392
    13     0.001700
    14     0.028424
    15    -0.008586
    16    -0.013756
    17     0.023850
    18     0.008883
    19     0.007345
    20    -0.008632
    21    -0.016858
    22     0.003359
    23     0.002958
    24    -0.015372
    25     0.000308
    26     0.001682
    27     0.004744
    28     0.007658
    29     0.001564
    30     0.003290
    31    -0.001245
    32    -0.003044
    33    -0.009347
    34     0.005000
    35    -0.009728
    36    -0.002425
    37     0.003471
    38    -0.001004
    39     0.008499
    40    -0.002507
    41    -0.002205
    42     0.002554
    43    -0.003012
    44     0.125238
    45     0.386313
    46    -0.133379
    47    -0.355687
    48     0.060737
    49     0.668791
    50    -0.031230
    51    -0.057408
    52     0.056580
    53     0.014415
    54    -0.034959
    55     0.144877
    56     0.012146
    57    -0.102022
    58     0.011050
    59    -0.176664
    60    -0.778347
    61     0.447956
    62    -0.347398
    63    -0.112872
    64     0.700273
    65    -0.012294
    66    -0.069908
    67     0.151292
    68     0.029492
    69     0.027426
    70    -0.008221
    71    -0.016260
    72     0.025466
    73     0.029128
    74     0.000195
    75     0.001690
    76     0.002119
    77     0.013812
    78    -0.002163
    79     0.000238
    80     0.000154
    81     0.004169
    82     0.000930
    83    -0.002326
    84    -0.006982
    85    -0.003455
    86     0.004549
    87    -0.007202
    88     0.003355
    89     0.001512
    90    -0.006026
    91    -0.019924
    92    -0.005981
    93    -0.006372
    94     0.013339
    95    -0.073667
    96    -0.013089
    97     0.023434
    98     0.028088
    99    -0.004996
   100     0.015800
   101     0.045702
   102    -0.000486
   103     0.004964
   104     0.005100
   105    -0.001725
   106     0.002047
   107     0.004346
   108     0.008175
   109    -0.011994
   110     0.000242
   111     0.002517
   112    -0.001752
   113    -0.000253
   114    -0.006066
   115     0.016427
   116    -0.002724
   117     0.000867
   118     0.003146
   119    -0.010376
   120    -0.001321
   121     0.013009
   122    -0.001893
   123    -0.000291
   124     0.000796
   125    -0.000326
   126     0.000192
   127    -0.000482
   128    -0.001150
   129    -0.009776
   130    -0.000209
   131     0.000917
   132     0.000053
   133     0.001840
   134    -0.025560
   135    -0.002313
   136    -0.002259
   137    -0.000741
   138     0.041840
   139     0.032090
   140     0.001374
   141     0.005629
   142     0.002530
   143    -0.007447
   144    -0.050973
   145     0.006044
   146    -0.010397
   147    -0.006630
   148    -0.001238
   149    -0.001303
   150    -0.084018
   151     0.004602
   152    -0.000241
   153    -0.004439
   154     0.044797
   155    -0.023031
   156     0.011512
   157     0.004400
   158    -0.001652
   159     0.001839
   160    -0.002555
   161    -0.000975
   162     0.000005
   163    -0.005041
   164     0.008651
   165    -0.045657
   166     0.018799
   167    -0.004545
   168    -0.031648
   169    -0.064978
   170     0.028688
   171     0.140250
   172     0.006700
   173     0.001007
   174     0.003778
   175     0.003723
   176    -0.002720
   177    -0.006845
   178     0.001628
   179    -0.014844
   180     0.003435
   181     0.000946
   182     0.004332
Sym=   103a
Ene=   -0.264925E-02
Spin= Alpha
Occup= 0.002440
     1     0.014191
     2     0.010519
     3    -0.044909
     4    -0.013476
     5    -0.004172
     6    -0.008703
     7    -0.050316
     8    -0.450025
     9     0.240815
    10     0.101426
    11     0.006545
    12    -0.002297
    13    -0.542521
    14    -0.020824
    15     0.000168
    16     0.073693
    17    -0.095094
    18     0.040846
    19    -0.455129
    20     0.136170
    21     0.126276
    22     0.030447
    23     0.041949
    24    -0.002035
    25     0.000208
    26    -0.004800
    27     0.031913
    28    -0.129776
    29     0.005828
    30     0.012428
    31    -0.011980
    32    -0.003460
    33    -0.070827
    34     0.038018
    35     0.021057
    36     0.107610
    37     0.026209
    38     0.136634
    39    -0.158532
    40     0.101674
    41    -0.183955
    42    -0.027584
    43    -0.303337
    44    -0.000100
    45    -0.010471
    46     0.165385
    47    -0.007757
    48     0.012809
    49    -0.001808
    50    -0.130228
    51     0.063254
    52    -0.080637
    53    -0.008015
    54    -0.001164
    55     0.008090
    56     0.005309
    57     0.003123
    58    -0.007346
    59    -0.005632
    60    -0.038656
    61     0.039488
    62     0.019979
    63     0.033441
    64    -0.010764
    65     0.119086
    66    -0.025891
    67    -0.010967
    68     0.004650
    69    -0.020747
    70    -0.005427
    71     0.002502
    72     0.000514
    73     0.004414
    74    -0.003245
    75    -0.025415
    76    -0.034263
    77    -0.017100
    78     0.003248
    79    -0.007934
    80     0.010734
    81    -0.014414
    82     0.054531
    83    -0.039491
    84     0.133161
    85     0.063767
    86    -0.001708
    87     0.059562
    88    -0.032741
    89     0.004089
    90    -0.036447
    91     0.071730
    92    -0.143840
    93     0.003907
    94     0.047484
    95    -0.124388
    96     0.014889
    97     0.001819
    98     0.011040
    99    -0.057326
   100    -0.004434
   101     0.032242
   102     0.009661
   103     0.003654
   104     0.001200
   105    -0.004401
   106     0.013118
   107    -0.002686
   108    -0.026459
   109     0.046450
   110    -0.002878
   111     0.007216
   112    -0.020097
   113     0.013544
   114    -0.105168
   115     0.677299
   116    -0.091278
   117     0.098092
   118     0.076097
   119    -0.565344
   120     0.251265
   121     0.301165
   122    -0.647558
   123     0.234017
   124     0.281248
   125    -0.067482
   126    -0.123372
   127     0.036755
   128    -0.086098
   129    -0.157080
   130    -0.042345
   131     0.044293
   132    -0.038102
   133    -0.018119
   134     0.067653
   135    -0.008247
   136    -0.000935
   137     0.001455
   138     0.003007
   139    -0.042247
   140    -0.002404
   141     0.013519
   142    -0.000371
   143     0.006341
   144    -0.175458
   145    -0.003906
   146    -0.007506
   147     0.006549
   148    -0.001194
   149    -0.017680
   150    -0.011280
   151    -0.006843
   152     0.022464
   153    -0.032488
   154     0.080210
   155    -0.017198
   156    -0.060958
   157     0.002101
   158    -0.013085
   159    -0.013511
   160    -0.001120
   161    -0.003899
   162     0.002756
   163    -0.001541
   164    -0.015533
   165     0.040680
   166     0.003998
   167     0.003873
   168    -0.000174
   169     0.016487
   170     0.003767
   171     0.004899
   172    -0.003137
   173    -0.001203
   174    -0.001867
   175     0.001874
   176    -0.000858
   177     0.000659
   178     0.020016
   179    -0.076000
   180    -0.002509
   181     0.010703
   182     0.003952
Sym=   104a
Ene=   -0.133561E-01
Spin= Alpha
Occup= 0.019211
     1     0.007994
     2    -0.029188
     3     0.001623
     4    -0.002248
     5     0.000105
     6    -0.001230
     7    -0.007014
     8     0.047200
     9    -0.122922
    10     0.002763
    11    -0.004285
    12    -0.001422
    13    -0.000868
    14     0.001253
    15     0.006304
    16    -0.049936
    17     0.086389
    18    -0.012833
    19     0.002106
    20    -0.000144
    21    -0.009636
    22     0.013965
    23    -0.011979
    24     0.007384
    25    -0.004556
    26    -0.028807
    27    -0.109497
    28     0.111072
    29    -0.002448
    30    -0.045892
    31     0.014007
    32     0.012078
    33     0.114347
    34    -0.043983
    35    -0.054037
    36     0.079605
    37     0.008498
    38     0.029498
    39    -0.054996
    40    -0.004233
    41     0.013440
    42    -0.035292
    43     0.043639
    44     0.009316
    45     0.039482
    46    -0.067880
    47    -0.007877
    48     0.003306
    49     0.014132
    50    -0.019301
    51    -0.008230
    52     0.001272
    53    -0.004338
    54     0.005850
    55     0.000442
    56     0.001319
    57     0.007700
    58    -0.006345
    59    -0.003199
    60    -0.022804
    61    -0.040831
    62     0.002934
    63    -0.007349
    64    -0.017489
    65    -0.050514
    66     0.019015
    67     0.084065
    68    -0.003093
    69    -0.002413
    70    -0.000072
    71    -0.006842
    72    -0.010462
    73     0.001474
    74     0.013703
    75     0.086036
    76     0.078012
    77     0.074642
    78     0.092533
    79     0.029995
    80     0.018404
    81    -0.181687
    82    -0.062881
    83    -0.006151
    84    -0.142320
    85     0.140409
    86    -0.019511
    87     0.116812
    88    -0.060353
    89    -0.031649
    90     0.147666
    91     0.234462
    92     0.081765
    93     0.000464
    94    -0.011694
    95     0.057847
    96     0.000679
    97    -0.001264
    98    -0.001725
    99     0.021777
   100    -0.002057
   101     0.008812
   102    -0.003609
   103    -0.000823
   104    -0.000914
   105     0.000569
   106    -0.000997
   107     0.001033
   108    -0.015988
   109    -0.051506
   110     0.001540
   111    -0.000974
   112    -0.002604
   113     0.001171
   114     0.040614
   115    -0.141978
   116    -0.008394
   117     0.019795
   118    -0.017507
   119     0.003795
   120     0.057143
   121    -0.012337
   122     0.005752
   123     0.010368
   124     0.000244
   125    -0.001630
   126     0.002871
   127    -0.000824
   128    -0.005161
   129     0.018296
   130     0.002087
   131    -0.001387
   132    -0.000230
   133    -0.002289
   134    -0.030053
   135    -0.002194
   136     0.000170
   137    -0.020929
   138    -0.010087
   139     0.015501
   140     0.001424
   141     0.001394
   142     0.001131
   143     0.002345
   144     0.008975
   145     0.000493
   146     0.000044
   147    -0.001627
   148    -0.168421
   149    -0.827633
   150     0.689851
   151     0.272619
   152     0.074161
   153    -0.781590
   154     0.053174
   155    -0.000218
   156    -0.667634
   157     0.071195
   158     0.067308
   159    -0.100976
   160     0.007222
   161     0.027935
   162     0.010038
   163     0.002473
   164    -0.003655
   165     0.034686
   166    -0.004933
   167    -0.000161
   168     0.002557
   169     0.025799
   170     0.002787
   171    -0.008758
   172    -0.003840
   173     0.000657
   174    -0.001009
   175     0.000330
   176     0.002296
   177     0.000181
   178    -0.045729
   179     0.018343
   180     0.011836
   181     0.001658
   182    -0.004010
Sym=   105a
Ene=   -0.192966E-02
Spin= Alpha
Occup= 0.001377
     1     0.073194
     2    -0.035569
     3     0.056216
     4     0.022752
     5     0.028526
     6    -0.001824
     7     0.009071
     8    -0.027949
     9     0.208200
    10     0.005940
    11    -0.043589
    12    -0.009207
    13    -0.033460
    14     0.196018
    15     0.052095
    16     0.018079
    17    -0.065161
    18     0.060762
    19     0.020847
    20    -0.290317
    21    -0.009281
    22     0.139038
    23     0.014088
    24    -0.105688
    25    -0.000615
    26    -0.001873
    27    -0.040322
    28     0.075928
    29    -0.000877
    30    -0.000449
    31     0.005249
    32     0.004889
    33     0.006837
    34    -0.039373
    35     0.023044
    36    -0.023325
    37     0.039213
    38    -0.024743
    39    -0.006011
    40    -0.016226
    41    -0.009470
    42     0.008875
    43    -0.005434
    44    -0.005278
    45    -0.079369
    46    -0.527802
    47     0.103733
    48     0.061986
    49    -0.120241
    50     0.094404
    51    -0.008084
    52     0.219380
    53     0.021889
    54    -0.029478
    55    -0.133219
    56     0.009808
    57    -0.022707
    58    -0.092253
    59     0.013594
    60    -0.136840
    61     0.452067
    62     0.019178
    63    -0.009073
    64    -0.006943
    65    -0.407025
    66     0.164551
    67     0.095953
    68    -0.043767
    69    -0.318728
    70     0.218860
    71    -0.716086
    72     0.187545
    73     0.272359
    74    -0.002877
    75    -0.014853
    76    -0.079379
    77    -0.025533
    78    -0.003886
    79     0.004585
    80     0.003952
    81     0.024115
    82    -0.050427
    83    -0.019394
    84     0.112092
    85    -0.104799
    86     0.041393
    87    -0.031889
    88    -0.019496
    89    -0.047388
    90    -0.001754
    91    -0.012254
    92    -0.007394
    93     0.013072
    94     0.079234
    95    -0.086843
    96    -0.016634
    97    -0.006217
    98     0.003123
    99    -0.018723
   100    -0.063353
   101     0.022889
   102    -0.000847
   103     0.017695
   104    -0.020960
   105     0.017027
   106    -0.002749
   107    -0.014862
   108     0.015076
   109    -0.005216
   110     0.003501
   111    -0.012060
   112     0.018512
   113    -0.004176
   114    -0.064833
   115     0.127450
   116    -0.026811
   117    -0.026660
   118    -0.006996
   119    -0.047968
   120    -0.168688
   121    -0.070944
   122    -0.010673
   123    -0.020850
   124    -0.017452
   125     0.017698
   126     0.006110
   127    -0.013299
   128     0.049506
   129    -0.009292
   130    -0.011816
   131     0.000781
   132    -0.010998
   133     0.027245
   134    -0.067819
   135     0.019246
   136     0.020575
   137    -0.023437
   138     0.001700
   139     0.059584
   140     0.002894
   141     0.020256
   142     0.005201
   143    -0.037164
   144     0.268192
   145     0.004020
   146     0.009065
   147    -0.029110
   148    -0.024452
   149    -0.215660
   150     0.560373
   151    -0.232096
   152     0.078293
   153     0.019572
   154    -0.349063
   155     0.243469
   156     0.012476
   157    -0.100165
   158     0.010160
   159    -0.065716
   160    -0.013965
   161    -0.020260
   162    -0.017638
   163    -0.001533
   164    -0.017619
   165     0.042941
   166    -0.020649
   167     0.003307
   168    -0.016261
   169    -0.029719
   170    -0.000947
   171    -0.041721
   172    -0.007033
   173    -0.000646
   174    -0.000653
   175     0.002938
   176     0.000256
   177     0.004849
   178    -0.260763
   179     0.071725
   180     0.131945
   181    -0.040091
   182    -0.107727
Sym=   106a
Ene=   -0.774442E-03
Spin= Alpha
Occup= 0.000451
     1    -0.054365
     2     0.108484
     3    -0.025597
     4    -0.020497
     5    -0.015725
     6    -0.001852
     7     0.000532
     8     0.022336
     9    -0.264768
    10    -0.007029
    11     0.006889
    12     0.005089
    13     0.025556
    14     0.014852
    15     0.011559
    16     0.156044
    17     0.061965
    18    -0.200939
    19    -0.071472
    20     0.038092
    21    -0.134418
    22     0.033499
    23     0.171652
    24    -0.187211
    25    -0.000234
    26     0.001612
    27     0.055590
    28    -0.321677
    29    -0.000794
    30    -0.000762
    31     0.000105
    32     0.015406
    33    -0.005384
    34    -0.014661
    35     0.032744
    36     0.085239
    37    -0.162064
    38     0.021635
    39     0.042096
    40    -0.116954
    41    -0.001979
    42    -0.189930
    43     0.032647
    44    -0.000885
    45    -0.050820
    46     0.833578
    47    -0.083457
    48    -0.243911
    49    -0.155527
    50    -0.040854
    51     0.194083
    52    -0.060967
    53     0.197354
    54    -0.132865
    55     0.131388
    56    -0.303071
    57    -0.238607
    58    -0.164295
    59    -0.002773
    60    -0.080757
    61     0.193548
    62    -0.035637
    63     0.074847
    64     0.209334
    65     0.123424
    66     0.095336
    67     0.226020
    68    -0.019003
    69     0.003637
    70    -0.135200
    71     0.014934
    72    -0.010440
    73     0.018193
    74     0.000931
    75    -0.001334
    76    -0.014370
    77     0.098700
    78     0.003781
    79     0.000686
    80     0.001936
    81    -0.019651
    82    -0.030161
    83     0.007351
    84    -0.076752
    85     0.050763
    86    -0.071758
    87     0.025921
    88    -0.036710
    89     0.102521
    90     0.000893
    91     0.011216
    92    -0.091687
    93     0.050331
    94     0.137835
    95     0.193337
    96     0.010587
    97    -0.339411
    98    -0.132021
    99    -0.180618
   100     0.680214
   101     0.359298
   102     0.190383
   103    -0.525310
   104     0.061821
   105    -0.164082
   106    -0.309958
   107    -0.300338
   108     0.009828
   109     0.104015
   110     0.010052
   111     0.014464
   112    -0.075176
   113     0.000170
   114    -0.043930
   115     0.177477
   116     0.012223
   117    -0.011011
   118    -0.031990
   119     0.057904
   120    -0.034901
   121    -0.130694
   122     0.011735
   123    -0.012883
   124    -0.007613
   125     0.021848
   126     0.010209
   127    -0.004527
   128    -0.046934
   129     0.082737
   130     0.022410
   131    -0.011603
   132     0.015700
   133    -0.002533
   134    -0.010883
   135    -0.021683
   136     0.008069
   137     0.017748
   138    -0.431794
   139    -0.159668
   140     0.228614
   141     0.197055
   142    -0.073715
   143    -0.058611
   144    -0.326941
   145    -0.064589
   146    -0.048864
   147     0.082834
   148     0.000301
   149     0.080738
   150    -0.359772
   151    -0.001072
   152    -0.029925
   153    -0.023916
   154     0.083062
   155    -0.158583
   156    -0.128751
   157     0.005141
   158     0.033295
   159     0.028944
   160     0.004676
   161     0.032217
   162    -0.006253
   163     0.000470
   164     0.040766
   165    -0.210399
   166    -0.010906
   167     0.005482
   168    -0.038942
   169    -0.014633
   170    -0.108092
   171    -0.030184
   172     0.018405
   173    -0.012810
   174     0.004227
   175     0.013265
   176     0.042156
   177     0.039557
   178     0.042494
   179     0.073813
   180    -0.066394
   181    -0.026175
   182     0.005870
Sym=   107a
Ene=   -0.327675E-02
Spin= Alpha
Occup= 0.003608
     1    -0.131860
     2     0.165310
     3     0.015118
     4     0.028112
     5     0.003702
     6    -0.002183
     7    -0.004144
     8    -0.063386
     9     0.134531
    10     0.042015
    11    -0.001939
    12    -0.015503
    13    -0.124548
    14     0.025156
    15     0.031197
    16     0.027701
    17    -0.110730
    18     0.104669
    19    -0.092830
    20     0.032284
    21    -0.017965
    22    -0.055495
    23     0.125474
    24    -0.014144
    25     0.007080
    26     0.037798
    27     0.163211
    28    -0.207241
    29     0.006897
    30    -0.036743
    31    -0.083360
    32    -0.025866
    33     0.166260
    34     0.302934
    35     0.060900
    36    -0.152797
    37    -0.025217
    38    -0.223162
    39     0.076365
    40     0.306156
    41     0.218788
    42    -0.112752
    43     0.471847
    44     0.000456
    45    -0.000207
    46    -0.020441
    47    -0.015822
    48     0.001001
    49     0.005700
    50    -0.081175
    51    -0.012818
    52     0.004158
    53     0.002405
    54    -0.006489
    55     0.001254
    56     0.000414
    57    -0.003942
    58     0.001009
    59    -0.000152
    60     0.007158
    61    -0.028059
    62    -0.010850
    63    -0.000673
    64     0.005012
    65    -0.012402
    66    -0.011361
    67    -0.000200
    68     0.002702
    69    -0.001836
    70     0.002786
    71    -0.000538
    72     0.001859
    73    -0.000649
    74     0.001529
    75     0.019872
    76    -0.006824
    77     0.279234
    78    -0.009910
    79    -0.008089
    80    -0.018637
    81     0.015507
    82     0.029385
    83     0.058582
    84    -0.111496
    85     0.024367
    86    -0.062365
    87    -0.008571
    88    -0.139468
    89     0.064724
    90     0.053137
    91    -0.112843
    92     0.331056
    93     0.005547
    94     0.047200
    95    -0.078132
    96     0.017263
    97     0.013991
    98    -0.008166
    99    -0.071157
   100    -0.026082
   101     0.017527
   102     0.001014
   103     0.000649
   104     0.008486
   105    -0.003336
   106     0.006382
   107    -0.003399
   108     0.062955
   109     0.087503
   110     0.005765
   111    -0.011408
   112    -0.008737
   113    -0.021109
   114    -0.033509
   115    -0.171469
   116     0.044416
   117    -0.009926
   118     0.116967
   119    -0.086056
   120    -0.071184
   121     0.228796
   122    -0.176588
   123    -0.108080
   124     0.396910
   125     0.089083
   126    -0.082707
   127    -0.223249
   128     0.131264
   129    -0.146620
   130    -0.033759
   131    -0.015579
   132     0.001460
   133    -0.015182
   134    -0.025014
   135    -0.000863
   136    -0.008220
   137     0.005437
   138    -0.006914
   139    -0.022179
   140    -0.001216
   141     0.004231
   142     0.006876
   143     0.010741
   144    -0.085074
   145     0.000032
   146    -0.001563
   147     0.002644
   148     0.004231
   149     0.063712
   150    -0.201480
   151    -0.030562
   152    -0.011402
   153     0.002550
   154    -0.075894
   155    -0.102397
   156     0.024380
   157     0.008687
   158     0.006122
   159     0.008107
   160    -0.008422
   161     0.006934
   162    -0.007044
   163     0.000259
   164    -0.001321
   165     0.013552
   166    -0.000826
   167    -0.001689
   168     0.001140
   169    -0.000604
   170    -0.001446
   171    -0.001723
   172    -0.000722
   173    -0.000627
   174    -0.000587
   175    -0.000178
   176    -0.000315
   177     0.000014
   178    -0.008936
   179    -0.018879
   180     0.002508
   181    -0.000424
   182    -0.000248
Sym=   108a
Ene=   -0.306397E-02
Spin= Alpha
Occup= 0.002982
     1     0.138779
     2    -0.125578
     3    -0.015401
     4    -0.028350
     5     0.003256
     6     0.000212
     7     0.007165
     8     0.020646
     9     0.068850
    10     0.000177
    11    -0.004259
    12    -0.002594
    13     0.045810
    14     0.007692
    15     0.011191
    16     0.001742
    17     0.002182
    18     0.010362
    19    -0.000922
    20    -0.053541
    21    -0.007227
    22     0.125884
    23    -0.006298
    24     0.027291
    25     0.001422
    26     0.015290
    27     0.010335
    28     0.268330
    29    -0.002120
    30    -0.028137
    31     0.013894
    32     0.008371
    33     0.114504
    34    -0.011374
    35    -0.039556
    36    -0.243741
    37     0.149756
    38    -0.041729
    39     0.156045
    40    -0.138608
    41     0.175950
    42    -0.077485
    43     0.282655
    44    -0.001284
    45    -0.009716
    46    -0.056001
    47     0.037669
    48     0.013539
    49    -0.003457
    50     0.067432
    51    -0.015233
    52     0.029112
    53    -0.002328
    54    -0.006137
    55    -0.005430
    56    -0.003365
    57     0.007760
    58     0.001920
    59    -0.004374
    60    -0.071160
    61     0.217232
    62     0.006878
    63     0.046142
    64    -0.013515
    65     0.131418
    66     0.076330
    67    -0.012863
    68    -0.005679
    69    -0.015586
    70     0.000791
    71     0.014783
    72     0.001580
    73     0.006994
    74     0.009250
    75     0.052181
    76     0.357594
    77    -0.321099
    78     0.036818
    79    -0.110332
    80    -0.034077
    81    -0.180929
    82     0.481959
    83     0.134988
    84     0.083491
    85    -0.028813
    86     0.005996
    87    -0.055830
    88     0.380925
    89    -0.067649
    90    -0.169190
    91    -0.064177
    92     0.191520
    93    -0.004863
    94    -0.032400
    95     0.035441
    96    -0.022460
    97    -0.011746
    98     0.006780
    99     0.041560
   100     0.016001
   101    -0.014023
   102     0.000253
   103     0.000850
   104    -0.005621
   105     0.003558
   106    -0.007889
   107     0.002146
   108    -0.024597
   109    -0.065757
   110    -0.011043
   111    -0.016652
   112    -0.001372
   113     0.000105
   114     0.224134
   115    -0.796113
   116    -0.028386
   117     0.222924
   118    -0.001291
   119    -0.195008
   120     0.555668
   121    -0.059291
   122    -0.074794
   123     0.454279
   124    -0.201548
   125    -0.384621
   126     0.040403
   127     0.048164
   128     0.160362
   129    -0.040119
   130    -0.072599
   131     0.007389
   132     0.042249
   133     0.001686
   134    -0.010266
   135     0.001555
   136    -0.002841
   137    -0.001337
   138     0.002961
   139    -0.006927
   140     0.000361
   141    -0.005167
   142     0.000580
   143    -0.022412
   144     0.094936
   145     0.000615
   146     0.004286
   147    -0.004493
   148     0.004217
   149     0.021584
   150    -0.046486
   151    -0.014080
   152    -0.019431
   153     0.027300
   154     0.077118
   155    -0.047921
   156     0.060482
   157     0.007239
   158    -0.004231
   159     0.015976
   160     0.007799
   161    -0.000825
   162    -0.000262
   163     0.000688
   164     0.008282
   165    -0.025060
   166    -0.002411
   167     0.001199
   168    -0.001696
   169    -0.007011
   170     0.000091
   171    -0.003941
   172     0.001054
   173    -0.000018
   174     0.001483
   175    -0.000615
   176     0.000127
   177    -0.001046
   178    -0.012008
   179     0.021276
   180    -0.000617
   181     0.008238
   182     0.004841
Sym=   109a
Ene=   -0.146124E-02
Spin= Alpha
Occup= 0.000840
     1    -0.012085
     2     0.073928
     3     0.004632
     4     0.006941
     5    -0.005965
     6     0.000251
     7    -0.006654
     8    -0.062456
     9     0.322152
    10    -0.000444
    11     0.000242
    12    -0.001444
    13    -0.012256
    14    -0.017107
    15     0.029560
    16     0.101702
    17    -0.202175
    18     0.041618
    19     0.015791
    20     0.006716
    21     0.087888
    22    -0.001974
    23    -0.026872
    24    -0.035976
    25     0.001138
    26     0.002348
    27    -0.015917
    28     0.137955
    29     0.000206
    30     0.005412
    31    -0.001108
    32    -0.014990
    33    -0.004955
    34     0.005958
    35     0.010387
    36    -0.101513
    37     0.063071
    38    -0.017309
    39     0.002010
    40     0.086614
    41    -0.001357
    42     0.170958
    43    -0.064987
    44     0.002502
    45     0.133046
    46    -0.243485
    47    -0.022644
    48     0.094729
    49     0.120931
    50    -0.454915
    51    -0.041618
    52     0.393861
    53     0.275536
    54     0.305256
    55    -0.535548
    56    -0.382190
    57     0.055568
    58     0.076981
    59     0.010977
    60     0.109662
    61    -0.047023
    62     0.066666
    63    -0.005036
    64    -0.103600
    65    -0.208423
    66     0.064400
    67    -0.040583
    68     0.102946
    69     0.013105
    70     0.015090
    71     0.000029
    72    -0.060386
    73     0.066651
    74    -0.001142
    75    -0.000650
    76    -0.017705
    77    -0.066273
    78    -0.002755
    79     0.001309
    80    -0.002279
    81     0.024774
    82     0.021484
    83    -0.010644
    84     0.046625
    85    -0.055090
    86     0.113768
    87     0.011833
    88     0.029274
    89    -0.133839
    90     0.018031
    91    -0.039521
    92     0.099408
    93    -0.007534
    94    -0.052731
    95     0.083641
    96     0.015003
    97     0.008262
    98    -0.021261
    99     0.072255
   100    -0.074242
   101     0.052416
   102    -0.050485
   103     0.025330
   104    -0.005436
   105    -0.033238
   106    -0.016008
   107    -0.007163
   108     0.036461
   109    -0.195669
   110    -0.007289
   111    -0.008659
   112     0.074712
   113     0.000341
   114     0.035401
   115    -0.171708
   116     0.009690
   117     0.012461
   118     0.013019
   119    -0.023136
   120     0.047456
   121     0.009322
   122    -0.001892
   123     0.014474
   124    -0.002946
   125    -0.004979
   126     0.015150
   127     0.004936
   128     0.036347
   129    -0.067858
   130    -0.019350
   131    -0.009294
   132     0.000608
   133     0.046787
   134     0.008216
   135    -0.016210
   136    -0.010238
   137     0.038634
   138     0.044925
   139    -0.154315
   140     0.045436
   141    -0.002734
   142    -0.015305
   143    -0.224438
   144    -0.130440
   145    -0.051348
   146    -0.068343
   147     0.085491
   148    -0.001881
   149    -0.034732
   150     0.247039
   151     0.049047
   152     0.032000
   153    -0.011310
   154    -0.026110
   155     0.107144
   156     0.044022
   157    -0.000082
   158    -0.024708
   159     0.009992
   160     0.000028
   161    -0.005102
   162     0.011438
   163    -0.002322
   164     0.007779
   165    -0.088308
   166    -0.012592
   167     0.027013
   168     0.026600
   169    -0.038945
   170     0.085662
   171     0.200060
   172    -0.219063
   173    -0.172161
   174     0.412997
   175     0.393046
   176    -0.117427
   177    -0.275034
   178    -0.068032
   179     0.093354
   180     0.006564
   181    -0.046780
   182    -0.020988
Sym=   110a
Ene=   -0.277243E-02
Spin= Alpha
Occup= 0.002554
     1    -0.020163
     2    -0.016332
     3     0.001144
     4    -0.002559
     5     0.001443
     6    -0.003077
     7    -0.010289
     8    -0.028497
     9    -0.093407
    10     0.007656
    11    -0.027375
    12    -0.007747
    13    -0.059831
    14     0.104941
    15     0.020316
    16    -0.035469
    17     0.122146
    18    -0.009272
    19    -0.042498
    20    -0.091669
    21    -0.019882
    22    -0.011819
    23     0.006088
    24    -0.014954
    25    -0.001370
    26    -0.006830
    27    -0.022283
    28    -0.087857
    29    -0.005093
    30    -0.012155
    31     0.005629
    32     0.015846
    33     0.023168
    34    -0.026010
    35     0.005724
    36     0.115805
    37    -0.032785
    38     0.045306
    39    -0.066833
    40    -0.014537
    41    -0.065057
    42     0.002811
    43     0.032677
    44    -0.003542
    45     0.006937
    46     0.082692
    47     0.005343
    48    -0.024172
    49    -0.012810
    50    -0.099917
    51     0.025390
    52    -0.015792
    53    -0.021212
    54    -0.008338
    55     0.001754
    56    -0.002115
    57     0.001016
    58     0.008524
    59    -0.002688
    60    -0.043186
    61     0.199808
    62     0.112378
    63     0.015509
    64     0.070123
    65     0.094623
    66    -0.021509
    67    -0.062846
    68    -0.024456
    69    -0.007686
    70    -0.011173
    71     0.002260
    72    -0.033130
    73    -0.012783
    74    -0.003295
    75    -0.013060
    76    -0.313309
    77     0.403983
    78    -0.047164
    79    -0.024486
    80     0.063147
    81     0.271770
    82     0.112730
    83    -0.208060
    84    -0.148745
    85     0.188247
    86    -0.084963
    87    -0.146114
    88     0.037466
    89    -0.085002
    90    -0.076312
    91     0.481218
    92     0.251996
    93    -0.001069
    94    -0.016413
    95     0.056310
    96     0.007398
    97    -0.006056
    98     0.005270
    99     0.003374
   100     0.007188
   101    -0.027258
   102    -0.000716
   103    -0.002398
   104     0.001576
   105    -0.002138
   106     0.000673
   107     0.002233
   108     0.020961
   109     0.004635
   110    -0.000337
   111     0.007906
   112    -0.009733
   113    -0.000475
   114    -0.002069
   115    -0.062491
   116    -0.003287
   117    -0.012490
   118    -0.007379
   119    -0.113903
   120     0.013663
   121    -0.033353
   122    -0.008198
   123    -0.008351
   124    -0.001283
   125     0.014573
   126    -0.008616
   127    -0.006787
   128     0.034542
   129    -0.028039
   130    -0.002133
   131    -0.010364
   132    -0.005067
   133    -0.158265
   134    -0.079969
   135     0.083441
   136     0.008785
   137     0.051959
   138     0.000517
   139    -0.025461
   140    -0.002160
   141    -0.001462
   142    -0.001010
   143     0.015056
   144    -0.114809
   145     0.001336
   146     0.002042
   147    -0.000093
   148    -0.014058
   149    -0.234907
   150     0.536127
   151     0.117998
   152     0.107994
   153     0.205286
   154     0.413833
   155     0.136594
   156     0.523899
   157    -0.278128
   158     0.010528
   159     0.155824
   160    -0.431911
   161    -0.280440
   162    -0.228826
   163     0.004462
   164     0.026069
   165    -0.011658
   166    -0.027650
   167    -0.003701
   168     0.017637
   169    -0.058504
   170    -0.003380
   171     0.030446
   172     0.004690
   173    -0.002087
   174    -0.000255
   175    -0.001416
   176     0.000130
   177    -0.004150
   178    -0.036589
   179     0.101251
   180    -0.019700
   181    -0.045753
   182    -0.016833
Sym=   111a
Ene=   -0.200943E-02
Spin= Alpha
Occup= 0.001242
     1    -0.052790
     2     0.017020
     3    -0.017251
     4     0.006775
     5    -0.005433
     6    -0.002833
     7     0.001511
     8     0.018814
     9    -0.102736
    10    -0.022740
    11    -0.010267
    12     0.035131
    13     0.101790
    14     0.052004
    15    -0.133917
    16     0.017674
    17     0.065058
    18     0.080352
    19    -0.077109
    20     0.024019
    21    -0.167034
    22    -0.090018
    23     0.266521
    24     0.084713
    25     0.000309
    26     0.002580
    27    -0.020055
    28    -0.032737
    29     0.003786
    30    -0.000865
    31     0.002150
    32     0.004627
    33    -0.004023
    34    -0.029434
    35    -0.045645
    36     0.041337
    37    -0.006935
    38     0.031038
    39    -0.016507
    40    -0.040383
    41    -0.029211
    42    -0.106959
    43     0.013926
    44     0.001551
    45     0.028453
    46     0.466060
    47    -0.100530
    48    -0.186349
    49    -0.082447
    50    -0.200919
    51     0.197873
    52    -0.077790
    53     0.120907
    54     0.093553
    55    -0.050966
    56     0.020645
    57    -0.055229
    58    -0.098171
    59    -0.003433
    60    -0.053969
    61     0.093626
    62     0.011610
    63     0.052344
    64     0.044363
    65     0.037044
    66     0.083962
    67     0.113618
    68     0.003964
    69     0.006261
    70    -0.049047
    71    -0.012657
    72    -0.006022
    73     0.029113
    74     0.000517
    75     0.000758
    76     0.001639
    77     0.055750
    78     0.003312
    79    -0.000344
    80     0.001380
    81    -0.022380
    82    -0.008400
    83     0.001747
    84    -0.030695
    85     0.025561
    86    -0.008023
    87     0.001350
    88     0.008701
    89     0.030035
    90     0.006284
    91    -0.006555
    92    -0.035512
    93     0.040075
    94     0.171237
    95    -0.078378
    96     0.014660
    97    -0.118595
    98    -0.052984
    99     0.047270
   100     0.527938
   101     0.097829
   102     0.343844
   103     0.324599
   104    -0.795511
   105     0.077814
   106    -0.169804
   107     0.263627
   108    -0.017404
   109     0.101134
   110    -0.001618
   111     0.007533
   112     0.001563
   113     0.003369
   114     0.023741
   115    -0.034697
   116     0.033634
   117    -0.003120
   118    -0.036607
   119     0.073967
   120     0.019151
   121    -0.137888
   122     0.013358
   123     0.006037
   124    -0.011048
   125    -0.007027
   126     0.034524
   127    -0.006327
   128    -0.002678
   129     0.007195
   130     0.005676
   131    -0.016620
   132     0.022654
   133    -0.002172
   134     0.012743
   135    -0.008472
   136     0.004104
   137     0.011574
   138    -0.250425
   139    -0.054192
   140    -0.127494
   141    -0.095689
   142    -0.067062
   143    -0.035005
   144    -0.339351
   145    -0.017661
   146    -0.011630
   147     0.026357
   148    -0.000565
   149     0.019451
   150    -0.088906
   151    -0.007165
   152    -0.006876
   153    -0.003810
   154    -0.010530
   155    -0.057440
   156    -0.036394
   157    -0.003316
   158     0.005532
   159     0.011942
   160     0.005775
   161     0.010624
   162     0.000211
   163    -0.004114
   164    -0.027087
   165     0.028935
   166    -0.003342
   167     0.001520
   168    -0.004453
   169     0.011376
   170    -0.027669
   171     0.013159
   172    -0.000211
   173     0.002295
   174    -0.006637
   175    -0.000928
   176     0.004171
   177     0.012224
   178     0.020677
   179     0.028088
   180    -0.005158
   181    -0.016188
   182     0.000524
Sym=   112a
Ene=   -0.235834E-02
Spin= Alpha
Occup= 0.001560
     1    -0.003253
     2     0.109685
     3    -0.016804
     4    -0.026167
     5     0.010780
     6     0.000521
     7    -0.003493
     8    -0.035709
     9     0.133388
    10    -0.003709
    11     0.005762
    12    -0.032071
    13    -0.002605
    14    -0.037555
    15     0.173601
    16     0.199788
    17    -0.136965
    18    -0.054868
    19    -0.052686
    20    -0.001843
    21     0.169188
    22     0.014199
    23     0.073794
    24    -0.092627
    25     0.000123
    26     0.002203
    27     0.023588
    28    -0.101059
    29     0.002288
    30    -0.001001
    31     0.001716
    32    -0.006006
    33     0.000102
    34    -0.014946
    35     0.007770
    36     0.011744
    37    -0.077567
    38     0.017057
    39     0.008103
    40    -0.048413
    41    -0.001050
    42    -0.035905
    43     0.013648
    44     0.002857
    45     0.137311
    46     0.016928
    47    -0.099955
    48    -0.267271
    49    -0.141132
    50     0.046297
    51     0.032411
    52     0.097338
    53     0.107503
    54     0.091073
    55     0.023292
    56     0.071659
    57    -0.007584
    58    -0.024828
    59     0.001892
    60    -0.025931
    61     0.097619
    62    -0.002278
    63     0.028274
    64     0.053598
    65     0.017886
    66     0.026652
    67     0.119264
    68    -0.014861
    69    -0.008622
    70    -0.027207
    71     0.003005
    72    -0.011030
    73    -0.008712
    74     0.001127
    75     0.004889
    76     0.041599
    77    -0.120490
    78     0.002407
    79     0.000236
    80     0.000745
    81    -0.011769
    82    -0.010023
    83     0.001508
    84     0.039699
    85    -0.009418
    86    -0.019178
    87    -0.003430
    88    -0.007685
    89     0.049510
    90     0.000152
    91    -0.001202
    92    -0.028508
    93     0.057567
    94     0.388759
    95    -0.596647
    96     0.115474
    97    -0.156217
    98    -0.017282
    99    -0.258703
   100     0.595913
   101     0.234417
   102    -0.513226
   103     0.180426
   104     0.252649
   105     0.481918
   106    -0.398059
   107     0.223686
   108     0.004300
   109    -0.072889
   110     0.008151
   111     0.002863
   112    -0.033567
   113     0.002118
   114     0.010412
   115    -0.011653
   116     0.026908
   117    -0.006049
   118    -0.017908
   119     0.058945
   120    -0.023691
   121    -0.108614
   122     0.015458
   123    -0.003699
   124    -0.002371
   125     0.003180
   126     0.015982
   127    -0.003460
   128     0.000641
   129     0.017598
   130     0.002915
   131    -0.008043
   132     0.007012
   133     0.001695
   134     0.000185
   135    -0.001533
   136     0.003848
   137     0.002980
   138    -0.192955
   139    -0.042755
   140     0.061171
   141    -0.120620
   142     0.111365
   143    -0.049067
   144     0.048967
   145    -0.016222
   146     0.031247
   147    -0.009864
   148     0.000413
   149     0.024993
   150    -0.102068
   151     0.000729
   152    -0.010627
   153    -0.000448
   154     0.036128
   155    -0.050469
   156    -0.037445
   157     0.000658
   158     0.006932
   159     0.008670
   160     0.000518
   161     0.007938
   162    -0.005725
   163    -0.002902
   164     0.002391
   165    -0.074808
   166     0.014174
   167     0.009844
   168    -0.010117
   169     0.039336
   170    -0.026051
   171    -0.019291
   172    -0.004615
   173     0.007044
   174     0.008357
   175     0.007029
   176     0.005540
   177     0.007093
   178     0.011547
   179     0.069143
   180    -0.007427
   181    -0.006172
   182     0.006437
Sym=   113a
Ene=   -0.114070E-01
Spin= Alpha
Occup= 0.009518
     1     0.015081
     2    -0.051887
     3     0.001538
     4     0.001357
     5     0.000017
     6     0.000326
     7     0.002715
     8     0.012153
     9    -0.067308
    10    -0.001530
    11     0.002931
    12     0.000381
    13     0.015390
    14    -0.008140
    15    -0.007896
    16    -0.063686
    17     0.054411
    18    -0.013816
    19    -0.000714
    20     0.001826
    21    -0.007672
    22    -0.002194
    23    -0.000829
    24     0.017006
    25    -0.000394
    26    -0.002677
    27    -0.010398
    28     0.023721
    29    -0.001103
    30    -0.003495
    31     0.000692
    32     0.002933
    33     0.008239
    34    -0.001874
    35    -0.009255
    36     0.006493
    37     0.003504
    38     0.001268
    39    -0.004819
    40     0.002487
    41    -0.002610
    42    -0.005039
    43     0.002707
    44    -0.003768
    45    -0.047613
    46     0.098200
    47     0.088869
    48    -0.008976
    49     0.000265
    50     0.262021
    51     0.026733
    52    -0.047315
    53     0.024807
    54    -0.012508
    55    -0.037181
    56    -0.021133
    57     0.012938
    58     0.013308
    59     0.001205
    60     0.062749
    61    -0.253760
    62     0.016786
    63    -0.000163
    64    -0.029094
    65    -0.029589
    66     0.056866
    67    -0.112684
    68     0.004925
    69     0.000368
    70     0.008737
    71     0.001553
    72    -0.006562
    73    -0.002376
    74    -0.000747
    75    -0.004562
    76    -0.016422
    77     0.044030
    78    -0.000811
    79    -0.001391
    80     0.002484
    81     0.000696
    82     0.002484
    83    -0.002487
    84    -0.010790
    85    -0.004943
    86    -0.002514
    87    -0.002785
    88     0.005463
    89    -0.009480
    90    -0.001607
    91     0.034859
    92     0.014652
    93     0.000767
    94     0.023878
    95    -0.083938
    96     0.008054
    97    -0.010669
    98     0.003455
    99    -0.033782
   100     0.051073
   101    -0.031195
   102     0.006030
   103     0.000133
   104    -0.000983
   105     0.001321
   106     0.003531
   107     0.000255
   108     0.001511
   109    -0.006995
   110     0.002254
   111    -0.001742
   112    -0.001254
   113    -0.001105
   114    -0.007271
   115     0.018492
   116    -0.001589
   117    -0.001780
   118    -0.000692
   119    -0.003826
   120     0.001064
   121     0.000509
   122    -0.000632
   123    -0.000316
   124     0.000028
   125     0.000838
   126    -0.000064
   127     0.000145
   128    -0.003841
   129     0.013963
   130    -0.000159
   131    -0.001218
   132     0.000052
   133    -0.040132
   134     0.016930
   135    -0.000600
   136     0.008879
   137     0.000966
   138     0.002762
   139     0.000384
   140    -0.003260
   141    -0.001078
   142    -0.000567
   143    -0.029063
   144     0.226895
   145     0.002180
   146    -0.000587
   147     0.003127
   148    -0.002179
   149    -0.001397
   150     0.038864
   151    -0.015942
   152     0.006778
   153    -0.011701
   154    -0.062205
   155     0.029098
   156    -0.062796
   157    -0.000052
   158     0.003308
   159    -0.006578
   160     0.001745
   161     0.001989
   162     0.000889
   163    -0.194609
   164    -0.890032
   165     0.685948
   166     0.771978
   167    -0.038282
   168    -0.181950
   169     0.797709
   170    -0.036734
   171    -0.194791
   172    -0.057610
   173     0.131800
   174     0.125726
   175     0.009230
   176     0.058631
   177    -0.001654
   178    -0.002714
   179    -0.002591
   180     0.002789
   181    -0.003129
   182    -0.003543
Sym=   114a
Ene=   -0.197122E-02
Spin= Alpha
Occup= 0.001000
     1     0.009720
     2    -0.008264
     3     0.003398
     4     0.003411
     5    -0.002073
     6     0.000175
     7     0.001038
     8    -0.016483
     9     0.191683
    10    -0.002048
    11    -0.000300
    12     0.003045
    13     0.009450
    14     0.014401
    15     0.010096
    16     0.006822
    17    -0.114203
    18    -0.009904
    19     0.004824
    20    -0.016972
    21     0.017075
    22     0.003163
    23    -0.014920
    24    -0.015504
    25    -0.001590
    26    -0.005426
    27    -0.041147
    28     0.140428
    29     0.001482
    30    -0.006765
    31     0.003618
    32    -0.005928
    33     0.013254
    34    -0.009619
    35    -0.041076
    36     0.019725
    37    -0.001729
    38     0.040422
    39    -0.130083
    40     0.022415
    41     0.013519
    42     0.046234
    43     0.041010
    44    -0.012459
    45    -0.082933
    46     0.047019
    47    -0.019806
    48    -0.005786
    49     0.083679
    50    -0.268211
    51    -0.160759
    52     0.058001
    53    -0.085263
    54     0.229395
    55    -0.148954
    56    -0.036538
    57    -0.105233
    58    -0.017646
    59     0.001760
    60     0.000628
    61     0.086049
    62     0.052667
    63     0.000390
    64    -0.016057
    65     0.070642
    66     0.023682
    67    -0.019888
    68     0.029267
    69    -0.013942
    70    -0.012249
    71     0.001586
    72    -0.008469
    73     0.011017
    74     0.003160
    75     0.011711
    76     0.110946
    77    -0.187785
    78    -0.004275
    79     0.001841
    80     0.004306
    81     0.012457
    82    -0.017308
    83    -0.008329
    84    -0.071083
    85     0.048437
    86    -0.021321
    87    -0.027525
    88    -0.070258
    89     0.244544
    90    -0.064916
    91     0.037464
    92     0.001551
    93    -0.010377
    94    -0.076938
    95     0.148103
    96     0.007563
    97     0.040498
    98     0.000216
    99     0.026079
   100    -0.077617
   101     0.045146
   102    -0.019718
   103     0.009067
   104    -0.011242
   105    -0.027940
   106    -0.018201
   107    -0.023440
   108    -0.014354
   109    -0.132756
   110     0.002727
   111     0.007950
   112     0.020837
   113     0.001481
   114     0.029474
   115    -0.111330
   116    -0.005187
   117     0.024942
   118    -0.008627
   119     0.024401
   120     0.040978
   121     0.000085
   122     0.020611
   123     0.011869
   124    -0.006489
   125    -0.015137
   126     0.003258
   127     0.021196
   128    -0.015930
   129     0.016656
   130     0.003109
   131    -0.003300
   132     0.012520
   133    -0.035640
   134     0.081496
   135    -0.004445
   136    -0.009630
   137     0.003571
   138    -0.003886
   139    -0.018974
   140     0.008516
   141     0.002042
   142    -0.001902
   143     0.129480
   144    -0.315593
   145     0.021058
   146     0.057164
   147    -0.030936
   148     0.004290
   149     0.048035
   150    -0.127281
   151    -0.063150
   152     0.001543
   153     0.012880
   154    -0.033851
   155    -0.048668
   156     0.051097
   157     0.031257
   158     0.007917
   159     0.001003
   160    -0.012981
   161     0.003864
   162     0.011427
   163     0.051557
   164     0.151276
   165     0.081158
   166     0.074596
   167     0.117812
   168     0.047810
   169     0.149646
   170     0.260698
   171     0.102935
   172     0.129360
   173    -0.723253
   174     0.295791
   175    -0.612713
   176     0.058212
   177    -0.016412
   178    -0.008968
   179    -0.029145
   180    -0.009330
   181    -0.000827
   182    -0.014821
Sym=   115a
Ene=   -0.113234E-01
Spin= Alpha
Occup= 0.009409
     1    -0.012484
     2     0.059182
     3     0.001033
     4    -0.001010
     5     0.000755
     6    -0.000066
     7    -0.000278
     8    -0.025613
     9     0.098653
    10     0.000175
    11     0.000698
    12     0.008371
    13    -0.006226
    14    -0.000779
    15    -0.013874
    16     0.084772
    17    -0.091659
    18    -0.021937
    19     0.004050
    20     0.008820
    21    -0.006677
    22     0.003686
    23     0.009915
    24     0.003963
    25    -0.000204
    26    -0.001176
    27    -0.002405
    28    -0.007384
    29    -0.000186
    30    -0.000643
    31     0.001201
    32    -0.002485
    33     0.000846
    34    -0.003301
    35     0.004902
    36     0.003802
    37    -0.015101
    38    -0.005075
    39    -0.001345
    40     0.003647
    41     0.000402
    42     0.008845
    43     0.001141
    44     0.005213
    45     0.075026
    46    -0.141421
    47     0.019663
    48    -0.002569
    49    -0.073468
    50    -0.032660
    51    -0.021053
    52    -0.135685
    53     0.027149
    54     0.045284
    55    -0.030389
    56    -0.011126
    57     0.002658
    58     0.010498
    59     0.001394
    60     0.046342
    61    -0.129517
    62     0.024968
    63    -0.009598
    64    -0.017456
    65     0.049280
    66    -0.010743
    67    -0.070360
    68    -0.001732
    69    -0.000088
    70     0.008846
    71     0.000940
    72    -0.001455
    73    -0.005804
    74    -0.000054
    75    -0.000314
    76    -0.002041
    77    -0.013380
    78     0.000297
    79     0.000613
    80     0.000596
    81    -0.001551
    82    -0.001622
    83    -0.002000
    84     0.010247
    85     0.002337
    86    -0.003439
    87    -0.000028
    88     0.000887
    89    -0.001320
    90    -0.001581
    91     0.006505
    92     0.002199
    93    -0.004039
    94    -0.059702
    95     0.131640
    96     0.003002
    97     0.022127
    98    -0.005107
    99     0.012516
   100    -0.087602
   101     0.038324
   102    -0.006880
   103    -0.005175
   104    -0.000048
   105    -0.000939
   106    -0.003924
   107    -0.001160
   108     0.002602
   109    -0.054124
   110     0.003722
   111     0.000141
   112    -0.000826
   113     0.000137
   114     0.009385
   115    -0.049688
   116     0.003571
   117     0.001943
   118    -0.002758
   119     0.016702
   120     0.013028
   121    -0.009209
   122     0.001989
   123     0.001809
   124     0.000916
   125     0.000019
   126     0.000465
   127     0.000330
   128     0.002185
   129    -0.015002
   130    -0.000150
   131     0.000157
   132     0.000670
   133    -0.019737
   134     0.031088
   135    -0.003556
   136     0.004096
   137     0.004380
   138    -0.005605
   139     0.033077
   140     0.001926
   141    -0.007530
   142     0.001951
   143    -0.026672
   144     0.059469
   145    -0.005451
   146    -0.005675
   147     0.010922
   148    -0.000294
   149     0.004078
   150    -0.034328
   151    -0.003814
   152     0.004334
   153     0.002580
   154     0.001327
   155     0.001982
   156     0.014553
   157    -0.003378
   158     0.000539
   159     0.001120
   160    -0.000018
   161    -0.000211
   162    -0.001673
   163     0.201667
   164     0.916309
   165    -0.689429
   166     0.117670
   167    -0.283134
   168    -0.724656
   169     0.131458
   170    -0.300820
   171    -0.756669
   172    -0.138927
   173    -0.111520
   174     0.035438
   175    -0.017080
   176    -0.045859
   177     0.084538
   178    -0.000947
   179    -0.029023
   180    -0.000477
   181     0.004101
   182    -0.004992
Sym=   116a
Ene=   -0.335505E-02
Spin= Alpha
Occup= 0.000369
     1    -0.002202
     2     0.041255
     3    -0.000841
     4    -0.006208
     5     0.000270
     6    -0.000051
     7    -0.000273
     8     0.009037
     9    -0.117139
    10     0.000906
    11     0.003780
    12    -0.001319
    13    -0.011973
    14    -0.042809
    15     0.017038
    16     0.071289
    17     0.029350
    18    -0.025480
    19     0.005136
    20     0.031838
    21     0.004561
    22     0.020422
    23    -0.003637
    24    -0.014538
    25     0.000152
    26    -0.000162
    27     0.011493
    28    -0.076129
    29    -0.000782
    30     0.001138
    31    -0.001101
    32     0.002061
    33    -0.002052
    34     0.005497
    35     0.027233
    36     0.005605
    37    -0.018570
    38    -0.004302
    39     0.020669
    40    -0.000508
    41     0.001660
    42    -0.001339
    43    -0.007274
    44    -0.932349
    45    -4.424924
    46     0.718262
    47     0.070775
    48     0.052094
    49     0.042153
    50    -0.106261
    51     0.102852
    52    -0.084481
    53     1.847217
    54     1.766732
    55     1.825307
    56    -0.020555
    57    -0.010854
    58    -0.032080
    59    -0.009161
    60     0.021244
    61    -0.149007
    62    -0.079407
    63    -0.017476
    64     0.106030
    65    -0.013692
    66    -0.033673
    67    -0.001049
    68    -0.036678
    69    -0.008948
    70    -0.042992
    71     0.007631
    72     0.016166
    73    -0.021439
    74    -0.000114
    75     0.001173
    76    -0.008531
    77     0.053236
    78     0.000031
    79    -0.000117
    80    -0.001051
    81     0.000759
    82     0.001586
    83     0.004355
    84    -0.011782
    85    -0.002016
    86    -0.013637
    87     0.003791
    88     0.011591
    89    -0.040171
    90     0.014766
    91     0.007660
    92     0.004106
    93    -0.009941
    94    -0.030575
    95     0.027956
    96     0.048494
    97     0.089063
    98     0.007768
    99    -0.004003
   100    -0.030572
   101     0.026164
   102    -0.017482
   103    -0.043878
   104    -0.010891
   105    -0.019727
   106     0.003672
   107    -0.016268
   108    -0.003531
   109     0.060228
   110    -0.002856
   111    -0.000995
   112     0.003570
   113    -0.001018
   114    -0.003315
   115    -0.002972
   116     0.000335
   117    -0.001045
   118     0.003471
   119     0.001485
   120     0.001723
   121     0.001051
   122    -0.000980
   123    -0.000040
   124     0.003203
   125     0.007631
   126     0.002554
   127    -0.003242
   128    -0.001196
   129    -0.001325
   130    -0.000418
   131    -0.000053
   132    -0.001655
   133    -0.005212
   134    -0.037760
   135     0.002720
   136     0.002583
   137    -0.001462
   138     0.028642
   139    -0.078183
   140     0.010546
   141    -0.025980
   142    -0.021304
   143    -0.184412
   144    -0.178202
   145    -0.019720
   146    -0.011336
   147     0.009835
   148     0.000524
   149    -0.014457
   150     0.057006
   151     0.021258
   152    -0.012269
   153    -0.008532
   154    -0.025738
   155    -0.005799
   156     0.003259
   157     0.003921
   158    -0.000652
   159     0.001665
   160    -0.004430
   161    -0.005444
   162    -0.000974
   163    -0.013928
   164    -0.076585
   165     0.009873
   166    -0.051431
   167     0.103662
   168    -0.098483
   169     0.003217
   170     0.035880
   171    -0.039679
   172    -0.017951
   173     0.005585
   174    -0.011214
   175    -0.002917
   176     0.011568
   177    -0.014642
   178     0.053264
   179    -0.058116
   180     0.004269
   181     0.011037
   182     0.030491
Sym=   117a
Ene=   -0.106993E-02
Spin= Alpha
Occup= 0.000233
     1     0.129962
     2    -0.068466
     3     0.174968
     4    -0.117524
     5     0.042986
     6     0.085849
     7     0.947767
     8     4.146786
     9    -0.708134
    10     0.129174
    11     0.223372
    12    -0.191995
    13    -0.710486
    14    -1.283687
    15     0.990115
    16     0.150345
    17     0.295505
    18    -0.276725
    19    -1.486892
    20    -0.901314
    21    -0.947189
    22     0.173920
    23    -0.123253
    24    -0.186370
    25     0.000066
    26     0.003383
    27    -0.041492
    28    -0.209902
    29    -0.008248
    30    -0.000510
    31     0.011082
    32     0.072598
    33     0.009842
    34    -0.102110
    35     0.052373
    36    -0.031418
    37    -0.079223
    38     0.012601
    39    -0.015457
    40    -0.096977
    41     0.028725
    42    -0.041236
    43    -0.028277
    44    -0.006049
    45     0.367186
    46     0.248860
    47    -0.125433
    48    -0.169344
    49     0.099628
    50     0.233386
    51     0.176093
    52    -0.072932
    53     0.218633
    54     0.076201
    55     0.024458
    56    -0.001813
    57    -0.020860
    58    -0.046722
    59     0.004175
    60     0.410926
    61    -1.634969
    62    -0.014465
    63    -0.246251
    64     0.042411
    65    -0.197342
    66    -1.048999
    67    -0.260128
    68     0.167009
    69    -0.069738
    70     0.170781
    71    -0.037454
    72     0.000428
    73    -0.042317
    74     0.000727
    75     0.010657
    76    -0.064069
    77     0.136569
    78    -0.010112
    79     0.002557
    80     0.001204
    81     0.098267
    82    -0.000621
    83    -0.002609
    84     0.037160
    85     0.084617
    86    -0.007754
    87    -0.108886
    88     0.011311
    89    -0.023386
    90     0.018717
    91     0.016595
    92     0.018387
    93     0.011141
    94     0.387215
    95    -1.271922
    96     0.027818
    97     0.051805
    98    -0.208190
    99    -0.143993
   100    -0.024120
   101     0.907432
   102     0.154055
   103     0.191033
   104    -0.068871
   105    -0.074252
   106     0.089128
   107     0.065162
   108    -0.099288
   109     0.210365
   110    -0.034607
   111     0.017127
   112     0.061332
   113    -0.001957
   114    -0.103131
   115     0.313601
   116     0.014860
   117     0.003051
   118    -0.052948
   119    -0.322963
   120     0.079062
   121    -0.222498
   122     0.156761
   123    -0.051039
   124    -0.072007
   125    -0.045036
   126     0.026456
   127     0.011069
   128    -0.001864
   129     0.042338
   130     0.052963
   131    -0.044620
   132     0.045630
   133     0.059760
   134    -0.040438
   135     0.027257
   136     0.001936
   137    -0.037953
   138    -0.091046
   139     0.091668
   140    -0.060091
   141     0.006249
   142    -0.051275
   143    -0.158343
   144     0.218070
   145    -0.055598
   146     0.025352
   147    -0.021538
   148     0.000715
   149    -0.065202
   150     0.409591
   151    -0.013442
   152     0.000470
   153     0.015135
   154     0.006020
   155     0.327124
   156     0.077879
   157    -0.052456
   158     0.002759
   159    -0.013328
   160    -0.027567
   161    -0.024839
   162     0.005688
   163     0.002861
   164     0.058908
   165    -0.182485
   166     0.007183
   167    -0.025471
   168     0.011750
   169     0.003141
   170    -0.121995
   171     0.077347
   172     0.029525
   173     0.003530
   174     0.003523
   175    -0.007568
   176     0.003577
   177     0.016240
   178    -0.068797
   179     0.131867
   180    -0.071071
   181     0.077861
   182    -0.032473
Sym=   118a
Ene=   -0.923969E-04
Spin= Alpha
Occup= 0.000018
     1    -0.021363
     2     0.036046
     3    -0.123813
     4    -0.114639
     5     0.000339
     6     0.000878
     7     0.041981
     8     0.129312
     9    -0.099133
    10     0.010023
    11     0.013689
    12     0.015081
    13    -0.122196
    14    -0.134300
    15    -0.160557
    16    -0.100775
    17    -0.006493
    18     0.174975
    19    -0.638181
    20     0.238211
    21    -0.071917
    22    -0.022170
    23     0.455199
    24     0.198415
    25    -0.000881
    26    -0.024970
    27    -0.223927
    28     0.405792
    29    -0.004304
    30    -0.000829
    31     0.001156
    32     0.061623
    33     0.012352
    34    -0.052868
    35    -0.281565
    36    -0.082742
    37     0.242629
    38     0.077135
    39    -0.013447
    40     0.109250
    41     0.012172
    42    -0.107339
    43     0.001322
    44    -0.002495
    45     0.002232
    46    -0.089479
    47    -0.004424
    48     0.045704
    49     0.048897
    50     0.032477
    51     0.012693
    52     0.078862
    53     0.158363
    54    -0.072270
    55    -0.046673
    56    -0.086041
    57     0.304489
    58     0.185704
    59    -0.009530
    60     0.139064
    61    -0.549332
    62    -0.014723
    63     0.023044
    64    -0.053196
    65    -0.168479
    66    -0.166972
    67    -0.102579
    68    -0.199745
    69     0.213981
    70     0.226224
    71    -0.015534
    72    -0.130476
    73     0.419570
    74    -0.000169
    75    -0.014256
    76     0.031164
    77    -0.132068
    78     0.007435
    79     0.002874
    80    -0.004375
    81    -0.065258
    82    -0.025422
    83     0.008433
    84     0.010705
    85     0.148215
    86     0.101742
    87     0.065267
    88     0.109001
    89     0.016448
    90     0.002773
    91    -0.148356
    92    -0.086816
    93     0.001135
    94    -0.073035
    95     0.232710
    96     0.040822
    97     0.007666
    98     0.084072
    99    -0.085534
   100    -0.048778
   101    -0.413296
   102    -0.113281
   103    -0.140040
   104     0.180151
   105     0.014687
   106     0.100724
   107    -0.002005
   108    -0.017274
   109    -0.137138
   110    -0.003812
   111    -0.007475
   112     0.006578
   113    -0.003913
   114    -0.044775
   115     0.190138
   116     0.028068
   117     0.006792
   118     0.002890
   119    -0.260870
   120     0.142757
   121     0.036525
   122     0.273717
   123    -0.037867
   124    -0.154668
   125     0.098613
   126     0.168267
   127     0.008396
   128    -0.110412
   129    -0.082372
   130     0.034766
   131     0.004753
   132     0.075202
   133    -0.646964
   134     0.108253
   135    -0.164866
   136    -0.151561
   137     0.149615
   138     0.099982
   139    -0.051253
   140    -0.007510
   141     0.047462
   142    -0.081105
   143    -0.142716
   144     0.113167
   145    -0.055210
   146    -0.101088
   147     0.089798
   148    -0.003642
   149    -0.061674
   150     0.533251
   151    -0.016887
   152    -0.031123
   153    -0.075194
   154    -0.185156
   155    -0.418399
   156    -0.003019
   157    -0.243169
   158     0.523030
   159    -0.178030
   160    -0.200538
   161    -0.161822
   162    -0.115961
   163    -0.000845
   164     0.015571
   165    -0.056182
   166    -0.016971
   167     0.003574
   168     0.013280
   169    -0.135826
   170    -0.030168
   171     0.043107
   172     0.085297
   173    -0.040541
   174    -0.014826
   175    -0.068369
   176     0.042989
   177     0.024612
   178    -0.112646
   179     0.040649
   180    -0.311882
   181     0.326649
   182    -0.043969
Sym=   119a
Ene=   -0.115853E-02
Spin= Alpha
Occup= 0.000231
     1    -0.033041
     2    -0.010251
     3     0.004972
     4     0.005871
     5     0.011713
     6     0.000430
     7     0.006872
     8    -0.123556
     9     0.194060
    10     0.010864
    11    -0.005522
    12    -0.003075
    13    -0.119959
    14     0.032756
    15     0.035107
    16     0.027657
    17     0.061146
    18    -0.071770
    19    -0.079217
    20    -0.004169
    21    -0.021280
    22     0.020906
    23     0.038939
    24    -0.004749
    25     0.078113
    26     0.833114
    27     2.515021
    28     0.305764
    29     0.000331
    30    -0.243323
    31     0.099222
    32     0.008554
    33     0.980702
    34    -0.461189
    35     0.018369
    36    -1.073053
    37     0.420599
    38    -1.069908
    39    -0.964996
    40    -1.230645
    41    -0.346384
    42     0.085956
    43     0.020925
    44    -0.000032
    45    -0.006399
    46     0.038718
    47    -0.007594
    48     0.013917
    49    -0.009775
    50    -0.026520
    51     0.024518
    52    -0.004650
    53    -0.010392
    54     0.006504
    55     0.006877
    56    -0.013470
    57     0.008028
    58    -0.001824
    59    -0.000229
    60     0.016185
    61     0.032191
    62    -0.024258
    63    -0.009227
    64     0.013157
    65     0.034589
    66    -0.002155
    67     0.036341
    68     0.026875
    69     0.001959
    70     0.005651
    71     0.001723
    72    -0.010030
    73     0.004684
    74    -0.000637
    75    -0.013015
    76    -0.064848
    77    -0.564240
    78    -0.011445
    79     0.015307
    80    -0.005731
    81     0.073283
    82    -0.173108
    83     0.052737
    84    -0.017554
    85    -0.158938
    86     0.184860
    87     0.025222
    88    -0.029274
    89     0.016379
    90    -0.045338
    91     0.081140
    92    -0.105741
    93     0.000248
    94     0.003177
    95    -0.005270
    96     0.001402
    97     0.009720
    98    -0.006475
    99     0.007266
   100    -0.029755
   101    -0.005477
   102    -0.000092
   103    -0.001135
   104     0.006685
   105    -0.000492
   106     0.006111
   107    -0.006494
   108     0.189827
   109    -0.296163
   110     0.062528
   111    -0.022212
   112     0.015408
   113     0.002875
   114    -0.184869
   115     0.501760
   116    -0.001923
   117    -0.099447
   118     0.004336
   119    -0.004684
   120    -0.271479
   121    -0.184650
   122    -0.052135
   123    -0.118036
   124     0.084044
   125     0.000407
   126     0.031114
   127     0.018920
   128    -0.063149
   129     0.107598
   130     0.008423
   131     0.064466
   132    -0.041677
   133    -0.073606
   134     0.010787
   135    -0.004782
   136    -0.032399
   137     0.003332
   138     0.026030
   139    -0.027685
   140     0.012501
   141     0.006989
   142    -0.000165
   143     0.011465
   144    -0.038356
   145     0.004278
   146    -0.009839
   147     0.010919
   148    -0.001194
   149     0.064781
   150    -0.161082
   151    -0.025740
   152    -0.025917
   153     0.017986
   154     0.005494
   155    -0.177698
   156     0.063031
   157     0.034283
   158     0.044690
   159     0.034490
   160     0.016243
   161    -0.001570
   162     0.026114
   163    -0.000899
   164     0.001847
   165    -0.018353
   166     0.001048
   167    -0.002537
   168     0.002602
   169     0.006172
   170    -0.014441
   171     0.013587
   172     0.007401
   173     0.001820
   174     0.001576
   175     0.003121
   176    -0.001271
   177     0.003143
   178     0.028410
   179    -0.012010
   180     0.008594
   181    -0.003372
   182     0.000876
Sym=   120a
Ene=   -0.555776E-04
Spin= Alpha
Occup= 0.000010
     1     0.014247
     2     0.243163
     3     0.064626
     4    -0.070081
     5     0.182423
     6     0.000406
     7     0.030353
     8     0.052025
     9     0.238608
    10    -0.012378
    11     0.000993
    12     0.005028
    13     0.207300
    14     0.040138
    15    -0.043530
    16    -0.238731
    17    -0.548281
    18     0.585056
    19     0.005200
    20    -0.138491
    21    -0.166256
    22     0.140105
    23     0.009528
    24    -0.004965
    25     0.003584
    26     0.091006
    27    -0.533606
    28     3.120755
    29    -0.013280
    30    -0.006708
    31     0.009579
    32     0.124765
    33     0.050959
    34    -0.121825
    35    -0.814799
    36    -0.198682
    37     1.676879
    38    -0.400535
    39    -0.752003
    40     0.327245
    41    -0.097106
    42    -0.263427
    43    -0.025643
    44     0.006954
    45    -0.046936
    46    -0.576906
    47    -0.013252
    48    -0.008598
    49     0.022964
    50    -0.272424
    51    -0.224006
    52     0.133953
    53    -0.247415
    54    -0.031377
    55     0.037861
    56    -0.010783
    57    -0.286269
    58    -0.012849
    59    -0.000005
    60    -0.009214
    61     0.003293
    62    -0.101450
    63    -0.011039
    64     0.079252
    65    -0.042621
    66     0.040547
    67     0.135508
    68     0.047274
    69    -0.004833
    70    -0.065753
    71     0.026536
    72    -0.016015
    73    -0.001330
    74     0.001049
    75     0.024312
    76     0.089082
    77    -0.333713
    78     0.004785
    79     0.009406
    80    -0.001750
    81    -0.074241
    82    -0.099111
    83     0.033008
    84    -0.176866
    85    -0.293812
    86     0.284521
    87     0.075349
    88    -0.019030
    89    -0.220162
    90     0.026307
    91    -0.037410
    92    -0.055228
    93    -0.002197
    94    -0.008678
    95    -0.011108
    96    -0.005238
    97     0.020655
    98     0.006778
    99     0.044150
   100    -0.170834
   101    -0.089914
   102    -0.046250
   103     0.093670
   104    -0.011913
   105     0.002248
   106     0.024803
   107    -0.036031
   108    -0.082208
   109    -0.636300
   110     0.169827
   111    -0.426924
   112    -0.079483
   113    -0.006984
   114     0.314352
   115    -1.829374
   116     0.008650
   117    -0.081823
   118     0.122713
   119     0.231719
   120    -0.357807
   121     0.833720
   122     0.273981
   123     0.040315
   124    -0.107221
   125    -0.027095
   126     0.035344
   127    -0.088074
   128     0.128760
   129    -0.208950
   130    -0.334531
   131     0.263380
   132     0.062691
   133    -0.204095
   134     0.000796
   135     0.221074
   136    -0.090425
   137     0.122236
   138     0.109406
   139    -0.061961
   140     0.023521
   141    -0.057295
   142     0.037538
   143     0.223973
   144    -0.145188
   145     0.130047
   146     0.064555
   147    -0.065581
   148    -0.011173
   149     0.112175
   150    -0.499190
   151    -0.006477
   152    -0.006602
   153     0.016975
   154    -0.313893
   155    -0.367838
   156     0.069792
   157     0.005018
   158     0.199190
   159     0.040260
   160     0.136425
   161    -0.074279
   162    -0.007337
   163     0.001124
   164    -0.049755
   165     0.233316
   166     0.006343
   167     0.018182
   168    -0.012330
   169     0.059495
   170     0.150876
   171    -0.101128
   172    -0.077831
   173     0.036415
   174    -0.008655
   175     0.043125
   176    -0.005912
   177    -0.052813
   178     0.073094
   179    -0.038569
   180    -0.042425
   181    -0.012016
   182     0.078086
Sym=   121a
Ene=   -0.890298E-04
Spin= Alpha
Occup= 0.000019
     1    -0.107591
     2     0.130790
     3    -0.391334
     4    -0.282471
     5    -0.100653
     6    -0.001031
     7    -0.001103
     8    -0.139713
     9     0.142119
    10     0.022185
    11     0.008979
    12     0.016045
    13    -0.271090
    14    -0.164408
    15    -0.182116
    16     0.037168
    17    -0.246485
    18     0.070814
    19    -0.743150
    20     0.930818
    21    -0.315363
    22    -0.096458
    23    -0.000824
    24     0.448105
    25    -0.000702
    26    -0.022180
    27    -0.091907
    28    -0.117682
    29     0.000474
    30     0.002985
    31     0.000611
    32     0.020069
    33    -0.027791
    34    -0.029144
    35    -0.028125
    36     0.111946
    37     0.004717
    38     0.127453
    39     0.013378
    40     0.045572
    41    -0.033152
    42     0.031402
    43     0.056890
    44    -0.010570
    45    -0.002484
    46     0.124472
    47     0.015707
    48    -0.016581
    49    -0.062699
    50    -0.154580
    51     0.063555
    52    -0.043562
    53    -0.079465
    54     0.142029
    55     0.168775
    56    -0.009167
    57    -0.132933
    58     0.072763
    59     0.006279
    60     0.140000
    61    -0.441233
    62     0.021535
    63    -0.111358
    64     0.066485
    65    -0.007390
    66    -0.755002
    67     0.042654
    68     0.255731
    69    -0.325379
    70     0.010400
    71    -0.304037
    72     0.171681
    73    -0.026073
    74     0.000298
    75     0.013259
    76    -0.073905
    77     0.095602
    78    -0.007203
    79    -0.001033
    80     0.001968
    81     0.083318
    82     0.023974
    83    -0.001488
    84     0.082150
    85    -0.069246
    86    -0.066921
    87    -0.090311
    88    -0.050599
    89    -0.036995
    90     0.058179
    91     0.054882
    92     0.057702
    93     0.004652
    94    -0.080915
    95     0.253002
    96     0.017798
    97    -0.019593
    98     0.019899
    99     0.165553
   100     0.024923
   101    -0.362921
   102    -0.098770
   103    -0.147333
   104     0.098382
   105    -0.009933
   106     0.026889
   107    -0.050616
   108    -0.052282
   109     0.076634
   110    -0.075381
   111     0.007418
   112     0.050113
   113    -0.005489
   114    -0.102482
   115     0.409694
   116     0.038211
   117    -0.022835
   118    -0.007379
   119    -0.445918
   120    -0.116538
   121    -0.077512
   122     0.262500
   123    -0.105074
   124    -0.086669
   125    -0.132537
   126    -0.095502
   127    -0.018822
   128     0.180578
   129    -0.033499
   130    -0.004908
   131    -0.030178
   132    -0.018087
   133     0.384029
   134    -0.047984
   135     0.022121
   136     0.104726
   137    -0.020162
   138     0.183413
   139    -0.109142
   140     0.058668
   141    -0.046596
   142    -0.060850
   143     0.116339
   144    -0.313600
   145    -0.072675
   146     0.044849
   147    -0.023827
   148     0.007274
   149     0.088252
   150    -0.358773
   151    -0.030079
   152     0.020150
   153     0.043497
   154     0.257100
   155     0.321029
   156    -0.022482
   157    -0.016138
   158    -0.242356
   159     0.126359
   160     0.055804
   161     0.121473
   162     0.107870
   163    -0.000970
   164     0.014946
   165    -0.035849
   166     0.029725
   167    -0.031136
   168     0.030355
   169     0.110278
   170    -0.055204
   171     0.061560
   172    -0.002616
   173     0.026683
   174     0.010658
   175     0.038583
   176    -0.029061
   177    -0.010180
   178    -0.042216
   179    -0.013940
   180     0.073508
   181    -0.177279
   182     0.022973
Sym=   122a
Ene=   -0.791751E-04
Spin= Alpha
Occup= 0.000014
     1     0.019817
     2    -0.015808
     3    -0.003721
     4    -0.044581
     5     0.041239
     6    -0.000264
     7    -0.004816
     8     0.025159
     9    -0.032307
    10    -0.000996
    11     0.001723
    12     0.001384
    13    -0.006009
    14    -0.016278
    15    -0.021212
    16     0.030864
    17     0.131767
    18     0.038936
    19    -0.024764
    20     0.065999
    21    -0.022208
    22     0.102721
    23    -0.056849
    24     0.011227
    25     0.000089
    26     0.004304
    27     0.244774
    28    -1.106762
    29    -0.006953
    30     0.000951
    31    -0.001560
    32     0.029525
    33    -0.043722
    34     0.006080
    35     0.050849
    36     0.644559
    37    -0.394346
    38    -0.075991
    39     0.004350
    40     0.023502
    41     0.063122
    42    -0.127362
    43     0.362198
    44     0.000763
    45     0.114183
    46    -0.163723
    47    -0.021597
    48     0.069484
    49     0.102756
    50     0.082006
    51     0.016161
    52     0.100494
    53     0.248753
    54    -0.084381
    55    -0.112512
    56    -0.229512
    57     0.257895
    58     0.015471
    59    -0.021866
    60     0.102475
    61    -0.220822
    62    -0.067398
    63     0.052145
    64    -0.019936
    65    -0.406891
    66    -0.019162
    67    -0.409773
    68     0.184399
    69    -0.034404
    70     0.337910
    71     0.118114
    72     0.172516
    73     0.086621
    74     0.004599
    75     0.128360
    76    -0.072004
    77     0.879392
    78    -0.023455
    79     0.026375
    80    -0.013875
    81     0.194785
    82    -0.237301
    83     0.116971
    84     0.219788
    85     0.270020
    86    -0.847549
    87    -0.390904
    88    -0.812674
    89    -0.160446
    90    -0.125638
    91     0.237871
    92    -0.410110
    93     0.001462
    94    -0.041698
    95     0.164848
    96     0.009456
    97     0.016665
    98     0.004522
    99     0.001898
   100    -0.144187
   101    -0.080450
   102    -0.062186
   103     0.010145
   104     0.008501
   105     0.038190
   106    -0.007431
   107     0.050057
   108     0.028801
   109     0.341526
   110     0.064307
   111     0.162446
   112    -0.070377
   113     0.012682
   114    -0.221284
   115     0.889073
   116     0.083591
   117    -0.174680
   118     0.069392
   119     0.168702
   120    -0.965752
   121     0.141950
   122    -0.133229
   123    -0.071599
   124    -0.112793
   125    -0.429181
   126     0.072403
   127    -0.037404
   128     0.240389
   129    -0.113904
   130    -0.057920
   131     0.150923
   132    -0.370505
   133    -0.409121
   134     0.077294
   135     0.233453
   136    -0.187328
   137     0.025845
   138     0.041916
   139    -0.030855
   140    -0.020267
   141     0.015938
   142    -0.047106
   143    -0.174722
   144     0.151324
   145    -0.102674
   146    -0.165405
   147     0.124628
   148    -0.013547
   149    -0.070053
   150     0.599950
   151     0.148031
   152     0.009915
   153     0.029130
   154     0.323399
   155    -0.141626
   156     0.331485
   157     0.119128
   158     0.174040
   159    -0.038554
   160     0.319294
   161    -0.126470
   162    -0.165573
   163     0.001357
   164    -0.000710
   165    -0.041550
   166    -0.028919
   167     0.010678
   168    -0.019271
   169    -0.137814
   170    -0.067605
   171     0.037007
   172     0.078581
   173    -0.062863
   174    -0.053273
   175    -0.071492
   176     0.037461
   177     0.066533
   178    -0.440454
   179     0.108046
   180    -0.073182
   181    -0.227549
   182    -0.152770
Sym=   123a
Ene=   -0.415486E-04
Spin= Alpha
Occup= 0.000007
     1     0.023807
     2    -0.109728
     3    -0.030484
     4     0.002531
     5    -0.261869
     6    -0.000519
     7    -0.029375
     8    -0.162117
     9     0.143692
    10     0.009929
    11     0.010222
    12     0.005751
    13    -0.144389
    14    -0.122820
    15    -0.052224
    16     0.040387
    17    -0.047305
    18    -0.013927
    19     0.024208
    20     0.271704
    21     0.014852
    22     0.032316
    23     0.079469
    24     0.101189
    25     0.000704
    26     0.021666
    27    -0.175980
    28     1.038287
    29    -0.000964
    30    -0.002906
    31     0.002956
    32     0.017047
    33     0.030375
    34    -0.044921
    35    -0.106933
    36    -0.291227
    37     0.376057
    38    -0.047143
    39    -0.119852
    40    -0.058903
    41     0.000902
    42     0.039874
    43    -0.058084
    44    -0.006331
    45     0.029031
    46    -0.060850
    47    -0.012694
    48     0.117272
    49     0.123597
    50     0.045929
    51     0.073626
    52     0.080756
    53     0.136331
    54    -0.054244
    55     0.087667
    56     0.269840
    57     0.183145
    58    -0.180724
    59    -0.004265
    60     0.013259
    61     0.002029
    62     0.114952
    63    -0.095344
    64    -0.033145
    65     0.413134
    66    -0.603442
    67    -0.106676
    68     0.120856
    69     0.025736
    70    -0.039076
    71     0.019450
    72     0.058713
    73     0.039245
    74    -0.000933
    75    -0.034134
    76     0.194451
    77    -0.656383
    78     0.012944
    79     0.005366
    80    -0.002663
    81    -0.145612
    82    -0.040580
    83    -0.000356
    84    -0.089749
    85    -0.647791
    86     0.316601
    87     0.282118
    88     0.052233
    89     0.099592
    90     0.320434
    91    -0.103766
    92     0.018560
    93     0.002007
    94    -0.047688
    95     0.161107
    96     0.027595
    97     0.025402
    98     0.016604
    99    -0.261446
   100    -0.044189
   101    -0.221773
   102     0.227468
   103    -0.092923
   104    -0.203456
   105     0.005820
   106    -0.007811
   107    -0.083234
   108     0.013845
   109    -0.373764
   110    -0.016143
   111    -0.041307
   112    -0.029291
   113     0.002817
   114    -0.043059
   115     0.107390
   116     0.025188
   117    -0.041766
   118     0.010952
   119    -0.182427
   120    -0.272276
   121     0.006752
   122    -0.181211
   123     0.100118
   124     0.006996
   125    -0.076285
   126    -0.072060
   127     0.012798
   128     0.202163
   129     0.002945
   130     0.249665
   131    -0.251375
   132    -0.135501
   133     0.011359
   134    -0.033819
   135     0.504585
   136     0.053857
   137     0.439755
   138    -0.014813
   139    -0.040098
   140     0.386622
   141     0.002287
   142     0.357690
   143    -0.144064
   144     0.159271
   145    -0.058216
   146     0.178573
   147     0.107707
   148    -0.002397
   149     0.168008
   150    -1.021460
   151    -0.036223
   152    -0.002994
   153    -0.010147
   154    -0.363558
   155    -0.257965
   156    -0.179450
   157    -0.128614
   158     0.186567
   159     0.027856
   160     0.132844
   161    -0.090631
   162     0.162555
   163     0.000160
   164     0.023581
   165    -0.108458
   166     0.012659
   167    -0.000750
   168     0.003371
   169     0.070175
   170    -0.088535
   171     0.014555
   172    -0.011944
   173    -0.026606
   174     0.044462
   175     0.024000
   176    -0.024263
   177     0.019132
   178    -0.106891
   179     0.027383
   180    -0.069809
   181     0.244916
   182    -0.169471
Sym=   124a
Ene=   -0.633209E-04
Spin= Alpha
Occup= 0.000011
     1    -0.043453
     2    -0.040670
     3    -0.065469
     4    -0.029764
     5     0.029622
     6     0.000771
     7     0.025111
     8     0.190092
     9    -0.339829
    10     0.007604
    11     0.014284
    12     0.000608
    13    -0.156511
    14    -0.241739
    15     0.006818
    16    -0.054360
    17     0.268261
    18     0.037008
    19    -0.181331
    20     0.100827
    21    -0.102657
    22    -0.147284
    23     0.047616
    24    -0.014678
    25     0.001695
    26     0.045399
    27     0.101101
    28    -0.027334
    29    -0.005463
    30    -0.003549
    31    -0.000241
    32     0.032405
    33     0.031232
    34     0.031330
    35    -0.079104
    36     0.045335
    37    -0.103277
    38    -0.150772
    39    -0.148758
    40    -0.086113
    41     0.060215
    42     0.016807
    43    -0.055071
    44    -0.013199
    45     0.213223
    46     0.030476
    47    -0.116520
    48     0.306411
    49     0.500014
    50     0.057185
    51     0.113969
    52    -0.021256
    53     0.431371
    54    -0.145690
    55     0.097276
    56     0.216117
    57    -0.400727
    58    -0.173922
    59    -0.025798
    60     0.293629
    61    -1.193775
    62    -0.028516
    63     0.088748
    64    -0.047490
    65    -0.279831
    66    -0.131718
    67    -1.135710
    68     0.370808
    69     0.214916
    70    -0.008299
    71     0.075270
    72     0.347381
    73     0.092444
    74    -0.001391
    75    -0.034065
    76    -0.227566
    77     0.741486
    78    -0.004305
    79    -0.016699
    80    -0.000637
    81     0.024144
    82     0.123110
    83     0.009956
    84    -0.118925
    85     1.255847
    86    -0.052536
    87    -0.239986
    88     0.648154
    89    -0.077868
    90    -0.446514
    91     0.007170
    92     0.150414
    93     0.006075
    94    -0.132922
    95     0.448644
    96     0.018925
    97     0.060129
    98     0.031172
    99    -0.045100
   100    -0.450025
   101    -0.167771
   102    -0.089735
   103    -0.078507
   104    -0.032507
   105     0.223800
   106    -0.003471
   107    -0.081253
   108     0.009619
   109     0.020199
   110     0.047110
   111     0.026170
   112     0.012795
   113    -0.002184
   114     0.209293
   115    -1.097129
   116    -0.083376
   117     0.132917
   118    -0.031524
   119    -0.787206
   120     0.892405
   121    -0.042866
   122     0.009051
   123    -0.112696
   124     0.190090
   125     0.145718
   126    -0.051765
   127    -0.042323
   128     0.158999
   129    -0.155912
   130     0.232566
   131    -0.229870
   132    -0.076374
   133    -0.420641
   134     0.190138
   135     0.098818
   136    -0.259026
   137    -0.245954
   138     0.165010
   139    -0.052849
   140     0.078920
   141     0.156580
   142    -0.200123
   143    -0.235649
   144     0.136227
   145    -0.086847
   146     0.228855
   147    -0.142718
   148    -0.009122
   149    -0.082036
   150     0.818479
   151     0.062067
   152     0.001549
   153    -0.004399
   154     0.190665
   155    -0.075748
   156     0.452645
   157    -0.034273
   158     0.165155
   159     0.049946
   160     0.311265
   161    -0.167726
   162    -0.262197
   163    -0.002260
   164     0.015045
   165    -0.005758
   166     0.009548
   167    -0.036743
   168     0.009788
   169     0.046852
   170    -0.019132
   171    -0.032037
   172    -0.048165
   173     0.056791
   174     0.054957
   175     0.009052
   176    -0.006545
   177    -0.016836
   178    -0.535854
   179     0.191142
   180    -0.140310
   181    -0.172506
   182    -0.146640
Sym=   125a
Ene=   -0.497097E-04
Spin= Alpha
Occup= 0.000008
     1    -0.018431
     2     0.080056
     3     0.060294
     4    -0.040497
     5     0.180094
     6     0.000289
     7     0.024941
     8     0.117302
     9     0.172642
    10    -0.006873
    11    -0.001566
    12    -0.001244
    13     0.089019
    14     0.019906
    15    -0.028509
    16    -0.035629
    17     0.047497
    18    -0.035071
    19    -0.159150
    20    -0.181036
    21     0.048817
    22     0.041969
    23     0.077604
    24    -0.060578
    25    -0.002512
    26    -0.075960
    27     0.099519
    28    -1.241308
    29     0.015030
    30     0.007728
    31     0.006399
    32    -0.053393
    33    -0.063287
    34    -0.037050
    35    -0.389701
    36     0.142801
    37    -1.089555
    38     0.773221
    39     0.370841
    40    -0.445768
    41     0.074490
    42     0.044179
    43     0.069348
    44    -0.005588
    45    -0.043500
    46    -0.048477
    47     0.018465
    48    -0.000330
    49     0.053556
    50     0.288035
    51     0.021598
    52    -0.030015
    53     0.459193
    54    -0.182503
    55    -0.185911
    56     0.195158
    57    -0.312339
    58     0.291701
    59     0.002746
    60     0.000941
    61    -0.253691
    62     0.019100
    63     0.020298
    64    -0.031405
    65    -0.218671
    66     0.277081
    67    -0.245368
    68     0.144599
    69     0.020387
    70    -0.228790
    71     0.041415
    72     0.005862
    73     0.001361
    74    -0.000527
    75     0.005961
    76    -0.036463
    77     0.044559
    78    -0.001242
    79     0.013725
    80    -0.000334
    81     0.018020
    82    -0.150383
    83    -0.007978
    84     0.350135
    85    -0.026279
    86    -0.260785
    87    -0.088338
    88    -0.251837
    89     0.117539
    90     0.059455
    91    -0.040333
    92    -0.097552
    93    -0.000484
    94     0.027173
    95    -0.174028
    96     0.000575
    97     0.003235
    98     0.029441
    99    -0.049535
   100    -0.002088
   101    -0.076712
   102     0.027590
   103    -0.071828
   104     0.053234
   105     0.069763
   106     0.057693
   107    -0.025825
   108     0.007307
   109    -0.578569
   110    -0.442806
   111    -0.189570
   112     0.062727
   113     0.011136
   114    -0.377895
   115     1.961946
   116     0.041359
   117     0.004428
   118    -0.079220
   119     0.527070
   120    -0.194373
   121    -0.691293
   122     0.034037
   123    -0.220270
   124    -0.098495
   125     0.111764
   126     0.014058
   127    -0.006040
   128    -0.293036
   129     0.063944
   130    -0.361170
   131     0.262024
   132     0.222403
   133    -0.023484
   134    -0.035132
   135     0.281676
   136     0.103974
   137     0.291434
   138     0.067617
   139     0.004110
   140     0.022803
   141     0.039660
   142    -0.055023
   143    -0.300763
   144     0.387902
   145    -0.024045
   146     0.124314
   147    -0.233026
   148     0.007469
   149    -0.092856
   150     0.710411
   151     0.018606
   152    -0.003610
   153    -0.030403
   154    -0.168182
   155     0.091748
   156    -0.171569
   157    -0.006497
   158    -0.000105
   159    -0.158587
   160     0.141107
   161    -0.064861
   162     0.090189
   163    -0.006834
   164     0.025094
   165     0.027521
   166     0.026097
   167    -0.079524
   168     0.071559
   169    -0.097754
   170     0.035612
   171    -0.019582
   172     0.040126
   173     0.090072
   174     0.053835
   175    -0.098407
   176     0.062546
   177    -0.050218
   178    -0.062496
   179    -0.022396
   180     0.119642
   181    -0.024782
   182    -0.053868
Sym=   126a
Ene=   -0.981051E-04
Spin= Alpha
Occup= 0.000006
     1    -0.038346
     2     0.088641
     3    -0.028706
     4     0.052154
     5    -0.017432
     6    -0.000300
     7    -0.012881
     8    -0.324967
     9     0.278955
    10     0.004173
    11    -0.008063
    12    -0.002303
    13    -0.073542
    14     0.155969
    15     0.038780
    16     0.187604
    17    -0.214495
    18     0.014005
    19     0.020979
    20    -0.002713
    21     0.039904
    22    -0.087423
    23     0.005171
    24    -0.055383
    25     0.000612
    26     0.019363
    27    -0.013331
    28     0.017270
    29    -0.002162
    30    -0.003223
    31     0.004306
    32     0.013948
    33     0.025504
    34    -0.044290
    35    -0.044366
    36     0.055516
    37    -0.054534
    38    -0.046296
    39    -0.101082
    40    -0.062715
    41     0.005819
    42     0.014796
    43     0.004214
    44     0.005905
    45    -0.002979
    46     0.014045
    47     0.000467
    48     0.001190
    49    -0.000801
    50    -0.091289
    51    -0.011287
    52    -0.032563
    53    -0.058040
    54     0.029647
    55    -0.097865
    56    -0.011665
    57     0.018439
    58     0.011419
    59    -0.010137
    60    -0.094632
    61     0.692101
    62    -0.061611
    63     0.077223
    64    -0.005510
    65     0.310345
    66     0.144857
    67    -0.108138
    68     0.173436
    69    -0.083349
    70     0.078876
    71     0.056553
    72     0.012314
    73     0.067021
    74    -0.000477
    75    -0.016016
    76    -0.110168
    77     0.313746
    78     0.008985
    79    -0.001816
    80     0.000752
    81    -0.056540
    82    -0.021257
    83     0.014583
    84    -0.287256
    85     0.337578
    86    -0.098326
    87     0.217274
    88    -0.028976
    89    -0.024083
    90    -0.082555
    91     0.048873
    92     0.020119
    93    -0.002086
    94     0.025704
    95    -0.100949
    96     0.007728
    97     0.013761
    98     0.003856
    99    -0.059650
   100     0.006677
   101     0.047757
   102     0.015045
   103     0.024834
   104     0.013071
   105    -0.012906
   106    -0.004040
   107    -0.005782
   108     0.012366
   109    -0.150759
   110     0.010720
   111     0.005372
   112    -0.029697
   113     0.005001
   114     0.005034
   115    -0.214196
   116    -0.011756
   117    -0.006453
   118    -0.008193
   119    -0.129683
   120     0.040789
   121    -0.112574
   122    -0.026275
   123    -0.043037
   124    -0.033317
   125    -0.033293
   126    -0.032799
   127    -0.038860
   128     0.117592
   129    -0.081831
   130    -0.033234
   131    -0.051580
   132    -0.019560
   133     0.146499
   134    -0.374798
   135    -0.029206
   136     1.171194
   137    -0.264607
   138    -0.037162
   139     0.024394
   140    -0.008051
   141     0.023565
   142     0.016906
   143     0.015800
   144    -0.063001
   145     0.031642
   146     0.002842
   147     0.017811
   148     0.037361
   149    -0.089466
   150    -0.249380
   151     0.067736
   152    -0.946656
   153     0.254559
   154     0.414784
   155    -1.221396
   156     0.233000
   157    -0.171110
   158    -0.606240
   159    -0.078573
   160     0.043227
   161     0.066786
   162     0.233843
   163     0.000426
   164    -0.017344
   165     0.069851
   166    -0.009532
   167     0.009045
   168    -0.002095
   169    -0.018627
   170     0.038834
   171    -0.000132
   172    -0.008107
   173     0.011717
   174    -0.025454
   175    -0.015131
   176     0.000488
   177    -0.001405
   178    -0.157654
   179     0.009592
   180     0.003275
   181    -0.039247
   182    -0.051974
Sym=   127a
Ene=   -0.259879E-02
Spin= Alpha
Occup= 0.000150
     1    -0.005736
     2     0.019418
     3    -0.004724
     4    -0.013397
     5     0.001180
     6    -0.001343
     7     0.002434
     8     0.138110
     9     0.051556
    10    -0.004742
    11    -0.013436
    12    -0.007540
    13     0.006922
    14    -0.102567
    15     0.013431
    16     0.059212
    17    -0.042446
    18    -0.001529
    19    -0.021958
    20     0.021202
    21    -0.012845
    22    -0.005527
    23    -0.014835
    24    -0.018699
    25     0.000167
    26     0.000070
    27     0.018298
    28    -0.094857
    29    -0.000998
    30     0.001042
    31    -0.001222
    32     0.004049
    33    -0.003619
    34     0.004804
    35     0.032194
    36     0.006408
    37    -0.022954
    38     0.003958
    39     0.010459
    40     0.000698
    41    -0.002663
    42    -0.000308
    43    -0.007007
    44    -0.000321
    45     0.143787
    46     0.144801
    47     0.014858
    48    -0.019036
    49    -0.086301
    50    -0.010680
    51     0.032000
    52    -0.062913
    53    -0.000641
    54    -0.002921
    55    -0.111983
    56    -0.018270
    57     0.027691
    58    -0.012418
    59    -0.847567
    60    -3.148201
    61    -0.850032
    62     0.008617
    63    -0.060257
    64    -0.033923
    65    -0.275481
    66    -0.249260
    67    -0.215266
    68     1.685050
    69     1.614542
    70     1.675171
    71    -0.002102
    72    -0.000770
    73     0.028456
    74     0.000357
    75     0.003145
    76    -0.024894
    77    -0.038935
    78    -0.003498
    79    -0.001172
    80    -0.000189
    81     0.046944
    82     0.013706
    83    -0.001347
    84     0.031998
    85    -0.002831
    86    -0.020705
    87    -0.034989
    88     0.005680
    89    -0.004022
    90    -0.013476
    91     0.006833
    92     0.013620
    93     0.000677
    94    -0.013660
    95    -0.012562
    96     0.000645
    97    -0.004042
    98     0.000610
    99     0.037455
   100    -0.025872
   101    -0.048256
   102    -0.021215
   103    -0.001222
   104    -0.001536
   105    -0.010900
   106     0.000786
   107     0.015399
   108    -0.012760
   109     0.061855
   110    -0.004143
   111     0.003959
   112     0.000425
   113    -0.000063
   114     0.000669
   115    -0.009225
   116     0.002035
   117     0.002394
   118     0.000697
   119     0.021096
   120     0.011575
   121    -0.008111
   122     0.004591
   123    -0.000993
   124    -0.005409
   125     0.007693
   126    -0.000450
   127     0.002743
   128    -0.005695
   129    -0.009178
   130     0.000517
   131    -0.007214
   132     0.004968
   133     0.047942
   134     0.006079
   135    -0.008403
   136     0.018123
   137     0.013733
   138     0.032894
   139    -0.014748
   140     0.006345
   141    -0.019579
   142    -0.009084
   143    -0.015566
   144    -0.072244
   145    -0.020188
   146     0.011739
   147    -0.002240
   148     0.000300
   149     0.006867
   150     0.361844
   151    -0.079196
   152     0.052094
   153     0.004036
   154    -0.059744
   155     0.219139
   156     0.034557
   157    -0.116172
   158    -0.037766
   159    -0.004467
   160     0.038321
   161     0.000530
   162     0.027044
   163    -0.000807
   164    -0.009289
   165    -0.001069
   166     0.003947
   167    -0.000247
   168    -0.011429
   169     0.015856
   170    -0.011940
   171    -0.018110
   172    -0.003687
   173    -0.007120
   174     0.001933
   175     0.004453
   176    -0.003487
   177     0.007077
   178    -0.241402
   179    -0.039364
   180    -0.047453
   181    -0.016501
   182    -0.068180
Sym=   128a
Ene=   -0.253063E-02
Spin= Alpha
Occup= 0.000146
     1    -0.010596
     2     0.028193
     3     0.013979
     4     0.002704
     5     0.002393
     6    -0.002398
     7    -0.001479
     8     0.145139
     9     0.172928
    10     0.023732
    11     0.004603
    12     0.005532
    13     0.077697
    14    -0.024740
    15    -0.025499
    16     0.052511
    17    -0.136769
    18    -0.007194
    19    -0.012754
    20    -0.015303
    21    -0.012693
    22    -0.032735
    23    -0.058199
    24     0.005656
    25    -0.002115
    26    -0.007014
    27    -0.000400
    28     0.201548
    29     0.004779
    30     0.003714
    31     0.013143
    32    -0.031519
    33    -0.014047
    34     0.031344
    35    -0.069939
    36    -0.018919
    37     0.089381
    38     0.035351
    39    -0.005893
    40    -0.034387
    41     0.012846
    42    -0.024360
    43    -0.037757
    44    -0.000426
    45     0.004585
    46    -0.099740
    47     0.006856
    48    -0.002932
    49    -0.000669
    50    -0.047174
    51    -0.028032
    52     0.017380
    53     0.004157
    54     0.000613
    55    -0.010658
    56     0.004105
    57     0.001772
    58    -0.001870
    59     0.000104
    60    -0.000557
    61    -0.040561
    62     0.001729
    63     0.005321
    64    -0.002708
    65    -0.035076
    66    -0.024158
    67     0.015936
    68    -0.006286
    69    -0.001647
    70    -0.000931
    71     0.003064
    72     0.001583
    73     0.005950
    74    -0.002723
    75    -0.010573
    76     0.007846
    77     0.058874
    78    -0.006054
    79     0.021548
    80     0.001504
    81    -0.003927
    82     0.004413
    83    -0.000648
    84    -0.039549
    85     0.053553
    86     0.005107
    87     0.035878
    88    -0.040754
    89    -0.014909
    90    -0.004972
    91     0.008280
    92    -0.032353
    93    -0.002135
    94    -0.012301
    95     0.005560
    96    -0.003256
    97    -0.003041
    98    -0.001637
    99     0.005422
   100    -0.002664
   101     0.015622
   102     0.003140
   103     0.000164
   104    -0.003825
   105     0.005577
   106    -0.009168
   107     0.001655
   108    -0.028132
   109    -0.124367
   110     0.000779
   111     0.003049
   112     0.009471
   113    -0.844344
   114    -3.123782
   115    -0.780705
   116     0.037934
   117     0.027106
   118     0.021837
   119     0.288908
   120     0.257773
   121     0.238191
   122     1.634272
   123     1.667019
   124     1.639479
   125     0.040420
   126     0.045517
   127     0.037029
   128    -0.307608
   129    -0.029368
   130     0.061118
   131     0.051632
   132     0.044687
   133     0.024628
   134    -0.008068
   135    -0.000354
   136     0.013292
   137    -0.008328
   138    -0.001711
   139    -0.004880
   140     0.002113
   141    -0.001792
   142    -0.002611
   143    -0.005116
   144    -0.007626
   145    -0.001509
   146     0.001985
   147    -0.002318
   148     0.000227
   149    -0.026997
   150     0.041429
   151     0.020259
   152     0.007139
   153     0.010374
   154     0.020475
   155     0.051173
   156     0.019887
   157    -0.004270
   158    -0.013382
   159    -0.022462
   160    -0.001215
   161    -0.001489
   162     0.003796
   163     0.001545
   164    -0.000436
   165     0.025433
   166    -0.001438
   167     0.001014
   168    -0.000164
   169    -0.001620
   170     0.007752
   171    -0.002981
   172    -0.005136
   173    -0.004100
   174    -0.004104
   175    -0.001880
   176     0.000392
   177    -0.000583
   178    -0.002629
   179    -0.031473
   180     0.006071
   181     0.000858
   182    -0.001561
Sym=   129a
Ene=   -0.961404E-04
Spin= Alpha
Occup= 0.000021
     1     0.434411
     2    -0.336126
     3    -0.018029
     4    -0.224636
     5     0.014047
     6    -0.004120
     7    -0.096609
     8    -0.480257
     9     0.413210
    10     0.006449
    11     0.004874
    12    -0.011124
    13    -0.086500
    14    -0.034808
    15     0.154959
    16    -0.126740
    17     0.038712
    18    -0.112014
    19    -0.281237
    20     0.043877
    21     0.931826
    22     0.829794
    23     0.046111
    24    -0.071022
    25     0.000736
    26     0.029046
    27     0.096535
    28     0.031907
    29    -0.002703
    30    -0.004330
    31     0.000339
    32    -0.014976
    33     0.032506
    34    -0.023989
    35     0.055679
    36     0.001473
    37    -0.182216
    38    -0.157118
    39    -0.005585
    40    -0.154957
    41     0.021830
    42     0.042522
    43     0.044048
    44     0.009377
    45     0.026194
    46     0.228217
    47    -0.009211
    48    -0.008265
    49     0.049334
    50     0.029966
    51     0.037319
    52    -0.140066
    53    -0.176184
    54    -0.159877
    55     0.128448
    56    -0.013727
    57    -0.126131
    58     0.197870
    59     0.013844
    60    -0.028772
    61    -0.184197
    62     0.072995
    63    -0.079260
    64     0.022986
    65     0.720292
    66    -0.059276
    67     0.299988
    68     0.252395
    69    -0.126541
    70    -0.428515
    71    -0.050985
    72    -0.267876
    73    -0.081512
    74     0.000390
    75     0.023250
    76    -0.081524
    77     0.106973
    78    -0.013325
    79     0.007839
    80    -0.000936
    81     0.110436
    82    -0.109142
    83     0.011304
    84     0.025294
    85    -0.039645
    86    -0.070573
    87    -0.097825
    88    -0.130060
    89    -0.119165
    90    -0.027743
    91     0.046519
    92    -0.035971
    93    -0.003058
    94     0.145031
    95    -0.577750
    96     0.010722
    97     0.010418
    98     0.024171
    99    -0.201092
   100    -0.033689
   101     0.306571
   102     0.051611
   103     0.155376
   104    -0.070529
   105    -0.119227
   106     0.160576
   107     0.135771
   108     0.121873
   109    -0.401001
   110     0.143745
   111    -0.000474
   112    -0.180493
   113    -0.003255
   114    -0.093106
   115     0.402962
   116     0.131369
   117    -0.074280
   118    -0.047070
   119    -0.015990
   120    -0.490000
   121    -0.227758
   122     0.081566
   123    -0.064374
   124     0.025087
   125     0.110514
   126     0.041802
   127    -0.054167
   128     0.133873
   129    -0.002928
   130     0.037804
   131     0.008658
   132    -0.073403
   133     0.059364
   134    -0.080503
   135     0.126453
   136     0.043599
   137    -0.218024
   138    -0.087901
   139     0.022702
   140    -0.084071
   141    -0.027476
   142     0.043320
   143     0.105110
   144    -0.050903
   145     0.090551
   146     0.069776
   147    -0.003445
   148     0.022622
   149    -0.062807
   150     0.106511
   151    -0.161184
   152     0.041542
   153     0.019154
   154    -0.012099
   155     0.049370
   156     0.002346
   157    -0.084158
   158    -0.275730
   159    -0.086998
   160     0.194801
   161    -0.026948
   162    -0.105219
   163    -0.002357
   164     0.014078
   165     0.008696
   166     0.000722
   167    -0.028709
   168     0.030277
   169    -0.049860
   170     0.008970
   171    -0.017867
   172     0.019340
   173     0.020404
   174     0.036542
   175    -0.006227
   176     0.041722
   177    -0.043958
   178     0.616101
   179    -0.177339
   180     0.123890
   181     0.140716
   182     0.112387
Sym=   130a
Ene=   -0.518688E-03
Spin= Alpha
Occup= 0.000110
     1     0.006293
     2     0.128871
     3     0.015090
     4    -0.017015
     5     0.001962
     6     0.000261
     7     0.012689
     8    -0.131858
     9    -0.133815
    10     0.019288
    11    -0.003331
    12    -0.000492
    13    -0.183958
    14     0.048008
    15     0.057171
    16    -0.149662
    17    -0.195083
    18     0.188645
    19    -0.170395
    20    -0.055276
    21    -0.006289
    22     0.046843
    23     0.044043
    24     0.006544
    25    -0.047938
    26    -0.514721
    27    -1.878595
    28     0.820638
    29    -0.265227
    30    -0.075700
    31     0.054949
    32     1.157019
    33     0.330645
    34    -0.290895
    35    -1.342095
    36    -0.441021
    37     0.373800
    38     0.562969
    39     0.711044
    40     0.523428
    41    -0.104677
    42     0.054289
    43    -0.011043
    44     0.000761
    45    -0.006072
    46    -0.099564
    47     0.008577
    48     0.003913
    49    -0.022384
    50     0.000753
    51    -0.041929
    52     0.030750
    53    -0.008215
    54    -0.001919
    55    -0.012016
    56     0.000466
    57     0.006958
    58    -0.010612
    59    -0.000305
    60    -0.012523
    61     0.125868
    62    -0.011923
    63     0.005069
    64     0.006301
    65     0.024653
    66     0.024154
    67     0.024249
    68     0.011317
    69    -0.013116
    70     0.009132
    71     0.018649
    72    -0.008633
    73     0.001962
    74    -0.000268
    75     0.009084
    76     0.032350
    77    -0.252374
    78    -0.008980
    79     0.010401
    80    -0.005954
    81     0.027709
    82    -0.088011
    83     0.013261
    84     0.213861
    85    -0.096822
    86     0.140211
    87    -0.033924
    88    -0.089163
    89    -0.037694
    90     0.082306
    91    -0.105391
    92     0.090695
    93    -0.000615
    94    -0.004538
    95    -0.001096
    96    -0.004842
    97    -0.003846
    98    -0.002086
    99     0.001348
   100     0.007017
   101     0.013838
   102     0.000220
   103     0.003875
   104    -0.008944
   105     0.000547
   106    -0.005622
   107     0.003096
   108    -0.030997
   109    -0.463406
   110     0.583606
   111     0.109751
   112     0.053298
   113     0.003021
   114    -0.124270
   115     0.284608
   116    -0.018147
   117    -0.028142
   118    -0.090543
   119    -0.227804
   120    -0.255357
   121    -0.262016
   122    -0.065118
   123    -0.126529
   124     0.050766
   125    -0.050512
   126    -0.063829
   127     0.020394
   128     0.131838
   129     0.181965
   130     0.004748
   131     0.001488
   132    -0.075188
   133    -0.027965
   134    -0.016756
   135    -0.001942
   136    -0.017513
   137    -0.004693
   138    -0.006632
   139    -0.024453
   140    -0.003008
   141    -0.007120
   142     0.003137
   143     0.005669
   144     0.006277
   145     0.002940
   146    -0.000939
   147     0.001911
   148    -0.001722
   149     0.041178
   150    -0.101754
   151     0.000368
   152    -0.019797
   153     0.024273
   154     0.026783
   155    -0.131825
   156     0.054165
   157     0.023141
   158     0.011074
   159     0.034075
   160    -0.001004
   161    -0.010975
   162     0.005385
   163    -0.000738
   164     0.001408
   165    -0.018706
   166    -0.001295
   167     0.001344
   168    -0.000878
   169     0.001253
   170    -0.001128
   171     0.002129
   172     0.002920
   173     0.001778
   174     0.002822
   175     0.002429
   176    -0.000779
   177     0.002599
   178    -0.005882
   179     0.001158
   180     0.009632
   181    -0.010553
   182    -0.011595
Sym=   131a
Ene=   -0.465900E-03
Spin= Alpha
Occup= 0.000093
     1     0.044181
     2    -0.240074
     3    -0.020558
     4    -0.049352
     5     0.007702
     6     0.000801
     7     0.027749
     8     0.190888
     9    -0.294226
    10     0.023863
    11    -0.005912
    12     0.000725
    13    -0.278395
    14    -0.068403
    15     0.008187
    16    -0.278202
    17     0.447918
    18    -0.121743
    19    -0.279730
    20     0.016411
    21    -0.053383
    22     0.193091
    23     0.092855
    24    -0.003141
    25    -0.000761
    26    -0.004396
    27    -0.040669
    28    -0.399569
    29    -0.005570
    30    -0.009278
    31     0.012725
    32     0.029693
    33     0.047035
    34    -0.144600
    35     0.134793
    36     0.129456
    37    -0.256836
    38    -0.046970
    39     0.041987
    40    -0.110005
    41     0.002932
    42     0.039318
    43     0.135861
    44    -0.000005
    45     0.036979
    46    -0.084710
    47    -0.026096
    48    -0.003542
    49     0.008712
    50    -0.042367
    51    -0.000825
    52     0.053288
    53     0.026744
    54     0.004495
    55    -0.027304
    56     0.008402
    57    -0.037976
    58    -0.026202
    59    -0.004703
    60     0.112155
    61    -0.553440
    62    -0.052537
    63    -0.045041
    64     0.001202
    65    -0.501301
    66    -0.250538
    67     0.009577
    68    -0.024123
    69     0.090973
    70     0.073310
    71    -0.027323
    72     0.017513
    73    -0.016623
    74    -0.042191
    75    -0.409112
    76    -1.806052
    77     0.295365
    78    -0.248468
    79     0.118138
    80     0.020692
    81     1.217273
    82    -0.538968
    83    -0.104748
    84    -0.422887
    85     0.382934
    86    -0.007640
    87    -0.255908
    88     0.532776
    89     0.601990
    90     0.344518
    91    -0.029641
    92    -0.008648
    93     0.001345
    94    -0.059236
    95     0.269526
    96    -0.000571
    97     0.006822
    98     0.014506
    99     0.021356
   100    -0.039714
   101    -0.053849
   102    -0.022869
   103    -0.018019
   104    -0.018876
   105    -0.012616
   106    -0.009537
   107     0.004628
   108     0.058237
   109     0.129943
   110     0.003130
   111     0.003970
   112    -0.011720
   113     0.007297
   114    -0.378382
   115     1.286830
   116     0.037194
   117    -0.197136
   118     0.002416
   119    -0.326206
   120    -0.885969
   121    -0.430384
   122    -0.260802
   123     0.174771
   124    -0.340407
   125    -0.161487
   126    -0.111284
   127     0.027701
   128     0.338026
   129    -0.040240
   130    -0.144306
   131    -0.068570
   132     0.024118
   133     0.232273
   134     0.084149
   135    -0.038853
   136     0.061488
   137    -0.049212
   138    -0.032725
   139     0.021604
   140    -0.001678
   141     0.003999
   142     0.007797
   143     0.017972
   144    -0.028723
   145    -0.013025
   146     0.003291
   147    -0.017858
   148    -0.001232
   149    -0.276426
   150     1.104190
   151     0.092063
   152     0.055567
   153     0.010627
   154     0.326113
   155     0.939220
   156    -0.075290
   157     0.057637
   158     0.002973
   159    -0.263539
   160     0.244328
   161    -0.025056
   162     0.031988
   163    -0.000453
   164    -0.025059
   165     0.085060
   166     0.006544
   167    -0.001388
   168    -0.008699
   169     0.023821
   170     0.013786
   171    -0.029492
   172    -0.015010
   173    -0.002267
   174    -0.008598
   175     0.003744
   176    -0.004777
   177     0.003285
   178    -0.050276
   179     0.073557
   180     0.018604
   181     0.020259
   182    -0.037521
Sym=   132a
Ene=   -0.599132E-04
Spin= Alpha
Occup= 0.000003
     1    -0.038876
     2    -0.172607
     3     0.008033
     4    -0.045134
     5    -0.065126
     6     0.000429
     7     0.028297
     8     0.279462
     9    -0.732893
    10    -0.000726
    11    -0.000561
    12     0.008788
    13     0.012947
    14    -0.043885
    15    -0.122406
    16    -0.195524
    17     0.581621
    18    -0.466341
    19    -0.050781
    20     0.044109
    21    -0.354675
    22    -0.033504
    23     0.047245
    24     0.106246
    25     0.000121
    26     0.003076
    27     0.097665
    28    -0.393839
    29    -0.000939
    30    -0.000277
    31    -0.001331
    32     0.002571
    33    -0.000954
    34     0.015306
    35     0.134092
    36     0.056256
    37    -0.164609
    38    -0.010323
    39     0.027716
    40    -0.041543
    41     0.014409
    42    -0.029705
    43     0.020284
    44    -0.012429
    45     0.055488
    46     0.709735
    47     0.001254
    48    -0.094409
    49    -0.106018
    50    -0.310174
    51     0.299206
    52     0.007541
    53     0.162987
    54     0.040228
    55     0.115853
    56    -0.245768
    57    -0.139178
    58     0.000328
    59    -0.000501
    60     0.046861
    61    -0.083458
    62    -0.018451
    63    -0.022197
    64     0.031836
    65    -0.094233
    66    -0.086870
    67    -0.137637
    68     0.010185
    69     0.019136
    70    -0.008044
    71     0.034771
    72     0.032121
    73     0.042045
    74    -0.000516
    75    -0.013432
    76    -0.113051
    77     0.328466
    78    -0.001282
    79     0.001671
    80    -0.000125
    81     0.028573
    82    -0.017870
    83    -0.003428
    84    -0.173402
    85     0.111318
    86    -0.048104
    87     0.020627
    88     0.004941
    89     0.067484
    90    -0.015188
    91     0.003071
    92    -0.026236
    93    -0.053947
    94     0.130713
    95    -0.325015
    96    -0.548217
    97     0.223133
    98     0.464298
    99     0.752976
   100     0.103483
   101    -0.601103
   102     0.324303
   103     0.329905
   104     0.359646
   105    -0.135489
   106    -0.230097
   107     0.084900
   108    -0.004238
   109     0.230203
   110     0.022688
   111     0.022469
   112     0.043035
   113     0.001749
   114    -0.067171
   115     0.306391
   116    -0.015366
   117     0.002739
   118     0.001771
   119    -0.115786
   120    -0.020233
   121     0.005700
   122    -0.027415
   123    -0.033387
   124     0.004456
   125     0.016291
   126    -0.016411
   127    -0.007645
   128    -0.037830
   129     0.153608
   130    -0.000627
   131    -0.020115
   132    -0.012854
   133    -0.015693
   134     0.043778
   135    -0.009493
   136    -0.011902
   137    -0.009198
   138     0.018358
   139     0.164795
   140    -0.634113
   141     0.473855
   142     0.740456
   143    -0.131235
   144    -0.358299
   145    -0.064436
   146    -0.021077
   147     0.008055
   148    -0.002365
   149    -0.034855
   150     0.167856
   151     0.001981
   152     0.003354
   153     0.004132
   154    -0.068418
   155     0.094843
   156     0.092121
   157    -0.008090
   158     0.023203
   159     0.015772
   160    -0.025181
   161    -0.027778
   162     0.002991
   163     0.001414
   164     0.004950
   165    -0.027758
   166     0.023476
   167    -0.006381
   168    -0.010822
   169     0.090619
   170    -0.080769
   171     0.011062
   172     0.004236
   173    -0.007187
   174    -0.025957
   175     0.020480
   176     0.020287
   177     0.040151
   178    -0.096695
   179     0.051461
   180    -0.051721
   181    -0.009775
   182    -0.017568
Sym=   133a
Ene=   -0.110900E-04
Spin= Alpha
Occup= 0.000001
     1    -0.001621
     2     0.300968
     3     0.193036
     4    -0.204074
     5    -0.167686
     6     0.000945
     7     0.069018
     8    -0.058434
     9    -0.003047
    10    -0.001201
    11    -0.001337
    12     0.007288
    13    -0.047571
    14     0.064173
    15    -0.159300
    16     0.010202
    17    -0.066669
    18     0.028437
    19    -0.360466
    20    -0.228047
    21    -0.404581
    22     0.018734
    23     0.082781
    24     0.273239
    25    -0.000093
    26     0.003615
    27    -0.036803
    28    -0.000911
    29    -0.002340
    30    -0.000625
    31     0.004219
    32     0.021402
    33     0.010127
    34    -0.049068
    35     0.090000
    36    -0.054943
    37    -0.037680
    38    -0.029187
    39     0.012608
    40    -0.076115
    41    -0.001099
    42     0.042448
    43    -0.017289
    44     0.037337
    45    -0.515436
    46    -0.192999
    47    -0.072309
    48     0.093248
    49     0.151365
    50     0.532822
    51    -0.140562
    52    -0.019914
    53    -0.458316
    54    -0.581914
    55    -0.128965
    56    -0.443421
    57    -0.446245
    58    -0.105482
    59    -0.000564
    60    -0.039298
    61     0.172025
    62    -0.029014
    63    -0.010317
    64     0.025437
    65     0.043013
    66    -0.005664
    67    -0.071205
    68     0.067051
    69     0.010014
    70    -0.091963
    71    -0.005122
    72     0.010250
    73     0.035074
    74    -0.000127
    75    -0.003047
    76     0.038932
    77    -0.138933
    78    -0.000380
    79    -0.000933
    80    -0.001099
    81    -0.005888
    82     0.004644
    83     0.006300
    84     0.065063
    85    -0.068582
    86     0.060982
    87     0.008098
    88     0.032671
    89    -0.006643
    90     0.062537
    91    -0.017038
    92     0.024478
    93     0.008160
    94    -0.279088
    95     1.044591
    96     0.060033
    97     0.034888
    98     0.069849
    99    -0.176374
   100    -0.591028
   101    -0.669963
   102    -0.176068
   103     0.130107
   104    -0.209633
   105     0.098457
   106     0.032550
   107     0.053688
   108     0.008085
   109     0.116098
   110    -0.009051
   111     0.090835
   112     0.049471
   113     0.007380
   114    -0.116510
   115     0.452425
   116    -0.029864
   117     0.033404
   118    -0.006058
   119    -0.408424
   120    -0.040871
   121    -0.189243
   122    -0.030232
   123    -0.077650
   124    -0.074582
   125    -0.037637
   126    -0.035934
   127    -0.033896
   128     0.120916
   129     0.072677
   130     0.014442
   131    -0.139203
   132    -0.060391
   133     0.028811
   134    -0.040266
   135     0.004038
   136    -0.000746
   137     0.048625
   138     0.125718
   139     0.048199
   140     0.235967
   141    -0.067550
   142     0.161809
   143     0.264974
   144     0.749389
   145     0.565899
   146    -0.591787
   147    -0.479068
   148    -0.002625
   149     0.076978
   150    -0.334012
   151     0.014514
   152    -0.007374
   153    -0.040687
   154     0.113625
   155    -0.089449
   156    -0.148762
   157    -0.012342
   158     0.049797
   159     0.028858
   160     0.025784
   161     0.015356
   162     0.028349
   163     0.003434
   164    -0.084878
   165     0.323417
   166    -0.070442
   167     0.062674
   168    -0.066324
   169    -0.264807
   170     0.274236
   171    -0.253745
   172    -0.051866
   173    -0.020202
   174    -0.036028
   175    -0.030917
   176     0.078806
   177    -0.072009
   178    -0.035463
   179    -0.058248
   180    -0.032474
   181    -0.026966
   182     0.044951
Sym=   134a
Ene=   -0.189602E-05
Spin= Alpha
Occup= 0.000000
     1    -0.037057
     2     0.557761
     3     0.227108
     4    -0.086016
     5    -0.260087
     6     0.000506
     7     0.022356
     8     0.110054
     9    -0.667721
    10     0.002825
    11     0.000607
    12     0.002539
    13     0.010788
    14     0.007043
    15    -0.142514
    16    -0.876167
    17    -0.457258
    18     2.205667
    19    -0.164468
    20    -0.094922
    21     0.034056
    22     0.129733
    23    -0.124562
    24    -0.185724
    25     0.000464
    26     0.023976
    27    -0.020584
    28    -0.017795
    29    -0.006819
    30     0.006453
    31     0.003849
    32     0.067414
    33    -0.061133
    34    -0.041834
    35     0.006456
    36     0.420770
    37     0.045203
    38    -0.088148
    39    -0.054240
    40    -0.160386
    41    -0.086080
    42    -0.112738
    43     0.053036
    44    -0.024244
    45     0.261845
    46    -1.210363
    47     0.026097
    48    -0.137542
    49    -0.092804
    50    -0.400394
    51    -0.145090
    52     0.057690
    53     0.169534
    54     0.301155
    55     0.135445
    56    -0.119037
    57    -0.069157
    58     0.075351
    59     0.007471
    60    -0.084316
    61     0.774171
    62     0.008536
    63     0.031008
    64    -0.023839
    65     0.273440
    66    -0.044271
    67    -0.326943
    68    -0.034055
    69    -0.045305
    70    -0.076676
    71     0.011227
    72    -0.000679
    73    -0.016450
    74    -0.000589
    75    -0.016432
    76    -0.124590
    77     0.495697
    78     0.003462
    79    -0.002186
    80    -0.000177
    81    -0.015961
    82     0.018032
    83     0.014880
    84    -0.194637
    85     0.318614
    86    -0.184451
    87     0.036490
    88     0.040907
    89     0.070652
    90    -0.079703
    91     0.045566
    92    -0.022992
    93    -0.016313
    94     0.399324
    95    -2.374187
    96     0.001750
    97     0.007542
    98    -0.088917
    99     0.689424
   100    -0.561515
   101    -0.309583
   102     0.093641
   103     0.163563
   104     0.137858
   105     0.108447
   106     0.267450
   107    -0.248956
   108    -0.148558
   109     1.514682
   110     0.019775
   111     0.098642
   112     0.118694
   113     0.000906
   114    -0.071807
   115     0.567402
   116    -0.006632
   117     0.053142
   118    -0.077294
   119    -0.101935
   120     0.358476
   121    -0.231045
   122     0.021006
   123     0.009393
   124    -0.048949
   125     0.033006
   126     0.015396
   127     0.046249
   128    -0.042838
   129    -0.256294
   130     0.111749
   131    -0.011816
   132     0.075178
   133    -0.064727
   134    -0.016762
   135    -0.078955
   136    -0.057575
   137     0.026590
   138     0.812918
   139     0.602007
   140     0.399720
   141    -0.425813
   142    -0.303127
   143    -0.049176
   144    -0.133276
   145    -0.117439
   146    -0.023615
   147     0.032914
   148    -0.002854
   149     0.008956
   150    -0.241699
   151     0.008320
   152     0.000481
   153     0.007717
   154     0.249785
   155    -0.231377
   156     0.153489
   157    -0.019349
   158     0.051179
   159     0.021528
   160     0.003585
   161    -0.030790
   162     0.000813
   163     0.005007
   164    -0.063171
   165     0.315322
   166     0.014199
   167    -0.027305
   168     0.011407
   169     0.075024
   170    -0.088420
   171     0.069178
   172    -0.028176
   173    -0.044101
   174    -0.067281
   175     0.012331
   176    -0.017606
   177     0.048851
   178    -0.103224
   179     0.074071
   180    -0.096806
   181    -0.018486
   182     0.069143
Sym=   135a
Ene=   -0.127595E-05
Spin= Alpha
Occup= 0.000000
     1     0.090907
     2     0.036801
     3     0.053641
     4     0.010008
     5    -0.015866
     6     0.000678
     7     0.033734
     8    -0.284556
     9     0.639802
    10    -0.000880
    11     0.001906
    12     0.002008
    13    -0.017870
    14     0.023657
    15    -0.019947
    16     0.094043
    17    -0.493323
    18     0.396612
    19    -0.347793
    20     0.024520
    21     0.013287
    22     0.008857
    23    -0.086370
    24    -0.005946
    25     0.000735
    26     0.023849
    27    -0.010025
    28     0.117386
    29    -0.002844
    30     0.000772
    31     0.004205
    32     0.021017
    33    -0.008487
    34    -0.041330
    35    -0.038794
    36     0.063542
    37    -0.012496
    38    -0.057156
    39    -0.077004
    40    -0.122894
    41     0.010607
    42    -0.038188
    43    -0.005946
    44     0.016144
    45    -0.258918
    46     1.911215
    47     0.007399
    48    -0.024206
    49     0.154208
    50    -1.370593
    51     2.062754
    52     0.109856
    53    -0.252570
    54     0.079345
    55    -0.210385
    56     0.365374
    57     0.006474
    58     0.245421
    59     0.000510
    60    -0.056376
    61    -0.073630
    62     0.006198
    63    -0.077520
    64     0.024021
    65     0.635378
    66    -0.459293
    67     0.565773
    68    -0.032887
    69     0.000320
    70    -0.027296
    71    -0.046136
    72    -0.099098
    73    -0.109739
    74     0.000240
    75     0.007960
    76    -0.004550
    77     0.060246
    78     0.002972
    79    -0.001411
    80     0.000138
    81    -0.034255
    82     0.011071
    83     0.002107
    84     0.056387
    85     0.133456
    86    -0.041399
    87    -0.006781
    88    -0.053757
    89    -0.016273
    90    -0.045893
    91     0.031958
    92    -0.024987
    93    -0.003419
    94     0.188076
    95    -0.762864
    96    -0.048177
    97     0.034636
    98    -0.027380
    99    -0.088411
   100     0.528159
   101     0.650704
   102     0.067610
   103     0.009608
   104     0.097129
   105    -0.105344
   106    -0.142909
   107     0.027178
   108    -0.044040
   109     0.055037
   110     0.023043
   111     0.037079
   112    -0.005101
   113     0.001879
   114    -0.078687
   115     0.622126
   116    -0.005896
   117     0.008715
   118    -0.040722
   119     0.110775
   120     0.366584
   121     0.079406
   122     0.062583
   123    -0.014532
   124    -0.058351
   125     0.061399
   126     0.051277
   127     0.094396
   128    -0.137584
   129    -0.688420
   130     0.194228
   131     0.095809
   132     0.124476
   133    -0.122767
   134    -0.245369
   135    -0.100960
   136    -0.185093
   137     0.128483
   138    -0.132854
   139    -1.556175
   140    -0.148834
   141     0.312591
   142     0.231070
   143     0.202092
   144    -1.903347
   145    -0.008587
   146    -0.236926
   147    -0.009828
   148    -0.000687
   149     0.007155
   150    -0.147868
   151     0.000693
   152     0.007521
   153     0.021065
   154     0.327913
   155    -0.522408
   156     0.100036
   157    -0.063341
   158     0.111100
   159    -0.007915
   160     0.012170
   161     0.037854
   162    -0.062684
   163     0.008481
   164    -0.257407
   165     1.270791
   166     0.017449
   167    -0.109599
   168    -0.057852
   169    -0.013413
   170    -0.092207
   171    -0.442388
   172    -0.137856
   173    -0.080560
   174    -0.092708
   175    -0.045728
   176     0.045562
   177    -0.059755
   178     0.160180
   179     0.505809
   180     0.117310
   181     0.127490
   182     0.193633
Sym=   136a
Ene=   -0.146307E-05
Spin= Alpha
Occup= 0.000000
     1     0.245626
     2    -2.672172
     3    -0.253170
     4     0.087986
     5    -0.035680
     6     0.000377
     7     0.030151
     8     1.339976
     9    -4.156309
    10     0.003258
    11    -0.011069
    12     0.012669
    13     0.024669
    14     0.091734
    15    -0.191190
    16    -1.985001
    17     5.016832
    18    -1.226281
    19     0.030229
    20    -0.439124
    21    -0.092733
    22    -0.288540
    23     0.156196
    24     0.047978
    25    -0.000292
    26    -0.008298
    27     0.309078
    28    -1.449038
    29     0.002126
    30    -0.004204
    31    -0.003644
    32    -0.044228
    33     0.032395
    34     0.060116
    35     0.565827
    36     0.215496
    37    -0.370772
    38    -0.057647
    39     0.102970
    40     0.054759
    41     0.050478
    42    -0.016124
    43     0.039534
    44     0.009431
    45    -0.454500
    46     2.640627
    47     0.036651
    48     0.008811
    49    -0.064116
    50     0.623258
    51     1.228477
    52     0.161001
    53    -0.390430
    54     0.138315
    55    -0.111204
    56    -0.011479
    57    -0.009836
    58     0.162728
    59     0.011567
    60    -0.405440
    61     2.258261
    62     0.013700
    63     0.086574
    64    -0.049573
    65     0.472094
    66     0.818664
    67     0.146591
    68    -0.129874
    69    -0.078513
    70    -0.129641
    71    -0.005583
    72    -0.064243
    73    -0.022863
    74     0.000133
    75     0.008973
    76    -0.577149
    77     3.088031
    78    -0.009532
    79     0.010670
    80     0.000096
    81     0.110442
    82    -0.135363
    83    -0.008293
    84    -1.686919
    85     0.556308
    86    -0.080716
    87     0.224516
    88    -0.203868
    89    -0.190057
    90    -0.035769
    91    -0.036609
    92    -0.094628
    93     0.010905
    94    -0.022497
    95    -0.316323
    96    -0.100083
    97    -0.058283
    98    -0.029901
    99     1.102605
   100    -0.110429
   101    -0.670569
   102    -0.091454
   103    -0.139485
   104    -0.072509
   105     0.141006
   106     0.146231
   107    -0.137879
   108    -0.029192
   109     1.429765
   110     0.126911
   111    -0.163070
   112     0.152998
   113     0.009258
   114    -0.218470
   115     1.278612
   116    -0.031823
   117    -0.055114
   118     0.076187
   119    -0.304104
   120    -0.207514
   121     0.283487
   122    -0.100514
   123    -0.104099
   124    -0.025902
   125     0.036957
   126     0.010933
   127    -0.013147
   128    -0.125008
   129     0.240492
   130    -0.028478
   131     0.050684
   132    -0.047730
   133     0.111534
   134    -0.143035
   135    -0.024638
   136     0.026120
   137    -0.017282
   138     0.613448
   139     0.275284
   140     0.332624
   141    -0.279049
   142    -0.309925
   143     0.198207
   144    -0.076247
   145     0.197753
   146    -0.110222
   147    -0.067083
   148    -0.002634
   149     0.084595
   150    -0.893176
   151    -0.026514
   152     0.009765
   153     0.010924
   154    -0.104640
   155    -0.125135
   156     0.013856
   157     0.024751
   158    -0.043561
   159     0.072711
   160     0.008014
   161    -0.004688
   162     0.007235
   163    -0.002328
   164     0.018410
   165    -0.105799
   166    -0.003891
   167    -0.046926
   168    -0.068773
   169    -0.040080
   170    -0.088952
   171    -0.248584
   172     0.017052
   173     0.036996
   174     0.006585
   175    -0.009361
   176     0.024000
   177    -0.042226
   178    -0.057067
   179     0.971586
   180     0.098982
   181     0.025135
   182     0.109218
Sym=   137a
Ene=   -0.143998E-01
Spin= Alpha
Occup= 0.041373
     1    -0.003844
     2     0.104088
     3     0.001590
     4     0.000154
     5    -0.000450
     6    -0.001854
     7    -0.013160
     8    -0.017180
     9     0.094709
    10     0.018617
    11     0.010680
    12    -0.002197
    13    -0.007833
    14    -0.031264
    15    -0.002565
    16     0.000559
    17    -0.181837
    18     0.077437
    19     0.020819
    20     0.017872
    21    -0.001259
    22    -0.019618
    23     0.008481
    24     0.009435
    25     0.008108
    26     0.051420
    27     0.148457
    28     0.147992
    29    -0.024357
    30     0.035022
    31    -0.023433
    32     0.061860
    33    -0.100669
    34     0.079199
    35     0.088673
    36    -0.107675
    37     0.131811
    38     0.001557
    39     0.050133
    40     0.006670
    41     0.042036
    42     0.012404
    43    -0.042867
    44    -0.002066
    45     0.001815
    46    -0.115975
    47     0.004865
    48    -0.000138
    49    -0.012177
    50    -0.070703
    51    -0.048584
    52     0.025702
    53     0.003246
    54    -0.002084
    55    -0.005093
    56    -0.001728
    57    -0.001682
    58    -0.001036
    59     0.003117
    60     0.019574
    61    -0.091509
    62    -0.031409
    63     0.002480
    64     0.001191
    65    -0.059204
    66    -0.027600
    67     0.020132
    68    -0.003008
    69     0.004451
    70     0.003347
    71    -0.002675
    72     0.002172
    73    -0.000939
    74    -0.003396
    75    -0.024752
    76     0.019810
    77    -0.284529
    78     0.062579
    79     0.176496
    80    -0.028523
    81    -0.162171
    82    -0.399586
    83     0.061031
    84    -0.123403
    85    -0.801507
    86     0.130596
    87    -0.265140
    88     0.269898
    89     0.023405
    90    -0.378965
    91     0.058311
    92    -0.027332
    93    -0.000223
    94    -0.003405
    95     0.010643
    96     0.002234
    97     0.000895
    98     0.000179
    99    -0.001318
   100    -0.018112
   101     0.003030
   102    -0.001270
   103    -0.000610
   104    -0.000624
   105     0.000324
   106     0.000051
   107    -0.000482
   108    -0.010506
   109     0.029475
   110    -0.002540
   111    -0.003998
   112    -0.001087
   113     0.015856
   114     0.014258
   115     0.192819
   116    -0.027439
   117     0.023924
   118     0.008952
   119     0.163636
   120    -0.137963
   121     0.065332
   122    -0.002618
   123    -0.016547
   124     0.008266
   125     0.013391
   126    -0.003259
   127     0.003849
   128     0.006979
   129     0.073617
   130     0.002740
   131    -0.002341
   132     0.001725
   133     0.012003
   134    -0.033905
   135    -0.003992
   136    -0.003934
   137    -0.003571
   138    -0.004327
   139     0.002502
   140     0.000922
   141     0.000202
   142    -0.000294
   143     0.003563
   144    -0.029205
   145    -0.001073
   146     0.001248
   147    -0.000828
   148    -0.020703
   149     0.021487
   150    -0.225892
   151     0.071992
   152    -0.005805
   153    -0.004502
   154    -0.164344
   155     0.074435
   156    -0.008245
   157     0.025685
   158     0.005620
   159     0.002913
   160     0.006524
   161    -0.001207
   162     0.006305
   163     0.000013
   164    -0.003361
   165     0.015825
   166     0.000219
   167     0.000447
   168     0.000270
   169     0.008474
   170     0.003682
   171    -0.004654
   172    -0.001271
   173    -0.000738
   174    -0.001150
   175    -0.000137
   176     0.000134
   177     0.000151
   178    -0.010004
   179    -0.029400
   180     0.002827
   181     0.001236
   182    -0.004769
Sym=   138a
Ene=   -0.228721E-01
Spin= Alpha
Occup= 0.075994
     1     0.020039
     2    -0.042564
     3    -0.001367
     4     0.001213
     5     0.002406
     6    -0.001343
     7    -0.007933
     8     0.026422
     9     0.081877
    10     0.012164
    11    -0.003449
    12    -0.007661
    13    -0.003523
    14     0.000780
    15     0.009756
    16    -0.010282
    17     0.046238
    18    -0.115333
    19     0.020447
    20     0.016262
    21    -0.020192
    22     0.001901
    23    -0.015361
    24     0.000317
    25    -0.000047
    26    -0.000351
    27     0.034210
    28     0.067222
    29     0.126929
    30     0.052128
    31     0.163570
    32    -0.301248
    33    -0.125494
    34    -0.375111
    35    -0.473298
    36    -0.144893
    37    -0.552087
    38    -0.294494
    39    -0.014965
    40     0.312544
    41    -0.105654
    42    -0.074965
    43    -0.002916
    44    -0.003606
    45    -0.005816
    46    -0.001613
    47     0.008426
    48    -0.001016
    49    -0.013166
    50     0.030195
    51     0.004554
    52     0.002161
    53     0.000541
    54     0.000387
    55    -0.000320
    56     0.001094
    57     0.001120
    58    -0.003280
    59     0.006527
    60     0.010927
    61     0.032372
    62    -0.013109
    63    -0.016279
    64     0.012659
    65     0.010075
    66     0.025201
    67    -0.020337
    68     0.001178
    69    -0.000608
    70    -0.000494
    71    -0.002202
    72     0.001162
    73     0.001763
    74     0.004433
    75     0.029879
    76     0.110858
    77    -0.014924
    78    -0.011184
    79     0.002149
    80     0.000083
    81     0.021856
    82     0.008916
    83    -0.008926
    84     0.070899
    85     0.011267
    86    -0.013714
    87     0.012539
    88     0.018499
    89    -0.017284
    90    -0.007701
    91     0.015331
    92    -0.000401
    93     0.001639
    94     0.001103
    95     0.018667
    96     0.010813
    97     0.000544
    98     0.001612
    99     0.017242
   100     0.005998
   101     0.004848
   102    -0.002029
   103    -0.000195
   104     0.000614
   105     0.000051
   106     0.000005
   107    -0.000242
   108    -0.084792
   109    -0.581971
   110     0.019110
   111     0.002992
   112    -0.003027
   113     0.030629
   114     0.058198
   115     0.194409
   116    -0.033799
   117    -0.014088
   118     0.110145
   119     0.096859
   120     0.059216
   121    -0.172216
   122     0.002665
   123     0.004576
   124    -0.011350
   125    -0.003018
   126     0.003965
   127     0.005026
   128    -0.005792
   129     0.043189
   130     0.001599
   131     0.001797
   132    -0.007057
   133     0.002552
   134     0.008275
   135     0.000257
   136     0.000742
   137    -0.000393
   138    -0.008577
   139     0.015923
   140     0.001479
   141     0.000147
   142     0.000472
   143     0.002705
   144     0.029768
   145     0.000002
   146     0.000135
   147     0.000033
   148    -0.000114
   149    -0.001086
   150     0.017875
   151     0.010040
   152    -0.000604
   153    -0.005655
   154     0.010026
   155     0.007577
   156     0.015642
   157     0.000334
   158    -0.001014
   159    -0.001127
   160    -0.001622
   161    -0.000081
   162    -0.000218
   163     0.000402
   164     0.001510
   165    -0.003950
   166    -0.001079
   167    -0.000258
   168     0.004354
   169     0.000391
   170    -0.001258
   171    -0.004344
   172     0.000202
   173     0.000214
   174     0.000039
   175    -0.000025
   176     0.000057
   177     0.000234
   178     0.002197
   179    -0.012644
   180    -0.000588
   181     0.000409
   182    -0.000387
Sym=   139a
Ene=   -0.256965E-02
Spin= Alpha
Occup= 0.002076
     1    -0.091995
     2     0.050322
     3    -0.001026
     4     0.000495
     5     0.002164
     6    -0.002268
     7    -0.003505
     8    -0.062443
     9     0.135484
    10     0.007889
    11    -0.027669
    12    -0.001845
    13    -0.014506
    14     0.183277
    15    -0.007446
    16     0.006152
    17     0.006729
    18    -0.012972
    19    -0.014521
    20    -0.138545
    21    -0.034017
    22    -0.076338
    23    -0.005339
    24    -0.016549
    25    -0.000116
    26     0.000467
    27    -0.003394
    28     0.100617
    29     0.001638
    30    -0.004973
    31     0.005028
    32    -0.010458
    33     0.014703
    34    -0.019351
    35    -0.039807
    36    -0.039849
    37     0.040091
    38    -0.038356
    39    -0.008565
    40     0.032945
    41    -0.001718
    42    -0.003673
    43     0.009534
    44    -0.009047
    45    -0.122358
    46    -0.193976
    47     0.209561
    48    -0.046767
    49    -0.125972
    50    -0.046125
    51     0.029125
    52     0.100224
    53    -0.010592
    54    -0.044114
    55    -0.113579
    56    -0.017769
    57     0.018666
    58     0.019587
    59    -0.023999
    60    -0.547319
    61     1.379836
    62     0.384662
    63    -0.188374
    64     0.088118
    65     0.549604
    66    -0.276988
    67     0.220996
    68    -0.401279
    69    -0.070199
    70     0.148229
    71     0.210231
    72     0.165097
    73    -0.077140
    74    -0.007484
    75    -0.048519
    76    -0.136290
    77     0.133018
    78     0.002507
    79     0.002336
    80     0.004666
    81    -0.062086
    82    -0.004652
    83    -0.019751
    84     0.162211
    85    -0.085317
    86     0.055707
    87    -0.049150
    88     0.075940
    89    -0.063391
    90    -0.041693
    91    -0.002981
    92    -0.019396
    93     0.002058
    94     0.012505
    95     0.011164
    96     0.007279
    97    -0.009829
    98     0.006287
    99    -0.017904
   100     0.003359
   101    -0.034843
   102     0.000912
   103    -0.000124
   104     0.009231
   105     0.001602
   106     0.004851
   107     0.004662
   108     0.052351
   109    -0.167006
   110     0.020916
   111    -0.004679
   112     0.002829
   113     0.005717
   114     0.065319
   115    -0.127582
   116     0.043774
   117    -0.001704
   118    -0.032995
   119     0.065281
   120     0.048978
   121    -0.031359
   122     0.014913
   123     0.001795
   124    -0.001863
   125    -0.031648
   126    -0.003537
   127     0.002686
   128     0.013460
   129    -0.028774
   130     0.003149
   131     0.001591
   132     0.006053
   133    -0.121194
   134    -0.133205
   135     0.015168
   136    -0.010727
   137    -0.087542
   138    -0.006855
   139    -0.018978
   140     0.000774
   141     0.004002
   142     0.002409
   143    -0.102304
   144     0.148716
   145    -0.000567
   146     0.017949
   147    -0.022926
   148    -0.022013
   149    -0.329796
   150     0.219760
   151    -0.328686
   152     0.121733
   153     0.034964
   154    -0.250151
   155     0.038431
   156     0.029728
   157    -0.300573
   158     0.024897
   159     0.017774
   160     0.236602
   161    -0.060783
   162     0.001115
   163     0.010124
   164     0.061582
   165    -0.025699
   166    -0.015111
   167    -0.019600
   168     0.060439
   169    -0.056801
   170    -0.002037
   171     0.103143
   172     0.010017
   173     0.007320
   174    -0.009217
   175    -0.008834
   176     0.003878
   177    -0.011601
   178    -0.285704
   179     0.047543
   180    -0.002931
   181     0.033402
   182    -0.057023
Sym=   140a
Ene=   -0.515681E-02
Spin= Alpha
Occup= 0.008071
     1    -0.574523
     2     1.200622
     3    -0.254931
     4     0.326575
     5    -0.096446
     6    -0.013152
     7    -0.088475
     8    -0.599924
     9     0.192189
    10    -0.060984
    11     0.076778
    12    -0.031910
    13     0.230937
    14    -0.290210
    15     0.119062
    16     0.010916
    17    -0.022602
    18     0.039642
    19     0.027768
    20    -0.064260
    21     0.098512
    22     0.217023
    23    -0.070807
    24     0.113948
    25    -0.001078
    26    -0.007176
    27     0.002303
    28    -0.022473
    29    -0.001278
    30     0.006140
    31     0.002720
    32    -0.007511
    33    -0.017803
    34    -0.006551
    35     0.019835
    36    -0.005335
    37    -0.009407
    38     0.011339
    39    -0.008512
    40     0.004524
    41     0.004861
    42    -0.002222
    43    -0.004936
    44    -0.001646
    45    -0.007311
    46     0.044597
    47    -0.005840
    48    -0.004562
    49    -0.008778
    50    -0.035023
    51     0.015412
    52    -0.014257
    53     0.001895
    54    -0.002668
    55    -0.001475
    56     0.003883
    57     0.001918
    58     0.000563
    59    -0.001093
    60    -0.000021
    61    -0.016701
    62    -0.009944
    63     0.008761
    64    -0.002101
    65     0.029120
    66    -0.020853
    67     0.022731
    68    -0.000534
    69    -0.003324
    70    -0.000561
    71     0.002304
    72     0.000328
    73     0.000809
    74     0.000913
    75     0.006143
    76     0.012327
    77    -0.038508
    78     0.002080
    79    -0.001815
    80     0.000916
    81     0.000920
    82     0.000901
    83    -0.002561
    84     0.000122
    85    -0.005222
    86    -0.007788
    87    -0.010493
    88    -0.001044
    89     0.007683
    90    -0.005188
    91     0.006832
    92    -0.004877
    93    -0.001157
    94     0.017358
    95    -0.070380
    96     0.001210
    97    -0.003886
    98    -0.001147
    99    -0.000738
   100    -0.024291
   101     0.059756
   102     0.001257
   103     0.003529
   104     0.001273
   105    -0.001968
   106    -0.001007
   107    -0.001065
   108    -0.005084
   109    -0.053025
   110     0.000930
   111     0.005621
   112    -0.001434
   113    -0.002006
   114    -0.001616
   115    -0.000507
   116    -0.007424
   117     0.010036
   118    -0.000695
   119     0.031290
   120    -0.027812
   121    -0.001580
   122    -0.006725
   123    -0.000749
   124     0.000667
   125     0.004599
   126    -0.000735
   127    -0.001255
   128    -0.003154
   129    -0.021766
   130    -0.004293
   131     0.000211
   132    -0.001767
   133     0.009427
   134     0.005234
   135    -0.001381
   136     0.002089
   137    -0.001833
   138    -0.021177
   139    -0.038899
   140     0.001350
   141     0.000618
   142    -0.001776
   143     0.002990
   144    -0.070490
   145     0.001296
   146    -0.001433
   147     0.002406
   148     0.000814
   149    -0.001494
   150    -0.010718
   151    -0.001369
   152     0.000367
   153     0.003008
   154     0.011413
   155     0.022412
   156    -0.002133
   157    -0.000079
   158    -0.003858
   159    -0.001590
   160     0.002170
   161    -0.000215
   162     0.000860
   163    -0.000011
   164     0.001016
   165     0.000067
   166    -0.001246
   167    -0.000794
   168     0.000090
   169    -0.006269
   170    -0.008000
   171    -0.000369
   172    -0.000303
   173    -0.000722
   174     0.000041
   175    -0.000224
   176    -0.000312
   177     0.000222
   178     0.002566
   179    -0.003529
   180     0.001622
   181     0.007006
   182     0.002603
Sym=   141a
Ene=   -0.349237E-02
Spin= Alpha
Occup= 0.002780
     1    -0.009887
     2     0.022016
     3    -0.004518
     4    -0.005164
     5    -0.001009
     6     0.002295
     7     0.006790
     8    -0.035176
     9     0.053710
    10     0.006029
    11     0.024666
    12     0.013491
    13    -0.034394
    14    -0.089169
    15    -0.040069
    16     0.015298
    17    -0.075348
    18    -0.056496
    19    -0.000583
    20     0.111243
    21     0.031277
    22     0.049441
    23     0.004773
    24     0.049731
    25    -0.000123
    26    -0.000032
    27    -0.016284
    28    -0.025706
    29    -0.003628
    30    -0.000996
    31    -0.000743
    32     0.021464
    33     0.010696
    34     0.000798
    35     0.007801
    36    -0.012474
    37     0.031792
    38     0.011904
    39    -0.009601
    40    -0.011297
    41     0.023839
    42    -0.013877
    43     0.000787
    44     0.012869
    45     0.087555
    46     0.276922
    47     0.046372
    48     0.094402
    49     0.194433
    50    -0.044975
    51    -0.001427
    52    -0.190930
    53     0.031909
    54     0.037908
    55     0.097325
    56    -0.025719
    57    -0.024242
    58     0.007340
    59    -0.003802
    60     0.266185
    61    -1.558862
    62    -0.040354
    63     0.028300
    64    -0.051715
    65     0.408259
    66     0.488745
    67     0.564123
    68    -0.090601
    69    -0.006381
    70     0.181879
    71     0.108543
    72     0.248722
    73     0.137176
    74     0.000434
    75     0.000803
    76     0.063304
    77    -0.037048
    78     0.004153
    79     0.003120
    80    -0.005775
    81    -0.043109
    82    -0.026602
    83     0.040644
    84    -0.040097
    85    -0.023281
    86    -0.023091
    87     0.042037
    88     0.013492
    89    -0.001532
    90     0.043812
    91     0.043351
    92     0.002001
    93     0.008490
    94     0.086805
    95    -0.183652
    96    -0.016607
    97    -0.012722
    98    -0.014825
    99     0.033691
   100     0.046222
   101     0.092174
   102     0.003685
   103     0.008792
   104     0.006203
   105     0.001566
   106     0.001395
   107    -0.006107
   108    -0.061053
   109     0.136945
   110    -0.017264
   111     0.002726
   112    -0.001000
   113     0.003279
   114     0.035770
   115    -0.084501
   116     0.016219
   117    -0.005221
   118     0.000414
   119     0.037779
   120    -0.007876
   121     0.024649
   122     0.005336
   123     0.003866
   124     0.006887
   125     0.004344
   126    -0.003435
   127    -0.002361
   128    -0.007037
   129     0.028519
   130     0.003231
   131     0.001984
   132    -0.001837
   133    -0.040157
   134     0.048644
   135     0.003008
   136    -0.011861
   137     0.014880
   138    -0.008207
   139     0.045070
   140    -0.000797
   141     0.003863
   142     0.001906
   143    -0.135639
   144     0.066148
   145    -0.015039
   146     0.017402
   147    -0.022989
   148     0.016260
   149     0.063633
   150     0.194134
   151     0.140019
   152    -0.046622
   153    -0.011381
   154    -0.272105
   155    -0.145636
   156    -0.197534
   157     0.061909
   158     0.002627
   159     0.006354
   160     0.001245
   161     0.026917
   162     0.002048
   163    -0.001030
   164     0.005402
   165    -0.042063
   166     0.008514
   167     0.006136
   168    -0.002463
   169     0.040769
   170     0.008566
   171     0.034817
   172     0.000502
   173     0.006001
   174    -0.001381
   175     0.001072
   176    -0.000512
   177     0.003924
   178     1.234733
   179    -0.473919
   180     0.335685
   181     0.186162
   182     0.338645
Sym=   142a
Ene=   -0.376634E-02
Spin= Alpha
Occup= 0.003333
     1    -0.047466
     2     0.021218
     3     0.001467
     4     0.007700
     5     0.001248
     6     0.003862
     7     0.026177
     8    -0.045982
     9     0.070967
    10    -0.010097
    11    -0.002909
    12    -0.009299
    13    -0.022183
    14     0.036674
    15     0.047310
    16     0.048911
    17     0.078979
    18     0.045525
    19     0.026214
    20    -0.004747
    21    -0.021014
    22     0.013388
    23     0.070736
    24    -0.019704
    25     0.004285
    26     0.018264
    27     0.069495
    28    -0.049746
    29    -0.016406
    30    -0.029580
    31    -0.037659
    32     0.057907
    33     0.081519
    34     0.147618
    35     0.074228
    36     0.128055
    37     0.086577
    38    -0.025868
    39     0.057246
    40     0.132034
    41    -0.056719
    42     0.045230
    43     0.114586
    44    -0.000168
    45    -0.000838
    46     0.021246
    47     0.008228
    48     0.015424
    49     0.002381
    50    -0.035133
    51     0.021130
    52    -0.007289
    53    -0.001923
    54    -0.006759
    55     0.001074
    56    -0.000344
    57     0.004439
    58     0.004955
    59     0.002178
    60     0.010398
    61     0.030707
    62    -0.002195
    63    -0.012728
    64     0.004245
    65     0.027761
    66    -0.000114
    67     0.006991
    68     0.000072
    69    -0.001013
    70     0.002896
    71     0.001411
    72    -0.004458
    73    -0.002971
    74     0.003338
    75     0.014416
    76     0.022367
    77     0.247057
    78     0.008622
    79    -0.052835
    80    -0.015635
    81    -0.065063
    82     0.215381
    83     0.054752
    84     0.080864
    85     0.148890
    86     0.076677
    87    -0.032925
    88     0.102288
    89     0.085736
    90     0.034280
    91     0.018678
    92     0.061291
    93    -0.002104
    94    -0.014107
    95     0.023494
    96    -0.011021
    97     0.005018
    98    -0.007328
    99     0.012026
   100    -0.010543
   101     0.010031
   102    -0.001834
   103     0.002771
   104     0.003074
   105    -0.000437
   106    -0.003350
   107     0.000071
   108     0.073923
   109    -0.012042
   110     0.004328
   111     0.002651
   112    -0.043738
   113    -0.004220
   114     0.190717
   115    -1.076717
   116    -0.038655
   117     0.063119
   118     0.072744
   119    -0.731091
   120    -0.388484
   121    -0.303367
   122    -0.022072
   123     0.062028
   124     0.041302
   125     0.132451
   126     0.104782
   127     0.140147
   128     1.324913
   129    -0.628266
   130    -0.362604
   131    -0.249479
   132    -0.175463
   133    -0.022397
   134     0.027474
   135     0.002481
   136    -0.006062
   137     0.003322
   138    -0.005612
   139    -0.031211
   140     0.001437
   141     0.000765
   142     0.005752
   143    -0.008328
   144    -0.018490
   145    -0.000231
   146     0.000419
   147    -0.000834
   148     0.004258
   149     0.052995
   150    -0.105856
   151    -0.027899
   152    -0.012370
   153    -0.016773
   154    -0.040906
   155    -0.083733
   156    -0.037572
   157    -0.000815
   158     0.005517
   159     0.011721
   160    -0.000656
   161     0.003397
   162     0.001165
   163     0.000456
   164     0.000776
   165     0.008498
   166     0.003083
   167    -0.001468
   168     0.000431
   169     0.007621
   170    -0.001736
   171    -0.000105
   172    -0.001210
   173     0.000016
   174    -0.000145
   175     0.000089
   176    -0.000220
   177    -0.000744
   178     0.005056
   179     0.018955
   180    -0.000916
   181     0.000603
   182    -0.000842
Sym=   143a
Ene=   -0.385996E-02
Spin= Alpha
Occup= 0.003232
     1     0.004414
     2    -0.057607
     3    -0.001347
     4    -0.008177
     5    -0.000307
     6    -0.002556
     7    -0.015437
     8     0.093239
     9    -0.208283
    10     0.005013
    11    -0.008979
    12    -0.001130
    13     0.009789
    14    -0.019403
    15    -0.006621
    16    -0.091970
    17     0.165927
    18    -0.031967
    19     0.009713
    20    -0.000529
    21     0.001221
    22     0.026999
    23    -0.008972
    24    -0.008626
    25    -0.000712
    26    -0.004884
    27     0.023480
    28    -0.048265
    29     0.001131
    30    -0.008257
    31     0.002783
    32    -0.007114
    33     0.012294
    34    -0.000254
    35     0.024874
    36     0.023204
    37     0.004215
    38     0.026902
    39    -0.028043
    40     0.015027
    41    -0.016895
    42    -0.021935
    43     0.017439
    44     0.005999
    45    -0.044483
    46     0.096245
    47    -0.017393
    48    -0.004388
    49    -0.019951
    50     0.223684
    51    -0.022500
    52    -0.019839
    53     0.005104
    54     0.016976
    55    -0.015653
    56     0.003091
    57     0.005436
    58    -0.006747
    59     0.016987
    60     0.070274
    61    -0.019639
    62    -0.085340
    63     0.081635
    64    -0.016892
    65    -0.100854
    66    -0.158092
    67     0.053295
    68     0.028192
    69     0.033557
    70    -0.006731
    71    -0.022058
    72    -0.006193
    73    -0.001586
    74     0.002025
    75     0.010541
    76    -0.102794
    77     0.340200
    78     0.029798
    79     0.019844
    80    -0.004023
    81    -0.080175
    82    -0.053581
    83     0.016440
    84    -0.035729
    85    -0.175248
    86     0.086224
    87    -0.050721
    88    -0.004368
    89     0.084818
    90    -0.009573
    91    -0.045280
    92    -0.039394
    93    -0.004034
    94    -0.023016
    95     0.013304
    96    -0.000783
    97     0.001046
    98     0.007335
    99    -0.005725
   100     0.021777
   101    -0.012020
   102     0.002741
   103     0.000224
   104    -0.002167
   105     0.001457
   106    -0.002782
   107     0.001290
   108     0.003252
   109     0.056965
   110     0.003629
   111     0.000773
   112    -0.003067
   113     0.006061
   114     0.060406
   115    -0.058278
   116     0.003060
   117     0.031144
   118    -0.015499
   119     0.045972
   120     0.077326
   121    -0.011781
   122     0.018894
   123     0.001769
   124    -0.000955
   125    -0.007975
   126     0.001247
   127     0.002924
   128    -0.023380
   129     0.041903
   130     0.008270
   131     0.000974
   132     0.005584
   133     1.170303
   134    -0.393904
   135    -0.045230
   136     0.458636
   137    -0.089586
   138    -0.005520
   139     0.015068
   140    -0.003045
   141    -0.004951
   142     0.001737
   143     0.014769
   144     0.117723
   145     0.005777
   146    -0.004551
   147     0.002648
   148     0.009423
   149     0.217949
   150    -0.992271
   151    -0.037080
   152    -0.008029
   153    -0.014306
   154     0.039046
   155     0.903824
   156    -0.367018
   157    -0.165086
   158     0.274433
   159    -0.061249
   160     0.097443
   161    -0.055359
   162    -0.181852
   163    -0.004855
   164    -0.033270
   165     0.008668
   166     0.023776
   167    -0.012777
   168    -0.023392
   169     0.058794
   170    -0.044704
   171    -0.058242
   172    -0.005436
   173     0.000102
   174     0.003963
   175    -0.003099
   176    -0.000468
   177     0.004502
   178     0.003939
   179     0.072076
   180     0.000707
   181    -0.008678
   182    -0.007358
Sym=   144a
Ene=   -0.218005E-02
Spin= Alpha
Occup= 0.001527
     1    -0.021549
     2    -0.051058
     3    -0.001473
     4     0.003110
     5    -0.008838
     6    -0.001614
     7    -0.008075
     8     0.011158
     9    -0.130277
    10    -0.001951
    11    -0.000467
    12     0.025757
    13    -0.023189
    14    -0.004990
    15    -0.052726
    16    -0.136265
    17     0.120848
    18    -0.083509
    19     0.046141
    20     0.033014
    21    -0.089292
    22     0.041487
    23    -0.046131
    24    -0.084066
    25    -0.000565
    26    -0.004437
    27    -0.005188
    28     0.022830
    29    -0.002823
    30     0.001936
    31    -0.000870
    32     0.004380
    33    -0.001955
    34     0.011859
    35     0.018248
    36    -0.012075
    37     0.008593
    38    -0.014927
    39     0.026482
    40    -0.000858
    41     0.013611
    42     0.008820
    43    -0.008065
    44     0.006926
    45     0.059830
    46     0.039275
    47     0.032520
    48    -0.166469
    49    -0.104282
    50     0.159843
    51    -0.034636
    52    -0.018270
    53    -0.021210
    54     0.065432
    55     0.078712
    56    -0.086658
    57    -0.006012
    58     0.055675
    59     0.002588
    60     0.023027
    61    -0.032072
    62     0.002339
    63     0.006716
    64    -0.004599
    65     0.068123
    66     0.009190
    67    -0.047089
    68    -0.007729
    69    -0.011094
    70     0.010974
    71     0.005917
    72    -0.010196
    73    -0.007683
    74    -0.000594
    75    -0.003658
    76    -0.022237
    77     0.072275
    78    -0.001150
    79    -0.000038
    80    -0.000834
    81     0.005547
    82    -0.003562
    83     0.000207
    84    -0.040624
    85     0.005253
    86     0.007366
    87     0.012812
    88    -0.021677
    89    -0.000077
    90    -0.011046
    91    -0.005636
    92     0.009052
    93     0.002355
    94     0.065220
    95    -0.253887
    96    -0.044093
    97    -0.130508
    98    -0.021670
    99     0.131046
   100     0.018756
   101    -0.045519
   102    -0.221706
   103     0.265405
   104     0.002098
   105    -0.164410
   106     0.222726
   107     0.150548
   108     0.022549
   109    -0.005624
   110     0.001251
   111     0.001228
   112     0.006391
   113    -0.004426
   114    -0.050982
   115     0.124540
   116    -0.041081
   117    -0.003561
   118     0.025601
   119    -0.080635
   120    -0.024759
   121     0.082110
   122    -0.018631
   123    -0.008640
   124     0.004904
   125     0.010217
   126    -0.016899
   127    -0.000956
   128    -0.007772
   129     0.020884
   130    -0.001220
   131     0.006064
   132    -0.008544
   133    -0.007399
   134    -0.011164
   135    -0.002283
   136    -0.004720
   137     0.001355
   138     0.264876
   139    -0.119740
   140     0.456496
   141     0.556853
   142    -0.179169
   143    -0.044185
   144     0.177011
   145    -0.020647
   146    -0.011114
   147     0.016247
   148     0.001650
   149     0.019198
   150    -0.068207
   151    -0.002544
   152     0.000277
   153    -0.003583
   154     0.014290
   155    -0.024756
   156    -0.006791
   157     0.005619
   158     0.002685
   159     0.000370
   160    -0.000587
   161    -0.000232
   162     0.000616
   163     0.001064
   164     0.024213
   165    -0.093955
   166    -0.005277
   167    -0.001035
   168    -0.002962
   169    -0.015913
   170    -0.038286
   171     0.005563
   172     0.007160
   173    -0.007688
   174     0.008295
   175     0.001737
   176     0.002593
   177     0.001965
   178     0.016580
   179     0.004202
   180    -0.004522
   181     0.003926
   182     0.001072
Sym=   145a
Ene=   -0.477938E-02
Spin= Alpha
Occup= 0.005887
     1     0.022306
     2     0.048566
     3     0.004017
     4    -0.003623
     5     0.003316
     6    -0.001840
     7    -0.011542
     8    -0.061034
     9    -0.049443
    10    -0.005313
    11    -0.000160
    12     0.000590
    13     0.011554
    14    -0.003093
    15    -0.000214
    16     0.176856
    17    -0.017671
    18    -0.018454
    19    -0.016755
    20    -0.004180
    21     0.019579
    22    -0.010452
    23     0.011849
    24     0.016930
    25     0.000162
    26     0.001412
    27     0.008363
    28    -0.067957
    29     0.000199
    30    -0.001315
    31    -0.000107
    32     0.000032
    33     0.004892
    34    -0.001713
    35     0.032026
    36    -0.004898
    37    -0.016719
    38    -0.004564
    39    -0.005056
    40     0.005419
    41     0.000343
    42     0.004120
    43     0.001007
    44    -0.003267
    45    -0.062593
    46     0.367960
    47     0.270258
    48     0.036972
    49     0.018130
    50     0.094240
    51     0.252463
    52    -0.207716
    53    -0.046396
    54     0.135567
    55     0.140950
    56    -0.034896
    57     0.020799
    58    -0.004341
    59    -0.001791
    60     0.062897
    61    -0.393726
    62    -0.072109
    63     0.000667
    64    -0.022764
    65     0.052505
    66    -0.000315
    67    -0.149529
    68     0.005019
    69     0.000875
    70     0.002004
    71     0.006094
    72     0.008065
    73    -0.002675
    74    -0.000958
    75    -0.006540
    76    -0.006863
    77    -0.042319
    78    -0.001232
    79    -0.000328
    80     0.000640
    81    -0.003967
    82     0.000293
    83    -0.000588
    84     0.054435
    85    -0.017502
    86    -0.010037
    87     0.001464
    88     0.005292
    89    -0.006834
    90     0.005949
    91     0.005256
    92    -0.000439
    93    -0.004744
    94     0.036561
    95    -0.260972
    96     0.006789
    97    -0.012898
    98    -0.024041
    99     0.126598
   100     0.123894
   101     0.088415
   102     0.004889
   103     0.004730
   104     0.010879
   105    -0.001161
   106    -0.010004
   107     0.000347
   108    -0.014120
   109     0.061015
   110    -0.000883
   111    -0.001193
   112     0.002848
   113     0.000482
   114     0.011372
   115    -0.037099
   116     0.006896
   117    -0.001903
   118    -0.005161
   119     0.021847
   120    -0.003599
   121    -0.027203
   122     0.003063
   123     0.001413
   124    -0.001463
   125    -0.001998
   126     0.000889
   127     0.001068
   128     0.001954
   129    -0.007311
   130    -0.000763
   131    -0.001066
   132    -0.000207
   133    -0.010595
   134     0.015117
   135     0.001751
   136     0.000384
   137    -0.002106
   138    -0.038064
   139    -0.078576
   140     0.009939
   141    -0.011948
   142    -0.002338
   143    -1.204234
   144     1.227204
   145    -0.419904
   146     0.032754
   147    -0.101080
   148    -0.000826
   149    -0.015315
   150     0.067086
   151    -0.000373
   152     0.008274
   153    -0.008803
   154    -0.043283
   155     0.018623
   156    -0.005185
   157    -0.003714
   158     0.002156
   159    -0.002859
   160     0.002705
   161    -0.001912
   162     0.000736
   163    -0.001790
   164     0.032109
   165    -0.149693
   166    -0.000733
   167     0.016483
   168    -0.015414
   169     0.133290
   170    -0.015605
   171     0.022793
   172     0.003452
   173     0.004097
   174     0.001544
   175     0.008505
   176     0.000499
   177     0.012379
   178    -0.015871
   179    -0.120415
   180     0.012000
   181     0.004246
   182     0.010570
Sym=   146a
Ene=   -0.383976E-02
Spin= Alpha
Occup= 0.004992
     1     0.021713
     2     0.001537
     3     0.012369
     4     0.003368
     5     0.017652
     6    -0.004071
     7    -0.037672
     8    -0.124624
     9     0.602099
    10     0.013091
    11     0.003316
    12     0.009010
    13     0.025612
    14     0.002669
    15    -0.055804
    16     0.120684
    17    -0.265353
    18    -0.172696
    19     0.034008
    20    -0.022383
    21     0.166403
    22    -0.021627
    23    -0.096141
    24     0.026762
    25    -0.008484
    26    -0.060431
    27    -0.199759
    28     0.736842
    29    -0.012866
    30    -0.001596
    31    -0.007965
    32     0.007930
    33    -0.005243
    34     0.045655
    35    -0.229685
    36    -0.031832
    37    -0.009877
    38    -0.241428
    39     0.226179
    40     0.003621
    41    -0.114460
    42    -0.350953
    43    -0.060374
    44     0.000242
    45     0.039866
    46    -0.264708
    47     0.000106
    48    -0.001769
    49     0.007255
    50    -0.043444
    51    -0.072084
    52     0.063773
    53     0.010465
    54     0.002264
    55     0.001141
    56    -0.003548
    57     0.003021
    58    -0.006655
    59     0.002025
    60    -0.005681
    61     0.046508
    62    -0.006816
    63    -0.009946
    64    -0.000717
    65     0.003562
    66    -0.027158
    67    -0.014303
    68     0.000997
    69    -0.003115
    70    -0.001978
    71    -0.004254
    72     0.001473
    73     0.004630
    74     0.001287
    75     0.011006
    76     0.034059
    77    -0.135606
    78    -0.005741
    79     0.001491
    80    -0.009259
    81     0.027465
    82    -0.021569
    83     0.036790
    84    -0.058852
    85    -0.012134
    86    -0.010032
    87    -0.009577
    88    -0.039272
    89     0.026086
    90    -0.012607
    91     0.015669
    92     0.005488
    93    -0.001659
    94     0.004992
    95    -0.039708
    96    -0.000530
    97     0.000143
    98     0.000912
    99    -0.020924
   100    -0.038033
   101     0.040639
   102     0.005762
   103     0.002905
   104    -0.003351
   105    -0.000851
   106     0.002433
   107     0.005639
   108     0.763150
   109    -1.464498
   110     0.109857
   111     0.069300
   112     0.574431
   113     0.012087
   114     0.132755
   115    -0.378770
   116     0.038751
   117    -0.027289
   118     0.009007
   119     0.204618
   120    -0.025365
   121     0.132402
   122     0.022917
   123     0.006907
   124    -0.003277
   125     0.001806
   126    -0.031320
   127    -0.007811
   128    -0.012020
   129    -0.040475
   130     0.012811
   131     0.008134
   132     0.007983
   133     0.002176
   134    -0.003988
   135    -0.001345
   136    -0.002440
   137     0.000063
   138    -0.004705
   139     0.040027
   140     0.003787
   141     0.006202
   142    -0.009278
   143    -0.004120
   144     0.028278
   145    -0.000960
   146     0.000902
   147     0.000476
   148     0.002554
   149     0.029549
   150    -0.132821
   151    -0.013929
   152    -0.010095
   153     0.012173
   154     0.005128
   155    -0.053772
   156     0.025821
   157     0.004548
   158     0.001198
   159     0.006267
   160     0.000915
   161     0.000975
   162     0.002680
   163     0.000403
   164    -0.000742
   165     0.009377
   166    -0.000362
   167     0.000653
   168    -0.000379
   169     0.003955
   170    -0.001538
   171     0.000951
   172    -0.001512
   173    -0.001744
   174    -0.001047
   175    -0.000411
   176    -0.001213
   177    -0.000548
   178    -0.003332
   179    -0.042284
   180    -0.004706
   181    -0.004924
   182    -0.000342
Sym=   147a
Ene=   -0.304753E-02
Spin= Alpha
Occup= 0.002475
     1     0.003668
     2     0.000407
     3    -0.009111
     4    -0.007396
     5    -0.002791
     6    -0.000718
     7    -0.010271
     8    -0.024275
     9    -0.200998
    10     0.005261
    11     0.018512
    12     0.001974
    13     0.006314
    14     0.004609
    15    -0.004545
    16    -0.011629
    17     0.099676
    18     0.015216
    19     0.009877
    20     0.008901
    21    -0.008039
    22     0.023394
    23    -0.010841
    24    -0.093279
    25    -0.000365
    26    -0.002482
    27    -0.017671
    28    -0.045558
    29    -0.004345
    30    -0.003567
    31    -0.000548
    32     0.024890
    33     0.015112
    34    -0.001305
    35    -0.006680
    36     0.004468
    37     0.022949
    38     0.022457
    39    -0.004206
    40    -0.018448
    41     0.017984
    42    -0.047716
    43    -0.000670
    44    -0.025087
    45    -0.451848
    46     0.138437
    47     0.181033
    48    -0.023583
    49    -0.370870
    50    -0.072967
    51    -0.008658
    52    -0.017222
    53    -0.008214
    54     0.102547
    55    -0.286022
    56     0.070064
    57     0.275985
    58    -0.071931
    59    -0.011611
    60    -0.352513
    61     1.146103
    62    -0.096319
    63    -0.048844
    64     0.196885
    65    -0.360536
    66    -0.139862
    67     0.723736
    68     0.136707
    69     0.244647
    70    -0.545169
    71    -0.046126
    72     0.389783
    73     0.158206
    74    -0.000230
    75    -0.001205
    76    -0.042339
    77     0.138677
    78     0.001235
    79     0.000436
    80    -0.001255
    81     0.001272
    82    -0.001072
    83     0.017970
    84    -0.049449
    85     0.003992
    86    -0.005799
    87    -0.008797
    88    -0.013559
    89     0.009778
    90    -0.003446
    91     0.044361
    92    -0.002970
    93     0.002637
    94     0.040173
    95    -0.089227
    96    -0.001891
    97     0.050106
    98     0.016758
    99    -0.025904
   100    -0.001785
   101     0.074028
   102     0.000014
   103    -0.004336
   104    -0.006986
   105     0.000178
   106     0.005510
   107    -0.010517
   108    -0.044459
   109     0.187733
   110    -0.028157
   111     0.003489
   112     0.008423
   113     0.002158
   114     0.016774
   115    -0.026210
   116    -0.001044
   117     0.004606
   118    -0.003157
   119     0.008506
   120     0.010823
   121     0.012255
   122     0.005676
   123    -0.000006
   124     0.002409
   125    -0.007325
   126    -0.004770
   127     0.000460
   128    -0.009942
   129     0.022993
   130     0.003827
   131     0.002910
   132     0.002843
   133     0.038262
   134    -0.090175
   135     0.012651
   136     0.014416
   137    -0.025223
   138    -0.023441
   139     0.066164
   140    -0.011670
   141     0.012340
   142     0.011323
   143    -0.005091
   144    -0.153098
   145    -0.015604
   146    -0.029225
   147     0.019986
   148    -0.015041
   149    -0.075442
   150    -0.003268
   151    -0.135151
   152     0.012463
   153     0.027555
   154    -0.033444
   155     0.041817
   156    -0.180979
   157    -0.041555
   158    -0.015011
   159    -0.016668
   160     0.029038
   161     0.015829
   162    -0.004955
   163     0.000406
   164     0.003532
   165    -0.025383
   166    -0.009812
   167     0.030640
   168    -0.007797
   169    -0.020377
   170     0.045005
   171     0.046420
   172    -0.000509
   173    -0.007497
   174    -0.008006
   175     0.004465
   176    -0.008954
   177     0.003139
   178    -0.164721
   179    -0.067725
   180    -0.043432
   181    -0.023430
   182     0.040696
Sym=   148a
Ene=   -0.168938E-02
Spin= Alpha
Occup= 0.001265
     1     0.034612
     2    -0.028360
     3     0.067215
     4     0.038952
     5     0.015070
     6     0.000492
     7    -0.009871
     8     0.158046
     9    -0.454994
    10    -0.040506
    11    -0.001888
    12    -0.023549
    13     0.248297
    14     0.006351
    15     0.066963
    16    -0.080113
    17     0.185586
    18    -0.025816
    19     0.208236
    20    -0.074012
    21     0.047247
    22     0.060123
    23     0.224181
    24    -0.001336
    25     0.007322
    26     0.030723
    27     0.221166
    28    -0.138822
    29     0.020224
    30    -0.008089
    31    -0.038944
    32    -0.064232
    33     0.004580
    34     0.226711
    35     0.021612
    36     0.063428
    37     0.260995
    38     0.047851
    39    -0.016994
    40     0.324381
    41    -0.054179
    42    -0.093645
    43     0.017832
    44     0.000069
    45    -0.036967
    46     0.045129
    47     0.013236
    48     0.021604
    49     0.002234
    50     0.190991
    51     0.005233
    52    -0.021640
    53    -0.006206
    54    -0.010507
    55    -0.007822
    56     0.007312
    57     0.007473
    58    -0.003221
    59    -0.002650
    60    -0.058402
    61     0.164947
    62     0.016149
    63     0.016431
    64    -0.010160
    65     0.056355
    66     0.078231
    67    -0.015669
    68    -0.016752
    69    -0.001651
    70    -0.004216
    71     0.021252
    72     0.007350
    73     0.005695
    74     0.005681
    75     0.027892
    76     0.221574
    77    -0.098221
    78     0.017701
    79    -0.030747
    80    -0.007511
    81    -0.098483
    82     0.210464
    83     0.022713
    84     0.018034
    85     0.073270
    86     0.017859
    87     0.015393
    88     0.221758
    89     0.003308
    90     0.004422
    91     0.037051
    92    -0.002270
    93     0.001956
    94     0.001796
    95     0.050089
    96     0.023121
    97     0.012610
    98     0.008959
    99    -0.102254
   100    -0.004236
   101    -0.020987
   102    -0.004618
   103    -0.005199
   104     0.018937
   105    -0.013373
   106     0.024929
   107    -0.005729
   108    -0.093824
   109     0.330762
   110    -0.003322
   111     0.018245
   112     0.089232
   113    -0.020620
   114     0.190012
   115    -0.954089
   116     0.020159
   117     0.137592
   118     0.193270
   119    -0.026024
   120     0.200292
   121     0.482110
   122     0.308676
   123    -0.187955
   124     0.098652
   125    -0.265605
   126    -0.726374
   127     0.141388
   128     0.508130
   129    -0.399118
   130    -0.052318
   131    -0.053425
   132    -0.097010
   133     0.034022
   134    -0.021706
   135     0.014955
   136     0.010732
   137    -0.017131
   138    -0.044278
   139     0.064520
   140     0.000436
   141     0.026194
   142     0.011232
   143    -0.002979
   144     0.163350
   145     0.003430
   146     0.001327
   147    -0.000293
   148    -0.005816
   149    -0.064553
   150     0.105900
   151     0.034842
   152     0.005195
   153    -0.009816
   154     0.034031
   155     0.068055
   156    -0.022645
   157    -0.027678
   158     0.005367
   159    -0.008455
   160     0.005217
   161    -0.001819
   162    -0.002433
   163    -0.000239
   164     0.006539
   165    -0.035748
   166    -0.002762
   167    -0.000685
   168     0.001789
   169    -0.017974
   170    -0.002632
   171     0.006564
   172     0.003140
   173     0.002357
   174     0.002332
   175    -0.001527
   176    -0.000173
   177    -0.000647
   178    -0.024763
   179     0.050564
   180    -0.001603
   181     0.004268
   182     0.004477
Sym=   149a
Ene=   -0.206515E-02
Spin= Alpha
Occup= 0.001789
     1     0.006570
     2    -0.054948
     3    -0.006302
     4    -0.012865
     5    -0.000675
     6    -0.000728
     7    -0.004582
     8     0.158329
     9    -0.185681
    10    -0.000812
    11     0.002347
    12     0.000461
    13     0.052743
    14    -0.091600
    15    -0.012069
    16    -0.097954
    17     0.111971
    18    -0.020957
    19     0.023109
    20     0.047524
    21    -0.009771
    22     0.032497
    23     0.002479
    24    -0.024872
    25    -0.000996
    26    -0.005140
    27    -0.004213
    28     0.095125
    29     0.003578
    30    -0.007889
    31     0.001296
    32    -0.009508
    33     0.023129
    34     0.007934
    35    -0.014690
    36    -0.043993
    37     0.046821
    38    -0.002699
    39    -0.035279
    40     0.030493
    41     0.014066
    42    -0.067113
    43     0.028034
    44     0.001068
    45    -0.025819
    46     0.097006
    47    -0.068324
    48     0.027813
    49     0.012731
    50     0.279501
    51    -0.083379
    52    -0.029232
    53     0.040927
    54     0.029840
    55    -0.016036
    56     0.006837
    57    -0.003414
    58     0.006712
    59     0.016937
    60     0.248621
    61    -1.090951
    62    -0.167485
    63     0.065352
    64    -0.073194
    65    -0.656055
    66     0.156407
    67     0.055268
    68     0.034753
    69     0.086008
    70    -0.009168
    71    -0.004133
    72     0.052211
    73    -0.012973
    74     0.000452
    75     0.010074
    76    -0.048515
    77    -0.167608
    78    -0.048290
    79    -0.022115
    80    -0.031047
    81     0.250729
    82     0.101538
    83     0.095043
    84     0.055685
    85    -0.024677
    86     0.108743
    87    -0.202372
    88    -0.032250
    89     0.112613
    90    -0.127476
    91    -0.347855
    92    -0.232718
    93    -0.001056
    94    -0.005673
    95    -0.014963
    96     0.001067
    97     0.010397
    98     0.009015
    99    -0.012073
   100     0.007056
   101    -0.014616
   102     0.000579
   103    -0.002691
   104    -0.007049
   105     0.004160
   106    -0.000508
   107    -0.002380
   108    -0.013166
   109     0.054343
   110     0.001558
   111     0.003589
   112    -0.004600
   113    -0.003507
   114     0.003820
   115     0.003957
   116     0.010090
   117     0.007404
   118     0.005767
   119     0.092073
   120     0.036107
   121     0.070033
   122     0.017620
   123     0.003240
   124     0.001128
   125     0.002392
   126     0.011009
   127     0.003307
   128    -0.032853
   129    -0.010345
   130     0.009098
   131     0.011644
   132     0.002212
   133     0.148499
   134    -0.159490
   135     0.070636
   136     0.047871
   137     0.077172
   138    -0.000393
   139     0.054884
   140    -0.003353
   141    -0.007782
   142     0.002619
   143     0.015449
   144     0.141065
   145     0.000417
   146    -0.008554
   147     0.000504
   148    -0.048273
   149    -0.449425
   150     1.476799
   151     0.028775
   152     0.026587
   153    -0.219881
   154    -0.204012
   155     0.495681
   156    -0.579372
   157    -0.395166
   158    -0.241235
   159     0.606728
   160    -0.056736
   161     0.329075
   162    -0.196785
   163    -0.002399
   164     0.011369
   165    -0.110354
   166     0.000141
   167    -0.001439
   168    -0.012124
   169    -0.015375
   170    -0.014689
   171    -0.002983
   172     0.010779
   173     0.006910
   174     0.005893
   175    -0.004863
   176    -0.004073
   177     0.003243
   178     0.094873
   179    -0.090097
   180    -0.012852
   181     0.013514
   182     0.028757
Sym=   150a
Ene=   -0.164479E-02
Spin= Alpha
Occup= 0.001104
     1     0.141943
     2    -0.040804
     3     0.022581
     4    -0.051595
     5     0.011409
     6     0.000479
     7    -0.003055
     8     0.106530
     9    -0.352965
    10     0.013050
    11     0.020459
    12     0.010673
    13    -0.068878
    14    -0.145723
    15    -0.058514
    16    -0.097291
    17     0.098667
    18     0.049773
    19    -0.038197
    20     0.094407
    21    -0.011791
    22     0.224540
    23     0.043342
    24     0.151145
    25    -0.000561
    26    -0.002234
    27    -0.042847
    28     0.059839
    29    -0.005517
    30    -0.003002
    31    -0.000111
    32     0.031751
    33     0.007438
    34    -0.009015
    35    -0.039622
    36     0.061693
    37     0.025660
    38     0.018424
    39    -0.024896
    40    -0.028330
    41    -0.019558
    42    -0.033160
    43     0.032408
    44     0.004666
    45     0.104536
    46    -0.035313
    47    -0.052843
    48     0.007198
    49     0.163082
    50     0.246792
    51    -0.087788
    52     0.019743
    53     0.100608
    54     0.035107
    55     0.049481
    56    -0.057578
    57    -0.089713
    58     0.095243
    59    -0.012125
    60     0.155962
    61    -0.854497
    62    -0.159849
    63    -0.034294
    64    -0.071547
    65    -0.250143
    66     0.071507
    67    -0.116253
    68    -0.495431
    69     0.605991
    70     0.009598
    71    -0.324507
    72     0.144158
    73    -0.558902
    74     0.002523
    75     0.011452
    76    -0.015253
    77     0.156806
    78     0.014941
    79     0.006263
    80     0.001631
    81    -0.031907
    82    -0.056797
    83     0.003553
    84    -0.171234
    85     0.004412
    86    -0.051637
    87     0.102075
    88    -0.030027
    89    -0.013889
    90     0.043798
    91     0.045567
    92    -0.017796
    93    -0.007469
    94    -0.063580
    95     0.109839
    96    -0.000172
    97    -0.003678
    98     0.004158
    99     0.051529
   100     0.014817
   101    -0.084836
   102    -0.009419
   103    -0.008972
   104     0.004293
   105    -0.009783
   106    -0.014397
   107     0.005808
   108    -0.015301
   109     0.104188
   110    -0.005488
   111     0.011539
   112    -0.021851
   113    -0.003584
   114    -0.070940
   115     0.178629
   116    -0.022755
   117    -0.015457
   118     0.015967
   119    -0.100455
   120    -0.129811
   121     0.028269
   122     0.015567
   123    -0.035491
   124    -0.012232
   125     0.053314
   126     0.007942
   127    -0.021191
   128     0.008625
   129     0.040831
   130     0.006003
   131     0.001848
   132    -0.026491
   133    -0.004198
   134    -0.163891
   135     0.042912
   136     0.034817
   137    -0.020516
   138     0.020946
   139     0.017480
   140     0.005524
   141    -0.022461
   142    -0.006691
   143    -0.093103
   144     0.307674
   145    -0.014143
   146     0.010062
   147    -0.024326
   148     0.002735
   149     0.026301
   150     0.211746
   151     0.118552
   152    -0.177798
   153     0.026422
   154    -0.187674
   155    -0.103980
   156     0.030601
   157    -0.012244
   158     0.071592
   159     0.052231
   160    -0.066671
   161     0.002566
   162    -0.036541
   163     0.004769
   164     0.057717
   165    -0.138001
   166     0.006591
   167    -0.020509
   168     0.026574
   169    -0.019329
   170    -0.017515
   171     0.058339
   172     0.017986
   173     0.023096
   174    -0.007039
   175    -0.018182
   176     0.003809
   177    -0.003826
   178     0.391054
   179    -0.169563
   180     0.143306
   181    -0.040121
   182     0.096367
Sym=   151a
Ene=   -0.105260E-02
Spin= Alpha
Occup= 0.000587
     1    -0.001055
     2     0.000767
     3    -0.006622
     4    -0.020754
     5    -0.004040
     6    -0.003537
     7     0.000283
     8     0.094958
     9    -0.394029
    10    -0.013207
    11    -0.012758
    12     0.020762
    13     0.024363
    14    -0.010427
    15    -0.098799
    16     0.141391
    17     0.217719
    18    -0.206730
    19    -0.083774
    20    -0.007974
    21    -0.196909
    22    -0.069607
    23     0.141827
    24     0.124826
    25     0.000014
    26    -0.000633
    27     0.034884
    28    -0.252865
    29     0.000786
    30    -0.002565
    31    -0.000801
    32     0.007180
    33     0.001548
    34    -0.003419
    35     0.053308
    36     0.047749
    37    -0.093818
    38     0.023031
    39     0.029544
    40    -0.050708
    41    -0.018420
    42    -0.095314
    43     0.021158
    44     0.002339
    45     0.008883
    46     0.897865
    47    -0.035789
    48    -0.075290
    49    -0.017528
    50    -0.063459
    51     0.392123
    52    -0.051064
    53     0.288999
    54    -0.041808
    55    -0.165166
    56     0.155534
    57    -0.041517
    58    -0.385633
    59     0.008544
    60     0.067145
    61    -0.085647
    62     0.035745
    63     0.018112
    64     0.006774
    65     0.084480
    66    -0.151740
    67    -0.036559
    68     0.028568
    69     0.028120
    70    -0.020383
    71     0.039523
    72    -0.031572
    73    -0.058556
    74     0.000463
    75    -0.000086
    76    -0.020533
    77     0.066835
    78     0.000196
    79    -0.002609
    80     0.001739
    81     0.007215
    82     0.003853
    83    -0.003091
    84    -0.010456
    85     0.049604
    86    -0.042575
    87    -0.016207
    88    -0.007622
    89     0.053692
    90    -0.006381
    91     0.005126
    92    -0.038844
    93     0.033206
    94     0.096744
    95     0.166875
    96    -0.049651
    97    -0.102047
    98    -0.010781
    99    -0.047635
   100     0.615928
   101     0.129046
   102    -0.336924
   103     0.008701
   104     0.231393
   105    -0.550207
   106     0.107479
   107     0.466033
   108    -0.020437
   109     0.153762
   110     0.001609
   111     0.001176
   112    -0.027277
   113    -0.001718
   114    -0.054038
   115     0.182788
   116    -0.022819
   117    -0.005780
   118    -0.003265
   119    -0.055568
   120    -0.011438
   121    -0.042580
   122     0.008635
   123    -0.019245
   124    -0.018499
   125     0.013128
   126     0.005046
   127    -0.008583
   128    -0.023196
   129     0.039772
   130     0.009659
   131    -0.012904
   132     0.006725
   133     0.019683
   134     0.041407
   135    -0.012170
   136     0.003478
   137     0.007743
   138    -0.654560
   139     0.156814
   140    -0.283698
   141    -0.314430
   142     0.190753
   143    -0.237422
   144    -0.222030
   145    -0.035888
   146     0.073352
   147     0.000000
   148     0.001370
   149     0.038082
   150    -0.161076
   151     0.007396
   152    -0.008062
   153    -0.006719
   154     0.109907
   155     0.007681
   156    -0.022820
   157    -0.004008
   158     0.013681
   159     0.021214
   160     0.000208
   161     0.002030
   162     0.009201
   163    -0.003898
   164    -0.004584
   165    -0.101472
   166    -0.014688
   167     0.022576
   168    -0.049090
   169     0.030128
   170    -0.049036
   171    -0.055279
   172    -0.027204
   173     0.010653
   174     0.011635
   175     0.011563
   176    -0.002307
   177     0.030974
   178    -0.036794
   179     0.083957
   180    -0.035028
   181     0.006492
   182    -0.017748
Sym=   152a
Ene=   -0.865865E-03
Spin= Alpha
Occup= 0.000575
     1     0.039217
     2    -0.057018
     3     0.004928
     4    -0.033910
     5     0.012604
     6    -0.000712
     7     0.008576
     8     0.050310
     9    -0.118941
    10     0.012842
    11    -0.007537
    12    -0.004801
    13    -0.032058
    14     0.047402
    15    -0.010432
    16    -0.127904
    17     0.090491
    18     0.098988
    19    -0.051175
    20    -0.039331
    21    -0.099732
    22     0.085869
    23     0.042929
    24     0.038777
    25     0.000532
    26     0.010396
    27    -0.141961
    28     0.691222
    29     0.008296
    30     0.017737
    31    -0.021819
    32    -0.033625
    33    -0.039552
    34     0.044319
    35     0.015669
    36    -0.250279
    37     0.230055
    38    -0.101046
    39     0.074972
    40    -0.080163
    41    -0.049971
    42    -0.124869
    43    -0.137317
    44     0.000381
    45    -0.040427
    46     0.031712
    47     0.027498
    48     0.006732
    49    -0.017369
    50     0.120822
    51     0.004996
    52     0.023160
    53    -0.004475
    54    -0.011806
    55    -0.011978
    56    -0.006066
    57     0.006038
    58     0.010862
    59    -0.002650
    60    -0.069233
    61     0.236584
    62     0.023384
    63     0.021403
    64    -0.006866
    65     0.117651
    66     0.042645
    67     0.015384
    68    -0.007687
    69    -0.029957
    70    -0.004888
    71     0.024938
    72     0.017298
    73     0.002577
    74     0.000538
    75     0.007868
    76     0.176976
    77    -0.739240
    78    -0.026132
    79     0.030629
    80    -0.022731
    81     0.111545
    82    -0.111294
    83     0.028091
    84     0.068495
    85    -0.318375
    86     0.273582
    87     0.002427
    88    -0.105084
    89     0.044050
    90     0.091678
    91    -0.174560
    92     0.348546
    93     0.001830
    94     0.013682
    95    -0.032675
    96     0.000039
    97     0.005241
    98     0.000402
    99     0.015311
   100    -0.007582
   101    -0.047297
   102    -0.005360
   103    -0.003141
   104     0.013894
   105     0.011019
   106    -0.000683
   107    -0.008349
   108     0.049839
   109    -0.050453
   110    -0.030669
   111    -0.018707
   112    -0.109220
   113    -0.000321
   114    -0.041810
   115     0.235565
   116    -0.029937
   117    -0.036350
   118    -0.081194
   119     0.082976
   120    -0.239128
   121     0.041879
   122     0.031634
   123    -0.351724
   124     0.378422
   125    -0.160306
   126     0.307751
   127     0.731440
   128    -0.441317
   129     0.419283
   130     0.108622
   131     0.332056
   132    -0.306176
   133     0.018155
   134    -0.095381
   135    -0.002164
   136     0.005554
   137    -0.006556
   138     0.034660
   139    -0.035777
   140     0.003250
   141    -0.005507
   142     0.005135
   143    -0.008409
   144     0.086245
   145     0.003544
   146    -0.001926
   147    -0.000176
   148    -0.004493
   149    -0.056563
   150     0.107073
   151     0.014260
   152    -0.017893
   153    -0.015008
   154     0.085933
   155    -0.038010
   156    -0.078158
   157    -0.008163
   158    -0.009204
   159    -0.010259
   160     0.002615
   161     0.008183
   162    -0.040272
   163     0.000815
   164     0.012251
   165    -0.040508
   166    -0.003190
   167    -0.006744
   168    -0.001810
   169    -0.016797
   170    -0.017343
   171    -0.007555
   172     0.004305
   173    -0.000725
   174     0.002969
   175    -0.006643
   176     0.002654
   177     0.000258
   178    -0.026647
   179     0.055241
   180     0.002945
   181     0.007041
   182    -0.000243
Sym=   153a
Ene=   -0.129681E-01
Spin= Alpha
Occup= 0.017162
     1    -0.008181
     2     0.069419
     3     0.002445
     4    -0.000946
     5     0.000564
     6     0.000260
     7     0.000982
     8    -0.036922
     9     0.014286
    10    -0.000478
    11     0.012796
    12     0.000109
    13    -0.023420
    14    -0.011124
    15    -0.009344
    16     0.004165
    17    -0.088270
    18     0.019935
    19    -0.003193
    20    -0.008022
    21    -0.003211
    22    -0.014858
    23     0.007300
    24    -0.003310
    25    -0.000118
    26    -0.001561
    27     0.073122
    28    -0.257219
    29    -0.000997
    30    -0.008423
    31    -0.000263
    32     0.004133
    33     0.000122
    34    -0.000764
    35     0.067907
    36     0.160938
    37    -0.145098
    38     0.017077
    39    -0.024665
    40     0.012819
    41     0.000911
    42     0.003220
    43    -0.036342
    44     0.000410
    45    -0.007253
    46     0.001607
    47     0.000114
    48     0.003651
    49    -0.001965
    50    -0.014660
    51     0.001730
    52    -0.005480
    53    -0.005849
    54    -0.000975
    55     0.000405
    56    -0.001184
    57     0.001299
    58     0.002263
    59     0.000385
    60     0.010637
    61    -0.010735
    62    -0.004770
    63    -0.002688
    64     0.003270
    65     0.010305
    66    -0.020997
    67     0.020035
    68    -0.001765
    69     0.003878
    70    -0.002027
    71     0.001489
    72    -0.000477
    73    -0.000196
    74     0.024292
    75     0.155535
    76     0.412506
    77    -0.294977
    78     0.070342
    79    -0.157718
    80    -0.008762
    81    -0.162982
    82     0.376158
    83     0.006014
    84    -0.114365
    85    -0.099440
    86    -0.042443
    87    -0.134225
    88     0.283505
    89    -0.076063
    90    -0.279468
    91    -0.054101
    92     0.105532
    93    -0.000086
    94     0.004873
    95    -0.018359
    96    -0.000987
    97     0.001689
    98     0.001249
    99    -0.007722
   100    -0.002356
   101    -0.001237
   102     0.000740
   103    -0.000912
   104    -0.000057
   105    -0.000388
   106     0.000708
   107    -0.000659
   108     0.001449
   109     0.118681
   110     0.000573
   111     0.002079
   112     0.000258
   113    -0.166162
   114    -0.788917
   115     0.707797
   116     0.248011
   117    -0.784511
   118     0.094149
   119     0.108522
   120    -0.365533
   121     0.055303
   122     0.023149
   123    -0.053718
   124     0.034090
   125     0.021695
   126     0.000765
   127     0.017688
   128     0.001717
   129    -0.023719
   130    -0.007429
   131    -0.006452
   132     0.002996
   133     0.025959
   134     0.060198
   135    -0.003269
   136    -0.007430
   137    -0.002640
   138     0.003216
   139     0.004030
   140    -0.000833
   141    -0.000508
   142    -0.000527
   143     0.002366
   144    -0.021774
   145     0.001159
   146    -0.000147
   147     0.000645
   148     0.000745
   149     0.092332
   150    -0.224530
   151    -0.033921
   152     0.020689
   153    -0.001105
   154    -0.064754
   155    -0.050364
   156    -0.049054
   157     0.007456
   158     0.012569
   159     0.009754
   160     0.010827
   161     0.002729
   162     0.008120
   163    -0.000056
   164    -0.000781
   165     0.002377
   166     0.000255
   167    -0.000184
   168    -0.000178
   169     0.002668
   170     0.004089
   171     0.002370
   172    -0.000395
   173     0.000581
   174     0.000068
   175     0.000137
   176     0.000429
   177    -0.000013
   178     0.006039
   179    -0.016580
   180     0.000031
   181    -0.000894
   182     0.000754
Sym=   154a
Ene=   -0.187831E-01
Spin= Alpha
Occup= 0.017786
     1     0.008298
     2    -0.010193
     3     0.001244
     4     0.001633
     5     0.000535
     6     0.002630
     7     0.016229
     8     0.041366
     9    -0.002442
    10     0.004896
    11     0.009869
    12    -0.006877
    13    -0.007743
    14    -0.026003
    15     0.014110
    16    -0.013883
    17    -0.023791
    18     0.026994
    19    -0.001263
    20     0.004394
    21     0.007376
    22    -0.000755
    23    -0.009243
    24     0.019443
    25     0.000124
    26     0.000748
    27    -0.000793
    28     0.012130
    29    -0.000681
    30    -0.002076
    31     0.001198
    32     0.000311
    33     0.005475
    34    -0.003311
    35    -0.001817
    36     0.003587
    37     0.003454
    38    -0.006456
    39     0.001596
    40     0.006448
    41    -0.000739
    42     0.007602
    43    -0.002240
    44     0.144785
    45     0.477466
    46    -0.194961
    47    -0.285086
    48     0.521940
    49    -0.489275
    50    -0.074383
    51     0.015565
    52    -0.009490
    53    -0.002328
    54     0.058169
    55     0.046082
    56    -0.084450
    57     0.067987
    58    -0.107402
    59    -0.004783
    60    -0.001642
    61     0.001858
    62     0.036559
    63    -0.027006
    64     0.004846
    65     0.000395
    66     0.030234
    67    -0.031221
    68    -0.003737
    69    -0.000875
    70     0.007757
    71     0.002421
    72     0.000796
    73    -0.005357
    74    -0.000467
    75    -0.002303
    76    -0.017557
    77     0.031276
    78    -0.000308
    79     0.000374
    80    -0.000727
    81     0.002642
    82     0.000810
    83     0.001258
    84    -0.006094
    85     0.003082
    86     0.005593
    87     0.003616
    88     0.006032
    89    -0.022970
    90     0.004733
    91     0.003853
    92     0.008201
    93    -0.002606
    94     0.010655
    95    -0.019043
    96    -0.008270
    97     0.006996
    98    -0.011323
    99    -0.033259
   100     0.044055
   101    -0.058301
   102     0.002719
   103     0.006186
   104    -0.005567
   105    -0.001400
   106     0.002622
   107    -0.001913
   108    -0.002725
   109    -0.003001
   110     0.000160
   111    -0.002297
   112     0.003016
   113    -0.000149
   114     0.002112
   115    -0.012631
   116     0.000027
   117    -0.001170
   118     0.000103
   119     0.001540
   120     0.005672
   121    -0.001932
   122     0.000426
   123     0.000182
   124     0.000068
   125     0.000623
   126     0.000017
   127    -0.000191
   128     0.003275
   129    -0.003947
   130    -0.000425
   131     0.000171
   132    -0.000521
   133     0.001186
   134     0.006778
   135    -0.000691
   136     0.000961
   137     0.000902
   138     0.005225
   139     0.013834
   140    -0.003007
   141     0.004829
   142    -0.006203
   143    -0.008119
   144    -0.042044
   145     0.006225
   146     0.006269
   147    -0.004361
   148    -0.001330
   149    -0.009886
   150     0.030032
   151    -0.000441
   152     0.004188
   153     0.001573
   154    -0.004132
   155    -0.000328
   156     0.005212
   157    -0.003294
   158    -0.001314
   159    -0.000529
   160    -0.000246
   161     0.000143
   162    -0.001361
   163    -0.140065
   164    -0.513389
   165    -0.020477
   166    -0.306365
   167     0.545116
   168    -0.501179
   169    -0.067551
   170     0.133086
   171    -0.122238
   172     0.040947
   173     0.014662
   174     0.020770
   175     0.011566
   176    -0.022338
   177     0.037379
   178     0.000619
   179     0.015471
   180     0.001159
   181     0.001682
   182    -0.002692
Sym=   155a
Ene=   -0.140146E-02
Spin= Alpha
Occup= 0.000967
     1    -0.062747
     2     0.041099
     3    -0.004720
     4     0.005215
     5     0.000511
     6    -0.000062
     7     0.002220
     8    -0.203853
     9     0.060021
    10    -0.000477
    11    -0.009550
    12    -0.001816
    13    -0.049792
    14     0.153892
    15     0.003604
    16     0.000662
    17    -0.003312
    18    -0.040442
    19    -0.029078
    20    -0.069962
    21    -0.020431
    22    -0.069548
    23     0.010923
    24    -0.010293
    25    -0.000741
    26     0.001764
    27    -0.086279
    28     0.443186
    29     0.006357
    30    -0.008705
    31     0.010031
    32    -0.011130
    33     0.047492
    34    -0.040887
    35    -0.066135
    36    -0.154479
    37     0.167411
    38    -0.064753
    39    -0.010053
    40    -0.020242
    41     0.063006
    42    -0.028882
    43     0.067181
    44    -0.000138
    45    -0.164671
    46     0.213268
    47     0.128752
    48    -0.018626
    49    -0.070811
    50     0.268056
    51     0.021341
    52    -0.069913
    53     0.000592
    54    -0.034133
    55    -0.043813
    56    -0.007036
    57     0.023660
    58     0.027858
    59    -0.023560
    60    -0.357374
    61     1.168907
    62     0.279102
    63    -0.133827
    64    -0.002062
    65     0.712202
    66    -0.118015
    67     0.188412
    68    -0.120626
    69    -0.114440
    70    -0.034015
    71     0.047687
    72     0.125583
    73    -0.038543
    74     0.004324
    75     0.029220
    76     0.293028
    77    -0.473467
    78     0.008203
    79     0.013518
    80    -0.015195
    81    -0.112257
    82    -0.092234
    83     0.045894
    84     0.130671
    85    -0.057283
    86     0.195096
    87    -0.023802
    88     0.086914
    89     0.012380
    90     0.099366
    91    -0.271695
    92    -0.263926
    93     0.003120
    94     0.055821
    95    -0.165029
    96     0.012465
    97    -0.004764
    98     0.003812
    99    -0.059795
   100     0.061726
   101    -0.001414
   102     0.012866
   103     0.005504
   104     0.021919
   105     0.008081
   106     0.010014
   107     0.000241
   108    -0.006691
   109    -0.134325
   110     0.015996
   111    -0.000926
   112     0.007554
   113    -0.002450
   114    -0.050206
   115     0.115846
   116    -0.006139
   117    -0.055819
   118     0.030728
   119    -0.091682
   120    -0.184162
   121     0.099280
   122    -0.035209
   123     0.002957
   124    -0.001581
   125    -0.008598
   126     0.004698
   127    -0.021576
   128     0.050713
   129    -0.029546
   130    -0.003035
   131     0.025724
   132    -0.035227
   133     0.147278
   134    -0.212693
   135     0.054883
   136     0.060653
   137    -0.035479
   138    -0.014859
   139     0.006570
   140    -0.004241
   141     0.006404
   142     0.006967
   143    -0.081486
   144     0.225651
   145     0.001326
   146     0.002127
   147    -0.009653
   148     0.020735
   149     0.160543
   150    -0.846275
   151    -0.092186
   152    -0.149124
   153    -0.141070
   154     0.154555
   155    -0.454936
   156    -0.462420
   157     0.459985
   158    -0.363878
   159    -0.163785
   160    -0.285187
   161    -0.066869
   162    -0.615276
   163     0.003430
   164     0.038030
   165    -0.095873
   166     0.013556
   167    -0.012981
   168     0.019200
   169    -0.007858
   170    -0.021252
   171     0.036957
   172     0.009022
   173     0.008019
   174    -0.003767
   175    -0.014956
   176     0.000973
   177    -0.005576
   178    -0.012651
   179    -0.091564
   180    -0.006581
   181     0.028056
   182     0.014406
Sym=   156a
Ene=   -0.973455E-03
Spin= Alpha
Occup= 0.000517
     1     0.013028
     2    -0.096349
     3    -0.007454
     4     0.012041
     5     0.029516
     6     0.000485
     7     0.003849
     8     0.072061
     9     0.274506
    10    -0.003681
    11     0.007479
    12    -0.000827
    13     0.030355
    14    -0.044914
    15     0.021222
    16    -0.217486
    17    -0.152831
    18     0.330286
    19    -0.006440
    20     0.037608
    21     0.009569
    22     0.030515
    23    -0.004563
    24    -0.115278
    25    -0.000137
    26     0.000723
    27    -0.084849
    28     0.294722
    29    -0.000756
    30    -0.000126
    31     0.001817
    32     0.009173
    33     0.007356
    34    -0.017409
    35    -0.078971
    36    -0.037730
    37     0.138208
    38     0.000663
    39    -0.056155
    40     0.026541
    41    -0.000899
    42     0.041273
    43    -0.031519
    44     0.003955
    45    -0.038674
    46    -1.009154
    47     0.058739
    48     0.362387
    49     0.146027
    50    -0.065023
    51    -0.402037
    52    -0.005033
    53    -0.211715
    54    -0.172746
    55     0.002396
    56    -0.050060
    57     0.022195
    58     0.096242
    59     0.003672
    60     0.028693
    61     0.007501
    62    -0.002178
    63    -0.050616
    64    -0.050444
    65    -0.087815
    66    -0.055852
    67    -0.060496
    68     0.009070
    69    -0.024281
    70     0.026565
    71    -0.023194
    72    -0.003296
    73    -0.012430
    74    -0.000261
    75     0.002787
    76    -0.007592
    77    -0.003966
    78    -0.000706
    79     0.000341
    80    -0.001612
    81     0.009497
    82     0.005923
    83     0.000567
    84    -0.007004
    85    -0.018192
    86     0.048559
    87     0.003231
    88    -0.018034
    89    -0.043162
    90    -0.017595
    91    -0.010116
    92     0.051377
    93     0.018998
    94    -0.078372
    95     0.769525
    96    -0.003352
    97     0.248287
    98     0.075979
    99    -0.481511
   100    -0.679195
   101     0.126509
   102     0.269702
   103    -0.483865
   104     0.102184
   105     0.006568
   106    -0.397380
   107     0.686220
   108    -0.031188
   109     0.039292
   110    -0.025306
   111    -0.007397
   112     0.065864
   113     0.000185
   114     0.032703
   115    -0.142777
   116    -0.000315
   117     0.005193
   118    -0.005814
   119     0.008099
   120     0.029222
   121    -0.007497
   122     0.006794
   123     0.011121
   124     0.001496
   125    -0.014277
   126    -0.001078
   127     0.006170
   128     0.022562
   129    -0.033030
   130    -0.008250
   131     0.002163
   132     0.013861
   133    -0.010711
   134    -0.008276
   135     0.009430
   136    -0.004114
   137    -0.003265
   138    -0.826011
   139     0.650583
   140    -0.027271
   141     0.489241
   142     0.049783
   143     0.204256
   144     0.061688
   145     0.033678
   146    -0.012546
   147    -0.005510
   148    -0.000393
   149    -0.032508
   150     0.141071
   151    -0.006850
   152     0.012900
   153     0.015420
   154    -0.045453
   155     0.047528
   156     0.075577
   157    -0.000632
   158    -0.011364
   159    -0.010624
   160    -0.011123
   161    -0.015163
   162     0.002221
   163     0.000058
   164    -0.047005
   165     0.224492
   166     0.007222
   167     0.001232
   168     0.010563
   169    -0.001794
   170     0.084997
   171    -0.009611
   172    -0.004810
   173    -0.009817
   174    -0.018651
   175     0.001018
   176    -0.014595
   177    -0.020081
   178    -0.001091
   179    -0.058815
   180     0.023835
   181     0.007594
   182    -0.004361
Sym=   157a
Ene=   -0.174460E-02
Spin= Alpha
Occup= 0.001043
     1    -0.038965
     2     0.127028
     3     0.006019
     4    -0.007255
     5    -0.003442
     6    -0.000229
     7    -0.000844
     8    -0.010420
     9    -0.106526
    10     0.009049
    11    -0.000261
    12     0.008201
    13    -0.049564
    14    -0.022190
    15     0.002305
    16     0.152064
    17     0.011137
    18    -0.162515
    19     0.060788
    20     0.018399
    21    -0.053052
    22     0.056922
    23    -0.057453
    24    -0.047134
    25    -0.000373
    26    -0.002335
    27     0.035752
    28    -0.140341
    29    -0.000404
    30    -0.000354
    31    -0.000747
    32    -0.004935
    33     0.000077
    34     0.014638
    35     0.057086
    36     0.022738
    37    -0.059811
    38    -0.005904
    39     0.008915
    40     0.003776
    41     0.012693
    42    -0.007822
    43     0.019325
    44     0.000037
    45     0.112035
    46     0.613803
    47    -0.104141
    48    -0.243381
    49    -0.135923
    50    -0.228982
    51     0.283463
    52    -0.125838
    53     0.033884
    54     0.167148
    55     0.035225
    56    -0.041862
    57    -0.053894
    58    -0.072419
    59     0.000708
    60     0.019358
    61    -0.110430
    62     0.011163
    63     0.004537
    64     0.032924
    65     0.113728
    66    -0.081330
    67    -0.005094
    68    -0.006678
    69    -0.002811
    70     0.002768
    71     0.027183
    72    -0.006470
    73    -0.019348
    74     0.001038
    75     0.004224
    76     0.020869
    77     0.002067
    78    -0.001531
    79     0.000361
    80     0.002589
    81     0.005725
    82    -0.007999
    83    -0.008285
    84    -0.042599
    85     0.027694
    86    -0.028876
    87    -0.002721
    88    -0.012241
    89     0.055183
    90    -0.007589
    91     0.015577
    92    -0.024566
    93    -0.033581
    94    -0.027554
    95    -0.462981
    96    -0.070440
    97    -0.131153
    98    -0.110922
    99     0.445718
   100     0.384254
   101     0.096635
   102     0.335765
   103    -0.344317
   104     0.190483
   105     0.479610
   106     0.639226
   107     0.218647
   108     0.010251
   109    -0.001047
   110     0.008000
   111     0.009209
   112    -0.008802
   113    -0.000643
   114    -0.001291
   115    -0.022000
   116    -0.005660
   117     0.003525
   118     0.010326
   119     0.014146
   120    -0.012573
   121     0.044854
   122    -0.003775
   123    -0.001015
   124     0.008038
   125     0.011800
   126    -0.007888
   127     0.000583
   128    -0.008860
   129     0.005174
   130     0.003165
   131     0.004526
   132    -0.011240
   133    -0.011347
   134     0.011372
   135     0.000392
   136     0.000883
   137    -0.008343
   138     0.559031
   139    -0.477452
   140     0.014247
   141    -0.181103
   142    -0.085701
   143     0.006304
   144    -0.337725
   145    -0.005790
   146    -0.033544
   147     0.010925
   148     0.001417
   149     0.010170
   150    -0.082504
   151    -0.010919
   152    -0.015392
   153     0.006141
   154     0.009757
   155    -0.048464
   156     0.024886
   157    -0.000162
   158     0.002667
   159     0.002649
   160     0.000268
   161    -0.000953
   162    -0.004575
   163    -0.008282
   164    -0.056271
   165     0.054718
   166    -0.004718
   167     0.041590
   168    -0.015833
   169     0.038833
   170     0.017052
   171     0.021019
   172    -0.013833
   173     0.009126
   174    -0.020449
   175     0.018526
   176    -0.014283
   177     0.014702
   178     0.010225
   179    -0.009512
   180    -0.023869
   181     0.009577
   182    -0.005370
Sym=   158a
Ene=   -0.175344E-02
Spin= Alpha
Occup= 0.000930
     1     0.092528
     2    -0.184652
     3     0.006825
     4     0.003324
     5     0.007678
     6     0.000304
     7    -0.004498
     8     0.016608
     9    -0.265819
    10    -0.002006
    11     0.007981
    12     0.000340
    13     0.020861
    14    -0.007803
    15     0.003340
    16    -0.195185
    17     0.189678
    18    -0.065000
    19     0.011630
    20    -0.022125
    21     0.072291
    22     0.019639
    23    -0.049238
    24     0.057866
    25    -0.003396
    26    -0.011125
    27    -0.112899
    28     0.408620
    29     0.003297
    30    -0.015865
    31     0.007234
    32    -0.005358
    33     0.037030
    34    -0.019608
    35    -0.113215
    36     0.012787
    37     0.068617
    38     0.087127
    39    -0.284097
    40     0.046814
    41     0.037910
    42     0.084060
    43     0.089280
    44    -0.006224
    45    -0.051423
    46     0.149393
    47     0.035815
    48    -0.019018
    49     0.016865
    50     0.665895
    51     0.128688
    52     0.000103
    53     0.099205
    54    -0.079673
    55     0.071769
    56    -0.024017
    57     0.086591
    58     0.062763
    59    -0.003106
    60    -0.039363
    61     0.038186
    62     0.039207
    63    -0.012193
    64    -0.016439
    65     0.180861
    66     0.033612
    67    -0.110517
    68     0.007420
    69    -0.038633
    70    -0.015569
    71    -0.003965
    72     0.011549
    73     0.016609
    74     0.005802
    75     0.018026
    76     0.239076
    77    -0.404320
    78    -0.008408
    79     0.001738
    80     0.007164
    81     0.013086
    82    -0.029975
    83    -0.002404
    84    -0.123037
    85     0.065882
    86    -0.061220
    87    -0.053655
    88    -0.135367
    89     0.506008
    90    -0.126539
    91     0.090820
    92    -0.015059
    93     0.004598
    94     0.082814
    95    -0.301403
    96    -0.001040
    97    -0.031589
    98    -0.001601
    99    -0.019289
   100     0.113554
   101    -0.005429
   102     0.022671
   103     0.001810
   104     0.008639
   105     0.011201
   106     0.004890
   107     0.024217
   108    -0.068420
   109    -0.104934
   110    -0.008505
   111     0.010570
   112     0.057469
   113     0.003326
   114     0.033951
   115    -0.064749
   116    -0.018543
   117     0.035477
   118    -0.008472
   119    -0.017794
   120    -0.001254
   121     0.045692
   122     0.028545
   123     0.017681
   124    -0.017297
   125    -0.031625
   126     0.001531
   127     0.037379
   128    -0.030239
   129     0.123640
   130    -0.000714
   131    -0.002699
   132     0.014295
   133    -0.066647
   134     0.073889
   135    -0.004543
   136    -0.026735
   137    -0.008268
   138     0.003463
   139     0.013786
   140    -0.011539
   141    -0.008827
   142    -0.014017
   143    -0.117777
   144     0.544894
   145    -0.015142
   146    -0.042855
   147     0.040570
   148     0.007681
   149     0.101508
   150    -0.268900
   151    -0.126523
   152    -0.022852
   153     0.023093
   154    -0.029490
   155    -0.152399
   156     0.029204
   157     0.070165
   158     0.021394
   159    -0.008957
   160    -0.011257
   161     0.016852
   162     0.017783
   163     0.061874
   164     0.271052
   165    -0.220307
   166    -0.123569
   167    -0.020531
   168     0.071465
   169    -0.259682
   170    -0.128163
   171     0.114982
   172    -0.808095
   173     0.337829
   174     0.222747
   175    -0.188101
   176     0.260410
   177     0.056001
   178    -0.002934
   179     0.034083
   180     0.006361
   181     0.007717
   182     0.012459
Sym=   159a
Ene=   -0.451721E-03
Spin= Alpha
Occup= 0.000221
     1    -0.086765
     2     0.118444
     3    -0.007626
     4    -0.007222
     5    -0.027530
     6     0.000165
     7     0.015709
     8     0.015938
     9     0.064240
    10    -0.002737
    11    -0.005922
    12     0.004090
    13     0.050218
    14     0.089604
    15    -0.029418
    16     0.141193
    17    -0.052649
    18    -0.043397
    19    -0.021388
    20    -0.004307
    21    -0.168629
    22    -0.014242
    23     0.078297
    24    -0.108902
    25    -0.000380
    26     0.005207
    27     0.216560
    28    -0.865788
    29    -0.001629
    30     0.000231
    31    -0.002703
    32     0.016272
    33    -0.040141
    34     0.006381
    35     0.124289
    36     0.315004
    37    -0.413700
    38    -0.015330
    39     0.158838
    40    -0.246874
    41    -0.048865
    42    -0.416743
    43     0.108769
    44     0.008805
    45    -0.200568
    46     0.710127
    47     0.163259
    48    -0.006364
    49     0.273924
    50    -0.421816
    51    -0.265011
    52    -0.395327
    53    -0.440900
    54     0.436449
    55    -0.430790
    56     0.159346
    57    -0.325298
    58     0.129433
    59     0.000234
    60     0.044070
    61    -0.190815
    62     0.109383
    63     0.063824
    64    -0.069571
    65     0.234791
    66     0.178128
    67    -0.174629
    68     0.023343
    69    -0.004166
    70     0.058475
    71    -0.017103
    72    -0.083516
    73     0.031533
    74     0.000579
    75    -0.008550
    76    -0.049255
    77     0.178542
    78     0.007035
    79     0.001607
    80     0.001447
    81    -0.037339
    82    -0.058334
    83     0.018477
    84    -0.009242
    85     0.112828
    86    -0.303519
    87    -0.010179
    88    -0.072355
    89     0.216061
    90    -0.006230
    91     0.062684
    92    -0.190595
    93    -0.004279
    94    -0.152279
    95     0.457395
    96     0.023109
    97     0.108947
    98     0.050918
    99     0.044841
   100    -0.141986
   101    -0.040148
   102    -0.101914
   103    -0.030847
   104    -0.056338
   105    -0.050848
   106    -0.039746
   107    -0.093259
   108     0.046833
   109     0.274877
   110     0.085528
   111     0.020296
   112    -0.269592
   113    -0.000025
   114    -0.082995
   115     0.420375
   116     0.017152
   117    -0.029517
   118    -0.065547
   119     0.222989
   120    -0.056488
   121    -0.207501
   122    -0.004136
   123    -0.007833
   124    -0.003752
   125     0.037558
   126    -0.041789
   127     0.002675
   128    -0.115963
   129     0.082767
   130     0.057251
   131    -0.003711
   132     0.038888
   133    -0.077024
   134     0.090708
   135    -0.028599
   136    -0.019581
   137     0.032631
   138    -0.000187
   139     0.042449
   140     0.005759
   141     0.007704
   142     0.021668
   143     0.309127
   144    -0.782593
   145     0.039095
   146     0.145058
   147    -0.121383
   148    -0.000704
   149     0.039445
   150    -0.182954
   151    -0.037996
   152     0.025306
   153     0.009352
   154    -0.025203
   155    -0.072140
   156     0.077551
   157     0.014648
   158     0.052136
   159     0.011788
   160    -0.028253
   161    -0.043663
   162     0.048329
   163     0.019315
   164    -0.029355
   165     0.424356
   166     0.022766
   167     0.125893
   168     0.004764
   169     0.085704
   170     0.635223
   171    -0.013940
   172    -0.299547
   173     0.363146
   174    -0.221447
   175    -0.098993
   176    -0.299448
   177    -0.344402
   178     0.029847
   179    -0.136614
   180    -0.013208
   181     0.033491
   182    -0.058657
Sym=   160a
Ene=   -0.167599E-02
Spin= Alpha
Occup= 0.000895
     1    -0.090109
     2     0.154672
     3    -0.006973
     4    -0.004836
     5    -0.008485
     6    -0.000303
     7     0.005329
     8    -0.009122
     9     0.102726
    10     0.003630
    11    -0.006301
    12    -0.002762
    13    -0.023795
    14     0.020940
    15     0.006200
    16     0.173597
    17    -0.077009
    18    -0.015716
    19    -0.020614
    20     0.016540
    21    -0.081398
    22    -0.015261
    23     0.061232
    24    -0.060006
    25     0.003165
    26     0.010299
    27     0.134410
    28    -0.499681
    29    -0.002751
    30     0.014307
    31    -0.007313
    32     0.005419
    33    -0.034970
    34     0.020547
    35     0.130096
    36     0.008017
    37    -0.113647
    38    -0.088585
    39     0.303802
    40    -0.075750
    41    -0.036456
    42    -0.137455
    43    -0.071845
    44     0.006019
    45     0.007201
    46     0.126633
    47    -0.042552
    48     0.027037
    49    -0.001223
    50    -0.461548
    51    -0.136779
    52    -0.241929
    53    -0.190574
    54     0.174296
    55    -0.121860
    56     0.009659
    57    -0.103588
    58    -0.018093
    59     0.004470
    60     0.046627
    61    -0.111954
    62    -0.011447
    63     0.020792
    64     0.003845
    65    -0.052325
    66     0.008628
    67     0.054027
    68    -0.016997
    69     0.026086
    70     0.032251
    71    -0.009760
    72    -0.018436
    73    -0.005266
    74    -0.005486
    75    -0.019344
    76    -0.220942
    77     0.374970
    78     0.011477
    79    -0.000094
    80    -0.007239
    81    -0.030878
    82     0.015378
    83     0.007017
    84     0.136456
    85    -0.048459
    86     0.020070
    87     0.057473
    88     0.121892
    89    -0.450801
    90     0.125901
    91    -0.082480
    92    -0.017575
    93    -0.006616
    94    -0.097511
    95     0.293564
    96     0.012030
    97     0.041292
    98     0.004187
    99     0.023292
   100    -0.091033
   101     0.016240
   102    -0.033401
   103    -0.005929
   104    -0.010629
   105    -0.022035
   106    -0.011416
   107    -0.025095
   108     0.070420
   109     0.153456
   110     0.020374
   111    -0.009880
   112    -0.086865
   113    -0.002473
   114    -0.048714
   115     0.164473
   116     0.017929
   117    -0.039163
   118     0.002335
   119     0.020398
   120    -0.025600
   121    -0.060365
   122    -0.028147
   123    -0.021683
   124     0.014346
   125     0.034810
   126    -0.004826
   127    -0.038173
   128     0.011439
   129    -0.073503
   130     0.007458
   131     0.001784
   132    -0.012899
   133     0.040846
   134    -0.002933
   135     0.005393
   136     0.034559
   137     0.012141
   138    -0.018577
   139     0.052611
   140     0.005177
   141    -0.012341
   142     0.009934
   143     0.186986
   144    -0.525253
   145     0.035756
   146     0.039578
   147    -0.019648
   148    -0.006743
   149    -0.078392
   150     0.130801
   151     0.120317
   152     0.027184
   153    -0.014230
   154     0.061874
   155     0.137097
   156    -0.030927
   157    -0.071457
   158    -0.014282
   159     0.014366
   160     0.006796
   161    -0.020033
   162    -0.013891
   163    -0.055740
   164    -0.247686
   165     0.209710
   166    -0.044702
   167     0.057955
   168     0.072193
   169     0.038673
   170     0.225983
   171     0.113558
   172    -0.285674
   173     0.085386
   174     0.412364
   175    -0.005967
   176     0.183497
   177     0.640483
   178     0.020367
   179    -0.075885
   180    -0.006212
   181     0.002895
   182    -0.020934
Sym=   161a
Ene=   -0.136125E-03
Spin= Alpha
Occup= 0.000015
     1    -0.023911
     2     0.155506
     3    -0.061532
     4     0.034066
     5     0.013580
     6     0.000494
     7    -0.002024
     8     0.105830
     9    -0.116982
    10     0.003053
    11     0.011352
    12    -0.008391
    13    -0.052708
    14    -0.187510
    15     0.124742
    16     0.341633
    17    -0.166286
    18     0.035339
    19    -0.000771
    20     0.167142
    21     0.108997
    22    -0.018827
    23    -0.074144
    24    -0.160271
    25     0.000070
    26     0.003785
    27     0.062318
    28    -0.190983
    29     0.000727
    30     0.001311
    31    -0.001284
    32    -0.008959
    33    -0.017309
    34     0.015900
    35     0.068139
    36     0.078073
    37    -0.098850
    38    -0.021253
    39    -0.006920
    40    -0.001795
    41    -0.011756
    42     0.017235
    43     0.021933
    44    -0.039757
    45     0.139779
    46     1.750302
    47    -1.416668
    48    -0.291344
    49    -0.144174
    50    -0.140529
    51     0.333855
    52    -0.510748
    53    -0.635182
    54     0.773049
    55     0.459196
    56     0.169524
    57    -0.075715
    58     0.060815
    59    -0.003981
    60     0.303037
    61    -1.812746
    62     0.061677
    63    -0.016835
    64    -0.186120
    65    -0.003043
    66    -0.104288
    67    -1.080044
    68     0.062706
    69     0.126584
    70    -0.021864
    71     0.037013
    72     0.210676
    73     0.073955
    74     0.000171
    75     0.005990
    76     0.082290
    77    -0.111218
    78    -0.001050
    79     0.001562
    80     0.000416
    81    -0.014561
    82    -0.011869
    83     0.002244
    84     0.144387
    85    -0.032401
    86    -0.124279
    87    -0.078887
    88     0.009285
    89     0.025503
    90    -0.007430
    91     0.052758
    92     0.014618
    93    -0.007749
    94     0.350609
    95    -1.540595
    96    -0.052925
    97    -0.095175
    98    -0.027752
    99     0.270306
   100     0.838874
   101     0.411999
   102     0.228316
   103    -0.127673
   104     0.213786
   105    -0.211340
   106    -0.078032
   107    -0.084745
   108     0.006227
   109     0.068415
   110     0.023550
   111    -0.012340
   112    -0.021769
   113    -0.002309
   114     0.033183
   115    -0.129098
   116     0.020383
   117     0.001106
   118    -0.015758
   119     0.073026
   120     0.011748
   121    -0.062978
   122     0.028259
   123     0.005799
   124     0.021909
   125    -0.053351
   126    -0.006660
   127     0.009823
   128     0.034326
   129    -0.010966
   130    -0.003912
   131     0.008610
   132    -0.001248
   133    -0.029503
   134    -0.054682
   135     0.082542
   136    -0.009776
   137    -0.102312
   138    -0.065872
   139    -0.082810
   140    -0.082763
   141     0.009763
   142     0.006525
   143     0.488266
   144    -0.146819
   145     1.054465
   146    -0.043987
   147     0.108865
   148     0.006848
   149    -0.105065
   150     0.703994
   151    -0.080642
   152     0.023379
   153     0.026269
   154    -0.415530
   155     0.206290
   156     0.271824
   157     0.026426
   158    -0.090626
   159    -0.077272
   160    -0.003046
   161    -0.099768
   162    -0.002719
   163    -0.002933
   164     0.177976
   165    -0.797626
   166     0.035920
   167    -0.034752
   168     0.056020
   169     0.245629
   170    -0.282522
   171     0.336598
   172     0.085875
   173     0.045876
   174     0.054193
   175     0.099078
   176    -0.109419
   177     0.061298
   178    -0.134119
   179    -0.346402
   180    -0.024251
   181     0.025114
   182    -0.044813
Sym=   162a
Ene=   -0.843783E-04
Spin= Alpha
Occup= 0.000016
     1    -0.084418
     2     0.054953
     3    -0.066257
     4     0.040735
     5    -0.041332
     6    -0.001002
     7    -0.036786
     8    -0.291924
     9     0.155299
    10     0.008061
    11    -0.010556
    12    -0.011871
    13    -0.162910
    14     0.062575
    15     0.131138
    16     0.043199
    17    -0.033800
    18    -0.047355
    19    -0.273659
    20    -0.081222
    21     0.628756
    22    -0.199132
    23    -0.084118
    24    -0.357175
    25     0.000640
    26     0.029246
    27     0.182562
    28    -0.234791
    29    -0.000267
    30    -0.000467
    31     0.000983
    32    -0.032837
    33    -0.009648
    34    -0.014072
    35     0.199467
    36     0.046970
    37    -0.359866
    38    -0.129285
    39     0.016303
    40    -0.206443
    41    -0.043055
    42     0.084122
    43    -0.018166
    44    -0.005412
    45     0.125623
    46    -0.244320
    47    -0.047276
    48     0.060678
    49     0.172393
    50     0.015707
    51    -0.037729
    52     0.136611
    53    -0.009196
    54    -0.193334
    55     0.357318
    56    -0.155375
    57    -0.315669
    58     0.256788
    59     0.002243
    60    -0.030426
    61     0.620586
    62    -0.089359
    63     0.060650
    64     0.039474
    65    -0.447097
    66     0.000662
    67    -0.824439
    68    -0.290428
    69     0.127343
    70     0.119377
    71     0.160818
    72     0.590230
    73     0.300986
    74    -0.000513
    75    -0.013811
    76    -0.112625
    77     0.047683
    78    -0.003232
    79    -0.002207
    80     0.000956
    81     0.066614
    82     0.020314
    83    -0.006449
    84    -0.044861
    85    -0.002293
    86    -0.026723
    87     0.030888
    88    -0.012721
    89     0.068045
    90     0.022620
    91     0.052763
    92     0.058090
    93     0.002053
    94     0.019926
    95    -0.039631
    96     0.025934
    97    -0.019344
    98    -0.006045
    99    -0.168784
   100    -0.078011
   101     0.114356
   102    -0.044048
   103     0.150375
   104    -0.120382
   105    -0.130094
   106     0.171396
   107     0.215347
   108     0.162248
   109    -0.317664
   110     0.157540
   111    -0.101422
   112    -0.186158
   113     0.003239
   114    -0.140587
   115     0.648718
   116    -0.009251
   117     0.025831
   118    -0.050213
   119    -0.301399
   120     0.049007
   121    -0.321525
   122     0.030112
   123    -0.088751
   124    -0.042824
   125    -0.072463
   126    -0.050289
   127     0.012100
   128     0.068974
   129     0.032369
   130     0.015124
   131    -0.077673
   132    -0.000757
   133     0.310547
   134     0.027380
   135    -0.073249
   136     0.061529
   137     0.157727
   138    -0.070919
   139    -0.006679
   140    -0.059612
   141    -0.121953
   142     0.049031
   143     0.145360
   144    -0.154242
   145    -0.084853
   146     0.025413
   147    -0.030268
   148    -0.019036
   149     0.049916
   150    -0.433218
   151     0.172592
   152    -0.008994
   153    -0.011718
   154     0.279438
   155     0.259771
   156     0.029986
   157     0.217752
   158     0.009102
   159     0.114188
   160    -0.160026
   161     0.046985
   162     0.176006
   163    -0.000615
   164    -0.026070
   165     0.148322
   166     0.045740
   167    -0.039305
   168    -0.003809
   169     0.055790
   170    -0.012269
   171    -0.143780
   172    -0.009372
   173    -0.012165
   174     0.029128
   175     0.016498
   176     0.031051
   177    -0.044217
   178    -0.968229
   179     0.185576
   180    -0.201237
   181    -0.155446
   182    -0.117332
Sym=   163a
Ene=   -0.103379E-02
Spin= Alpha
Occup= 0.000228
     1    -0.104058
     2     0.059875
     3    -0.025886
     4     0.025762
     5    -0.053386
     6    -0.082331
     7    -0.954600
     8    -4.178116
     9     0.916890
    10     0.148154
    11    -0.061558
    12    -0.267575
    13    -0.883205
    14     0.306953
    15     1.250883
    16     0.295433
    17    -0.206204
    18    -0.366213
    19     1.142154
    20     1.349155
    21     1.505384
    22     0.066113
    23     0.006449
    24    -0.155439
    25    -0.000190
    26     0.002918
    27    -0.113392
    28    -0.256824
    29    -0.003520
    30    -0.002408
    31     0.018671
    32     0.052078
    33     0.020423
    34    -0.166720
    35     0.045699
    36    -0.001677
    37    -0.072127
    38     0.075517
    39    -0.069726
    40    -0.136405
    41     0.008254
    42    -0.037026
    43     0.010734
    44    -0.002614
    45     0.163817
    46     0.254470
    47    -0.058856
    48    -0.058274
    49     0.084719
    50    -0.092526
    51     0.048797
    52    -0.211058
    53     0.093503
    54     0.055136
    55     0.010918
    56    -0.032742
    57     0.017133
    58    -0.004909
    59    -0.003708
    60    -0.124075
    61     0.539653
    62     0.035906
    63     0.165466
    64    -0.061416
    65     0.385738
    66     0.264864
    67    -0.279538
    68    -0.040112
    69    -0.028515
    70    -0.087597
    71     0.046311
    72    -0.005284
    73    -0.016813
    74    -0.001154
    75    -0.000359
    76    -0.041584
    77    -0.017721
    78    -0.009422
    79     0.007596
    80    -0.002168
    81     0.024269
    82    -0.087014
    83     0.015851
    84     0.098769
    85    -0.000030
    86    -0.029712
    87    -0.051164
    88    -0.079345
    89     0.012714
    90     0.065195
    91    -0.023992
    92     0.013526
    93     0.010415
    94     0.349280
    95    -1.004480
    96     0.019822
    97     0.047995
    98    -0.149268
    99    -0.146580
   100    -0.155458
   101     0.816634
   102     0.158925
   103     0.122694
   104    -0.067095
   105    -0.038511
   106     0.088994
   107     0.062559
   108    -0.091273
   109     0.170534
   110    -0.091483
   111     0.006515
   112     0.143855
   113    -0.003671
   114    -0.289107
   115     0.913871
   116    -0.127987
   117    -0.025621
   118    -0.047177
   119    -0.593068
   120    -0.209483
   121    -0.397537
   122     0.126113
   123    -0.131062
   124    -0.214954
   125    -0.005767
   126     0.068027
   127    -0.029478
   128     0.127960
   129    -0.012173
   130    -0.008112
   131    -0.075012
   132     0.035948
   133    -0.049943
   134     0.049510
   135    -0.030296
   136    -0.021454
   137     0.013227
   138    -0.030183
   139     0.108716
   140    -0.008106
   141     0.082199
   142    -0.094391
   143    -0.074116
   144    -0.140932
   145    -0.030471
   146    -0.005258
   147     0.020340
   148    -0.000688
   149     0.096708
   150    -0.547655
   151    -0.004427
   152    -0.005797
   153     0.001394
   154     0.142501
   155    -0.272552
   156     0.062437
   157     0.054255
   158     0.012493
   159     0.039948
   160     0.030854
   161    -0.021994
   162     0.027865
   163     0.001497
   164     0.012659
   165    -0.030115
   166     0.003466
   167    -0.005662
   168    -0.004506
   169     0.002563
   170    -0.041003
   171     0.038790
   172     0.010728
   173    -0.008031
   174    -0.009740
   175    -0.008688
   176    -0.000621
   177     0.010126
   178     0.031436
   179    -0.315493
   180    -0.019705
   181    -0.021907
   182     0.046776
Sym=   164a
Ene=   -0.429379E-04
Spin= Alpha
Occup= 0.000007
     1     0.037129
     2    -0.058190
     3     0.128932
     4    -0.031005
     5    -0.354229
     6    -0.000012
     7     0.014967
     8    -0.197157
     9     0.069574
    10     0.004234
    11    -0.011303
    12    -0.013592
    13    -0.083451
    14     0.192176
    15     0.152650
    16     0.110676
    17     0.039504
    18    -0.209390
    19    -0.000841
    20    -0.181123
    21    -0.117417
    22    -0.031021
    23     0.039807
    24     0.068118
    25     0.004717
    26     0.152756
    27    -0.055808
    28     1.443028
    29    -0.011734
    30    -0.013498
    31     0.018809
    32     0.058863
    33     0.138612
    34    -0.204689
    35     0.251057
    36    -0.553236
    37     0.274384
    38    -0.682687
    39    -0.360100
    40    -0.554973
    41     0.053181
    42     0.013654
    43    -0.177573
    44    -0.002948
    45    -0.057357
    46     0.337660
    47     0.057538
    48    -0.107273
    49    -0.162979
    50    -0.109835
    51     0.097794
    52    -0.102633
    53     0.108782
    54     0.103736
    55    -0.153617
    56     0.139550
    57     0.094037
    58     0.202691
    59     0.001784
    60    -0.174390
    61     0.925156
    62    -0.014928
    63     0.028454
    64     0.005183
    65     0.338434
    66     0.219779
    67     0.213243
    68     0.013001
    69    -0.118698
    70     0.037247
    71    -0.065119
    72    -0.055196
    73    -0.002456
    74    -0.000099
    75    -0.003643
    76     0.085942
    77    -0.451719
    78     0.002666
    79     0.008191
    80     0.002188
    81    -0.050589
    82    -0.120603
    83    -0.030547
    84    -0.234132
    85    -0.396069
    86     0.570338
    87     0.201400
    88    -0.052176
    89    -0.099023
    90     0.101455
    91    -0.135756
    92     0.144472
    93     0.002328
    94     0.039612
    95    -0.108674
    96    -0.011711
    97    -0.048215
    98     0.001388
    99     0.142027
   100     0.308408
   101     0.143792
   102    -0.073981
   103    -0.129316
   104     0.169594
   105     0.017399
   106    -0.043728
   107     0.011049
   108     0.043526
   109    -0.048918
   110     0.239083
   111     0.496299
   112    -0.069449
   113     0.011463
   114    -0.134173
   115     0.182990
   116     0.022593
   117     0.044853
   118    -0.080374
   119    -0.033954
   120    -0.274067
   121    -0.597034
   122    -0.012164
   123    -0.258712
   124    -0.021861
   125    -0.063321
   126    -0.148757
   127    -0.188737
   128     0.291669
   129     0.062178
   130    -0.466720
   131     0.000149
   132     0.106838
   133    -0.154642
   134    -0.009257
   135     0.144640
   136    -0.073557
   137     0.180777
   138    -0.074043
   139    -0.008733
   140    -0.225166
   141     0.049613
   142    -0.259719
   143    -0.103758
   144    -0.146158
   145    -0.036616
   146     0.053002
   147    -0.030670
   148    -0.011826
   149     0.197200
   150    -1.092777
   151     0.023838
   152    -0.012082
   153    -0.028716
   154    -0.002778
   155    -0.585105
   156    -0.152707
   157    -0.015723
   158     0.177932
   159     0.108934
   160     0.128054
   161    -0.032376
   162     0.007882
   163    -0.003375
   164     0.015681
   165    -0.013592
   166     0.022059
   167    -0.031453
   168     0.040856
   169    -0.005692
   170    -0.001333
   171     0.050096
   172     0.037913
   173     0.035795
   174     0.009600
   175    -0.045576
   176     0.005552
   177    -0.012106
   178     0.065259
   179    -0.140331
   180    -0.015169
   181    -0.101814
   182     0.092911
Sym=   165a
Ene=   -0.410363E-04
Spin= Alpha
Occup= 0.000007
     1     0.010476
     2    -0.044325
     3     0.052089
     4     0.028927
     5    -0.345545
     6    -0.000899
     7    -0.045004
     8    -0.076722
     9     0.409192
    10     0.001993
    11    -0.000667
    12    -0.005638
    13     0.029610
    14    -0.077389
    15     0.017357
    16     0.326835
    17    -0.152944
    18    -0.159307
    19     0.249737
    20     0.282135
    21     0.029648
    22     0.058478
    23    -0.065541
    24     0.124863
    25    -0.001251
    26    -0.023469
    27     0.413078
    28    -1.896944
    29     0.003637
    30     0.005600
    31    -0.007607
    32    -0.053130
    33    -0.084955
    34     0.093808
    35     0.629591
    36     0.412595
    37    -0.898601
    38     0.043202
    39     0.292820
    40    -0.136901
    41    -0.141344
    42     0.063593
    43     0.099742
    44     0.027292
    45    -0.169253
    46     0.439390
    47    -0.146420
    48     0.207935
    49     0.349255
    50    -0.052507
    51     0.124179
    52    -0.144870
    53    -0.510438
    54    -0.327362
    55     0.108150
    56    -0.047013
    57     0.038363
    58    -0.329080
    59    -0.002262
    60     0.150291
    61    -0.841080
    62     0.055718
    63    -0.118720
    64     0.017186
    65     0.264164
    66    -0.476933
    67    -0.159816
    68    -0.098873
    69    -0.010042
    70     0.192208
    71    -0.089892
    72     0.045155
    73    -0.067968
    74    -0.000717
    75    -0.011959
    76     0.018024
    77    -0.257471
    78     0.003846
    79     0.001141
    80     0.001306
    81     0.007877
    82     0.001990
    83    -0.013469
    84     0.414547
    85    -0.001320
    86    -0.304032
    87    -0.111702
    88    -0.075278
    89     0.218006
    90    -0.018021
    91     0.061749
    92    -0.085192
    93     0.003625
    94    -0.111756
    95     0.311947
    96     0.018014
    97     0.069900
    98     0.004515
    99     0.028290
   100    -0.613609
   101    -0.055972
   102    -0.186391
   103     0.088314
   104    -0.025754
   105     0.241991
   106    -0.015558
   107     0.021900
   108    -0.030806
   109     0.824969
   110     0.214459
   111    -0.329088
   112     0.126991
   113    -0.000708
   114    -0.116637
   115     0.852028
   116     0.034881
   117     0.000134
   118    -0.058289
   119     0.449407
   120    -0.060225
   121    -0.333981
   122    -0.029182
   123    -0.031013
   124     0.058190
   125     0.059705
   126     0.062592
   127     0.033024
   128    -0.198340
   129     0.038503
   130    -0.079191
   131     0.156647
   132     0.082870
   133     0.087722
   134     0.057672
   135     0.085132
   136     0.140352
   137     0.074052
   138     0.192428
   139    -0.033368
   140    -0.062031
   141     0.137094
   142    -0.319634
   143     0.231460
   144     0.008525
   145     0.331985
   146     0.140880
   147     0.333118
   148     0.014639
   149    -0.146148
   150     0.611461
   151    -0.045588
   152    -0.001233
   153    -0.010413
   154     0.089551
   155     0.343194
   156    -0.109829
   157    -0.050917
   158    -0.092569
   159    -0.168404
   160    -0.016758
   161    -0.002085
   162     0.063349
   163     0.004598
   164    -0.057564
   165     0.165929
   166    -0.045491
   167     0.060050
   168    -0.079057
   169    -0.042557
   170     0.075490
   171    -0.179051
   172    -0.070303
   173    -0.075633
   174     0.008151
   175     0.041655
   176    -0.000126
   177    -0.026671
   178     0.095255
   179    -0.156768
   180    -0.317174
   181    -0.066234
   182     0.257180
Sym=   166a
Ene=   -0.102757E-03
Spin= Alpha
Occup= 0.000021
     1     0.325492
     2    -0.201514
     3     0.249025
     4    -0.073268
     5     0.074882
     6     0.000079
     7     0.036085
     8     0.420955
     9    -0.171044
    10    -0.009174
    11     0.022494
    12     0.008865
    13     0.156063
    14    -0.230750
    15    -0.094573
    16    -0.173311
    17     0.189506
    18     0.048663
    19     0.053825
    20    -0.197079
    21    -0.266846
    22     0.530871
    23     0.455141
    24     0.370454
    25    -0.000687
    26    -0.021336
    27    -0.159344
    28     0.152629
    29     0.000023
    30     0.002467
    31     0.005267
    32     0.019705
    33    -0.011585
    34    -0.060425
    35    -0.171381
    36     0.036341
    37     0.143917
    38     0.121757
    39    -0.063753
    40     0.103007
    41    -0.051429
    42     0.004235
    43    -0.030527
    44     0.004829
    45    -0.093591
    46    -0.259477
    47     0.080936
    48    -0.127244
    49    -0.232208
    50     0.176082
    51    -0.043043
    52     0.119022
    53    -0.091958
    54     0.150551
    55    -0.211286
    56     0.193300
    57     0.014107
    58    -0.085376
    59    -0.002105
    60    -0.044992
    61     0.517232
    62    -0.038819
    63    -0.106641
    64     0.078126
    65    -0.415249
    66    -0.654769
    67     0.103421
    68    -0.127863
    69    -0.234977
    70     0.437419
    71     0.349323
    72     0.213584
    73     0.126414
    74    -0.000290
    75     0.004643
    76    -0.247199
    77     0.279438
    78    -0.014562
    79     0.000181
    80     0.002432
    81     0.174927
    82    -0.003803
    83    -0.000395
    84    -0.110657
    85     0.012673
    86    -0.025887
    87    -0.066392
    88    -0.063966
    89    -0.064990
    90    -0.081866
    91     0.072620
    92     0.092632
    93     0.001337
    94    -0.072631
    95     0.271882
    96     0.023183
    97     0.003124
    98     0.054782
    99    -0.016582
   100     0.071329
   101    -0.242647
   102    -0.025686
   103    -0.174248
   104     0.117227
   105    -0.019258
   106    -0.063566
   107    -0.113006
   108    -0.018251
   109    -0.025812
   110    -0.047505
   111     0.008084
   112     0.136391
   113     0.002421
   114     0.024893
   115    -0.105311
   116     0.038298
   117    -0.017102
   118    -0.009273
   119     0.225845
   120    -0.086495
   121    -0.067877
   122    -0.027794
   123     0.075405
   124    -0.073386
   125     0.217042
   126     0.176054
   127    -0.021233
   128    -0.113986
   129    -0.011380
   130     0.020614
   131    -0.036381
   132     0.082022
   133     0.618924
   134    -0.120553
   135     0.114171
   136     0.098422
   137    -0.087979
   138    -0.016009
   139     0.037117
   140     0.028155
   141     0.074762
   142    -0.026933
   143     0.098609
   144     0.088754
   145     0.000334
   146     0.020121
   147    -0.079432
   148    -0.009844
   149    -0.026470
   150    -0.308373
   151     0.144497
   152    -0.003663
   153     0.038254
   154     0.343553
   155     0.660466
   156    -0.042379
   157     0.346089
   158    -0.315772
   159     0.102873
   160    -0.029459
   161     0.093946
   162     0.114190
   163     0.000430
   164    -0.012891
   165     0.045064
   166     0.007326
   167     0.000132
   168     0.005659
   169     0.043956
   170     0.042094
   171    -0.010572
   172    -0.042598
   173     0.027369
   174    -0.001781
   175     0.015775
   176    -0.044992
   177    -0.023059
   178    -0.620340
   179     0.195865
   180    -0.136524
   181    -0.060453
   182    -0.113171
Sym=   167a
Ene=   -0.436798E-04
Spin= Alpha
Occup= 0.000008
     1     0.010578
     2     0.041780
     3     0.131670
     4    -0.131215
     5    -0.378909
     6     0.000629
     7     0.032564
     8     0.284090
     9     0.125741
    10    -0.006111
    11     0.009535
    12    -0.000294
    13     0.084164
    14    -0.169032
    15    -0.050094
    16     0.149219
    17     0.016375
    18    -0.168361
    19    -0.061498
    20     0.078773
    21    -0.296680
    22     0.074321
    23     0.026231
    24     0.119670
    25     0.000077
    26     0.008377
    27     0.146445
    28    -0.729144
    29     0.000711
    30     0.000449
    31     0.004218
    32    -0.008982
    33    -0.023246
    34    -0.033314
    35     0.125002
    36     0.286816
    37    -0.403135
    38     0.000179
    39    -0.008592
    40    -0.113736
    41    -0.052668
    42     0.011727
    43     0.089897
    44    -0.014715
    45     0.180604
    46    -0.129196
    47    -0.010444
    48     0.144922
    49     0.191142
    50    -0.039745
    51     0.038355
    52     0.094945
    53     0.337673
    54    -0.025136
    55     0.119456
    56     0.189032
    57     0.088975
    58    -0.007117
    59    -0.018240
    60     0.233391
    61    -0.921952
    62     0.029328
    63     0.016263
    64    -0.042728
    65    -0.308320
    66    -0.318898
    67    -0.417883
    68     0.167079
    69     0.229535
    70     0.030183
    71     0.107044
    72     0.150652
    73     0.100352
    74     0.000664
    75     0.034141
    76    -0.227410
    77     0.517948
    78    -0.014395
    79     0.008257
    80     0.003103
    81     0.165342
    82    -0.088789
    83    -0.006865
    84    -0.060301
    85     0.048029
    86    -0.336970
    87    -0.107923
    88    -0.292530
    89    -0.101561
    90    -0.036458
    91     0.123940
    92    -0.050851
    93     0.008734
    94    -0.137656
    95     0.597924
    96     0.038323
    97    -0.009490
    98     0.029912
    99    -0.210307
   100     0.079097
   101    -0.345825
   102     0.128804
   103    -0.146079
   104    -0.215019
   105    -0.038013
   106    -0.035672
   107    -0.032705
   108     0.025309
   109     0.124884
   110     0.070337
   111    -0.143471
   112     0.078646
   113     0.006911
   114    -0.129764
   115     0.546997
   116     0.019153
   117    -0.020878
   118    -0.002104
   119     0.355846
   120    -0.301201
   121    -0.185644
   122     0.106795
   123    -0.187085
   124    -0.083422
   125    -0.033597
   126     0.042782
   127    -0.064188
   128    -0.068202
   129     0.001138
   130    -0.406939
   131     0.277603
   132     0.091979
   133     0.004021
   134     0.031874
   135    -0.329245
   136    -0.086227
   137    -0.433247
   138    -0.071549
   139    -0.057129
   140     0.334069
   141    -0.060881
   142     0.352239
   143    -0.175385
   144    -0.048846
   145    -0.224291
   146     0.095919
   147     0.006861
   148    -0.000159
   149    -0.058038
   150     0.385857
   151     0.015631
   152     0.010853
   153     0.042914
   154     0.128363
   155     0.292333
   156     0.407367
   157     0.015172
   158    -0.121501
   159     0.096761
   160    -0.128329
   161     0.009979
   162    -0.163857
   163    -0.000687
   164     0.020778
   165    -0.061210
   166     0.010692
   167    -0.017498
   168     0.018656
   169     0.027877
   170    -0.077236
   171     0.029066
   172     0.006417
   173    -0.012837
   174     0.036233
   175    -0.002152
   176    -0.007055
   177     0.018100
   178    -0.252252
   179     0.115973
   180     0.051429
   181     0.072906
   182    -0.311191
Sym=   168a
Ene=   -0.522518E-04
Spin= Alpha
Occup= 0.000009
     1     0.095442
     2    -0.043611
     3     0.073586
     4    -0.156860
     5     0.184096
     6     0.001028
     7     0.056159
     8     0.351860
     9     0.077429
    10    -0.002699
    11     0.009900
    12     0.003842
    13     0.009709
    14    -0.174039
    15    -0.048969
    16    -0.224499
    17     0.108398
    18     0.181704
    19    -0.218253
    20    -0.131283
    21    -0.192946
    22     0.218480
    23    -0.006201
    24     0.136063
    25    -0.000559
    26    -0.013738
    27    -0.214305
    28     0.689244
    29     0.000441
    30     0.000489
    31     0.005939
    32     0.010470
    33     0.019229
    34    -0.086699
    35    -0.144793
    36    -0.218238
    37     0.309837
    38     0.086958
    39    -0.012092
    40    -0.001053
    41     0.059598
    42    -0.007840
    43    -0.011036
    44     0.005681
    45    -0.029665
    46    -0.018557
    47    -0.118550
    48     0.270645
    49     0.380018
    50    -0.033075
    51     0.071393
    52     0.061822
    53    -0.319682
    54    -0.184252
    55     0.342425
    56    -0.131311
    57    -0.232263
    58    -0.432974
    59     0.001851
    60     0.111079
    61    -0.499091
    62     0.067120
    63    -0.054191
    64    -0.025193
    65     0.083185
    66    -0.510241
    67    -0.449196
    68     0.052376
    69     0.236840
    70    -0.292261
    71     0.209428
    72     0.198223
    73     0.116763
    74     0.000158
    75     0.005285
    76     0.052320
    77    -0.285227
    78    -0.001099
    79     0.012316
    80    -0.000649
    81     0.004079
    82    -0.111235
    83    -0.005067
    84    -0.204303
    85    -0.956662
    86     0.089265
    87     0.253818
    88    -0.280930
    89    -0.044601
    90     0.427826
    91     0.010730
    92    -0.016163
    93     0.003126
    94    -0.129387
    95     0.364042
    96    -0.002091
    97     0.056751
    98     0.001649
    99     0.156049
   100    -0.658045
   101    -0.163761
   102    -0.231864
   103     0.119479
   104    -0.015235
   105     0.222306
   106     0.000936
   107    -0.028757
   108    -0.003358
   109    -0.253876
   110    -0.165934
   111     0.346639
   112    -0.040428
   113     0.006285
   114    -0.176306
   115     0.773287
   116     0.037415
   117    -0.071522
   118     0.025715
   119     0.201355
   120    -0.620661
   121    -0.017249
   122     0.002692
   123     0.006519
   124    -0.176710
   125    -0.073977
   126    -0.022270
   127    -0.025902
   128     0.036870
   129     0.081710
   130    -0.139240
   131     0.037810
   132     0.019133
   133     0.294556
   134    -0.130325
   135     0.011258
   136     0.089968
   137    -0.117912
   138     0.290895
   139    -0.114607
   140    -0.042036
   141     0.063355
   142    -0.295167
   143     0.242890
   144    -0.055513
   145     0.136133
   146     0.080815
   147     0.181631
   148     0.004319
   149     0.081682
   150    -0.637275
   151    -0.087667
   152    -0.000310
   153     0.031683
   154    -0.514964
   155     0.239562
   156     0.160065
   157    -0.047377
   158    -0.141009
   159     0.108816
   160    -0.189896
   161    -0.011705
   162     0.069920
   163     0.004372
   164    -0.028058
   165     0.041574
   166    -0.031346
   167     0.032773
   168    -0.072751
   169     0.072744
   170    -0.039703
   171    -0.114815
   172    -0.082912
   173    -0.048196
   174     0.010732
   175     0.098057
   176    -0.027142
   177     0.006157
   178    -0.250614
   179     0.087655
   180     0.031413
   181     0.334819
   182    -0.322782
Sym=   169a
Ene=   -0.559106E-04
Spin= Alpha
Occup= 0.000009
     1     0.026157
     2    -0.180058
     3     0.015894
     4    -0.013140
     5    -0.010741
     6     0.000889
     7     0.034604
     8     0.337417
     9    -0.246145
    10    -0.003916
    11     0.003342
    12     0.006004
    13     0.118299
    14    -0.059057
    15    -0.096561
    16    -0.105377
    17     0.336939
    18    -0.163142
    19    -0.008781
    20    -0.113572
    21    -0.177445
    22    -0.088174
    23     0.019505
    24     0.100059
    25    -0.000182
    26    -0.015037
    27     0.172991
    28    -0.741820
    29     0.000490
    30     0.001600
    31    -0.006746
    32    -0.010155
    33    -0.009399
    34     0.108248
    35    -0.040458
    36     0.118716
    37    -0.223989
    38     0.012415
    39     0.077661
    40     0.145852
    41     0.097810
    42    -0.058229
    43     0.015851
    44    -0.002983
    45    -0.018652
    46     0.104803
    47    -0.004111
    48     0.036986
    49    -0.049686
    50     0.009468
    51    -0.021459
    52     0.064674
    53    -0.480302
    54     0.209231
    55     0.365416
    56    -0.286480
    57     0.187534
    58    -0.174278
    59     0.008163
    60     0.012443
    61    -0.147052
    62     0.009342
    63     0.006642
    64    -0.005969
    65    -0.112118
    66     0.124039
    67     0.301563
    68    -0.070170
    69     0.011941
    70    -0.097016
    71     0.040772
    72     0.082392
    73    -0.035796
    74    -0.000700
    75    -0.015197
    76    -0.161928
    77     0.548234
    78    -0.003719
    79    -0.008893
    80    -0.001643
    81     0.034431
    82     0.079491
    83     0.012737
    84     0.200160
    85     1.300562
    86    -0.084738
    87    -0.410208
    88     0.480330
    89     0.048736
    90    -0.605496
    91    -0.052970
    92    -0.003016
    93     0.004047
    94    -0.070102
    95     0.343237
    96    -0.003381
    97    -0.031682
    98    -0.016074
    99     0.097569
   100     0.081356
   101    -0.144174
   102    -0.055277
   103     0.056071
   104    -0.097222
   105    -0.125161
   106    -0.017134
   107     0.035908
   108    -0.012112
   109     0.191294
   110    -0.012629
   111     0.208057
   112     0.058276
   113    -0.010790
   114     0.250255
   115    -0.973196
   116    -0.077316
   117     0.112471
   118     0.000396
   119    -0.038560
   120     0.919200
   121     0.268524
   122     0.267470
   123    -0.117293
   124     0.145035
   125     0.301266
   126     0.122766
   127     0.005857
   128    -0.322933
   129    -0.176549
   130    -0.091992
   131     0.249816
   132     0.180180
   133    -0.016433
   134     0.094520
   135     0.293023
   136     0.088181
   137     0.223815
   138    -0.020121
   139    -0.007307
   140     0.046854
   141    -0.152919
   142     0.158982
   143     0.387674
   144    -0.293714
   145    -0.041328
   146    -0.174721
   147     0.206509
   148     0.010373
   149    -0.249475
   150     1.352039
   151    -0.033047
   152     0.011440
   153     0.015795
   154     0.204336
   155     0.312859
   156    -0.200622
   157     0.136279
   158    -0.068469
   159    -0.299967
   160     0.199921
   161    -0.035231
   162     0.050124
   163     0.005390
   164     0.003052
   165    -0.144076
   166    -0.029421
   167     0.063247
   168    -0.060607
   169     0.072961
   170    -0.065936
   171     0.032656
   172    -0.018784
   173    -0.076737
   174    -0.038328
   175     0.110252
   176    -0.055100
   177     0.041013
   178     0.131081
   179     0.092185
   180     0.165849
   181     0.121441
   182    -0.127311
Sym=   170a
Ene=   -0.410162E-04
Spin= Alpha
Occup= 0.000007
     1     0.020831
     2     0.326530
     3     0.211815
     4    -0.258076
     5    -0.039826
     6     0.001103
     7     0.064886
     8     0.082299
     9    -0.087165
    10     0.006239
    11     0.014396
    12    -0.009103
    13    -0.208843
    14    -0.127023
    15     0.152440
    16     0.155856
    17     0.083474
    18    -0.181409
    19    -0.311982
    20    -0.319225
    21    -0.140161
    22     0.142426
    23    -0.170588
    24     0.085393
    25     0.000608
    26     0.030745
    27     0.311770
    28    -1.105534
    29    -0.003193
    30    -0.000769
    31     0.001000
    32    -0.006836
    33    -0.031351
    34     0.010771
    35     0.628616
    36     0.315875
    37    -0.562724
    38    -0.175780
    39     0.006826
    40    -0.170515
    41    -0.134766
    42     0.173320
    43     0.066789
    44    -0.026748
    45     0.187638
    46     0.152790
    47     0.099281
    48    -0.109022
    49    -0.310776
    50    -0.042261
    51     0.045781
    52    -0.101799
    53     0.285943
    54     0.408398
    55     0.093527
    56    -0.118813
    57     0.109686
    58    -0.126859
    59     0.001122
    60    -0.066595
    61     0.272148
    62     0.015150
    63     0.007280
    64    -0.010447
    65     0.086657
    66    -0.016204
    67     0.371394
    68     0.104962
    69     0.109806
    70    -0.264460
    71     0.101340
    72    -0.036148
    73     0.008854
    74    -0.000716
    75    -0.015762
    76    -0.066067
    77     0.220428
    78    -0.002192
    79     0.000208
    80     0.001114
    81     0.025597
    82    -0.008901
    83    -0.002424
    84    -0.037603
    85     0.079004
    86    -0.142376
    87    -0.004854
    88    -0.000556
    89     0.116573
    90     0.046291
    91     0.040094
    92    -0.029463
    93    -0.001632
    94     0.105687
    95    -0.316726
    96    -0.032254
    97    -0.073744
    98    -0.030602
    99     0.248969
   100     0.374192
   101     0.392056
   102    -0.086188
   103    -0.055477
   104     0.228668
   105    -0.034611
   106    -0.102650
   107    -0.000741
   108    -0.012228
   109     0.748425
   110     0.258696
   111    -0.409323
   112     0.144236
   113     0.010403
   114    -0.189213
   115     0.826520
   116    -0.035651
   117     0.037509
   118    -0.008132
   119    -0.544423
   120    -0.121239
   121    -0.313551
   122    -0.137201
   123    -0.102439
   124    -0.031208
   125    -0.097724
   126    -0.080695
   127    -0.012946
   128     0.213394
   129     0.085123
   130     0.098749
   131    -0.208036
   132    -0.172459
   133     0.004129
   134    -0.012533
   135     0.078695
   136    -0.003875
   137     0.105668
   138    -0.115737
   139     0.037954
   140    -0.364136
   141     0.064410
   142    -0.337770
   143    -0.133366
   144    -0.245419
   145    -0.299599
   146    -0.226809
   147    -0.161280
   148    -0.001506
   149     0.030453
   150    -0.190770
   151     0.017579
   152     0.004834
   153     0.007097
   154     0.084579
   155    -0.070267
   156    -0.099819
   157    -0.018105
   158     0.028581
   159     0.024374
   160     0.048285
   161     0.047127
   162     0.004120
   163    -0.001082
   164     0.093091
   165    -0.427959
   166     0.016531
   167    -0.025291
   168     0.042567
   169     0.133877
   170    -0.249778
   171     0.313858
   172     0.067648
   173     0.011043
   174    -0.017279
   175     0.047174
   176    -0.061949
   177     0.099842
   178     0.130360
   179     0.011892
   180     0.329330
   181     0.281740
   182    -0.308044
Sym=   171a
Ene=   -0.272922E-04
Spin= Alpha
Occup= 0.000002
     1    -0.075065
     2     0.141231
     3     0.022795
     4    -0.077807
     5    -0.023384
     6     0.000759
     7     0.033614
     8     0.473039
     9    -0.855731
    10    -0.004938
    11     0.004292
    12    -0.000459
    13     0.043824
    14    -0.124073
    15     0.007249
    16    -0.239056
    17     0.324560
    18     0.015660
    19    -0.159906
    20    -0.007443
    21    -0.161155
    22    -0.072802
    23    -0.042285
    24    -0.067849
    25    -0.000374
    26    -0.013177
    27     0.241036
    28    -1.119511
    29     0.002290
    30     0.005196
    31    -0.004414
    32    -0.033504
    33    -0.059930
    34     0.064748
    35     0.414724
    36     0.438216
    37    -0.328569
    38     0.055012
    39     0.030449
    40     0.083988
    41    -0.070240
    42     0.051597
    43     0.066989
    44    -0.029996
    45     0.630907
    46    -0.404773
    47    -0.056823
    48     0.180950
    49     0.272927
    50    -0.908081
    51    -0.155939
    52     0.022893
    53     0.485505
    54     0.232142
    55     0.180481
    56    -0.054359
    57    -0.060454
    58     0.127570
    59    -0.003904
    60     0.530596
    61    -3.821913
    62     0.063623
    63     0.070569
    64    -0.073620
    65    -1.704393
    66     1.517478
    67    -0.532284
    68    -0.092746
    69     0.100158
    70     0.190504
    71     0.207167
    72     0.020931
    73     0.020783
    74    -0.000204
    75    -0.028845
    76     0.026906
    77     1.832593
    78     0.012730
    79     0.015264
    80    -0.000493
    81    -0.244698
    82    -0.207257
    83     0.010918
    84    -1.295081
    85    -0.276280
    86    -0.180481
    87     0.323307
    88     0.352806
    89    -0.117547
    90     0.436429
    91    -0.010284
    92    -0.060491
    93     0.011649
    94    -0.149459
    95     0.833544
    96    -0.033348
    97    -0.003533
    98    -0.019755
    99     0.228583
   100    -0.009454
   101    -0.017091
   102    -0.116733
   103    -0.113224
   104    -0.059522
   105    -0.078224
   106    -0.039655
   107     0.007310
   108     0.000363
   109     0.680578
   110     0.016154
   111     0.012609
   112     0.054619
   113    -0.002244
   114     0.020641
   115    -0.043585
   116    -0.062883
   117     0.067853
   118     0.000238
   119    -0.249985
   120     0.354296
   121     0.005118
   122     0.028121
   123    -0.000576
   124     0.024200
   125    -0.010253
   126     0.017017
   127     0.039588
   128    -0.058792
   129     0.183842
   130     0.086468
   131    -0.033274
   132    -0.018385
   133    -0.041515
   134    -0.179991
   135     0.522390
   136     0.190659
   137    -0.177640
   138    -0.041846
   139     0.008173
   140    -0.025301
   141    -0.039214
   142    -0.015355
   143    -0.186008
   144    -0.750792
   145    -0.381374
   146    -0.082456
   147    -0.176023
   148     0.022981
   149    -0.271139
   150     2.203871
   151    -0.449052
   152    -0.043867
   153     0.114355
   154    -3.881242
   155     0.564318
   156     0.605837
   157     0.151249
   158    -0.332118
   159    -0.257139
   160    -0.203898
   161    -0.233424
   162     0.055623
   163     0.001902
   164    -0.038881
   165     0.225302
   166     0.029408
   167    -0.012368
   168     0.021042
   169     0.148531
   170    -0.020289
   171     0.090299
   172    -0.021150
   173    -0.003034
   174    -0.039182
   175     0.018729
   176    -0.007803
   177     0.046325
   178     0.186719
   179     0.066904
   180    -0.233135
   181    -0.292780
   182     0.173038
Sym=   172a
Ene=   -0.210310E-04
Spin= Alpha
Occup= 0.000001
     1     0.122733
     2    -0.195703
     3     0.079145
     4    -0.076708
     5     0.202528
     6     0.000626
     7     0.025491
     8     0.221536
     9    -0.603769
    10     0.002498
    11     0.006477
    12    -0.008171
    13    -0.022613
    14    -0.042098
    15     0.105131
    16    -0.124583
    17     0.636808
    18    -0.399377
    19     0.104945
    20    -0.253882
    21    -0.073639
    22     0.468552
    23     0.033983
    24    -0.184146
    25    -0.000276
    26    -0.007846
    27    -0.039821
    28     0.153641
    29     0.003836
    30    -0.002358
    31     0.001008
    32    -0.020923
    33     0.027116
    34    -0.015319
    35    -0.175879
    36    -0.102351
    37    -0.059530
    38     0.080494
    39     0.017699
    40    -0.035225
    41     0.065004
    42     0.007197
    43     0.023646
    44    -0.048355
    45     0.625895
    46     2.160883
    47    -0.063006
    48     0.173586
    49     0.219100
    50    -0.081152
    51     0.476469
    52    -0.828839
    53     0.403894
    54     0.387377
    55     0.709864
    56    -0.118268
    57     0.192206
    58    -0.315944
    59     0.002021
    60    -0.156055
    61     1.648496
    62     0.348964
    63    -0.084320
    64    -0.246322
    65     3.203608
    66    -0.972711
    67    -1.450249
    68     0.098472
    69     0.052211
    70    -0.204664
    71    -0.324927
    72     0.129405
    73     0.065241
    74     0.000029
    75     0.008590
    76    -0.124068
    77    -0.111370
    78    -0.001238
    79     0.002028
    80     0.002616
    81     0.062556
    82    -0.007619
    83    -0.024617
    84     0.053589
    85     0.039529
    86    -0.068337
    87     0.061109
    88    -0.360954
    89     0.096481
    90    -0.092762
    91     0.026451
    92    -0.003492
    93     0.001824
    94     0.090146
    95    -0.402382
    96    -0.050444
    97    -0.075861
    98    -0.024496
    99     0.220494
   100     0.418459
   101     0.222464
   102     0.003259
   103     0.008003
   104    -0.000199
   105    -0.043892
   106    -0.064677
   107    -0.025123
   108     0.063063
   109    -0.407436
   110    -0.054817
   111     0.012459
   112     0.002083
   113     0.003012
   114    -0.096587
   115     0.424919
   116     0.037804
   117    -0.072228
   118     0.019677
   119     0.255292
   120    -0.477268
   121     0.014685
   122    -0.038527
   123    -0.005681
   124    -0.033218
   125     0.060668
   126     0.013496
   127    -0.009087
   128    -0.051120
   129     0.104494
   130    -0.116032
   131     0.101806
   132     0.022149
   133     0.050006
   134    -0.077110
   135    -0.240069
   136     0.039293
   137     0.026230
   138    -0.052456
   139    -0.120686
   140    -0.047357
   141    -0.039934
   142     0.023957
   143    -0.256569
   144    -0.927620
   145    -0.391964
   146    -0.238323
   147    -0.115519
   148     0.010789
   149     0.244734
   150    -2.610984
   151    -0.003589
   152    -0.002104
   153     0.020362
   154     2.067763
   155    -0.920594
   156     0.226214
   157    -0.265956
   158    -0.029489
   159     0.136382
   160     0.150708
   161    -0.059004
   162     0.108609
   163    -0.000608
   164     0.175400
   165    -0.852798
   166     0.038838
   167    -0.028629
   168     0.053741
   169     0.290763
   170    -0.500107
   171     0.497013
   172     0.090088
   173    -0.046056
   174     0.041803
   175     0.120720
   176    -0.117325
   177     0.158039
   178    -0.014855
   179    -0.152427
   180    -0.514440
   181     0.066240
   182     0.444313
Sym=   173a
Ene=   -0.172244E-04
Spin= Alpha
Occup= 0.000001
     1     0.079815
     2    -0.089371
     3     0.404043
     4    -0.325602
     5    -0.308568
     6     0.001903
     7     0.112178
     8     0.384194
     9    -1.043266
    10    -0.005892
    11    -0.006898
    12    -0.004538
    13     0.013808
    14     0.176644
    15     0.008116
    16    -0.987503
    17     0.755500
    18    -0.405779
    19    -0.499945
    20    -0.792243
    21    -0.135111
    22    -0.003775
    23    -0.293231
    24     0.173416
    25    -0.002151
    26    -0.101277
    27    -0.480643
    28     1.703628
    29     0.009421
    30    -0.000395
    31    -0.009073
    32    -0.013774
    33     0.027183
    34     0.076665
    35    -1.122232
    36    -0.396314
    37     0.991252
    38     0.517923
    39     0.032590
    40     0.606358
    41     0.181268
    42    -0.053486
    43    -0.011924
    44     0.003065
    45    -0.178115
    46     0.314381
    47     0.012342
    48    -0.024507
    49    -0.051104
    50     0.531557
    51    -0.017911
    52     0.081225
    53    -0.267642
    54     0.099894
    55     0.006571
    56     0.070948
    57     0.043497
    58     0.180168
    59     0.013596
    60    -0.321080
    61     1.487320
    62     0.001653
    63     0.120262
    64    -0.050771
    65     0.462242
    66     0.807372
    67     0.076005
    68    -0.141895
    69    -0.074688
    70    -0.130569
    71    -0.056399
    72    -0.043088
    73     0.006660
    74     0.000842
    75     0.017820
    76     0.140066
    77    -0.184162
    78     0.000595
    79    -0.007572
    80    -0.003233
    81    -0.034467
    82     0.087069
    83     0.017274
    84     0.179794
    85     0.125082
    86     0.125762
    87    -0.093350
    88     0.083654
    89    -0.089593
    90    -0.050652
    91    -0.021153
    92    -0.027655
    93     0.004766
    94    -0.018771
    95     0.140639
    96    -0.037651
    97    -0.026774
    98    -0.013757
    99     0.246266
   100     0.183362
   101     0.076408
   102    -0.031565
   103    -0.098244
   104     0.027520
   105     0.006455
   106    -0.057098
   107     0.063162
   108     0.143850
   109    -1.667948
   110    -0.488543
   111    -0.073430
   112    -0.176631
   113     0.000421
   114     0.076127
   115    -0.317359
   116    -0.143464
   117    -0.034436
   118     0.227265
   119    -0.779465
   120    -0.027285
   121     1.175074
   122     0.081912
   123     0.069975
   124    -0.140339
   125     0.043412
   126    -0.015506
   127     0.054824
   128    -0.102767
   129     0.217765
   130     0.211038
   131    -0.056824
   132    -0.185514
   133    -0.001705
   134    -0.045731
   135    -0.066373
   136     0.021517
   137    -0.010289
   138    -0.036030
   139    -0.005259
   140    -0.133955
   141    -0.014979
   142    -0.114997
   143     0.167565
   144     0.286418
   145     0.111606
   146     0.147972
   147     0.164131
   148     0.003511
   149    -0.016702
   150    -0.027540
   151     0.001068
   152     0.000375
   153     0.004655
   154     0.319611
   155    -0.198761
   156    -0.041353
   157     0.001641
   158    -0.057031
   159    -0.023755
   160     0.066353
   161     0.019507
   162     0.028221
   163    -0.003053
   164     0.040404
   165    -0.189299
   166    -0.009108
   167    -0.007570
   168    -0.003091
   169    -0.055676
   170     0.033898
   171    -0.047557
   172     0.024944
   173     0.037024
   174     0.029419
   175    -0.010358
   176     0.000421
   177    -0.041809
   178     0.088734
   179     0.124167
   180     0.031713
   181    -0.127452
   182     0.182347
Sym=   174a
Ene=   -0.418233E-03
Spin= Alpha
Occup= 0.000105
     1     0.028277
     2    -0.098999
     3     0.236197
     4    -0.474770
     5     0.103407
     6    -0.033614
     7    -0.486827
     8    -1.297141
     9     0.881684
    10    -0.267488
    11     0.153212
    12    -0.104912
    13     1.606922
    14    -0.937735
    15     0.505889
    16    -0.343825
    17     0.078440
    18    -0.223570
    19     1.257636
    20     1.041629
    21     0.901406
    22    -0.048814
    23    -0.109344
    24    -0.114777
    25     0.000655
    26    -0.003801
    27     0.157473
    28    -0.071362
    29     0.013056
    30     0.005106
    31    -0.013217
    32    -0.098728
    33    -0.023883
    34     0.161399
    35    -0.092715
    36    -0.046916
    37     0.077455
    38     0.044499
    39     0.014067
    40     0.172843
    41     0.013134
    42    -0.129266
    43    -0.057521
    44    -0.002852
    45     0.221624
    46    -0.065414
    47    -0.107842
    48    -0.062354
    49     0.054577
    50     0.181677
    51    -0.014528
    52     0.052674
    53     0.165346
    54     0.026006
    55    -0.027340
    56     0.042918
    57    -0.029765
    58    -0.042778
    59    -0.003809
    60     0.305692
    61    -1.390548
    62    -0.058740
    63    -0.057278
    64    -0.014311
    65    -0.732985
    66    -0.532080
    67    -0.301348
    68     0.051629
    69    -0.045895
    70     0.166287
    71    -0.090892
    72     0.061078
    73    -0.042535
    74     0.000288
    75    -0.015661
    76    -0.008406
    77     0.020463
    78     0.020613
    79    -0.013684
    80     0.001844
    81    -0.096418
    82     0.135434
    83    -0.008233
    84    -0.186941
    85     0.024621
    86     0.014713
    87     0.126794
    88     0.144356
    89     0.010021
    90    -0.166381
    91    -0.008130
    92    -0.002258
    93    -0.001756
    94     0.120124
    95    -0.452451
    96     0.028613
    97     0.010825
    98    -0.033922
    99    -0.215552
   100    -0.005457
   101     0.391060
   102     0.045913
   103     0.049441
   104    -0.009808
   105    -0.046904
   106     0.108051
   107     0.006484
   108    -0.059324
   109    -0.188365
   110     0.036246
   111     0.027802
   112    -0.012595
   113    -0.006862
   114     0.565824
   115    -2.076221
   116     0.227732
   117     0.039020
   118    -0.015103
   119     1.563828
   120     0.460696
   121     0.243377
   122    -0.280246
   123     0.351460
   124     0.369482
   125     0.036222
   126     0.095393
   127     0.029519
   128    -0.271423
   129     0.035111
   130    -0.047368
   131     0.074904
   132     0.075257
   133     0.001763
   134    -0.072738
   135     0.017970
   136     0.001296
   137    -0.015210
   138    -0.037284
   139    -0.153710
   140    -0.003833
   141     0.027321
   142    -0.005999
   143    -0.055028
   144     0.043893
   145    -0.051679
   146    -0.005607
   147    -0.008856
   148     0.000035
   149    -0.085686
   150     0.722787
   151     0.042912
   152    -0.019439
   153     0.013168
   154    -0.255175
   155     0.337567
   156     0.090789
   157    -0.047963
   158     0.062491
   159    -0.044515
   160    -0.067122
   161    -0.023115
   162     0.005759
   163    -0.000155
   164     0.035713
   165    -0.146983
   166    -0.003861
   167    -0.006977
   168     0.000146
   169    -0.020619
   170    -0.045890
   171     0.023742
   172     0.016029
   173     0.009969
   174     0.011529
   175    -0.002575
   176    -0.001658
   177     0.008878
   178    -0.139307
   179    -0.157248
   180     0.039665
   181    -0.029196
   182    -0.071892
Sym=   175a
Ene=   -0.707663E-04
Spin= Alpha
Occup= 0.000013
     1     0.021746
     2    -0.046065
     3    -0.008878
     4    -0.006899
     5    -0.038974
     6     0.000471
     7     0.008189
     8     0.277795
     9    -0.536413
    10     0.001939
    11     0.000399
    12    -0.007460
    13     0.044966
    14    -0.059830
    15     0.065117
    16     0.002632
    17     0.233937
    18    -0.152102
    19     0.028136
    20     0.038156
    21    -0.020033
    22     0.004474
    23    -0.238387
    24    -0.016613
    25    -0.005872
    26    -0.138428
    27     0.053601
    28    -1.453619
    29    -0.002089
    30     0.002743
    31    -0.019012
    32    -0.066401
    33    -0.037483
    34     0.195766
    35     1.048637
    36     0.216583
    37     0.476264
    38    -0.327521
    39     0.472476
    40     1.101308
    41    -0.158247
    42     0.069296
    43     0.053086
    44    -0.008670
    45    -0.007680
    46     0.443612
    47     0.009595
    48    -0.025977
    49     0.005812
    50     0.291752
    51     0.109179
    52    -0.249362
    53     0.281470
    54    -0.035389
    55    -0.031785
    56     0.277958
    57    -0.381158
    58     0.092685
    59     0.005359
    60     0.058459
    61    -0.362280
    62     0.009808
    63    -0.012047
    64     0.013949
    65     0.002623
    66    -0.055953
    67    -0.117152
    68     0.048498
    69     0.072200
    70    -0.233378
    71    -0.023846
    72     0.019788
    73     0.007959
    74     0.000942
    75     0.022554
    76     0.220052
    77    -0.265563
    78    -0.000794
    79    -0.006486
    80     0.001114
    81     0.006752
    82     0.145827
    83    -0.018704
    84     0.149101
    85    -0.128579
    86    -0.107125
    87    -0.034490
    88    -0.097822
    89    -0.014089
    90    -0.052561
    91     0.084723
    92    -0.053619
    93    -0.002708
    94     0.053860
    95    -0.230758
    96     0.008119
    97    -0.002360
    98    -0.023204
    99    -0.061382
   100     0.111505
   101     0.196533
   102     0.112446
   103    -0.038250
   104     0.005768
   105     0.017825
   106    -0.032447
   107    -0.013178
   108     0.013372
   109     1.579481
   110     0.434453
   111     0.256234
   112     0.100220
   113    -0.011070
   114     0.192320
   115    -0.437450
   116    -0.094314
   117    -0.060169
   118     0.202542
   119    -0.030281
   120     0.046831
   121     1.127567
   122     0.228266
   123     0.267109
   124    -0.204181
   125     0.105620
   126     0.276862
   127     0.161768
   128    -0.448142
   129     0.134148
   130     0.112778
   131     0.208994
   132     0.016118
   133     0.017964
   134    -0.037078
   135    -0.010805
   136     0.101946
   137     0.165636
   138    -0.094643
   139     0.074218
   140    -0.002815
   141     0.066379
   142    -0.016308
   143    -0.159810
   144     0.157527
   145    -0.044186
   146     0.185022
   147    -0.242710
   148     0.009642
   149    -0.095164
   150     0.539053
   151     0.028626
   152     0.004191
   153    -0.030267
   154     0.160217
   155     0.168421
   156    -0.153219
   157    -0.063495
   158     0.005229
   159    -0.152908
   160    -0.017519
   161     0.040643
   162     0.083876
   163    -0.004897
   164     0.046307
   165    -0.080136
   166     0.033122
   167    -0.062873
   168     0.069680
   169     0.029207
   170     0.008071
   171     0.044867
   172    -0.011319
   173     0.099148
   174     0.072006
   175    -0.006914
   176     0.000936
   177    -0.056792
   178     0.046618
   179    -0.058613
   180     0.042224
   181     0.058720
   182     0.024655
Sym=   176a
Ene=   -0.898776E-04
Spin= Alpha
Occup= 0.000018
     1    -0.064488
     2     0.238382
     3    -0.004253
     4     0.065995
     5    -0.011769
     6    -0.000211
     7    -0.011056
     8    -0.296584
     9     0.183469
    10     0.002767
    11    -0.007291
    12    -0.002614
    13    -0.020375
    14     0.182506
    15     0.013354
    16     0.186342
    17    -0.363949
    18     0.058470
    19    -0.018703
    20    -0.027591
    21     0.066463
    22    -0.143694
    23    -0.031236
    24    -0.058698
    25    -0.002789
    26    -0.077425
    27    -0.142737
    28    -0.111815
    29     0.005992
    30     0.003641
    31    -0.003670
    32    -0.032844
    33    -0.021108
    34     0.015641
    35     0.207625
    36    -0.254025
    37     0.097747
    38     0.219326
    39     0.304570
    40     0.162623
    41    -0.076799
    42     0.053840
    43    -0.124620
    44     0.009001
    45    -0.042464
    46     0.099619
    47     0.024789
    48    -0.067240
    49    -0.120621
    50    -0.046706
    51    -0.035998
    52    -0.018307
    53    -0.358262
    54     0.100803
    55     0.061224
    56    -0.121899
    57     0.083015
    58     0.045202
    59    -0.004642
    60    -0.245665
    61     0.993859
    62    -0.102582
    63     0.079933
    64     0.041356
    65     0.331051
    66     0.258389
    67     0.052436
    68     0.133752
    69    -0.198925
    70     0.094343
    71    -0.049883
    72     0.096086
    73     0.034739
    74    -0.001726
    75    -0.080008
    76     0.423701
    77    -1.484120
    78     0.032895
    79    -0.008086
    80     0.001412
    81    -0.297777
    82     0.069447
    83    -0.037981
    84     0.136820
    85    -0.947019
    86     0.158875
    87     0.514105
    88     0.066417
    89     0.398360
    90     0.443373
    91     0.013897
    92     0.138817
    93    -0.001251
    94     0.040778
    95    -0.152689
    96     0.006785
    97    -0.015529
    98    -0.017778
    99    -0.001250
   100     0.134399
   101     0.083331
   102    -0.006676
   103     0.054405
   104     0.004719
   105    -0.104295
   106     0.007891
   107     0.044551
   108    -0.032512
   109     0.159460
   110    -0.026357
   111    -0.027038
   112     0.023828
   113    -0.001005
   114    -0.143823
   115     0.960100
   116    -0.049558
   117     0.003161
   118     0.031129
   119     0.182585
   120    -0.015061
   121     0.092535
   122     0.048022
   123     0.160525
   124    -0.195510
   125     0.251742
   126     0.053795
   127     0.121438
   128    -0.437329
   129     0.242001
   130     0.025374
   131     0.002280
   132     0.248390
   133    -0.522772
   134     0.057686
   135     0.324769
   136    -0.306059
   137    -0.288962
   138    -0.072260
   139     0.016307
   140    -0.049569
   141    -0.056636
   142     0.040712
   143     0.239584
   144    -0.215507
   145     0.049369
   146    -0.094516
   147     0.076643
   148    -0.013786
   149     0.210236
   150    -1.009524
   151     0.095196
   152    -0.049535
   153    -0.034363
   154    -0.173010
   155    -0.821603
   156     0.195265
   157    -0.311769
   158     0.281785
   159     0.330582
   160     0.354474
   161    -0.069191
   162    -0.435297
   163     0.001126
   164    -0.004970
   165    -0.021095
   166    -0.002863
   167     0.028364
   168    -0.019497
   169     0.017545
   170     0.037117
   171    -0.000891
   172    -0.006880
   173    -0.005924
   174    -0.025490
   175     0.034494
   176    -0.013337
   177    -0.014584
   178    -0.157720
   179    -0.024918
   180     0.012698
   181    -0.129301
   182    -0.004870
Sym=   177a
Ene=   -0.113155E-04
Spin= Alpha
Occup= 0.000001
     1    -0.005787
     2    -0.944236
     3    -0.302976
     4     0.437344
     5    -0.502363
     6    -0.003000
     7    -0.189963
     8     0.126041
     9     0.206075
    10     0.006749
    11     0.004814
    12    -0.006730
    13     0.137896
    14    -0.237742
    15     0.116666
    16    -0.491438
    17     0.091559
    18     0.291725
    19     0.843396
    20     0.934652
    21     0.810204
    22    -0.284185
    23    -0.136520
    24    -0.121929
    25    -0.000411
    26    -0.040268
    27    -0.213509
    28     1.045031
    29     0.008435
    30     0.002824
    31    -0.010074
    32    -0.033527
    33    -0.018027
    34     0.100575
    35    -0.834289
    36    -0.055688
    37     0.579315
    38     0.306330
    39    -0.063953
    40     0.322931
    41     0.068128
    42    -0.185113
    43     0.009328
    44    -0.016982
    45     0.438850
    46    -0.988398
    47     0.011836
    48    -0.042612
    49    -0.039819
    50    -0.378105
    51    -0.183661
    52     0.089697
    53     0.420360
    54     0.180718
    55    -0.041834
    56    -0.147111
    57    -0.191655
    58    -0.383494
    59    -0.004709
    60     0.176921
    61    -0.589454
    62    -0.001203
    63    -0.094459
    64     0.032332
    65    -0.533321
    66    -0.748925
    67    -0.217217
    68     0.074835
    69     0.004399
    70     0.066967
    71     0.055540
    72     0.055116
    73     0.022370
    74     0.000437
    75     0.003736
    76    -0.131511
    77     0.308915
    78     0.001489
    79    -0.004366
    80     0.000942
    81     0.022064
    82     0.062483
    83    -0.001847
    84    -0.198647
    85     0.208604
    86    -0.006359
    87    -0.003810
    88     0.055135
    89    -0.055567
    90    -0.163113
    91    -0.004111
    92    -0.020939
    93    -0.009053
    94     0.132707
    95    -0.408586
    96    -0.037176
    97     0.086123
    98    -0.118657
    99     0.023788
   100    -0.431710
   101     0.768361
   102     0.024242
   103     0.121310
   104     0.093360
   105     0.003303
   106    -0.026171
   107     0.018779
   108     0.021853
   109    -1.004683
   110    -0.244999
   111    -0.062110
   112    -0.221343
   113    -0.020357
   114     0.381584
   115    -1.582929
   116     0.051390
   117    -0.070864
   118     0.034613
   119     0.844073
   120     0.316249
   121     0.681607
   122     0.112170
   123     0.234252
   124     0.169334
   125     0.087016
   126     0.079540
   127     0.077968
   128    -0.276848
   129    -0.244532
   130     0.065269
   131     0.267283
   132     0.138202
   133     0.024443
   134     0.049133
   135     0.022743
   136    -0.030792
   137    -0.044918
   138    -0.015455
   139    -0.068200
   140    -0.194698
   141     0.187375
   142    -0.208977
   143    -0.201463
   144    -0.060182
   145    -0.186297
   146    -0.228058
   147    -0.315346
   148    -0.000252
   149    -0.080102
   150     0.473584
   151     0.009681
   152     0.019242
   153     0.037550
   154    -0.067029
   155     0.363672
   156     0.219167
   157    -0.009407
   158     0.013631
   159    -0.011823
   160    -0.060594
   161    -0.049295
   162    -0.007087
   163     0.003302
   164    -0.008844
   165     0.028186
   166     0.027781
   167    -0.008412
   168     0.009477
   169     0.193882
   170    -0.124157
   171     0.180590
   172    -0.024720
   173    -0.003077
   174    -0.057581
   175     0.058704
   176    -0.048584
   177     0.088102
   178    -0.259046
   179     0.032204
   180    -0.001797
   181     0.128100
   182    -0.214787
Sym=   178a
Ene=   -0.646742E-05
Spin= Alpha
Occup= 0.000000
     1     0.026559
     2    -0.500892
     3    -0.164275
     4     0.033212
     5    -0.068179
     6     0.000577
     7     0.004370
     8     0.153169
     9    -1.011724
    10     0.004343
    11     0.007293
    12    -0.004148
    13    -0.056221
    14    -0.129434
    15     0.024034
    16    -0.173836
    17     0.975621
    18    -0.276518
    19    -0.053904
    20     0.156368
    21     0.027737
    22    -0.119155
    23     0.052916
    24    -0.066786
    25     0.000032
    26     0.009620
    27    -0.279262
    28     1.547757
    29    -0.002631
    30    -0.003745
    31     0.004096
    32     0.036641
    33     0.057752
    34    -0.067457
    35    -0.133771
    36    -0.743923
    37     0.615476
    38    -0.111549
    39     0.049514
    40    -0.101681
    41     0.053905
    42    -0.028614
    43    -0.164956
    44    -0.021240
    45     0.002310
    46     1.555503
    47    -0.075899
    48     0.023719
    49     0.010817
    50     3.770843
    51     0.857037
    52    -0.657087
    53     0.098922
    54     0.489629
    55     0.131905
    56    -0.080711
    57    -0.136113
    58     0.028590
    59    -0.013551
    60     0.453783
    61    -3.024519
    62    -0.010165
    63     0.081059
    64    -0.063599
    65    -0.686970
    66     0.411460
    67    -1.067400
    68     0.101222
    69     0.165280
    70     0.104522
    71     0.125224
    72     0.082897
    73     0.015772
    74     0.000180
    75     0.014970
    76     0.705804
    77    -2.766333
    78     0.007484
    79    -0.001203
    80    -0.000213
    81    -0.085797
    82     0.025484
    83    -0.013508
    84     1.495102
    85    -1.104959
    86     0.347158
    87    -0.197770
    88    -0.112926
    89     0.125331
    90     0.181242
    91     0.054218
    92     0.084417
    93    -0.012840
    94     0.349062
    95    -1.847861
    96     0.048556
    97    -0.032204
    98     0.042190
    99    -0.173730
   100     0.654939
   101     0.052430
   102     0.155981
   103     0.069898
   104     0.167223
   105    -0.035787
   106    -0.029640
   107    -0.009000
   108    -0.029360
   109    -0.071014
   110     0.016846
   111    -0.051978
   112     0.026629
   113     0.009070
   114    -0.218899
   115     1.334787
   116     0.054211
   117    -0.108444
   118     0.042739
   119     0.076862
   120    -0.783991
   121     0.075583
   122    -0.130298
   123    -0.006574
   124    -0.093718
   125     0.003958
   126    -0.032031
   127    -0.034476
   128     0.022768
   129     0.206757
   130    -0.045461
   131    -0.056568
   132     0.000054
   133    -0.038106
   134    -0.299731
   135     0.034676
   136    -0.021907
   137     0.001841
   138    -0.002093
   139     0.116953
   140    -0.070034
   141    -0.060312
   142     0.093284
   143    -0.021624
   144     2.248541
   145    -0.139085
   146    -0.135849
   147     0.112431
   148     0.009352
   149    -0.229254
   150     2.324875
   151     0.031677
   152    -0.006039
   153    -0.103801
   154    -0.389862
   155     0.546138
   156    -0.328688
   157     0.028183
   158     0.011276
   159    -0.239207
   160    -0.012449
   161    -0.004831
   162     0.013687
   163    -0.009837
   164     0.272117
   165    -1.324036
   166    -0.205568
   167    -0.065316
   168     0.041295
   169    -0.654850
   170    -0.409690
   171     0.375578
   172     0.179463
   173     0.079744
   174     0.079835
   175    -0.023335
   176    -0.050957
   177     0.040773
   178    -0.118375
   179     0.138110
   180    -0.126149
   181    -0.149589
   182    -0.026020
Sym=   179a
Ene=   -0.920926E-06
Spin= Alpha
Occup= 0.000000
     1    -0.115708
     2     1.068976
     3    -0.055808
     4    -0.212954
     5     0.014922
     6     0.000180
     7     0.012877
     8    -0.024849
     9    -0.816850
    10    -0.003080
    11    -0.003658
    12    -0.003755
    13     0.074313
    14     0.088284
    15     0.063217
    16     2.086402
    17     0.396735
    18     0.057316
    19     0.291528
    20    -0.478934
    21     0.021894
    22    -0.052034
    23     0.035525
    24     0.057190
    25    -0.000216
    26    -0.008599
    27     0.143531
    28    -1.248011
    29     0.001971
    30    -0.002188
    31    -0.000968
    32    -0.021975
    33     0.012763
    34     0.020899
    35     0.469940
    36     0.162797
    37    -0.367596
    38     0.001221
    39     0.036671
    40     0.065526
    41     0.006202
    42     0.045029
    43     0.038912
    44     0.015052
    45    -0.401105
    46     0.777902
    47     0.022439
    48    -0.044622
    49     0.107869
    50    -1.039977
    51     0.992226
    52    -1.719201
    53    -0.087908
    54    -0.284357
    55    -0.245959
    56     0.072893
    57    -0.203886
    58     0.161191
    59     0.010674
    60    -0.247402
    61     1.387649
    62     0.027370
    63     0.046068
    64    -0.012989
    65     0.088374
    66     0.164699
    67    -0.435310
    68    -0.050291
    69    -0.106887
    70    -0.057573
    71     0.066087
    72     0.044946
    73     0.066208
    74    -0.000214
    75    -0.010826
    76    -0.122247
    77     0.550076
    78     0.003450
    79    -0.003345
    80     0.002195
    81    -0.040168
    82    -0.005997
    83    -0.010573
    84    -0.364714
    85     0.141586
    86    -0.154037
    87     0.111728
    88    -0.034422
    89     0.055716
    90    -0.057892
    91     0.034557
    92     0.016899
    93     0.003937
    94    -0.129002
    95     0.601637
    96     0.010518
    97     0.070436
    98    -0.042697
    99    -0.168137
   100    -0.342915
   101     0.274811
   102    -0.096276
   103     0.017643
   104    -0.032734
   105    -0.047111
   106    -0.048536
   107     0.012598
   108    -0.101171
   109     0.814355
   110    -0.003245
   111    -0.022673
   112     0.018104
   113    -0.009338
   114     0.195587
   115    -1.247124
   116     0.071309
   117    -0.024695
   118    -0.041560
   119     0.407187
   120    -0.101602
   121    -0.305050
   122     0.024814
   123     0.096390
   124     0.084788
   125    -0.017631
   126    -0.016838
   127    -0.044718
   128     0.137065
   129    -0.073168
   130    -0.066066
   131    -0.034548
   132    -0.003237
   133    -0.244912
   134    -0.562481
   135    -0.064912
   136    -0.266055
   137     0.104814
   138    -0.188040
   139     0.125110
   140    -0.005810
   141     0.125790
   142     0.036745
   143    -0.043473
   144    -0.538768
   145     0.118516
   146    -0.057311
   147     0.214142
   148     0.000370
   149    -0.009415
   150     0.050077
   151    -0.038269
   152     0.006229
   153     0.022744
   154    -0.019875
   155    -0.815560
   156     0.334200
   157    -0.062130
   158     0.101018
   159    -0.004611
   160     0.006766
   161    -0.029122
   162    -0.022534
   163     0.021639
   164    -0.500135
   165     2.373095
   166    -0.000843
   167     0.007035
   168     0.046140
   169    -0.153266
   170     0.380268
   171    -0.139804
   172    -0.258640
   173    -0.209698
   174    -0.244930
   175    -0.059341
   176     0.029038
   177    -0.069592
   178    -0.159877
   179    -0.845581
   180    -0.086007
   181    -0.105339
   182    -0.227993
Sym=   180a
Ene=   -0.819731E-06
Spin= Alpha
Occup= 0.000000
     1    -0.133831
     2     0.879175
     3     0.062572
     4    -0.130039
     5    -0.002040
     6    -0.000071
     7    -0.006418
     8     0.436356
     9    -1.812874
    10    -0.000551
    11     0.004486
    12     0.001519
    13     0.068093
    14    -0.113843
    15    -0.014600
    16     0.028554
    17     0.231577
    18     0.961368
    19     0.093555
    20    -0.130407
    21     0.176237
    22     0.149628
    23     0.028571
    24    -0.038378
    25    -0.000175
    26    -0.006018
    27    -0.042938
    28     0.094876
    29    -0.001165
    30     0.002182
    31    -0.004390
    32     0.022643
    33    -0.020697
    34     0.037423
    35    -0.017076
    36     0.084673
    37     0.139376
    38    -0.024763
    39     0.051925
    40     0.044659
    41    -0.033194
    42    -0.072421
    43     0.016165
    44     0.000194
    45    -0.145144
    46    -0.911596
    47     0.020986
    48    -0.031356
    49    -0.021715
    50     0.543264
    51     0.925334
    52     0.329380
    53    -0.051490
    54     0.091815
    55    -0.159134
    56     0.102715
    57     0.018273
    58     0.058847
    59     0.009081
    60    -0.256324
    61     1.401887
    62    -0.018564
    63    -0.001562
    64     0.007444
    65     0.022799
    66    -0.350599
    67     0.266771
    68    -0.150713
    69    -0.015465
    70    -0.077639
    71    -0.076538
    72    -0.022027
    73    -0.015345
    74    -0.000311
    75    -0.014313
    76    -0.049679
    77    -0.278127
    78    -0.005441
    79     0.003052
    80    -0.003460
    81     0.103582
    82     0.016543
    83     0.019540
    84     0.145606
    85     0.249797
    86     0.010787
    87    -0.069611
    88     0.112938
    89     0.093508
    90    -0.054806
    91    -0.077051
    92    -0.005417
    93    -0.003936
    94     0.078574
    95    -0.176806
    96    -0.003679
    97     0.032452
    98    -0.020610
    99    -0.289110
   100     0.243855
   101     0.453770
   102     0.073488
   103     0.011372
   104     0.054647
   105    -0.083876
   106    -0.076399
   107     0.051406
   108    -0.070184
   109     0.882448
   110    -0.018522
   111    -0.005521
   112     0.057652
   113    -0.009425
   114     0.115644
   115    -0.547097
   116     0.005186
   117     0.029201
   118    -0.018738
   119    -0.057051
   120     0.006239
   121    -0.111335
   122     0.052695
   123     0.059931
   124     0.080831
   125    -0.014941
   126     0.000543
   127    -0.026812
   128     0.038102
   129     0.343963
   130    -0.046356
   131    -0.021090
   132    -0.016576
   133     0.568645
   134     2.313546
   135     0.031759
   136     0.790065
   137    -0.222954
   138    -0.189821
   139    -0.666638
   140    -0.165244
   141     0.190579
   142     0.159774
   143    -0.027984
   144     1.081585
   145     0.105337
   146    -0.072169
   147    -0.002273
   148    -0.004564
   149     0.172567
   150    -2.153553
   151     0.033616
   152    -0.015956
   153     0.015712
   154     0.633603
   155     1.570174
   156    -0.502007
   157     0.154151
   158    -0.355205
   159     0.186069
   160    -0.019510
   161    -0.020949
   162     0.123901
   163     0.002958
   164    -0.098005
   165     0.497147
   166    -0.058491
   167    -0.019034
   168     0.001082
   169    -0.248539
   170     0.007679
   171    -0.068179
   172    -0.023347
   173    -0.040981
   174    -0.051824
   175     0.001336
   176     0.005882
   177    -0.023507
   178    -0.108741
   179     0.388153
   180     0.011738
   181     0.114224
   182     0.027001
Sym=   181a
Ene=   -0.107526E-05
Spin= Alpha
Occup= 0.000000
     1    -0.076407
     2    -0.631450
     3     0.025796
     4     0.076710
     5    -0.046222
     6    -0.000555
     7    -0.017856
     8     0.957444
     9    -3.330376
    10     0.005850
    11     0.000375
    12     0.006975
    13    -0.140905
    14    -0.069500
    15    -0.026016
    16    -2.915111
    17     1.686255
    18     1.315366
    19    -0.269826
    20     0.124925
    21     0.204002
    22     0.051524
    23     0.203314
    24    -0.192286
    25     0.000445
    26     0.032002
    27    -0.146450
    28     0.872217
    29    -0.008365
    30     0.000751
    31     0.007202
    32     0.083571
    33    -0.002208
    34    -0.086763
    35    -0.134814
    36     0.145378
    37     0.366871
    38    -0.164107
    39    -0.076385
    40    -0.203631
    41    -0.060505
    42    -0.068222
    43    -0.002342
    44    -0.007036
    45     0.151316
    46    -2.980933
    47    -0.020526
    48     0.039176
    49     0.048577
    50     1.562133
    51    -0.944244
    52     0.705860
    53    -0.109884
    54     0.054676
    55     0.045698
    56    -0.066566
    57    -0.016432
    58    -0.127193
    59     0.010895
    60    -0.271270
    61     1.657213
    62     0.000144
    63     0.039042
    64    -0.019437
    65     0.211492
    66     0.438339
    67     0.124763
    68    -0.034105
    69    -0.135658
    70    -0.127516
    71    -0.002406
    72    -0.042623
    73     0.016324
    74    -0.000320
    75     0.003025
    76    -0.183706
    77     0.981006
    78    -0.007932
    79     0.002789
    80     0.002255
    81     0.079586
    82    -0.039346
    83    -0.018149
    84    -0.519396
    85     0.057322
    86     0.083344
    87     0.021339
    88    -0.164164
    89    -0.008574
    90    -0.017892
    91     0.015032
    92     0.004953
    93     0.010206
    94    -0.283871
    95     1.934163
    96    -0.038908
    97     0.092160
    98    -0.074196
    99    -0.466976
   100     0.019116
   101     0.666067
   102    -0.052562
   103    -0.082950
   104    -0.113615
   105    -0.143105
   106    -0.129247
   107     0.146268
   108    -0.064373
   109     1.443871
   110     0.079262
   111    -0.022630
   112     0.187176
   113     0.019442
   114    -0.375696
   115     1.894835
   116    -0.077166
   117     0.008817
   118     0.054843
   119    -0.902008
   120    -0.326403
   121    -0.095987
   122    -0.139832
   123    -0.176160
   124    -0.169755
   125    -0.034596
   126    -0.023395
   127    -0.066365
   128     0.025609
   129     0.715439
   130    -0.144846
   131    -0.119525
   132    -0.095283
   133    -0.082527
   134    -0.803565
   135    -0.051593
   136    -0.239934
   137     0.047381
   138    -0.463158
   139    -0.860243
   140    -0.351764
   141     0.163546
   142     0.341706
   143    -0.024634
   144     2.612662
   145     0.266255
   146     0.155465
   147     0.039997
   148     0.005343
   149    -0.083629
   150     0.667346
   151    -0.023022
   152     0.030948
   153     0.015869
   154     0.097925
   155    -0.357381
   156     0.138932
   157    -0.081831
   158     0.055606
   159    -0.056558
   160     0.023265
   161     0.013349
   162    -0.036815
   163     0.002522
   164     0.002864
   165    -0.101620
   166    -0.019850
   167     0.011894
   168    -0.005810
   169    -0.034995
   170     0.018163
   171     0.033963
   172    -0.017595
   173    -0.008497
   174    -0.023687
   175     0.014566
   176    -0.026134
   177     0.022087
   178    -0.100780
   179     0.944391
   180     0.039652
   181     0.059547
   182     0.127385
Sym=   182a
Ene=    0.000000E+00
Spin= Alpha
Occup= 0.000000
     1    -0.340872
     2     2.011781
     3     0.049111
     4    -0.099837
     5     0.086235
     6    -0.002251
     7    -0.097933
     8     0.147063
     9    -3.452038
    10     0.005929
    11     0.001140
    12     0.000485
    13    -0.021936
    14    -0.055160
    15     0.000791
    16     0.759529
    17    -0.578071
    18    -0.562260
    19     0.252125
    20     0.385487
    21     0.256472
    22     0.186189
    23     0.034063
    24     0.289948
    25     0.000468
    26     0.011498
    27    -0.073040
    28     0.610793
    29    -0.000404
    30     0.000050
    31    -0.001234
    32     0.012250
    33    -0.004196
    34     0.014401
    35    -0.218837
    36    -0.000510
    37     0.169822
    38    -0.024722
    39    -0.060691
    40    -0.006019
    41    -0.015060
    42    -0.006925
    43    -0.007938
    44    -0.007187
    45    -0.034751
    46     0.034024
    47     0.000425
    48    -0.016310
    49     0.058930
    50     0.396706
    51     0.713573
    52    -0.742668
    53    -0.115809
    54     0.113986
    55     0.080951
    56    -0.019349
    57    -0.016603
    58     0.083163
    59    -0.010733
    60     0.272360
    61    -2.121124
    62    -0.004867
    63    -0.029352
    64    -0.003910
    65     0.433124
    66     0.175697
    67     0.569067
    68     0.071646
    69     0.098048
    70     0.030761
    71    -0.054858
    72    -0.100483
    73    -0.081867
    74    -0.000114
    75    -0.003658
    76     0.033351
    77     0.001764
    78     0.000309
    79    -0.000630
    80     0.001437
    81    -0.018819
    82     0.009172
    83    -0.008941
    84    -0.079970
    85    -0.117570
    86     0.062037
    87     0.027365
    88     0.009876
    89     0.017407
    90     0.006296
    91    -0.011096
    92    -0.011484
    93     0.006351
    94    -0.005064
    95    -0.367853
    96    -0.026791
    97    -0.056408
    98    -0.004844
    99     0.534834
   100    -0.054079
   101    -0.368678
   102    -0.066477
   103    -0.033005
   104    -0.077395
   105     0.072019
   106     0.074809
   107    -0.090975
   108     0.039380
   109    -0.186392
   110    -0.025016
   111     0.014015
   112    -0.061546
   113     0.001061
   114    -0.004249
   115    -0.119463
   116    -0.034593
   117     0.025854
   118     0.036465
   119    -0.149120
   120     0.002723
   121     0.166669
   122    -0.050733
   123     0.004475
   124     0.018093
   125     0.007563
   126     0.004298
   127    -0.006841
   128    -0.111812
   129     0.580631
   130    -0.089502
   131     0.007135
   132    -0.022607
   133    -0.053083
   134    -0.200966
   135     0.009300
   136    -0.081170
   137     0.042829
   138     0.101700
   139     1.440519
   140     0.224588
   141    -0.201622
   142    -0.303685
   143    -0.015925
   144     0.577844
   145     0.120110
   146    -0.068272
   147     0.091668
   148    -0.001974
   149    -0.017385
   150     0.258836
   151    -0.003996
   152     0.014460
   153     0.043582
   154    -0.224118
   155    -0.078357
   156     0.078338
   157     0.009352
   158     0.044270
   159    -0.005295
   160    -0.007968
   161     0.021739
   162    -0.047216
   163     0.010155
   164    -0.189893
   165     0.884421
   166    -0.036853
   167    -0.016686
   168     0.029154
   169    -0.152314
   170     0.001948
   171     0.051973
   172    -0.086093
   173    -0.113723
   174    -0.117551
   175     0.000463
   176    -0.017053
   177    -0.000774
   178     0.217149
   179     1.586583
   180     0.242296
   181     0.243229
   182     0.280718
