[Molden Format]
p30-5 set                                                                       
[Atoms] AU
 CL       1    17        0.0000        0.0000       -1.9008
 CL       2    17        0.0000        0.0000        1.9008
[GTO]
    1 0
s    5 1.00
   10449.827566000000  0.542659537894E-02
    1571.736522100000  0.406263781288E-01
     357.120655230000  0.183597478529E+00
     100.251859350000  0.474389487682E+00
      30.812727554000  0.437351811041E+00
s    3 1.00
      51.923789434000 -0.927541548481E-01
       5.704576097500  0.563808255442E+00
       2.350837680900  0.503670446297E+00
s    1 1.00
       0.446051246720  0.100000000000E+01
s    1 1.00
       0.168488561900  0.100000000000E+01
p    5 1.00
     307.667905690000 -0.887970255889E-02
      72.102015515000 -0.642840717212E-01
      22.532680262000 -0.242887397360E+00
       7.899176544400 -0.483408363699E+00
       2.876726832100 -0.389525638755E+00
p    1 1.00
       0.774593639550  0.100000000000E+01
p    1 1.00
       0.210376996980  0.100000000000E+01
d    1 1.00
       0.650000000000  0.100000000000E+01
 
    2 0
s    5 1.00
   10449.827566000000  0.542659537894E-02
    1571.736522100000  0.406263781288E-01
     357.120655230000  0.183597478529E+00
     100.251859350000  0.474389487682E+00
      30.812727554000  0.437351811041E+00
s    3 1.00
      51.923789434000 -0.927541548481E-01
       5.704576097500  0.563808255442E+00
       2.350837680900  0.503670446297E+00
s    1 1.00
       0.446051246720  0.100000000000E+01
s    1 1.00
       0.168488561900  0.100000000000E+01
p    5 1.00
     307.667905690000 -0.887970255889E-02
      72.102015515000 -0.642840717212E-01
      22.532680262000 -0.242887397360E+00
       7.899176544400 -0.483408363699E+00
       2.876726832100 -0.389525638755E+00
p    1 1.00
       0.774593639550  0.100000000000E+01
p    1 1.00
       0.210376996980  0.100000000000E+01
d    1 1.00
       0.650000000000  0.100000000000E+01
 
[MO]
Sym=     1a
Ene=   -0.104858E+03
Spin= Alpha
Occup= 2.000000
     1     0.703242
     2     0.018024
     3    -0.016926
     4    -0.001050
     5    -0.000016
     6     0.000743
     7     0.000706
     8    -0.000000
     9    -0.000019
    10     0.000027
    11    -0.000001
    12     0.000021
    13    -0.000043
    14     0.006250
    15     0.006250
    16     0.006126
    17     0.000000
    18     0.000000
    19    -0.000000
    20     0.703159
    21     0.018000
    22    -0.016923
    23    -0.001052
    24     0.000469
    25    -0.000106
    26    -0.000666
    27    -0.000012
    28     0.000002
    29    -0.000029
    30     0.000012
    31    -0.000005
    32     0.000045
    33     0.006249
    34     0.006249
    35     0.006125
    36     0.000000
    37     0.000000
    38    -0.000000
Sym=     2a
Ene=   -0.104858E+03
Spin= Alpha
Occup= 2.000000
     1     0.703150
     2     0.018123
     3    -0.017104
     4    -0.001778
     5    -0.000015
     6     0.000741
     7     0.000692
     8     0.000000
     9    -0.000019
    10    -0.000011
    11     0.000001
    12     0.000020
    13    -0.000360
    14     0.006400
    15     0.006400
    16     0.006460
    17    -0.000000
    18    -0.000001
    19     0.000000
    20    -0.703246
    21    -0.018105
    22     0.017106
    23     0.001779
    24    -0.000468
    25     0.000105
    26     0.000652
    27     0.000012
    28    -0.000003
    29    -0.000008
    30    -0.000012
    31     0.000002
    32    -0.000361
    33    -0.006401
    34    -0.006401
    35    -0.006462
    36     0.000000
    37     0.000000
    38    -0.000001
Sym=     3a
Ene=   -0.860326E+01
Spin= Alpha
Occup= 1.999947
     1     0.141041
     2    -0.474720
     3    -0.005839
     4     0.009132
     5     0.256555
     6     0.810392
     7     0.240422
     8    -0.006446
     9    -0.020227
    10    -0.012063
    11     0.007074
    12     0.022523
    13     0.001429
    14     0.000193
    15     0.000115
    16     0.000014
    17    -0.000050
    18     0.000045
    19     0.000144
    20    -0.000042
    21     0.000304
    22    -0.000366
    23    -0.001631
    24    -0.000040
    25    -0.000178
    26    -0.000164
    27    -0.000098
    28    -0.000316
    29    -0.000034
    30    -0.000507
    31    -0.001616
    32     0.000713
    33     0.000075
    34     0.000098
    35     0.000587
    36     0.000009
    37    -0.000206
    38    -0.000660
Sym=     4a
Ene=   -0.863673E+01
Spin= Alpha
Occup= 1.999944
     1     0.000043
     2    -0.000316
     3     0.000383
     4     0.001693
     5     0.000184
     6     0.000015
     7    -0.000164
     8     0.000322
     9     0.000058
    10    -0.000031
    11     0.001645
    12     0.000294
    13     0.000745
    14    -0.000103
    15    -0.000078
    16    -0.000605
    17    -0.000004
    18    -0.000672
    19    -0.000119
    20    -0.145792
    21     0.489541
    22     0.006006
    23    -0.009450
    24    -0.825961
    25    -0.149011
    26     0.250666
    27     0.020640
    28     0.003740
    29    -0.012576
    30    -0.022934
    31    -0.004116
    32     0.001487
    33    -0.000116
    34    -0.000220
    35    -0.000022
    36     0.000035
    37     0.000146
    38     0.000026
Sym=     5a
Ene=   -0.869064E+01
Spin= Alpha
Occup= 1.999939
     1    -0.000042
     2     0.000328
     3    -0.000403
     4    -0.001878
     5     0.000040
     6     0.000186
     7     0.000160
     8     0.000088
     9     0.000301
    10    -0.000005
    11     0.000456
    12     0.001547
    13    -0.000870
    14     0.000097
    15     0.000114
    16     0.000643
    17     0.000011
    18    -0.000189
    19    -0.000630
    20     0.153099
    21    -0.512225
    22    -0.006294
    23     0.010074
    24    -0.228944
    25    -0.776955
    26    -0.299854
    27     0.005656
    28     0.019453
    29     0.014921
    30    -0.006442
    31    -0.021546
    32    -0.001816
    33     0.000249
    34     0.000148
    35     0.000034
    36    -0.000040
    37     0.000042
    38     0.000133
Sym=     6a
Ene=   -0.869737E+01
Spin= Alpha
Occup= 1.999938
     1    -0.154006
     2     0.515054
     3     0.006307
     4    -0.010132
     5     0.800931
     6     0.111501
     7    -0.299061
     8    -0.020048
     9    -0.002733
    10     0.014894
    11     0.022219
    12     0.003160
    13    -0.001803
    14    -0.000142
    15    -0.000260
    16    -0.000035
    17     0.000020
    18     0.000138
    19     0.000022
    20     0.000043
    21    -0.000332
    22     0.000411
    23     0.001882
    24    -0.000188
    25    -0.000015
    26     0.000161
    27    -0.000310
    28    -0.000042
    29    -0.000004
    30    -0.001595
    31    -0.000221
    32    -0.000871
    33    -0.000118
    34    -0.000095
    35    -0.000647
    36    -0.000008
    37    -0.000650
    38    -0.000093
Sym=     7a
Ene=   -0.872693E+01
Spin= Alpha
Occup= 1.999935
     1    -0.000037
     2     0.000320
     3    -0.000406
     4    -0.002038
     5     0.000096
     6    -0.000110
     7     0.000167
     8     0.000191
     9    -0.000232
    10    -0.000029
    11     0.000990
    12    -0.001197
    13    -0.000970
    14     0.000118
    15     0.000123
    16     0.000677
    17    -0.000014
    18    -0.000404
    19     0.000492
    20     0.157800
    21    -0.526783
    22    -0.006521
    23     0.010520
    24    -0.500124
    25     0.600410
    26    -0.347823
    27     0.012531
    28    -0.014914
    29     0.017164
    30    -0.013862
    31     0.016813
    32    -0.002170
    33     0.000224
    34     0.000224
    35     0.000048
    36     0.000071
    37     0.000083
    38    -0.000104
Sym=     8a
Ene=   -0.874597E+01
Spin= Alpha
Occup= 1.999935
     1    -0.160231
     2     0.534372
     3     0.006595
     4    -0.010721
     5    -0.528284
     6     0.561228
     7    -0.360610
     8     0.013052
     9    -0.014077
    10     0.017778
    11    -0.014889
    12     0.015539
    13    -0.002252
    14    -0.000253
    15    -0.000214
    16    -0.000052
    17    -0.000066
    18    -0.000093
    19     0.000092
    20     0.000037
    21    -0.000323
    22     0.000416
    23     0.002091
    24     0.000097
    25    -0.000108
    26     0.000170
    27     0.000207
    28    -0.000213
    29    -0.000038
    30     0.001060
    31    -0.001108
    32    -0.001002
    33    -0.000124
    34    -0.000127
    35    -0.000690
    36     0.000015
    37     0.000437
    38    -0.000453
Sym=     9a
Ene=   -0.878555E+01
Spin= Alpha
Occup= 1.999925
     1    -0.000071
     2     0.000240
     3     0.000170
     4    -0.001084
     5    -0.000006
     6    -0.000008
     7    -0.000942
     8    -0.000009
     9    -0.000002
    10    -0.001518
    11    -0.000073
    12     0.000018
    13    -0.002116
    14     0.000288
    15     0.000287
    16    -0.000540
    17     0.000001
    18     0.000031
    19    -0.000010
    20    -0.166570
    21     0.553831
    22     0.004429
    23    -0.006927
    24     0.042704
    25    -0.015811
    26    -0.831579
    27    -0.001151
    28     0.000481
    29     0.038249
    30     0.001077
    31    -0.000327
    32    -0.005697
    33     0.000107
    34     0.000109
    35    -0.000124
    36    -0.000002
    37    -0.000009
    38     0.000003
Sym=    10a
Ene=   -0.879328E+01
Spin= Alpha
Occup= 1.999924
     1    -0.167559
     2     0.556856
     3     0.004468
     4    -0.006989
     5    -0.015166
     6     0.049257
     7     0.829438
     8     0.000474
     9    -0.001302
    10    -0.038145
    11    -0.000299
    12     0.001272
    13     0.005685
    14     0.000105
    15     0.000104
    16    -0.000125
    17    -0.000004
    18    -0.000002
    19     0.000011
    20    -0.000070
    21     0.000237
    22     0.000174
    23    -0.001073
    24    -0.000006
    25    -0.000006
    26     0.000941
    27    -0.000003
    28    -0.000012
    29     0.001519
    30     0.000016
    31    -0.000087
    32     0.002111
    33     0.000286
    34     0.000287
    35    -0.000545
    36     0.000001
    37     0.000009
    38    -0.000037
Sym=    11a
Ene=   -0.714951E+00
Spin= Alpha
Occup= 1.992391
     1     0.044077
     2    -0.292691
     3     0.415437
     4     0.228008
     5    -0.074854
     6    -0.185179
     7    -0.007942
     8    -0.150156
     9    -0.370906
    10    -0.013411
    11    -0.202116
    12    -0.499273
    13    -0.020127
    14     0.009344
    15     0.007790
    16     0.017062
    17    -0.000865
    18    -0.004189
    19    -0.010341
    20    -0.001235
    21     0.009645
    22    -0.016430
    23    -0.025637
    24     0.003495
    25     0.008184
    26    -0.016387
    27     0.007030
    28     0.016566
    29    -0.025695
    30     0.016508
    31     0.039633
    32    -0.012173
    33    -0.004457
    34    -0.005045
    35     0.014413
    36    -0.000189
    37     0.009049
    38     0.022331
Sym=    12a
Ene=   -0.714344E+00
Spin= Alpha
Occup= 1.992386
     1    -0.001226
     2     0.009586
     3    -0.016344
     4    -0.025593
     5     0.008592
     6     0.002218
     7     0.016415
     8     0.017395
     9     0.004450
    10     0.025744
    11     0.041615
    12     0.010387
    13     0.012255
    14    -0.005074
    15    -0.004423
    16     0.014421
    17    -0.000081
    18    -0.023443
    19    -0.005633
    20     0.043996
    21    -0.292174
    22     0.414750
    23     0.227567
    24    -0.194421
    25    -0.046566
    26     0.007920
    27    -0.389422
    28    -0.093449
    29     0.013242
    30    -0.524198
    31    -0.125788
    32     0.019942
    33     0.007576
    34     0.009517
    35     0.017067
    36    -0.000566
    37     0.010857
    38     0.002605
Sym=    13a
Ene=   -0.712969E+00
Spin= Alpha
Occup= 1.992354
     1     0.043892
     2    -0.291594
     3     0.414113
     4     0.227374
     5    -0.122758
     6     0.158242
     7    -0.008358
     8    -0.245735
     9     0.316815
    10    -0.014481
    11    -0.330753
    12     0.426442
    13    -0.021337
    14     0.008828
    15     0.008338
    16     0.016781
    17     0.001208
    18    -0.006862
    19     0.008855
    20    -0.001320
    21     0.010162
    22    -0.017112
    23    -0.025676
    24     0.005636
    25    -0.007182
    26    -0.015882
    27     0.011342
    28    -0.014486
    29    -0.024865
    30     0.026757
    31    -0.034326
    32    -0.011345
    33    -0.004701
    34    -0.004692
    35     0.014119
    36     0.000414
    37     0.014811
    38    -0.019095
Sym=    14a
Ene=   -0.712658E+00
Spin= Alpha
Occup= 1.992353
     1    -0.001239
     2     0.009662
     3    -0.016443
     4    -0.025507
     5    -0.002661
     6    -0.008448
     7     0.016268
     8    -0.005345
     9    -0.017116
    10     0.025503
    11    -0.012510
    12    -0.041038
    13     0.012078
    14    -0.004490
    15    -0.004953
    16     0.014317
    17    -0.000286
    18     0.006876
    19     0.023160
    20     0.043796
    21    -0.290920
    22     0.413114
    23     0.226618
    24     0.057094
    25     0.192067
    26     0.008061
    27     0.113930
    28     0.384801
    29     0.013389
    30     0.153377
    31     0.517955
    32     0.020115
    33     0.009447
    34     0.007595
    35     0.016964
    36    -0.000682
    37    -0.003193
    38    -0.010732
Sym=    15a
Ene=   -0.713174E+00
Spin= Alpha
Occup= 1.992351
     1    -0.001322
     2     0.010178
     3    -0.017131
     4    -0.025700
     5    -0.006291
     6     0.006631
     7     0.015889
     8    -0.012684
     9     0.013353
    10     0.024878
    11    -0.030011
    12     0.031548
    13     0.011349
    14    -0.004589
    15    -0.004809
    16     0.014125
    17     0.000394
    18     0.016662
    19    -0.017495
    20     0.043926
    21    -0.291790
    22     0.414339
    23     0.227512
    24     0.138060
    25    -0.145008
    26     0.008341
    27     0.276430
    28    -0.290260
    29     0.014497
    30     0.372088
    31    -0.390694
    32     0.021352
    33     0.008658
    34     0.008521
    35     0.016790
    36     0.001236
    37    -0.007728
    38     0.008106
Sym=    16a
Ene=   -0.712310E+00
Spin= Alpha
Occup= 1.992348
     1    -0.043734
     2     0.290543
     3    -0.412643
     4    -0.226312
     5    -0.198476
     6    -0.028151
     7     0.008035
     8    -0.397648
     9    -0.055704
    10     0.013209
    11    -0.535249
    12    -0.075012
    13     0.019914
    14    -0.007440
    15    -0.009569
    16    -0.016979
    17     0.000333
    18    -0.011088
    19    -0.001569
    20     0.001227
    21    -0.009580
    22     0.016328
    23     0.025462
    24     0.008728
    25     0.001362
    26     0.016313
    27     0.017685
    28     0.002720
    29     0.025578
    30     0.042401
    31     0.006251
    32     0.012180
    33     0.005014
    34     0.004431
    35    -0.014338
    36     0.000193
    37     0.023930
    38     0.003369
Sym=    17a
Ene=   -0.606465E+00
Spin= Alpha
Occup= 1.907867
     1    -0.005782
     2     0.044160
     3    -0.070355
     4    -0.110199
     5    -0.000461
     6     0.000510
     7     0.199985
     8    -0.000818
     9     0.000905
    10     0.337860
    11    -0.001095
    12     0.001191
    13     0.382012
    14    -0.020956
    15    -0.020925
    16     0.072512
    17    -0.000037
    18     0.000030
    19    -0.000005
    20    -0.005779
    21     0.044138
    22    -0.070327
    23    -0.110183
    24     0.000543
    25    -0.000425
    26    -0.199986
    27     0.000963
    28    -0.000755
    29    -0.337860
    30     0.001273
    31    -0.001009
    32    -0.382015
    33    -0.020943
    34    -0.020935
    35     0.072511
    36    -0.000041
    37     0.000007
    38    -0.000028
Sym=    18a
Ene=   -0.420565E-01
Spin= Alpha
Occup= 0.092133
     1     0.016833
     2    -0.111955
     3     0.154099
     4     0.233740
     5    -0.000225
     6     0.000276
     7     0.247650
     8    -0.000656
     9     0.000814
    10     0.498215
    11     0.000334
    12    -0.000453
    13     0.553900
    14     0.001970
    15     0.002520
    16    -0.003092
    17    -0.000581
    18    -0.000136
    19     0.000253
    20    -0.016835
    21     0.111968
    22    -0.154146
    23    -0.233698
    24    -0.000280
    25     0.000208
    26     0.247659
    27    -0.000819
    28     0.000608
    29     0.498249
    30     0.000433
    31    -0.000310
    32     0.553877
    33    -0.002218
    34    -0.002314
    35     0.003111
    36     0.000663
    37     0.000243
    38    -0.000137
Sym=    19a
Ene=   -0.618193E-02
Spin= Alpha
Occup= 0.007652
     1     0.019751
     2    -0.155425
     3     0.595092
     4    -0.571435
     5     0.175425
     6     0.025204
     7    -0.051161
     8     0.576598
     9     0.082688
    10    -0.160312
    11    -0.492502
    12    -0.070178
    13     0.082121
    14     0.795806
    15    -0.312088
    16    -0.534564
    17     0.183729
    18    -0.101655
    19    -0.017873
    20     0.004888
    21    -0.034643
    22     0.016796
    23     0.139677
    24     0.014461
    25     0.002439
    26    -0.051681
    27     0.029480
    28     0.005294
    29    -0.129843
    30     0.050937
    31     0.006746
    32    -0.058313
    33    -0.005697
    34    -0.050619
    35     0.029650
    36     0.015860
    37     0.065773
    38     0.012160
Sym=    20a
Ene=   -0.618694E-02
Spin= Alpha
Occup= 0.007649
     1     0.004929
     2    -0.034791
     3     0.017799
     4     0.137753
     5     0.010020
     6    -0.010843
     7     0.051211
     8     0.019593
     9    -0.021670
    10     0.128087
    11     0.038386
    12    -0.039229
    13     0.060331
    14    -0.037775
    15    -0.017096
    16     0.029685
    17    -0.031893
    18    -0.050018
    19     0.052778
    20     0.020039
    21    -0.157791
    22     0.603348
    23    -0.577964
    24     0.122291
    25    -0.128240
    26     0.052399
    27     0.401783
    28    -0.421289
    29     0.164064
    30    -0.342844
    31     0.359321
    32    -0.084198
    33     0.211051
    34     0.268485
    35    -0.532324
    36    -0.659998
    37     0.088416
    38    -0.092548
Sym=    21a
Ene=   -0.618099E-02
Spin= Alpha
Occup= 0.007647
     1    -0.004894
     2     0.034673
     3    -0.016955
     4    -0.139383
     5    -0.004554
     6    -0.014000
     7    -0.051593
     8    -0.009545
     9    -0.028432
    10    -0.129526
    11    -0.014411
    12    -0.049708
    13    -0.058560
    14     0.045994
    15     0.010310
    16    -0.029718
    17    -0.023226
    18     0.022404
    19     0.063757
    20    -0.019782
    21     0.155674
    22    -0.595971
    23     0.572152
    24    -0.050839
    25    -0.169812
    26    -0.051421
    27    -0.166918
    28    -0.558146
    29    -0.161136
    30     0.142056
    31     0.476750
    32     0.082713
    33     0.240643
    34    -0.723885
    35     0.534259
    36    -0.363141
    37    -0.034235
    38    -0.101037
Sym=    22a
Ene=   -0.618593E-02
Spin= Alpha
Occup= 0.007646
     1    -0.020052
     2     0.157927
     3    -0.603758
     4     0.578086
     5     0.108313
     6    -0.140153
     7     0.052285
     8     0.355791
     9    -0.460484
    10     0.163670
    11    -0.303362
    12     0.392972
    13    -0.083819
    14    -0.098602
    15    -0.380798
    16     0.532524
    17     0.640619
    18    -0.078739
    19     0.100429
    20    -0.004936
    21     0.034837
    22    -0.017926
    23    -0.137761
    24     0.009251
    25    -0.011517
    26     0.051280
    27     0.018584
    28    -0.022603
    29     0.128316
    30     0.032948
    31    -0.043757
    32     0.060248
    33     0.025869
    34     0.029052
    35    -0.029747
    36     0.034048
    37     0.045093
    38    -0.056881
Sym=    23a
Ene=   -0.617049E-02
Spin= Alpha
Occup= 0.007614
     1    -0.004877
     2     0.034539
     3    -0.016301
     4    -0.140426
     5     0.014348
     6     0.002986
     7    -0.051580
     8     0.029355
     9     0.005377
    10    -0.129475
    11     0.050045
    12     0.013901
    13    -0.059025
    14     0.002337
    15     0.054049
    16    -0.029894
    17    -0.004560
    18    -0.065345
    19    -0.018529
    20    -0.019868
    21     0.156418
    22    -0.598606
    23     0.574259
    24     0.173266
    25     0.041776
    26    -0.051341
    27     0.569484
    28     0.137222
    29    -0.160813
    30    -0.486354
    31    -0.117053
    32     0.082035
    33    -0.752604
    34     0.270196
    35     0.534345
    36    -0.302670
    37     0.099963
    38     0.027035
Sym=    24a
Ene=   -0.616926E-02
Spin= Alpha
Occup= 0.007609
     1    -0.019936
     2     0.156950
     3    -0.600581
     4     0.576039
     5     0.067181
     6     0.165595
     7     0.051491
     8     0.220699
     9     0.544273
    10     0.161245
    11    -0.188280
    12    -0.464842
    13    -0.082199
    14     0.170023
    15    -0.651756
    16     0.533842
    17    -0.462072
    18    -0.043055
    19    -0.096886
    20    -0.004888
    21     0.034589
    22    -0.016542
    23    -0.140153
    24     0.005150
    25     0.013729
    26     0.051546
    27     0.009822
    28     0.028049
    29     0.129349
    30     0.021274
    31     0.047994
    32     0.059267
    33     0.052168
    34     0.004067
    35    -0.030002
    36    -0.013313
    37     0.028539
    38     0.062383
Sym=    25a
Ene=   -0.678590E-03
Spin= Alpha
Occup= 0.000076
     1     0.075522
     2    -0.821448
     3     1.854033
     4     0.804239
     5     0.005112
     6    -0.014358
     7    -0.284430
     8     0.016604
     9    -0.047375
    10    -1.043710
    11    -0.013940
    12     0.041349
    13     1.451118
    14    -1.130525
    15    -1.135469
    16    -0.363613
    17    -0.027200
    18    -0.007380
    19     0.008112
    20    -0.001745
    21     0.008335
    22     0.227105
    23    -0.849161
    24    -0.001021
    25     0.000577
    26     0.050687
    27    -0.004111
    28     0.003426
    29     0.100186
    30     0.006329
    31    -0.009330
    32     0.587294
    33     0.125629
    34     0.127246
    35    -0.248125
    36     0.005011
    37     0.009305
    38    -0.004687
Sym=    26a
Ene=   -0.674576E-03
Spin= Alpha
Occup= 0.000075
     1     0.001768
     2    -0.008520
     3    -0.227810
     4     0.852658
     5    -0.000396
     6     0.001462
     7     0.050561
     8    -0.002741
     9     0.005551
    10     0.099359
    11     0.008239
    12    -0.007527
    13     0.590791
    14    -0.130556
    15    -0.124175
    16     0.249473
    17    -0.003395
    18    -0.005577
    19     0.009377
    20    -0.075074
    21     0.816462
    22    -1.840098
    23    -0.806798
    24     0.012760
    25    -0.005071
    26    -0.285154
    27     0.042031
    28    -0.016503
    29    -1.046543
    30    -0.036491
    31     0.014004
    32     1.456166
    33     1.138274
    34     1.117915
    35     0.357681
    36     0.021535
    37     0.009131
    38    -0.006946
Sym=    27a
Ene=   -0.583565E-03
Spin= Alpha
Occup= 0.000065
     1    -0.071546
     2     0.795067
     3    -2.166652
     4     0.227411
     5    -0.171706
     6     0.179119
     7    -0.128826
     8    -0.569364
     9     0.593842
    10    -0.479593
    11     0.502429
    12    -0.523678
    13     0.695207
    14     0.935352
    15     0.696756
    16     0.884544
    17     0.384344
    18    -0.091926
    19     0.100815
    20    -0.000497
    21    -0.006788
    22     0.144644
    23    -0.385527
    24     0.001733
    25    -0.001772
    26     0.025925
    27     0.015747
    28    -0.016089
    29     0.042212
    30    -0.067858
    31     0.069875
    32     0.295065
    33     0.053021
    34     0.058288
    35    -0.174240
    36    -0.021589
    37     0.019024
    38    -0.017436
Sym=    28a
Ene=   -0.575671E-03
Spin= Alpha
Occup= 0.000065
     1     0.000471
     2     0.006752
     3    -0.140342
     4     0.371758
     5     0.001588
     6    -0.001755
     7     0.024740
     8     0.014432
     9    -0.017085
    10     0.039526
    11    -0.062624
    12     0.076029
    13     0.286067
    14    -0.050456
    15    -0.057282
    16     0.169509
    17     0.022190
    18    -0.015697
    19     0.020643
    20     0.070338
    21    -0.781889
    22     2.127768
    23    -0.215366
    24    -0.160223
    25     0.194498
    26    -0.123994
    27    -0.531203
    28     0.644888
    29    -0.461798
    30     0.468460
    31    -0.568876
    32     0.670557
    33    -0.799017
    34    -0.809925
    35    -0.868538
    36    -0.415003
    37     0.089449
    38    -0.105535
Sym=    29a
Ene=   -0.553662E-03
Spin= Alpha
Occup= 0.000062
     1     0.068221
     2    -0.759274
     3     2.050508
     4    -0.165328
     5    -0.259213
     6    -0.034679
     7     0.107273
     8    -0.859074
     9    -0.115090
    10     0.399911
    11     0.756993
    12     0.101860
    13    -0.582777
    14    -0.427593
    15    -1.155748
    16    -0.833408
    17     0.118147
    18    -0.127329
    19    -0.015489
    20     0.000348
    21     0.007194
    22    -0.125861
    23     0.320072
    24     0.003613
    25     0.000544
    26    -0.021183
    27     0.027555
    28     0.003961
    29    -0.032103
    30    -0.106989
    31    -0.014776
    32    -0.251422
    33    -0.064296
    34    -0.026954
    35     0.152095
    36    -0.012965
    37     0.015497
    38     0.005564
Sym=    30a
Ene=   -0.550869E-03
Spin= Alpha
Occup= 0.000061
     1    -0.000359
     2    -0.007034
     3     0.125663
     4    -0.320918
     5    -0.001091
     6    -0.003713
     7    -0.021057
     8    -0.008077
     9    -0.027330
    10    -0.031664
    11     0.030664
    12     0.104076
    13    -0.252267
    14     0.031867
    15     0.060205
    16    -0.152204
    17     0.018247
    18     0.008576
    19     0.014897
    20    -0.067831
    21     0.754971
    22    -2.039700
    23     0.166643
    24     0.073175
    25     0.251528
    26     0.107382
    27     0.242705
    28     0.833616
    29     0.400345
    30    -0.214399
    31    -0.734605
    32    -0.583671
    33     1.104517
    34     0.468907
    35     0.829638
    36    -0.237313
    37    -0.034644
    38    -0.125763
Sym=    31a
Ene=   -0.514502E-03
Spin= Alpha
Occup= 0.000056
     1    -0.000210
     2    -0.007604
     3     0.111326
     4    -0.269275
     5     0.003349
     6    -0.000174
     7    -0.016983
     8     0.027289
     9     0.002408
    10    -0.022791
    11    -0.109759
    12    -0.017639
    13    -0.218104
    14     0.060768
    15     0.015888
    16    -0.135436
    17     0.007490
    18    -0.018138
    19    -0.005954
    20    -0.064185
    21     0.715226
    22    -1.919150
    23     0.121191
    24    -0.267779
    25    -0.047361
    26     0.089936
    27    -0.887556
    28    -0.157042
    29     0.336008
    30     0.782225
    31     0.138460
    32    -0.493708
    33     0.413014
    34     1.095857
    35     0.777263
    36    -0.231434
    37     0.129468
    38     0.019976
Sym=    32a
Ene=   -0.492447E-03
Spin= Alpha
Occup= 0.000053
     1    -0.061851
     2     0.689853
     3    -1.848988
     4     0.110705
     5    -0.081824
     6    -0.263127
     7    -0.085925
     8    -0.271289
     9    -0.872182
    10    -0.321124
    11     0.239210
    12     0.768758
    13     0.472623
    14     0.994021
    15     0.464202
    16     0.751335
    17    -0.349624
    18    -0.036920
    19    -0.128953
    20    -0.000152
    21    -0.007925
    22     0.108232
    23    -0.256963
    24     0.000428
    25     0.003389
    26     0.015788
    27     0.006477
    28     0.027068
    29     0.020046
    30    -0.032223
    31    -0.107881
    32     0.210430
    33     0.017131
    34     0.055503
    35    -0.131439
    36     0.015705
    37     0.008266
    38     0.018289
Sym=    33a
Ene=   -0.810428E-05
Spin= Alpha
Occup= 0.000000
     1    -0.000011
     2    -0.000591
     3     0.002506
     4    -0.001874
     5     0.004217
     6     0.002455
     7    -0.000315
     8    -0.008799
     9    -0.008843
    10    -0.000151
    11     0.066733
    12     0.051830
    13    -0.004940
    14    -0.172398
    15     0.174410
    16    -0.007800
    17     0.044961
    18    -0.526841
    19    -0.389632
    20    -0.000083
    21     0.001633
    22    -0.004925
    23     0.000600
    24     0.003739
    25     0.003074
    26     0.001107
    27    -0.010499
    28    -0.006691
    29     0.004576
    30     0.068634
    31     0.049554
    32    -0.008305
    33     0.177122
    34    -0.178450
    35     0.010487
    36     0.014196
    37     0.524986
    38     0.390935
Sym=    34a
Ene=   -0.772985E-05
Spin= Alpha
Occup= 0.000000
     1     0.000332
     2    -0.007816
     3     0.026146
     4    -0.010395
     5     0.004705
     6    -0.005114
     7     0.003085
     8    -0.001250
     9     0.005853
    10     0.015823
    11     0.044913
    12    -0.064570
    13    -0.043674
    14    -0.037848
    15     0.045057
    16    -0.054765
    17    -0.215309
    18    -0.387005
    19     0.521879
    20    -0.000291
    21     0.007391
    22    -0.025056
    23     0.010510
    24     0.003839
    25    -0.005786
    26     0.002846
    27    -0.004228
    28     0.003576
    29     0.015027
    30     0.047974
    31    -0.062331
    32    -0.043113
    33    -0.015752
    34     0.007949
    35     0.054135
    36     0.220465
    37     0.386263
    38    -0.521626
Sym=    35a
Ene=    0.000000E+00
Spin= Alpha
Occup= 0.000000
     1     0.003826
     2    -0.170290
     3    -0.081255
     4     1.736624
     5     0.019623
     6     0.000720
     7    -0.019415
     8     0.085843
     9     0.004473
    10    -0.106789
    11    -0.137620
    12    -0.010339
    13     0.584441
    14    -0.484118
    15    -0.415084
    16    -0.556766
    17    -0.014617
    18    -0.423964
    19    -0.061043
    20    -0.005807
    21     0.249049
    22     0.024523
    23    -2.156938
    24    -0.018037
    25    -0.002160
    26    -0.024858
    27    -0.079877
    28    -0.009867
    29    -0.139527
    30     0.130831
    31     0.016441
    32     0.607670
    33     0.608196
    34     0.668112
    35     0.827578
    36    -0.028400
    37    -0.443487
    38    -0.043740
Sym=    36a
Ene=    0.000000E+00
Spin= Alpha
Occup= 0.000000
     1    -0.001879
     2     0.072092
     3    -0.085549
     4    -0.242440
     5    -0.005927
     6    -0.028315
     7     0.004080
     8    -0.026550
     9    -0.124289
    10     0.026492
    11     0.044197
    12     0.200767
    13     0.067868
    14     0.196602
    15     0.133097
    16     0.255866
    17    -0.056521
    18     0.150212
    19     0.640911
    20    -0.003704
    21     0.151066
    22    -0.073014
    23    -0.953536
    24     0.007047
    25     0.029066
    26    -0.010241
    27     0.030387
    28     0.126604
    29    -0.063461
    30    -0.047704
    31    -0.202227
    32     0.133518
    33     0.410253
    34     0.319162
    35     0.523666
    36    -0.043412
    37     0.145185
    38     0.643606
Sym=    37a
Ene=    0.000000E+00
Spin= Alpha
Occup= 0.000000
     1     0.005445
     2    -0.220630
     3     0.153911
     4     1.189588
     5     0.009494
     6    -0.017258
     7    -0.012023
     8     0.040797
     9    -0.073503
    10    -0.082561
    11    -0.064075
    12     0.113721
    13     0.060581
    14    -0.524063
    15    -0.513321
    16    -0.786484
    17    -0.048481
    18    -0.194704
    19     0.342711
    20     0.005439
    21    -0.220525
    22     0.152303
    23     1.193495
    24    -0.010066
    25     0.016287
    26     0.012418
    27    -0.042637
    28     0.070338
    29     0.084318
    30     0.065448
    31    -0.111245
    32    -0.065030
    33    -0.513696
    34    -0.525507
    35    -0.784537
    36    -0.047854
    37    -0.195121
    38     0.343107
Sym=    38a
Ene=    0.000000E+00
Spin= Alpha
Occup= 0.000000
     1     0.005653
     2    -0.237831
     3     0.021807
     4     1.879608
     5    -0.024647
     6     0.002503
     7    -0.021074
     8    -0.107087
     9     0.012354
    10    -0.121329
    11     0.170644
    12    -0.023283
    13     0.460416
    14    -0.556905
    15    -0.638422
    16    -0.800533
    17     0.033997
    18     0.548379
    19    -0.098609
    20    -0.001605
    21     0.076777
    22     0.093806
    23    -1.019274
    24     0.024731
    25    -0.004803
    26    -0.010265
    27     0.107895
    28    -0.020419
    29    -0.055235
    30    -0.172699
    31     0.031129
    32     0.413026
    33     0.242832
    34     0.184165
    35     0.243694
    36     0.046371
    37     0.535811
    38    -0.083871
