[Molden Format]
p30-5 set                                                                       
[Atoms] AU
 LI       1     3        0.0000        0.0000       -1.5080
 H        2     1        0.0000        0.0000        1.5080
[GTO]
    1 0
s    5 1.00
     266.277855160000  0.635428653465E-02
      40.069783447000  0.467348893628E-01
       9.055994438900  0.198387923560E+00
       2.450300905100  0.475753833454E+00
       0.722095718550  0.427014289368E+00
s    1 1.00
       0.052810884721  0.100000000000E+01
s    1 1.00
       0.020960948798  0.100000000000E+01
p    2 1.00
       1.450000000000  0.224912327222E+00
       0.300000000000  0.869730577039E+00
p    1 1.00
       0.082000000000  0.100000000000E+01
 
    2 0
s    3 1.00
      13.010701000000  0.334854848130E-01
       1.962257200000  0.234721870881E+00
       0.444537960000  0.813770285260E+00
s    1 1.00
       0.121949620000  0.100000000000E+01
p    1 1.00
       0.800000000000  0.100000000000E+01
 
[MO]
Sym=     1a
Ene=   -0.244539E+01
Spin= Alpha
Occup= 1.999255
     1     0.996101
     2     0.020716
     3    -0.010007
     4    -0.000001
     5    -0.000015
     6    -0.012137
     7     0.000009
     8     0.000016
     9     0.003536
    10     0.004565
    11    -0.001701
    12     0.000006
    13    -0.000006
    14    -0.003733
Sym=     2a
Ene=   -0.317795E+00
Spin= Alpha
Occup= 1.957631
     1     0.153654
     2    -0.303248
     3    -0.031847
     4    -0.000010
     5     0.000003
     6    -0.083193
     7     0.000007
     8     0.000003
     9    -0.130730
    10    -0.412228
    11    -0.358023
    12     0.000012
    13    -0.000008
    14     0.015851
Sym=     3a
Ene=   -0.228699E-03
Spin= Alpha
Occup= 0.000294
     1    -0.026322
     2     1.566213
     3    -0.156033
     4     0.000021
     5    -0.000015
     6     0.114450
     7     0.000064
     8     0.000133
     9     0.779126
    10     0.812128
    11    -2.187649
    12    -0.000075
    13    -0.000096
    14     0.711274
Sym=     4a
Ene=   -0.712176E-03
Spin= Alpha
Occup= 0.000235
     1     0.087782
     2    -0.651539
     3     0.258018
     4    -0.000075
     5     0.000462
     6     1.178785
     7     0.000005
     8    -0.000184
     9    -0.653369
    10    -0.355911
    11     0.534103
    12     0.000035
    13    -0.000090
    14     0.465446
Sym=     5a
Ene=   -0.179180E-02
Spin= Alpha
Occup= 0.002477
     1     0.000019
     2    -0.000037
     3     0.000058
     4    -0.032476
     5     0.054930
     6     0.000008
     7    -0.214511
     8     0.362991
     9     0.000048
    10     0.000032
    11    -0.000079
    12    -0.421665
    13     0.713516
    14    -0.000015
Sym=     6a
Ene=   -0.310342E-04
Spin= Alpha
Occup= 0.000010
     1    -0.184658
     2     1.071393
     3    -1.578797
     4    -0.003658
     5     0.006187
     6     0.210868
     7     0.015520
     8    -0.026301
     9    -0.920900
    10    -0.291707
    11     0.932932
    12    -0.008328
    13     0.014166
    14     0.236197
Sym=     7a
Ene=   -0.161543E-03
Spin= Alpha
Occup= 0.000244
     1    -0.000008
     2    -0.000268
     3     0.000009
     4    -0.109402
     5    -0.064668
     6    -0.000004
     7     0.765674
     8     0.452449
     9    -0.000211
    10    -0.000130
    11     0.000419
    12    -0.585286
    13    -0.345853
    14    -0.000106
Sym=     8a
Ene=   -0.716443E-03
Spin= Alpha
Occup= 0.000248
     1    -0.000034
     2     0.000290
     3    -0.000152
     4    -0.589958
     5     1.025723
     6    -0.000438
     7     0.251455
     8    -0.439521
     9     0.000213
    10     0.000117
    11    -0.000157
    12     0.089597
    13    -0.154636
    14    -0.000159
Sym=     9a
Ene=   -0.181493E-02
Spin= Alpha
Occup= 0.002832
     1    -0.000006
     2    -0.000020
     3     0.000030
     4     0.052540
     5     0.031048
     6    -0.000006
     7     0.476000
     8     0.281299
     9     0.000014
    10     0.000010
    11    -0.000011
    12     0.631704
    13     0.373322
    14     0.000001
Sym=    10a
Ene=   -0.192959E-05
Spin= Alpha
Occup= 0.000001
     1    -0.004148
     2    -1.157241
     3     1.031397
     4    -0.000014
     5    -0.000024
     6     0.188306
     7    -0.000044
     8     0.000042
     9    -1.400726
    10     0.081749
    11     0.909861
    12     0.000033
    13    -0.000007
    14    -0.199999
Sym=    11a
Ene=   -0.256821E-02
Spin= Alpha
Occup= 0.004412
     1    -0.059672
     2     1.215676
     3    -0.582498
     4     0.000009
     5     0.000013
     6     0.384319
     7     0.000001
     8     0.000000
     9     0.320217
    10     0.472445
    11    -1.319815
    12     0.000012
    13    -0.000022
    14    -0.584429
Sym=    12a
Ene=   -0.705830E-03
Spin= Alpha
Occup= 0.000243
     1     0.000003
     2    -0.000005
     3     0.000010
     4    -1.040935
     5    -0.599181
     6     0.000165
     7     0.532802
     8     0.308010
     9    -0.000023
    10    -0.000027
    11    -0.000025
    12     0.114177
    13     0.065063
    14     0.000078
Sym=    13a
Ene=   -0.126243E-01
Spin= Alpha
Occup= 0.032109
     1    -0.171578
     2     0.855863
     3     0.017906
     4     0.000011
     5    -0.000004
     6     0.097185
     7    -0.000000
     8     0.000013
     9     0.380534
    10    -0.969128
    11    -0.019866
    12    -0.000013
    13     0.000008
    14     0.002079
Sym=    14a
Ene=   -0.272182E-04
Spin= Alpha
Occup= 0.000009
     1     0.005544
     2    -0.032066
     3     0.047377
     4    -0.122684
     5     0.207645
     6    -0.006259
     7     0.518883
     8    -0.878119
     9     0.027577
    10     0.008805
    11    -0.028096
    12    -0.278058
    13     0.470560
    14    -0.007027
