[Molden Format]
p30-5 set                                                                       
[Atoms] AU
 AL       1    13        0.0000        0.0000        0.0000
 H        2     1       -1.4979        2.5944        0.0000
 H        3     1       -1.4979       -2.5944        0.0000
 H        4     1        2.9958        0.0000        0.0000
[GTO]
    1 0
s    5 1.00
    5887.572703000000  0.565197896170E-02
     885.612259960000  0.422182534268E-01
     201.136048990000  0.189187196726E+00
      56.284974674000  0.480435911881E+00
      17.229551243000  0.425872684294E+00
s    3 1.00
      29.340249922000  0.885686032394E-01
       3.043963042000 -0.543157066723E+00
       1.128553951800 -0.529385510294E+00
s    1 1.00
       0.142341751600  0.100000000000E+01
s    1 1.00
       0.054400192313  0.100000000000E+01
p    5 1.00
     145.119188090000  0.107263778593E-01
      33.717894833000  0.741036235460E-01
      10.369863083000  0.261296213060E+00
       3.513561603600  0.480201235327E+00
       1.198005027300  0.384382240624E+00
p    1 1.00
       0.265830059130  0.100000000000E+01
p    1 1.00
       0.071003361994  0.100000000000E+01
d    1 1.00
       0.300000000000  0.100000000000E+01
 
    2 0
s    3 1.00
      13.010701000000  0.334854848130E-01
       1.962257200000  0.234721870881E+00
       0.444537960000  0.813770285260E+00
s    1 1.00
       0.121949620000  0.100000000000E+01
p    1 1.00
       0.800000000000  0.100000000000E+01
 
    3 0
s    3 1.00
      13.010701000000  0.334854848130E-01
       1.962257200000  0.234721870881E+00
       0.444537960000  0.813770285260E+00
s    1 1.00
       0.121949620000  0.100000000000E+01
p    1 1.00
       0.800000000000  0.100000000000E+01
 
    4 0
s    3 1.00
      13.010701000000  0.334854848130E-01
       1.962257200000  0.234721870881E+00
       0.444537960000  0.813770285260E+00
s    1 1.00
       0.121949620000  0.100000000000E+01
p    1 1.00
       0.800000000000  0.100000000000E+01
 
[MO]
Sym=     1a
Ene=   -0.584590E+02
Spin= Alpha
Occup= 2.000000
     1     0.993449
     2    -0.030589
     3    -0.038100
     4     0.005852
     5    -0.000454
     6     0.001437
     7     0.000025
     8    -0.000013
     9     0.000053
    10     0.000003
    11     0.000003
    12    -0.000017
    13    -0.000001
    14     0.012430
    15     0.012426
    16     0.012345
    17    -0.000001
    18     0.000002
    19    -0.000001
    20    -0.000134
    21     0.000495
    22    -0.000129
    23     0.000223
    24     0.000003
    25    -0.000124
    26     0.000487
    27    -0.000127
    28    -0.000226
    29     0.000002
    30    -0.000132
    31     0.000493
    32     0.000261
    33     0.000001
    34     0.000000
Sym=     2a
Ene=   -0.320786E+01
Spin= Alpha
Occup= 1.999879
     1     0.005714
     2     0.021061
     3    -0.000220
     4     0.000141
     5     0.885945
     6     0.440177
     7     0.001590
     8     0.031533
     9     0.015673
    10     0.000067
    11    -0.006369
    12    -0.003167
    13    -0.000012
    14    -0.000252
    15     0.000029
    16    -0.000108
    17     0.000078
    18     0.000002
    19    -0.000000
    20     0.000139
    21     0.000061
    22    -0.000249
    23    -0.000058
    24     0.000001
    25     0.001764
    26     0.000735
    27    -0.000545
    28    -0.000683
    29     0.000001
    30    -0.001894
    31    -0.000802
    32    -0.000911
    33    -0.000104
    34    -0.000000
Sym=     3a
Ene=   -0.324043E+01
Spin= Alpha
Occup= 1.999874
     1     0.039458
     2     0.144977
     3    -0.001239
     4     0.001022
     5    -0.438430
     6     0.876000
     7     0.012498
     8    -0.015611
     9     0.031190
    10     0.000511
    11     0.003178
    12    -0.006348
    13    -0.000091
    14    -0.000684
    15    -0.000841
    16    -0.000791
    17     0.000181
    18    -0.000004
    19     0.000005
    20    -0.002009
    21    -0.000885
    22     0.000461
    23    -0.000831
    24    -0.000009
    25     0.001275
    26     0.000480
    27    -0.000127
    28    -0.000633
    29    -0.000006
    30     0.001050
    31     0.000374
    32     0.000513
    33    -0.000213
    34    -0.000004
Sym=     4a
Ene=   -0.403639E+01
Spin= Alpha
Occup= 1.999782
     1    -0.204349
     2    -0.722781
     3     0.007437
     4    -0.005544
     5    -0.028126
     6     0.085899
     7     0.698823
     8    -0.001003
     9     0.003074
    10     0.029016
    11     0.000218
    12    -0.000655
    13    -0.005363
    14     0.003130
    15     0.003130
    16     0.003568
    17     0.000000
    18     0.000001
    19     0.000004
    20    -0.000825
    21    -0.000093
    22     0.000183
    23    -0.000328
    24    -0.000342
    25    -0.000449
    26     0.000029
    27     0.000146
    28     0.000205
    29    -0.000343
    30    -0.000529
    31    -0.000012
    32    -0.000276
    33    -0.000019
    34    -0.000346
Sym=     5a
Ene=   -0.403338E+01
Spin= Alpha
Occup= 1.999782
     1     0.203968
     2     0.721462
     3    -0.007430
     4     0.005533
     5     0.034014
     6    -0.102754
     7     0.697539
     8     0.001211
     9    -0.003676
    10     0.028964
    11    -0.000266
    12     0.000789
    13    -0.005349
    14    -0.003122
    15    -0.003122
    16    -0.003562
    17    -0.000006
    18    -0.000007
    19     0.000015
    20     0.000865
    21     0.000111
    22    -0.000193
    23     0.000340
    24    -0.000352
    25     0.000416
    26    -0.000045
    27    -0.000138
    28    -0.000200
    29    -0.000338
    30     0.000507
    31    -0.000001
    32     0.000274
    33     0.000031
    34    -0.000339
Sym=     6a
Ene=   -0.492247E+00
Spin= Alpha
Occup= 1.966428
     1    -0.027596
     2    -0.167168
     3    -0.249068
     4    -0.043628
     5    -0.061124
     6     0.105780
     7     0.000006
     8     0.108081
     9    -0.187186
    10    -0.000001
    11     0.059091
    12    -0.102356
    13     0.000011
    14    -0.002277
    15    -0.054749
    16    -0.001170
    17     0.052478
    18    -0.000002
    19     0.000000
    20    -0.421009
    21    -0.292718
    22    -0.008589
    23     0.014878
    24    -0.000002
    25     0.027054
    26     0.047666
    27     0.000880
    28    -0.004036
    29     0.000001
    30     0.027063
    31     0.047666
    32     0.003052
    33    -0.002784
    34     0.000002
Sym=     7a
Ene=   -0.492294E+00
Spin= Alpha
Occup= 1.966368
     1     0.027633
     2     0.167363
     3     0.249408
     4     0.043529
     5    -0.122304
     6     0.000067
     7     0.000015
     8     0.216190
     9     0.000030
    10     0.000000
    11     0.118093
    12     0.000019
    13     0.000008
    14     0.080921
    15    -0.024009
    16     0.001157
    17     0.000006
    18     0.000002
    19    -0.000001
    20    -0.026982
    21    -0.047641
    22     0.003940
    23    -0.001260
    24    -0.000001
    25    -0.027042
    26    -0.047660
    27     0.003939
    28     0.001257
    29    -0.000001
    30     0.420972
    31     0.292727
    32    -0.017184
    33    -0.000005
    34    -0.000001
Sym=     8a
Ene=   -0.492299E+00
Spin= Alpha
Occup= 1.966350
     1    -0.027641
     2    -0.167400
     3    -0.249465
     4    -0.043498
     5    -0.061194
     6    -0.105984
     7    -0.000015
     8     0.108115
     9     0.187218
    10     0.000004
    11     0.059044
    12     0.102270
    13    -0.000006
    14    -0.002215
    15    -0.054667
    16    -0.001165
    17    -0.052462
    18     0.000001
    19    -0.000000
    20     0.026988
    21     0.047637
    22     0.000874
    23     0.004045
    24    -0.000001
    25    -0.420968
    26    -0.292730
    27    -0.008596
    28    -0.014886
    29    -0.000001
    30     0.027026
    31     0.047667
    32     0.003063
    33     0.002781
    34     0.000001
Sym=     9a
Ene=   -0.399628E-02
Spin= Alpha
Occup= 0.005770
     1    -0.000007
     2    -0.000097
     3    -0.000125
     4     0.000014
     5     0.000059
     6    -0.000007
     7    -0.112523
     8    -0.000217
     9     0.000056
    10     0.265239
    11     0.000181
    12    -0.000308
    13     0.186475
    14     0.000184
    15    -0.000009
    16     0.000334
    17     0.000343
    18    -0.249044
    19    -0.431806
    20     0.000154
    21     0.000125
    22     0.000021
    23     0.000081
    24    -0.012409
    25     0.000713
    26    -0.001139
    27    -0.000068
    28     0.000682
    29     0.612921
    30     0.000080
    31    -0.000124
    32    -0.000057
    33    -0.000145
    34    -0.012806
Sym=    10a
Ene=   -0.399550E-02
Spin= Alpha
Occup= 0.005768
     1     0.000011
     2     0.000123
     3     0.000299
     4    -0.000063
     5    -0.000005
     6     0.000065
     7     0.112434
     8     0.000029
     9    -0.000272
    10    -0.264921
    11    -0.000068
    12     0.000462
    13    -0.186622
    14    -0.000183
    15    -0.000002
    16    -0.000333
    17    -0.000193
    18    -0.498287
    19     0.000311
    20    -0.000051
    21    -0.000224
    22     0.000024
    23    -0.000083
    24     0.012339
    25    -0.000096
    26     0.000268
    27    -0.000086
    28    -0.000059
    29     0.012861
    30    -0.000583
    31     0.000742
    32     0.000333
    33    -0.000130
    34    -0.613170
Sym=    11a
Ene=   -0.507200E-02
Spin= Alpha
Occup= 0.007967
     1    -0.014268
     2    -0.094132
     3    -0.583670
     4     0.148426
     5    -0.067022
     6     0.115917
     7     0.000202
     8     0.247836
     9    -0.428420
    10    -0.000628
    11    -0.018109
    12     0.029984
    13     0.000114
    14     0.044114
    15    -0.185550
    16     0.164541
    17     0.229375
    18     0.000137
    19    -0.000204
    20    -0.411903
    21     1.070820
    22    -0.212352
    23     0.367736
    24    -0.000377
    25    -0.043798
    26    -0.006525
    27    -0.006969
    28    -0.016401
    29     0.000118
    30    -0.044061
    31    -0.005837
    32     0.018151
    33    -0.001963
    34     0.000112
Sym=    12a
Ene=   -0.475143E-04
Spin= Alpha
Occup= 0.000010
     1     0.003355
     2     0.036875
     3     0.087466
     4    -0.206129
     5     0.008693
     6    -0.016343
     7    -0.000171
     8    -0.052458
     9     0.083670
    10    -0.001465
    11     0.041486
    12    -0.045929
    13     0.008344
    14     0.244315
    15     0.483313
    16    -0.710657
    17    -0.116961
    18     0.115512
    19    -0.215225
    20    -0.408790
    21     0.283316
    22     0.180729
    23     0.355076
    24     0.192475
    25    -0.234018
    26     0.174788
    27    -0.344389
    28     0.074872
    29    -0.107576
    30    -0.175730
    31     0.136667
    32     0.083150
    33    -0.481023
    34    -0.096710
Sym=    13a
Ene=   -0.948258E-03
Spin= Alpha
Occup= 0.000202
     1     0.096532
     2     1.139526
     3     4.637709
     4    -0.854450
     5     0.007833
     6    -0.023612
     7    -0.237521
     8    -0.036831
     9     0.110216
    10     0.845916
    11     0.028647
    12    -0.084285
    13    -0.455935
    14    -1.709132
    15    -1.691519
    16    -1.529221
    17    -0.020101
    18    -0.000176
    19     0.002882
    20     0.074638
    21     0.015606
    22    -0.043424
    23     0.071904
    24    -0.220817
    25     0.114508
    26    -0.015312
    27     0.019485
    28     0.022601
    29    -0.217841
    30     0.109749
    31    -0.011586
    32    -0.006120
    33    -0.008870
    34    -0.219410
Sym=    14a
Ene=   -0.130208E-03
Spin= Alpha
Occup= 0.000037
     1     0.000620
     2     0.006051
     3     0.026550
     4    -0.001284
     5     0.016039
     6     0.023074
     7     0.000138
     8    -0.148528
     9    -0.161086
    10    -0.000527
    11     0.152429
    12     0.148467
    13     0.000416
    14    -0.787384
    15     0.787426
    16    -0.012820
    17     0.662167
    18     0.009320
    19     0.008882
    20     0.087585
    21    -0.065432
    22     0.066826
    23    -0.017979
    24    -0.002428
    25    -0.742479
    26     0.500577
    27    -0.114209
    28    -0.256164
    29     0.010183
    30     0.652846
    31    -0.453201
    32    -0.210474
    33     0.046834
    34    -0.007574
Sym=    15a
Ene=   -0.216301E-03
Spin= Alpha
Occup= 0.000059
     1    -0.002988
     2    -0.035464
     3    -0.141205
     4     0.020334
     5    -0.249172
     6    -0.125974
     7    -0.000445
     8     1.166541
     9     0.597583
    10     0.001523
    11    -0.815415
    12    -0.419457
    13    -0.000579
    14     0.119486
    15    -0.053958
    16     0.081086
    17    -0.145834
    18     0.002010
    19    -0.007135
    20    -0.041468
    21     0.032486
    22    -0.063157
    23    -0.077797
    24     0.005257
    25     0.189777
    26    -0.083278
    27     0.304883
    28     0.619492
    29    -0.004789
    30    -0.123163
    31     0.044904
    32     0.701524
    33    -0.044441
    34    -0.002151
Sym=    16a
Ene=   -0.373369E-05
Spin= Alpha
Occup= 0.000000
     1    -0.005617
     2    -0.228045
     3    -0.627535
     4     0.296328
     5    -0.004939
     6    -0.007699
     7     0.000071
     8     0.044213
     9     0.059892
    10    -0.000502
    11    -0.039125
    12    -0.036206
    13     0.001135
    14     1.113929
    15     0.835008
    16     0.527980
    17    -0.166667
    18    -0.012969
    19     0.024246
    20     0.068064
    21    -0.736578
    22     0.002347
    23     0.724965
    24    -0.022444
    25     0.154611
    26    -0.697740
    27    -0.242572
    28    -0.415239
    29     0.011335
    30     0.013532
    31    -0.700255
    32     0.655278
    33     0.227802
    34     0.010049
Sym=    17a
Ene=   -0.112966E-01
Spin= Alpha
Occup= 0.019877
     1     0.029101
     2     0.189993
     3     0.468118
     4     0.029243
     5     0.096715
     6     0.167339
     7     0.000034
     8    -0.301645
     9    -0.521809
    10    -0.000161
    11    -0.188113
    12    -0.326816
    13     0.000203
    14     0.039318
    15     0.115925
    16    -0.005222
    17     0.077140
    18     0.000024
    19    -0.000161
    20     0.009697
    21    -0.039320
    22    -0.009557
    23    -0.005881
    24     0.000091
    25    -1.105167
    26     0.048708
    27     0.000410
    28     0.000828
    29     0.000117
    30     0.009679
    31    -0.039765
    32    -0.000294
    33    -0.011225
    34    -0.000005
Sym=    18a
Ene=   -0.112922E-01
Spin= Alpha
Occup= 0.019867
     1    -0.029021
     2    -0.189164
     3    -0.464684
     4    -0.030384
     5     0.193303
     6     0.000072
     7     0.000005
     8    -0.602802
     9    -0.000187
    10     0.000030
    11    -0.377046
    12    -0.000095
    13    -0.000150
    14    -0.155800
    15    -0.001872
    16     0.004509
    17    -0.000507
    18    -0.000122
    19     0.000125
    20    -0.009819
    21     0.039863
    22    -0.009678
    23    -0.005197
    24    -0.000080
    25    -0.009542
    26     0.039502
    27    -0.009736
    28     0.005495
    29     0.000017
    30     1.105382
    31    -0.048819
    32     0.000839
    33    -0.000281
    34    -0.000109
Sym=    19a
Ene=   -0.112847E-01
Spin= Alpha
Occup= 0.019849
     1     0.028735
     2     0.186210
     3     0.452021
     4     0.035413
     5     0.096416
     6    -0.166823
     7    -0.000017
     8    -0.300391
     9     0.519542
    10     0.000119
    11    -0.189777
    12     0.329501
    13    -0.000245
    14     0.044333
    15     0.121761
    16    -0.002850
    17    -0.077284
    18     0.000060
    19    -0.000078
    20    -1.106582
    21     0.048716
    22     0.000699
    23    -0.000927
    24    -0.000128
    25     0.009188
    26    -0.039272
    27    -0.009809
    28     0.005358
    29    -0.000050
    30     0.009333
    31    -0.039518
    32     0.000043
    33     0.011104
    34    -0.000043
Sym=    20a
Ene=   -0.367665E-04
Spin= Alpha
Occup= 0.000007
     1    -0.000349
     2    -0.028470
     3    -0.083282
     4    -0.000338
     5     0.018217
     6    -0.010662
     7    -0.000786
     8    -0.161492
     9     0.081852
    10     0.003968
    11     0.039308
    12    -0.007727
    13    -0.006206
    14    -0.253446
    15     0.679883
    16    -0.051317
    17    -0.226347
    18     0.065808
    19    -0.111830
    20    -0.183685
    21    -0.163997
    22    -0.691984
    23    -0.007649
    24     0.105538
    25    -0.063809
    26    -0.064548
    27    -0.703823
    28     0.247701
    29    -0.050555
    30     0.127290
    31     0.036402
    32    -0.143383
    33     0.390250
    34    -0.051886
Sym=    21a
Ene=   -0.359120E-04
Spin= Alpha
Occup= 0.000007
     1    -0.002247
     2    -0.093399
     3    -0.253226
     4     0.122942
     5     0.004891
     6     0.017563
     7     0.001590
     8    -0.047615
     9    -0.156702
    10    -0.009836
    11     0.015603
    12     0.046828
    13     0.020098
    14     0.235782
    15     0.532994
    16     0.245095
    17     0.529684
    18    -0.037767
    19     0.097108
    20     0.165092
    21    -0.241581
    22    -0.574790
    23    -0.259201
    24    -0.088442
    25    -0.129737
    26    -0.387528
    27    -0.098108
    28    -0.510843
    29     0.047036
    30     0.094050
    31    -0.268230
    32     0.158148
    33    -0.721877
    34     0.024998
Sym=    22a
Ene=   -0.246057E-03
Spin= Alpha
Occup= 0.000069
     1     0.018532
     2     0.219518
     3     0.885420
     4    -0.132170
     5    -0.123467
     6     0.246063
     7     0.003785
     8     0.577529
     9    -1.146345
    10    -0.013240
    11    -0.428466
    12     0.838702
    13     0.006083
    14    -0.218663
    15    -0.326050
    16    -0.386184
    17     0.062572
    18    -0.011651
    19     0.022178
    20     0.136225
    21    -0.099538
    22     0.376746
    23    -0.637496
    24    -0.015800
    25    -0.071887
    26     0.033275
    27    -0.294220
    28    -0.341575
    29     0.015211
    30    -0.093449
    31     0.054838
    32     0.373003
    33     0.081541
    34     0.013811
Sym=    23a
Ene=   -0.810754E-04
Spin= Alpha
Occup= 0.000022
     1     0.000026
     2     0.001147
     3     0.003410
     4     0.000052
     5    -0.001028
     6    -0.000451
     7     0.000450
     8     0.007191
     9     0.003453
    10    -0.000632
    11    -0.003329
    12    -0.002042
    13    -0.003181
    14     0.013177
    15    -0.026257
    16    -0.000083
    17    -0.013611
    18     0.765625
    19     0.382782
    20     0.000047
    21     0.003553
    22     0.008788
    23     0.000522
    24     0.043525
    25     0.014106
    26    -0.002775
    27     0.016573
    28     0.004209
    29     0.577717
    30    -0.011704
    31     0.006205
    32     0.005573
    33     0.009719
    34    -0.614590
Sym=    24a
Ene=   -0.233420E-05
Spin= Alpha
Occup= 0.000000
     1    -0.000075
     2    -0.002083
     3    -0.005427
     4     0.005847
     5    -0.000034
     6     0.000311
     7    -0.033227
     8    -0.000033
     9    -0.002520
    10     0.358288
    11    -0.002887
    12     0.013372
    13    -1.046888
    14     0.003312
    15     0.003128
    16     0.012101
    17     0.011169
    18     0.002574
    19    -0.012729
    20     0.011576
    21    -0.021666
    22    -0.002314
    23    -0.000135
    24     0.385993
    25    -0.002183
    26     0.000729
    27    -0.003473
    28    -0.004621
    29     0.368262
    30     0.002430
    31    -0.004555
    32     0.002450
    33    -0.024219
    34     0.374015
Sym=    25a
Ene=   -0.508522E-02
Spin= Alpha
Occup= 0.008003
     1     0.014701
     2     0.099179
     3     0.605448
     4    -0.155931
     5     0.067088
     6     0.116211
     7     0.000199
     8    -0.248377
     9    -0.430239
    10    -0.000593
    11     0.019652
    12     0.033755
    13     0.000039
    14    -0.052207
    15     0.176862
    16    -0.168960
    17     0.228527
    18     0.000204
    19     0.000399
    20     0.044502
    21     0.006441
    22     0.007009
    23    -0.017093
    24     0.000057
    25     0.414905
    26    -1.069676
    27     0.211609
    28     0.365890
    29    -0.000441
    30     0.044932
    31     0.005910
    32    -0.018266
    33    -0.002330
    34     0.000071
Sym=    26a
Ene=   -0.508283E-02
Spin= Alpha
Occup= 0.007998
     1     0.014614
     2     0.098157
     3     0.601083
     4    -0.154427
     5    -0.134197
     6     0.000063
     7     0.000113
     8     0.496791
     9    -0.000351
    10    -0.000330
    11    -0.038882
    12     0.000566
    13     0.000001
    14     0.292504
    15    -0.164409
    16    -0.168065
    17     0.000153
    18    -0.000260
    19     0.000017
    20     0.044516
    21     0.005839
    22     0.010754
    23    -0.015188
    24     0.000036
    25     0.044416
    26     0.006255
    27     0.010900
    28     0.014553
    29     0.000031
    30     0.414634
    31    -1.069836
    32    -0.422823
    33     0.000116
    34    -0.000268
Sym=    27a
Ene=   -0.399224E-02
Spin= Alpha
Occup= 0.005756
     1     0.000004
     2    -0.000003
     3     0.000236
     4    -0.000283
     5     0.000002
     6     0.000020
     7     0.112086
     8    -0.000002
     9    -0.000085
    10    -0.263689
    11     0.000075
    12     0.000117
    13    -0.187211
    14    -0.000298
    15     0.000039
    16     0.000319
    17    -0.000458
    18     0.249017
    19    -0.431171
    20     0.000393
    21    -0.000535
    22     0.000216
    23    -0.000421
    24    -0.613824
    25     0.000267
    26     0.000012
    27     0.000099
    28    -0.000073
    29     0.012574
    30     0.000259
    31    -0.000140
    32    -0.000004
    33     0.000042
    34     0.012468
Sym=    28a
Ene=   -0.945650E-03
Spin= Alpha
Occup= 0.000201
     1    -0.096446
     2    -1.138663
     3    -4.634112
     4     0.853238
     5    -0.009413
     6     0.028123
     7    -0.236954
     8     0.044034
     9    -0.131164
    10     0.843990
    11    -0.034059
    12     0.099951
    13    -0.455211
    14     1.709146
    15     1.691891
    16     1.526832
    17     0.022831
    18    -0.003532
    19     0.009904
    20    -0.072420
    21    -0.017293
    22     0.049208
    23    -0.082145
    24    -0.226369
    25    -0.117282
    26     0.016500
    27    -0.025421
    28    -0.029972
    29    -0.213686
    30    -0.110749
    31     0.012050
    32     0.010807
    33     0.006655
    34    -0.216091
Sym=    29a
Ene=   -0.464930E-04
Spin= Alpha
Occup= 0.000010
     1     0.002861
     2     0.022656
     3     0.052290
     4    -0.171050
     5     0.002361
     6    -0.013021
     7    -0.001362
     8     0.000695
     9     0.067348
    10     0.007264
    11     0.026773
    12    -0.056029
    13    -0.012590
    14     0.413678
    15     0.337899
    16    -0.610995
    17    -0.109085
    18     0.077237
    19    -0.168311
    20    -0.336693
    21     0.243032
    22    -0.340969
    23     0.015357
    24     0.151258
    25    -0.169000
    26     0.109722
    27     0.492631
    28    -0.395691
    29    -0.082940
    30    -0.215186
    31     0.066798
    32     0.180882
    33     0.345349
    34    -0.059352
Sym=    30a
Ene=   -0.780171E-04
Spin= Alpha
Occup= 0.000020
     1     0.001950
     2     0.030445
     3     0.077142
     4    -0.082615
     5     0.013164
     6    -0.023893
     7     0.002166
     8    -0.082230
     9     0.143115
    10    -0.003451
    11     0.023487
    12    -0.045362
    13    -0.013631
    14    -0.049596
    15     0.311176
    16    -0.384086
    17    -0.311393
    18    -0.344729
    19     0.691189
    20    -0.351830
    21     0.166655
    22    -0.102176
    23     0.188330
    24    -0.611282
    25    -0.040788
    26     0.098134
    27    -0.054355
    28     0.082921
    29     0.353447
    30    -0.013401
    31     0.085107
    32    -0.051510
    33     0.073501
    34     0.287722
Sym=    31a
Ene=   -0.136273E-03
Spin= Alpha
Occup= 0.000041
     1     0.004456
     2     0.059799
     3     0.200858
     4    -0.031361
     5    -0.037030
     6     0.012968
     7     0.000338
     8     0.225914
     9    -0.130434
    10    -0.000931
    11    -0.174849
    12     0.122354
    13    -0.000407
    14     0.641024
    15    -0.476974
    16    -0.410423
    17     0.854731
    18    -0.050598
    19     0.101991
    20     0.642300
    21    -0.427283
    22     0.124012
    23    -0.210467
    24    -0.091297
    25    -0.412213
    26     0.272077
    27    -0.100509
    28    -0.061511
    29     0.051346
    30    -0.577746
    31     0.364355
    32     0.274336
    33     0.035933
    34     0.041514
Sym=    32a
Ene=   -0.159626E-05
Spin= Alpha
Occup= 0.000000
     1    -0.000430
     2    -0.006598
     3    -0.027128
     4    -0.059807
     5    -0.004381
     6     0.008302
     7    -0.000211
     8     0.087648
     9    -0.158932
    10     0.002210
    11     1.083251
    12    -1.909120
    13    -0.006345
    14     0.295262
    15    -0.255386
    16     0.001250
    17     0.573157
    18    -0.008166
    19     0.016407
    20    -0.334534
    21     2.389626
    22     0.278329
    23    -0.484934
    24    -0.012464
    25     0.146438
    26    -1.159882
    27    -0.250457
    28    -0.187243
    29     0.010287
    30     0.146480
    31    -1.127526
    32     0.274725
    33     0.111544
    34     0.008692
Sym=    33a
Ene=    0.000000E+00
Spin= Alpha
Occup= 0.000000
     1    -0.000361
     2    -0.008985
     3    -0.032462
     4    -0.234110
     5     0.004438
     6     0.002731
     7    -0.000097
     8    -0.142492
     9    -0.082202
    10     0.000762
    11    -1.919829
    12    -1.083510
    13    -0.001876
    14    -0.503776
    15     0.521564
    16     0.045181
    17     0.340409
    18     0.001627
    19    -0.002043
    20    -0.020842
    21     0.096370
    22     0.106671
    23     0.052265
    24     0.002645
    25     0.234549
    26    -1.900086
    27    -0.179715
    28    -0.435924
    29    -0.000139
    30    -0.293816
    31     2.162634
    32    -0.493059
    33     0.056566
    34    -0.000758
Sym=    34a
Ene=    0.000000E+00
Spin= Alpha
Occup= 0.000000
     1     0.004814
     2     0.152463
     3     0.500990
     4     3.321819
     5     0.001973
     6    -0.003897
     7    -0.000102
     8    -0.018090
     9     0.013489
    10     0.000284
    11    -0.105715
    12    -0.126699
    13     0.000146
    14    -0.259633
    15    -0.167920
    16    -0.810951
    17     0.010213
    18     0.004998
    19    -0.010346
    20     0.306293
    21    -1.525433
    22    -0.039724
    23     0.078972
    24     0.008889
    25     0.364078
    26    -1.749440
    27    -0.049023
    28    -0.094561
    29    -0.005445
    30     0.330442
    31    -1.468522
    32     0.041326
    33     0.002079
    34    -0.004280
