[Molden Format]
p30-5 set                                                                       
[Atoms] AU
 BE       1     4        0.0000        0.0000        0.0000
 H        2     1        0.0000        0.0000       -2.5279
 H        3     1        0.0000        0.0000        2.5279
[GTO]
    1 0
s    5 1.00
     515.186161250000  0.583763544133E-02
      77.511037595000  0.432349671107E-01
      17.552481693000  0.188026956444E+00
       4.802894059600  0.469576904234E+00
       1.451621431600  0.440951660947E+00
s    1 1.00
       0.132816336200  0.100000000000E+01
s    1 1.00
       0.045837372213  0.100000000000E+01
p    3 1.00
       3.631691714500 -0.454619686657E-01
       0.716956943660 -0.264276543343E+00
       0.195419328600 -0.804884200890E+00
p    1 1.00
       0.060515465890  0.100000000000E+01
 
    2 0
s    3 1.00
      13.010701000000  0.334854848130E-01
       1.962257200000  0.234721870881E+00
       0.444537960000  0.813770285260E+00
s    1 1.00
       0.121949620000  0.100000000000E+01
p    1 1.00
       0.800000000000  0.100000000000E+01
 
    3 0
s    3 1.00
      13.010701000000  0.334854848130E-01
       1.962257200000  0.234721870881E+00
       0.444537960000  0.813770285260E+00
s    1 1.00
       0.121949620000  0.100000000000E+01
p    1 1.00
       0.800000000000  0.100000000000E+01
 
[MO]
Sym=     1a
Ene=   -0.469070E+01
Spin= Alpha
Occup= 1.999958
     1     0.996302
     2     0.018593
     3    -0.008029
     4     0.000004
     5    -0.000016
     6     0.000260
     7    -0.000002
     8    -0.000003
     9    -0.000112
    10    -0.000870
    11    -0.002714
    12     0.000004
    13     0.000005
    14     0.002405
    15    -0.001328
    16    -0.002887
    17    -0.000005
    18    -0.000014
    19    -0.002357
Sym=     2a
Ene=   -0.485239E+00
Spin= Alpha
Occup= 1.971632
     1     0.141755
     2    -0.275682
     3    -0.032096
     4     0.000101
     5    -0.000045
     6     0.284566
     7     0.000049
     8     0.000053
     9    -0.094887
    10     0.008938
    11    -0.053342
    12     0.000000
    13    -0.000007
    14    -0.010242
    15    -0.434476
    16    -0.217075
    17     0.000013
    18    -0.000016
    19     0.028511
Sym=     3a
Ene=   -0.484892E+00
Spin= Alpha
Occup= 1.971613
     1    -0.141906
     2     0.273658
     3     0.031988
     4    -0.000054
     5     0.000177
     6     0.285904
     7    -0.000035
     8     0.000161
     9    -0.095646
    10     0.434828
    11     0.216807
    12     0.000010
    13     0.000005
    14     0.028393
    15    -0.011058
    16     0.052441
    17    -0.000006
    18     0.000022
    19    -0.010072
Sym=     4a
Ene=   -0.462566E-02
Spin= Alpha
Occup= 0.007104
     1     0.076468
     2    -0.682598
     3     0.229925
     4     0.006623
     5    -0.032807
     6    -0.360539
     7    -0.001488
     8     0.003585
     9     0.038148
    10    -0.668522
    11     1.333226
    12    -0.002152
    13     0.009998
    14    -0.462693
    15    -0.011597
    16    -0.146816
    17     0.002139
    18    -0.009923
    19     0.052994
Sym=     5a
Ene=   -0.884215E-02
Spin= Alpha
Occup= 0.014589
     1     0.168902
     2    -0.760042
     3     0.075565
     4    -0.000236
     5    -0.004012
     6     0.821602
     7    -0.000541
     8     0.000421
     9    -0.257576
    10    -0.139459
    11    -0.107832
    12     0.000161
    13    -0.000523
    14    -0.025243
    15     1.152917
    16     0.110557
    17     0.000690
    18     0.002397
    19     0.076056
Sym=     6a
Ene=   -0.114603E-03
Spin= Alpha
Occup= 0.000021
     1     0.019398
     2    -0.218907
     3     0.064138
     4    -0.267850
     5     0.845295
     6    -0.938205
     7    -0.111648
     8     0.355848
     9     0.255442
    10     0.031619
    11     0.888257
    12    -0.126136
    13     0.391407
    14     0.565885
    15    -0.080778
    16    -0.680289
    17    -0.125015
    18     0.393675
    19     0.404724
Sym=     7a
Ene=   -0.895686E-02
Spin= Alpha
Occup= 0.014880
     1    -0.172131
     2     0.786154
     3    -0.074815
     4    -0.000642
     5    -0.003034
     6     0.823208
     7     0.000437
     8    -0.000803
     9    -0.256774
    10    -1.145147
    11    -0.134664
    12    -0.000011
    13     0.003290
    14     0.069464
    15     0.131829
    16     0.101032
    17    -0.000263
    18     0.000129
    19    -0.025286
Sym=     8a
Ene=   -0.272440E-02
Spin= Alpha
Occup= 0.003185
     1     0.001897
     2    -0.015663
     3     0.005611
     4    -0.140135
     5     0.348483
     6    -0.000178
     7     0.022899
     8    -0.056749
     9    -0.003100
    10    -0.007615
    11     0.012532
    12    -0.062941
    13     0.157220
    14    -0.000980
    15     0.003346
    16     0.003400
    17     0.306279
    18    -0.774660
    19    -0.000820
Sym=     9a
Ene=   -0.120313E-04
Spin= Alpha
Occup= 0.000003
     1     0.032437
     2    -0.163733
     3     0.557229
     4     0.737464
     5     0.163101
     6     0.056969
     7     1.188051
     8     0.152508
     9    -0.037559
    10     0.099582
    11    -0.360191
    12    -0.050136
    13     0.039210
    14     0.013810
    15     0.099165
    16    -0.226737
    17    -0.058379
    18     0.036577
    19    -0.071455
Sym=    10a
Ene=   -0.211200E-03
Spin= Alpha
Occup= 0.000188
     1    -0.114689
     2     1.362652
     3    -0.236839
     4    -0.063651
     5     0.359037
     6     0.698480
     7     0.009724
     8    -0.009929
     9    -0.057133
    10     0.087725
    11    -1.190103
    12    -0.052887
    13     0.268012
    14    -0.921135
    15     0.246401
    16    -0.295007
    17    -0.045349
    18     0.238639
    19     0.157906
Sym=    11a
Ene=   -0.278693E-02
Spin= Alpha
Occup= 0.003438
     1     0.000838
     2    -0.010578
     3     0.002109
     4     0.413575
     5     0.162501
     6     0.006451
     7    -0.069179
     8    -0.027031
     9     0.001870
    10    -0.005747
    11     0.009071
    12     0.169928
    13     0.066937
    14     0.001824
    15     0.012481
    16    -0.007222
    17    -0.726308
    18    -0.289695
    19    -0.019477
Sym=    12a
Ene=   -0.866449E-05
Spin= Alpha
Occup= 0.000002
     1    -0.058437
     2     0.233380
     3    -1.145796
     4     0.102331
     5     0.464989
     6     0.175668
     7     0.035575
     8     1.033258
     9    -0.284874
    10    -0.188894
    11     0.317003
    12     0.052666
    13    -0.161777
    14    -0.134316
    15    -0.253396
    16     1.029239
    17     0.048992
    18    -0.163189
    19    -0.037784
Sym=    13a
Ene=   -0.265468E-02
Spin= Alpha
Occup= 0.003012
     1     0.001091
     2    -0.010688
     3     0.003041
     4    -0.319504
     5    -0.126871
     6    -0.001636
     7     0.049538
     8     0.019652
     9     0.001266
    10     0.004656
    11     0.000390
    12     0.795134
    13     0.310274
    14     0.007126
    15    -0.004448
    16     0.007678
    17    -0.163022
    18    -0.064549
    19    -0.000934
Sym=    14a
Ene=   -0.460140E-02
Spin= Alpha
Occup= 0.006936
     1     0.073154
     2    -0.639828
     3     0.215559
     4     0.014969
     5     0.005175
     6     0.339193
     7    -0.002217
     8    -0.000172
     9    -0.044645
    10    -0.004692
    11    -0.157139
    12     0.004657
    13     0.001083
    14    -0.056905
    15    -0.661760
    16     1.302452
    17    -0.004866
    18    -0.002136
    19     0.495684
Sym=    15a
Ene=   -0.852687E-04
Spin= Alpha
Occup= 0.000015
     1     0.094698
     2    -1.028651
     3     0.377601
     4    -0.318604
     5     0.346969
     6     1.184902
     7    -0.156828
     8     0.166710
     9    -0.357876
    10    -0.158822
    11    -0.589511
    12    -0.136127
    13     0.153761
    14    -0.230529
    15    -0.013958
    16     1.436143
    17    -0.138412
    18     0.153979
    19    -0.992225
Sym=    16a
Ene=   -0.272317E-02
Spin= Alpha
Occup= 0.003203
     1     0.001220
     2    -0.016984
     3     0.003128
     4     0.139013
     5    -0.359385
     6    -0.013662
     7    -0.023309
     8     0.059526
     9    -0.003505
    10     0.024003
    11    -0.013947
    12    -0.302128
    13     0.767782
    14     0.038080
    15    -0.008654
    16     0.012411
    17     0.062147
    18    -0.160279
    19    -0.004476
Sym=    17a
Ene=   -0.218600E-03
Spin= Alpha
Occup= 0.000221
     1    -0.019880
     2     0.238504
     3    -0.035725
     4    -0.742674
     5    -0.271894
     6    -0.140657
     7     0.047022
     8     0.017419
     9     0.000852
    10     0.050610
    11    -0.055967
    12    -0.486626
    13    -0.177523
    14    -0.018793
    15     0.008901
    16    -0.210745
    17    -0.584064
    18    -0.214650
    19     0.172461
Sym=    18a
Ene=   -0.622337E-05
Spin= Alpha
Occup= 0.000001
     1    -0.058848
     2    -0.094787
     3    -1.906892
     4     0.106001
     5    -0.177274
     6     0.027438
     7     0.288446
     8    -0.530701
     9     0.078688
    10    -0.470706
    11     1.506328
    12    -0.060752
    13     0.125966
    14     0.086337
    15    -0.429064
    16     1.391713
    17    -0.061850
    18     0.122742
    19    -0.118209
Sym=    19a
Ene=    0.000000E+00
Spin= Alpha
Occup= 0.000000
     1    -0.003323
     2     0.048212
     3     0.014482
     4     0.000064
     5    -0.023888
     6     0.298508
     7    -0.001464
     8    -0.091503
     9    -3.386271
    10     0.603730
    11    -3.224224
    12     0.001019
    13     0.023914
    14    -0.109700
    15    -0.579885
    16     3.136597
    17     0.000153
    18     0.025933
    19    -0.073410
