[Molden Format]
p30-5 set                                                                       
[Atoms] AU
 SI       1    14        0.0000        0.0000        0.0000
 H        2     1        1.6177        1.6177       -1.6177
 H        3     1       -1.6177       -1.6177       -1.6177
 H        4     1        1.6177       -1.6177        1.6177
 H        5     1       -1.6177        1.6177        1.6177
[GTO]
    1 0
s    5 1.00
    6903.711868600000  0.558446588743E-02
    1038.434641900000  0.417422844355E-01
     235.875814800000  0.187528023742E+00
      66.069385169000  0.478678596587E+00
      20.247945761000  0.429256952162E+00
s    3 1.00
      34.353481730000  0.898348994648E-01
       3.637078819200 -0.545685958777E+00
       1.400204859900 -0.524810829267E+00
s    1 1.00
       0.204844148050  0.100000000000E+01
s    1 1.00
       0.077994095468  0.100000000000E+01
p    5 1.00
     179.839073730000  0.101334983789E-01
      41.907258846000  0.710290410957E-01
      12.955294367000  0.255839142169E+00
       4.438326739300  0.481498047149E+00
       1.546224790400  0.385211960064E+00
p    1 1.00
       0.356076123020  0.100000000000E+01
p    1 1.00
       0.100085137620  0.100000000000E+01
d    1 1.00
       0.350000000000  0.100000000000E+01
 
    2 0
s    3 1.00
      13.010701000000  0.334854848130E-01
       1.962257200000  0.234721870881E+00
       0.444537960000  0.813770285260E+00
s    1 1.00
       0.121949620000  0.100000000000E+01
p    1 1.00
       0.800000000000  0.100000000000E+01
 
    3 0
s    3 1.00
      13.010701000000  0.334854848130E-01
       1.962257200000  0.234721870881E+00
       0.444537960000  0.813770285260E+00
s    1 1.00
       0.121949620000  0.100000000000E+01
p    1 1.00
       0.800000000000  0.100000000000E+01
 
    4 0
s    3 1.00
      13.010701000000  0.334854848130E-01
       1.962257200000  0.234721870881E+00
       0.444537960000  0.813770285260E+00
s    1 1.00
       0.121949620000  0.100000000000E+01
p    1 1.00
       0.800000000000  0.100000000000E+01
 
    5 0
s    3 1.00
      13.010701000000  0.334854848130E-01
       1.962257200000  0.234721870881E+00
       0.444537960000  0.813770285260E+00
s    1 1.00
       0.121949620000  0.100000000000E+01
p    1 1.00
       0.800000000000  0.100000000000E+01
 
[MO]
Sym=     1a
Ene=   -0.687629E+02
Spin= Alpha
Occup= 2.000000
     1    -0.995325
     2     0.022804
     3     0.027718
     4     0.000783
     5     0.000618
     6     0.000270
     7    -0.001022
     8     0.000024
     9     0.000009
    10    -0.000039
    11    -0.000006
    12    -0.000003
    13     0.000010
    14    -0.010015
    15    -0.010015
    16    -0.010015
    17     0.000000
    18     0.000001
    19    -0.000000
    20     0.000308
    21    -0.000666
    22    -0.000054
    23    -0.000054
    24     0.000054
    25     0.000312
    26    -0.000669
    27     0.000053
    28     0.000054
    29     0.000054
    30     0.000314
    31    -0.000667
    32    -0.000054
    33     0.000054
    34    -0.000054
    35     0.000314
    36    -0.000670
    37     0.000054
    38    -0.000054
    39    -0.000054
Sym=     2a
Ene=   -0.459750E+01
Spin= Alpha
Occup= 1.999881
     1    -0.125537
     2    -0.446298
     3     0.011867
     4    -0.007664
     5     0.631755
     6    -0.186868
     7    -0.598043
     8     0.025035
     9    -0.007436
    10    -0.023666
    11    -0.005385
    12     0.001581
    13     0.005124
    14     0.000160
    15     0.000160
    16     0.000169
    17     0.000600
    18     0.000181
    19    -0.000651
    20    -0.001576
    21     0.003108
    22     0.000046
    23     0.000233
    24    -0.000043
    25    -0.000478
    26     0.001683
    27    -0.000094
    28     0.000091
    29     0.000197
    30    -0.000513
    31     0.001822
    32    -0.000179
    33     0.000075
    34     0.000098
    35     0.001353
    36    -0.000904
    37     0.000313
    38    -0.000413
    39    -0.000323
Sym=     3a
Ene=   -0.481276E+01
Spin= Alpha
Occup= 1.999880
     1     0.161006
     2     0.565620
     3    -0.014892
     4     0.009795
     5     0.319245
     6     0.709511
     7    -0.274067
     8     0.012586
     9     0.028062
    10    -0.010838
    11    -0.002793
    12    -0.006159
    13     0.002374
    14    -0.000139
    15    -0.000166
    16    -0.000136
    17     0.000252
    18    -0.000703
    19    -0.000290
    20    -0.001190
    21     0.000282
    22     0.000386
    23     0.000303
    24    -0.000392
    25     0.001454
    26    -0.002971
    27     0.000019
    28    -0.000066
    29     0.000172
    30     0.001281
    31    -0.002869
    32    -0.000156
    33    -0.000100
    34    -0.000003
    35     0.000331
    36    -0.001584
    37    -0.000224
    38    -0.000018
    39     0.000208
Sym=     4a
Ene=   -0.476533E+01
Spin= Alpha
Occup= 1.999876
     1     0.153776
     2     0.541538
     3    -0.014353
     4     0.009350
     5    -0.353023
     6    -0.470882
     7    -0.598806
     8    -0.013991
     9    -0.018643
    10    -0.023710
    11     0.003060
    12     0.004078
    13     0.005162
    14    -0.000141
    15    -0.000143
    16    -0.000168
    17     0.000594
    18     0.000456
    19     0.000332
    20     0.000689
    21    -0.002090
    22     0.000128
    23     0.000156
    24     0.000093
    25    -0.001311
    26     0.000594
    27    -0.000401
    28    -0.000376
    29    -0.000354
    30     0.000988
    31    -0.002506
    32     0.000062
    33     0.000130
    34     0.000113
    35     0.001297
    36    -0.002872
    37     0.000172
    38     0.000029
    39     0.000046
Sym=     5a
Ene=   -0.467871E+01
Spin= Alpha
Occup= 1.999864
     1     0.140008
     2     0.494606
     3    -0.013240
     4     0.008513
     5     0.591473
     6    -0.464257
     7     0.429235
     8     0.023545
     9    -0.018427
    10     0.017021
    11    -0.005012
    12     0.003981
    13    -0.003701
    14    -0.000151
    15    -0.000144
    16    -0.000147
    17    -0.000422
    18     0.000470
    19    -0.000620
    20     0.000754
    21    -0.002054
    22    -0.000115
    23     0.000119
    24    -0.000116
    25     0.000942
    26    -0.002538
    27    -0.000084
    28     0.000154
    29    -0.000055
    30    -0.001344
    31     0.000920
    32     0.000353
    33    -0.000385
    34     0.000391
    35     0.000999
    36    -0.002668
    37    -0.000069
    38     0.000042
    39    -0.000163
Sym=     6a
Ene=   -0.562790E+00
Spin= Alpha
Occup= 1.970195
     1     0.028412
     2     0.175151
     3     0.264533
     4     0.042998
     5    -0.081135
     6    -0.081666
     7     0.081792
     8     0.146103
     9     0.147343
    10    -0.147324
    11     0.092959
    12     0.094816
    13    -0.095100
    14     0.007889
    15     0.008043
    16     0.007577
    17     0.041464
    18    -0.041499
    19    -0.041218
    20     0.434117
    21     0.241532
    22    -0.012717
    23    -0.012712
    24     0.012687
    25    -0.027645
    26    -0.036610
    27     0.002794
    28     0.002947
    29    -0.001372
    30    -0.028731
    31    -0.035434
    32     0.001282
    33     0.002922
    34    -0.002987
    35    -0.027583
    36    -0.035941
    37     0.002782
    38     0.001373
    39    -0.003071
Sym=     7a
Ene=   -0.562452E+00
Spin= Alpha
Occup= 1.969268
     1     0.028348
     2     0.174746
     3     0.263961
     4     0.043328
     5     0.081645
     6     0.081671
     7     0.081843
     8    -0.147126
     9    -0.147755
    10    -0.147005
    11    -0.095258
    12    -0.095774
    13    -0.096519
    14     0.007959
    15     0.009253
    16     0.006465
    17     0.040828
    18     0.041027
    19     0.041048
    20    -0.028795
    21    -0.037115
    22    -0.002944
    23    -0.002720
    24    -0.001460
    25     0.434138
    26     0.238837
    27     0.012638
    28     0.012809
    29     0.012618
    30    -0.027923
    31    -0.034440
    32    -0.002918
    33    -0.001559
    34    -0.003277
    35    -0.028724
    36    -0.034703
    37    -0.001523
    38    -0.002857
    39    -0.003164
Sym=     8a
Ene=   -0.562445E+00
Spin= Alpha
Occup= 1.968898
     1    -0.028357
     2    -0.174785
     3    -0.264057
     4    -0.043447
     5    -0.082113
     6     0.081813
     7     0.081727
     8     0.147671
     9    -0.146938
    10    -0.147676
    11     0.096315
    12    -0.096674
    13    -0.096083
    14    -0.007962
    15    -0.006557
    16    -0.009273
    17     0.040724
    18     0.040689
    19    -0.040934
    20     0.029052
    21     0.036537
    22     0.003035
    23    -0.001520
    24    -0.002718
    25     0.028418
    26     0.034649
    27     0.001600
    28    -0.003163
    29    -0.002886
    30     0.028135
    31     0.034435
    32     0.002992
    33    -0.003274
    34    -0.001595
    35    -0.434098
    36    -0.237845
    37    -0.012631
    38     0.012604
    39     0.012817
Sym=     9a
Ene=   -0.562412E+00
Spin= Alpha
Occup= 1.968380
     1     0.028349
     2     0.174793
     3     0.264337
     4     0.043514
     5    -0.082482
     6     0.081672
     7    -0.081659
     8     0.148147
     9    -0.147094
    10     0.147328
    11     0.098317
    12    -0.096544
    13     0.096702
    14     0.007705
    15     0.007785
    16     0.008444
    17    -0.040387
    18     0.040392
    19    -0.040721
    20    -0.028000
    21    -0.035400
    22     0.001707
    23    -0.003018
    24     0.002964
    25    -0.028938
    26    -0.034695
    27     0.003196
    28    -0.001626
    29     0.002940
    30     0.434009
    31     0.236420
    32    -0.012679
    33     0.012652
    34    -0.012722
    35    -0.028627
    36    -0.034544
    37     0.003198
    38    -0.003041
    39     0.001650
Sym=    10a
Ene=   -0.292069E-02
Spin= Alpha
Occup= 0.003280
     1     0.000043
     2     0.000306
     3    -0.004016
     4     0.012373
     5     0.004601
     6     0.003498
     7    -0.002651
     8    -0.039552
     9    -0.027383
    10     0.020691
    11     0.106306
    12     0.073109
    13    -0.055695
    14     0.414262
    15    -0.236405
    16    -0.176486
    17    -0.125725
    18     0.165484
    19     0.266191
    20     0.355484
    21    -0.442788
    22    -0.048409
    23     0.007998
    24    -0.028033
    25    -0.197996
    26     0.236880
    27     0.007135
    28    -0.021490
    29     0.003764
    30    -0.026026
    31     0.030209
    32     0.580908
    33     0.328745
    34    -0.245714
    35    -0.147268
    36     0.174122
    37     0.028354
    38     0.021607
    39     0.014608
Sym=    11a
Ene=   -0.525797E-02
Spin= Alpha
Occup= 0.007392
     1     0.011341
     2     0.084820
     3     0.462953
     4    -0.183455
     5     0.052768
     6    -0.053323
     7    -0.051782
     8    -0.178895
     9     0.180688
    10     0.175806
    11     0.078734
    12    -0.081739
    13    -0.077365
    14    -0.060039
    15    -0.023469
    16    -0.101721
    17    -0.152123
    18    -0.153741
    19     0.146051
    20     0.065514
    21     0.052072
    22    -0.008419
    23    -0.012627
    24     0.020462
    25     0.081363
    26     0.034814
    27     0.016444
    28     0.008091
    29     0.016301
    30     0.076253
    31     0.040253
    32    -0.019208
    33     0.005262
    34    -0.016068
    35     0.588446
    36    -0.958495
    37     0.255374
    38    -0.247993
    39    -0.275894
Sym=    12a
Ene=   -0.125478E-01
Spin= Alpha
Occup= 0.020191
     1     0.030664
     2     0.209956
     3     0.532443
     4    -0.012448
     5     0.133803
     6     0.134986
     7     0.132765
     8    -0.394822
     9    -0.398523
    10    -0.389267
    11    -0.230229
    12    -0.231245
    13    -0.246870
    14     0.031096
    15     0.071907
    16    -0.033361
    17     0.086811
    18     0.107056
    19     0.106487
    20     0.021969
    21    -0.028842
    22    -0.006566
    23     0.002435
    24     0.000119
    25    -1.077502
    26    -0.060648
    27     0.010138
    28     0.001227
    29     0.022163
    30    -0.011377
    31     0.012105
    32     0.005089
    33    -0.005517
    34    -0.011370
    35    -0.008737
    36     0.013596
    37    -0.003041
    38     0.004067
    39    -0.008207
Sym=    13a
Ene=   -0.527972E-02
Spin= Alpha
Occup= 0.007438
     1     0.010717
     2     0.080762
     3     0.451704
     4    -0.165112
     5    -0.048512
     6    -0.048560
     7     0.048928
     8     0.162189
     9     0.163086
    10    -0.164993
    11    -0.052107
    12    -0.060094
    13     0.065452
    14    -0.072071
    15    -0.064686
    16    -0.052038
    17     0.130895
    18    -0.127053
    19    -0.123195
    20     0.662896
    21    -1.044287
    22    -0.262057
    23    -0.257733
    24     0.254955
    25     0.052755
    26     0.073836
    27     0.020039
    28     0.016204
    29     0.004771
    30     0.066043
    31     0.048607
    32    -0.000141
    33     0.021160
    34    -0.018419
    35     0.059978
    36     0.062418
    37     0.023351
    38    -0.005488
    39    -0.013035
Sym=    14a
Ene=   -0.930492E-04
Spin= Alpha
Occup= 0.000018
     1     0.000899
     2     0.011295
     3     0.041265
     4    -0.041002
     5     0.005956
     6    -0.032692
     7     0.012879
     8    -0.014663
     9     0.215899
    10    -0.099902
    11    -0.028462
    12    -0.012807
    13     0.062456
    14    -0.468555
    15     0.519336
    16    -0.117249
    17     0.312448
    18    -0.884633
    19     0.071241
    20    -0.399290
    21     0.161156
    22     0.102861
    23     0.117055
    24    -0.249140
    25     0.230031
    26    -0.093237
    27     0.177277
    28     0.104373
    29    -0.083794
    30     0.566576
    31    -0.277453
    32     0.245122
    33     0.375992
    34    -0.352876
    35    -0.380290
    36     0.267803
    37    -0.125900
    38    -0.090484
    39     0.105891
Sym=    15a
Ene=   -0.733469E-04
Spin= Alpha
Occup= 0.000013
     1    -0.001490
     2    -0.019078
     3    -0.052147
     4    -0.025425
     5     0.015499
     6     0.015218
     7     0.027271
     8    -0.129362
     9    -0.128741
    10    -0.188076
    11     0.045982
    12     0.111691
    13     0.095836
    14     0.277569
    15     0.374816
    16    -0.545221
    17     0.552609
    18     0.392753
    19     0.589843
    20     0.147494
    21    -0.075555
    22    -0.050887
    23    -0.456095
    24    -0.366026
    25    -0.512405
    26     0.186438
    27    -0.036989
    28    -0.174157
    29    -0.493137
    30     0.312783
    31    -0.150274
    32    -0.352228
    33     0.017289
    34     0.096704
    35     0.040962
    36     0.041384
    37    -0.155573
    38    -0.282315
    39    -0.110930
Sym=    16a
Ene=   -0.465691E-04
Spin= Alpha
Occup= 0.000009
     1    -0.000322
     2    -0.009093
     3    -0.015157
     4    -0.017424
     5    -0.004779
     6    -0.007035
     7    -0.000808
     8     0.041234
     9     0.056067
    10     0.003860
    11    -0.013651
    12    -0.013554
    13    -0.007339
    14    -0.044269
    15    -0.030723
    16     0.176927
    17     0.010375
    18    -0.159877
    19    -0.168594
    20    -0.091547
    21    -0.019722
    22     0.209053
    23     0.053593
    24     0.056729
    25     0.080730
    26    -0.000760
    27     0.312998
    28    -0.282495
    29     0.114236
    30    -0.016383
    31     0.019341
    32     0.050634
    33     0.432243
    34     0.389450
    35     0.022359
    36    -0.046042
    37    -0.314487
    38     0.272873
    39    -0.515451
Sym=    17a
Ene=   -0.801006E-04
Spin= Alpha
Occup= 0.000016
     1     0.001624
     2     0.024791
     3     0.064198
     4    -0.022781
     5    -0.030849
     6    -0.015951
     7     0.016989
     8     0.229235
     9     0.113705
    10    -0.150297
    11    -0.084351
    12    -0.080254
    13     0.086431
    14     0.392327
    15    -0.232675
    16    -0.343411
    17     0.575816
    18    -0.259918
    19    -0.816522
    20    -0.515242
    21     0.167658
    22     0.285672
    23     0.130118
    24    -0.316263
    25     0.152523
    26     0.005592
    27     0.333780
    28     0.320116
    29    -0.342303
    30    -0.051990
    31     0.082841
    32     0.024195
    33     0.011218
    34    -0.123136
    35     0.406808
    36    -0.122419
    37     0.491627
    38     0.205631
    39    -0.220675
Sym=    18a
Ene=   -0.111918E-05
Spin= Alpha
Occup= 0.000000
     1    -0.000356
     2    -0.006486
     3    -0.042340
     4     0.220704
     5    -0.006300
     6    -0.001763
     7     0.005871
     8     0.007475
     9     0.005143
    10    -0.006861
    11     1.535139
    12     0.053399
    13    -1.535015
    14     0.014289
    15     0.019714
    16     0.028338
    17     0.494293
    18    -0.041456
    19    -0.504427
    20     0.043655
    21    -1.968083
    22     0.320376
    23     0.446347
    24    -0.309730
    25     0.042382
    26    -0.089495
    27    -0.151607
    28    -0.006199
    29     0.138426
    30     0.017699
    31    -0.061509
    32    -0.147468
    33    -0.030876
    34     0.130422
    35    -0.075646
    36     1.778088
    37     0.252757
    38    -0.426000
    39    -0.284877
Sym=    19a
Ene=   -0.525699E-02
Spin= Alpha
Occup= 0.007385
     1     0.011651
     2     0.087177
     3     0.468428
     4    -0.187807
     5    -0.054578
     6     0.054129
     7    -0.053599
     8     0.186206
     9    -0.183376
    10     0.181846
    11    -0.090845
    12     0.080345
    13    -0.080746
    14    -0.051195
    15    -0.058748
    16    -0.076995
    17    -0.159631
    18     0.156722
    19    -0.161458
    20     0.073590
    21     0.047963
    22    -0.019760
    23    -0.009537
    24     0.011147
    25     0.080549
    26     0.032011
    27     0.006466
    28     0.018226
    29     0.015133
    30     0.562936
    31    -0.934500
    32    -0.258082
    33     0.257600
    34    -0.265617
    35     0.078533
    36     0.035274
    37     0.007926
    38    -0.012453
    39    -0.019374
Sym=    20a
Ene=   -0.288581E-02
Spin= Alpha
Occup= 0.003197
     1    -0.000365
     2    -0.002321
     3    -0.002776
     4     0.007920
     5    -0.006489
     6     0.000506
     7     0.004780
     8     0.040586
     9     0.017918
    10    -0.022481
    11    -0.084521
    12    -0.071839
    13     0.037913
    14     0.308600
    15    -0.387465
    16     0.072914
    17     0.084110
    18    -0.202076
    19    -0.208791
    20    -0.308192
    21     0.375271
    22     0.000950
    23     0.092772
    24     0.083407
    25     0.189535
    26    -0.229504
    27     0.051816
    28     0.009948
    29    -0.053903
    30     0.048222
    31    -0.057915
    32    -0.032747
    33    -0.018272
    34     0.010734
    35     0.107227
    36    -0.117071
    37    -0.452640
    38    -0.567996
    39     0.097746
Sym=    21a
Ene=   -0.286229E-02
Spin= Alpha
Occup= 0.003142
     1    -0.000577
     2    -0.003989
     3    -0.007582
     4     0.011725
     5    -0.006702
     6    -0.006932
     7    -0.001985
     8     0.038596
     9     0.034995
    10    -0.012037
    11    -0.072882
    12    -0.058942
    13     0.060586
    14     0.246387
    15     0.150818
    16    -0.402476
    17     0.187229
    18    -0.132717
    19    -0.170837
    20    -0.300573
    21     0.366435
    22    -0.022297
    23    -0.088517
    24    -0.123879
    25     0.137301
    26    -0.152482
    27    -0.368431
    28    -0.213658
    29     0.609342
    30     0.087829
    31    -0.103866
    32    -0.005024
    33     0.006145
    34     0.004824
    35     0.120813
    36    -0.145998
    37     0.048459
    38     0.051579
    39    -0.008383
Sym=    22a
Ene=   -0.283243E-02
Spin= Alpha
Occup= 0.003069
     1    -0.000163
     2    -0.001215
     3    -0.003075
     4     0.001360
     5     0.000790
     6     0.003008
     7     0.001385
     8    -0.005255
     9    -0.025804
    10    -0.021962
    11     0.010878
    12     0.054285
    13     0.053949
    14     0.047368
    15     0.325325
    16    -0.372339
    17     0.171587
    18     0.168623
    19     0.029830
    20     0.028926
    21    -0.030666
    22     0.075259
    23     0.496918
    24     0.574736
    25    -0.213377
    26     0.253315
    27     0.080283
    28     0.038444
    29    -0.130505
    30     0.014189
    31    -0.017566
    32    -0.014855
    33    -0.025135
    34    -0.011379
    35     0.177193
    36    -0.208399
    37    -0.076942
    38    -0.100406
    39     0.013011
Sym=    23a
Ene=   -0.981158E-04
Spin= Alpha
Occup= 0.000019
     1    -0.000924
     2    -0.012885
     3    -0.043964
     4     0.033108
     5    -0.023328
     6     0.004592
     7    -0.024772
     8     0.135986
     9    -0.039055
    10     0.156519
    11    -0.023598
    12     0.046699
    13     0.058202
    14     0.077172
    15     0.497326
    16    -0.484331
    17    -0.833740
    18     0.103038
    19    -0.465646
    20     0.220946
    21    -0.142494
    22    -0.076387
    23    -0.156298
    24    -0.131594
    25     0.632511
    26    -0.401890
    27     0.204032
    28     0.175344
    29    -0.049429
    30    -0.680435
    31     0.374071
    32     0.165425
    33    -0.162943
    34     0.168900
    35    -0.200137
    36     0.113456
    37    -0.175142
    38    -0.129952
    39     0.004267
Sym=    24a
Ene=   -0.377694E-04
Spin= Alpha
Occup= 0.000007
     1     0.000050
     2     0.001071
     3     0.011320
     4    -0.037314
     5    -0.005857
     6     0.002085
     7    -0.004814
     8     0.042542
     9    -0.019493
    10     0.046726
    11     0.042893
    12     0.001043
    13    -0.029097
    14     0.407476
    15    -0.148155
    16    -0.271226
    17    -0.113495
    18     0.072893
    19    -0.143577
    20    -0.020527
    21     0.035159
    22    -0.484666
    23     0.246245
    24    -0.192757
    25     0.016241
    26     0.089089
    27     0.504820
    28    -0.395815
    29     0.041550
    30    -0.037219
    31    -0.090628
    32    -0.072462
    33     0.051113
    34     0.337035
    35     0.058674
    36     0.004234
    37     0.370250
    38    -0.089041
    39     0.411482
Sym=    25a
Ene=   -0.304283E-04
Spin= Alpha
Occup= 0.000005
     1     0.001174
     2     0.047309
     3     0.075647
     4     0.023221
     5    -0.011727
     6     0.012171
     7    -0.002778
     8     0.113316
     9    -0.121482
    10     0.028282
    11    -0.023744
    12     0.036434
    13     0.008060
    14    -0.272980
    15    -0.255256
    16    -0.070554
    17    -0.109798
    18     0.359062
    19    -0.326524
    20     0.029529
    21     0.124850
    22     0.450037
    23    -0.436660
    24     0.321362
    25     0.020947
    26     0.123781
    27     0.442186
    28    -0.374432
    29     0.211871
    30    -0.055445
    31    -0.160506
    32     0.172084
    33    -0.330615
    34    -0.178808
    35     0.020809
    36     0.321991
    37     0.305336
    38    -0.304056
    39    -0.041033
Sym=    26a
Ene=   -0.451607E-03
Spin= Alpha
Occup= 0.000087
     1    -0.057168
     2    -0.627067
     3    -1.998520
     4    -0.014642
     5     0.192940
     6    -0.057746
     7    -0.181999
     8    -0.859596
     9     0.254545
    10     0.809735
    11     0.742460
    12    -0.259876
    13    -0.698188
    14     0.829676
    15     0.879768
    16     0.797056
    17    -0.029785
    18     0.024854
    19     0.024974
    20    -0.019274
    21    -0.138530
    22    -0.263537
    23    -0.350482
    24     0.246819
    25    -0.059552
    26    -0.040773
    27     0.115659
    28     0.039934
    29    -0.013081
    30    -0.072594
    31    -0.035821
    32    -0.013841
    33     0.059828
    34    -0.129944
    35    -0.132238
    36     0.293259
    37    -0.336143
    38     0.342080
    39     0.327848
Sym=    27a
Ene=   -0.211526E-05
Spin= Alpha
Occup= 0.000000
     1     0.005682
     2     0.204818
     3     0.328557
     4     0.103186
     5     0.002527
     6    -0.003040
     7    -0.003022
     8    -0.024764
     9     0.031170
    10     0.028507
    11     0.081981
    12    -0.045742
    13    -0.051037
    14    -0.860376
    15    -0.724623
    16    -0.925017
    17    -0.084097
    18    -0.072752
    19     0.053415
    20     0.035305
    21     0.376912
    22    -0.352120
    23    -0.297787
    24     0.299988
    25     0.006916
    26     0.470240
    27     0.200282
    28     0.491610
    29     0.315447
    30    -0.004402
    31     0.433785
    32    -0.353779
    33     0.507171
    34    -0.112442
    35    -0.032682
    36     0.465886
    37     0.271313
    38    -0.318042
    39    -0.231598
Sym=    28a
Ene=   -0.128817E-01
Spin= Alpha
Occup= 0.020955
     1     0.030579
     2     0.209060
     3     0.528521
     4    -0.002740
     5    -0.133258
     6     0.131698
     7    -0.132131
     8     0.387791
     9    -0.385997
    10     0.387550
    11     0.265336
    12    -0.248422
    13     0.248449
    14     0.009303
    15     0.022248
    16     0.043429
    17    -0.088925
    18     0.086518
    19    -0.070834
    20    -0.001655
    21    -0.007288
    22     0.009610
    23    -0.007542
    24     0.006188
    25    -0.009163
    26     0.015295
    27     0.009527
    28    -0.008483
    29     0.001138
    30    -1.055281
    31    -0.100143
    32    -0.008043
    33     0.007723
    34    -0.003715
    35    -0.011468
    36     0.015519
    37     0.008211
    38    -0.003669
    39     0.010271
Sym=    29a
Ene=   -0.126862E-01
Spin= Alpha
Occup= 0.020513
     1     0.030586
     2     0.209097
     3     0.528832
     4    -0.006146
     5     0.134211
     6    -0.131968
     7    -0.134469
     8    -0.394710
     9     0.386227
    10     0.396948
    11    -0.240189
    12     0.251059
    13     0.234614
    14     0.028035
    15    -0.026629
    16     0.072342
    17    -0.100677
    18    -0.083699
    19     0.092889
    20     0.011658
    21    -0.016724
    22    -0.009110
    23     0.002002
    24    -0.002379
    25    -0.009273
    26     0.009556
    27    -0.006489
    28     0.009083
    29    -0.000534
    30    -0.012661
    31     0.014301
    32     0.002513
    33     0.011257
    34     0.007933
    35    -1.066573
    36    -0.078843
    37     0.008616
    38    -0.018613
    39    -0.000157
Sym=    30a
Ene=   -0.526012E-02
Spin= Alpha
Occup= 0.007399
     1    -0.011219
     2    -0.084119
     3    -0.461600
     4     0.180076
     5    -0.051391
     6    -0.050698
     7    -0.052631
     8     0.173060
     9     0.171312
    10     0.178324
    11    -0.068538
    12    -0.070640
    13    -0.081299
    14     0.064863
    15     0.101703
    16     0.020580
    17    -0.149810
    18    -0.144828
    19    -0.139995
    20    -0.058147
    21    -0.065724
    22     0.010668
    23     0.020089
    24    -0.010084
    25    -0.605824
    26     0.978955
    27    -0.256800
    28    -0.274300
    29    -0.248631
    30    -0.076501
    31    -0.040689
    32     0.022319
    33    -0.013709
    34     0.005144
    35    -0.080022
    36    -0.033943
    37    -0.012472
    38     0.019824
    39     0.008508
Sym=    31a
Ene=   -0.121713E-01
Spin= Alpha
Occup= 0.019298
     1    -0.030974
     2    -0.212664
     3    -0.546469
     4     0.039002
     5     0.135374
     6     0.136242
     7    -0.136284
     8    -0.404611
     9    -0.403669
    10     0.403766
    11    -0.197097
    12    -0.217504
    13     0.219806
    14    -0.030724
    15    -0.025483
    16    -0.005187
    17    -0.112797
    18     0.118285
    19     0.133900
    20     1.111988
    21    -0.003370
    22     0.015009
    23     0.014728
    24    -0.018697
    25    -0.024402
    26     0.031822
    27     0.002420
    28    -0.001863
    29    -0.004589
    30    -0.005474
    31    -0.006786
    32     0.008960
    33     0.004979
    34    -0.002353
    35    -0.015131
    36     0.020259
    37     0.005716
    38     0.005105
    39     0.005262
Sym=    32a
Ene=   -0.511800E-03
Spin= Alpha
Occup= 0.000099
     1     0.064874
     2     0.710595
     3     2.269955
     4    -0.013870
     5     0.180989
     6    -0.141455
     7     0.130794
     8    -0.809725
     9     0.630429
    10    -0.581363
    11     0.733415
    12    -0.574349
    13     0.532918
    14    -0.931238
    15    -0.949988
    16    -0.948908
    17     0.002274
    18    -0.023502
    19     0.053290
    20     0.075026
    21     0.050457
    22     0.149007
    23     0.057579
    24    -0.059467
    25     0.046511
    26     0.108048
    27    -0.124206
    28    -0.217264
    29    -0.135631
    30     0.170247
    31    -0.348949
    32    -0.354067
    33     0.342720
    34    -0.346121
    35     0.024013
    36     0.133891
    37    -0.146818
    38     0.156077
    39     0.236337
Sym=    33a
Ene=   -0.550821E-03
Spin= Alpha
Occup= 0.000104
     1    -0.069902
     2    -0.765850
     3    -2.448208
     4     0.034844
     5     0.108261
     6     0.143074
     7     0.184317
     8    -0.478724
     9    -0.635331
    10    -0.822764
    11     0.434500
    12     0.560190
    13     0.735832
    14     1.021851
    15     0.985157
    16     1.046206
    17     0.049850
    18     0.015854
    19    -0.019200
    20    -0.097344
    21    -0.021924
    22    -0.045685
    23    -0.029610
    24     0.131046
    25    -0.158875
    26     0.303596
    27    -0.344171
    28    -0.330182
    29    -0.319980
    30    -0.059246
    31    -0.100869
    32    -0.117051
    33     0.201350
    34    -0.103957
    35    -0.021086
    36    -0.151234
    37     0.271507
    38    -0.167087
    39    -0.171120
Sym=    34a
Ene=   -0.569675E-03
Spin= Alpha
Occup= 0.000107
     1     0.072712
     2     0.796604
     3     2.549897
     4    -0.064687
     5     0.095373
     6     0.219362
     7    -0.083401
     8    -0.420578
     9    -0.979780
    10     0.368575
    11     0.354579
    12     0.849865
    13    -0.327281
    14    -1.064262
    15    -1.043208
    16    -1.069070
    17     0.011795
    18     0.072449
    19    -0.024539
    20     0.138010
    21    -0.223159
    22    -0.316873
    23    -0.297596
    24     0.304504
    25     0.046140
    26     0.127418
    27    -0.206219
    28    -0.171763
    29    -0.268252
    30     0.024756
    31     0.156900
    32     0.250833
    33    -0.141216
    34     0.187541
    35     0.136782
    36    -0.051884
    37     0.046763
    38     0.030582
    39    -0.047715
Sym=    35a
Ene=   -0.875063E-04
Spin= Alpha
Occup= 0.000016
     1     0.000608
     2     0.007393
     3     0.022428
     4     0.002084
     5    -0.025347
     6     0.015960
     7     0.026201
     8     0.157246
     9    -0.134276
    10    -0.162627
    11    -0.058812
    12    -0.009246
    13     0.061349
    14    -0.528811
    15     0.296915
    16     0.193540
    17     0.469440
    18     0.745477
    19    -0.526304
    20    -0.099043
    21     0.062534
    22    -0.007469
    23    -0.064288
    24    -0.240128
    25    -0.270664
    26     0.106086
    27    -0.143060
    28    -0.082990
    29    -0.028887
    30    -0.371537
    31     0.216918
    32     0.417116
    33     0.119414
    34    -0.067969
    35     0.747942
    36    -0.382672
    37     0.037978
    38    -0.454837
    39    -0.177553
Sym=    36a
Ene=   -0.224201E-05
Spin= Alpha
Occup= 0.000000
     1    -0.001473
     2    -0.050788
     3    -0.079432
     4    -0.038401
     5    -0.006444
     6    -0.003804
     7    -0.009914
     8     0.058106
     9     0.033807
    10     0.103857
    11    -0.044942
    12    -0.021902
    13    -0.094459
    14     0.100867
    15     0.549309
    16    -0.037273
    17    -0.291704
    18    -0.090726
    19    -0.157763
    20    -0.007053
    21    -0.084207
    22     0.465498
    23    -0.194448
    24     0.078233
    25     0.040729
    26     0.021209
    27    -0.140830
    28     0.289201
    29    -0.016497
    30    -0.023883
    31    -0.182841
    32     0.169607
    33     0.328374
    34     0.622628
    35    -0.002497
    36    -0.169892
    37     0.113911
    38    -0.078789
    39     0.569051
Sym=    37a
Ene=    0.000000E+00
Spin= Alpha
Occup= 0.000000
     1    -0.001456
     2    -0.046458
     3     0.187237
     4    -2.408682
     5     0.003301
     6     0.007678
     7     0.006931
     8    -0.001679
     9    -0.013653
    10    -0.022003
    11    -0.911296
    12    -1.566175
    13    -0.951559
    14     0.167093
    15     0.162862
    16     0.139211
    17     0.297265
    18     0.498318
    19     0.293898
    20    -0.119414
    21     1.669075
    22    -0.145188
    23    -0.074318
    24     0.301405
    25    -0.011617
    26    -1.363179
    27    -0.374131
    28    -0.337833
    29    -0.414675
    30    -0.128234
    31     0.968915
    32     0.033714
    33     0.200094
    34     0.022871
    35    -0.177154
    36     1.799817
    37     0.328706
    38    -0.103522
    39    -0.165339
Sym=    38a
Ene=    0.000000E+00
Spin= Alpha
Occup= 0.000000
     1     0.003213
     2     0.109116
     3    -0.480802
     4     6.000464
     5    -0.002635
     6     0.006666
     7    -0.002376
     8     0.007525
     9    -0.014225
    10     0.004437
    11     0.397896
    12    -1.216482
    13     0.437658
    14    -0.377053
    15    -0.362233
    16    -0.377246
    17    -0.128825
    18     0.376533
    19    -0.112243
    20     0.241392
    21    -1.151307
    22    -0.183672
    23    -0.033716
    24     0.101444
    25     0.271289
    26    -2.147244
    27    -0.120559
    28     0.032370
    29    -0.139019
    30     0.356828
    31    -3.221513
    32     0.298513
    33    -0.205497
    34     0.288573
    35     0.225240
    36    -1.176120
    37     0.096963
    38    -0.024322
    39    -0.181224
Sym=    39a
Ene=    0.000000E+00
Spin= Alpha
Occup= 0.000000
     1     0.002451
     2     0.083537
     3    -0.336835
     4     4.286686
     5     0.007150
     6    -0.004431
     7     0.005374
     8    -0.018004
     9     0.009390
    10    -0.010922
    11    -1.142238
    12     0.828250
    13    -1.081910
    14    -0.275417
    15    -0.295856
    16    -0.295779
    17     0.334730
    18    -0.252794
    19     0.348663
    20     0.216267
    21    -1.835165
    22     0.223902
    23     0.047549
    24    -0.027288
    25     0.245788
    26    -2.241101
    27    -0.093459
    28    -0.304644
    29    -0.121946
    30     0.078730
    31     0.564067
    32    -0.323101
    33     0.339015
    34    -0.327395
    35     0.229885
    36    -1.922527
    37    -0.029091
    38     0.070451
    39     0.247657
