[Molden Format]
p30-5 set                                                                       
[Atoms] AU
 MG       1    12        0.0000        0.0000        0.0000
 H        2     1        0.0000        0.0000       -3.2256
 H        3     1        0.0000        0.0000        3.2256
[GTO]
    1 0
s    5 1.00
    4953.833919600000 -0.573034825338E-02
     745.180441540000 -0.427698711217E-01
     169.216049720000 -0.191096515460E+00
      47.300672019000 -0.482411503269E+00
      14.461336973000 -0.422007266852E+00
s    3 1.00
      24.768174789000  0.871156057208E-01
       2.494094534900 -0.546373693218E+00
       0.878075845330 -0.529320757859E+00
s    1 1.00
       0.087212782497  0.100000000000E+01
s    1 1.00
       0.033599293780  0.100000000000E+01
p    5 1.00
      98.053010494000 -0.144805646010E-01
      22.586932277000 -0.954957507867E-01
       6.839150984200 -0.307876726509E+00
       2.233284381800 -0.499362928859E+00
       0.716065993870 -0.315034762129E+00
p    1 1.00
       0.189147961950  0.100000000000E+01
p    1 1.00
       0.053768755187  0.100000000000E+01
d    1 1.00
       0.101000000000  0.100000000000E+01
 
    2 0
s    3 1.00
      13.010701000000  0.334854848130E-01
       1.962257200000  0.234721870881E+00
       0.444537960000  0.813770285260E+00
s    1 1.00
       0.121949620000  0.100000000000E+01
p    1 1.00
       0.800000000000  0.100000000000E+01
 
    3 0
s    3 1.00
      13.010701000000  0.334854848130E-01
       1.962257200000  0.234721870881E+00
       0.444537960000  0.813770285260E+00
s    1 1.00
       0.121949620000  0.100000000000E+01
p    1 1.00
       0.800000000000  0.100000000000E+01
 
[MO]
Sym=     1a
Ene=   -0.490407E+02
Spin= Alpha
Occup= 2.000000
     1     0.997354
     2     0.011719
     3     0.007688
     4     0.004144
     5     0.000856
     6    -0.000859
     7     0.000232
     8    -0.000005
     9     0.000010
    10    -0.000001
    11    -0.000005
    12     0.000002
    13     0.000009
    14    -0.004346
    15    -0.004345
    16    -0.003981
    17    -0.000002
    18    -0.000001
    19    -0.000001
    20    -0.000458
    21     0.000145
    22    -0.000002
    23     0.000000
    24    -0.000534
    25    -0.000454
    26     0.000130
    27     0.000002
    28     0.000001
    29     0.000534
Sym=     2a
Ene=   -0.290037E+01
Spin= Alpha
Occup= 1.999910
     1    -0.172221
     2     0.651250
     3    -0.013594
     4    -0.001066
     5     0.219393
     6    -0.288672
     7    -0.681863
     8    -0.001784
     9     0.002336
    10    -0.001449
    11    -0.000478
    12     0.000625
    13    -0.000091
    14     0.003439
    15     0.003419
    16     0.005640
    17    -0.000005
    18    -0.000041
    19    -0.000019
    20    -0.002988
    21    -0.001858
    22    -0.000124
    23     0.000178
    24    -0.002224
    25     0.001864
    26    -0.001726
    27    -0.000153
    28     0.000170
    29    -0.000978
Sym=     3a
Ene=   -0.280295E+01
Spin= Alpha
Occup= 1.999891
     1    -0.157920
     2     0.595822
     3    -0.012543
     4    -0.000993
     5     0.258427
     6    -0.248647
     7     0.730351
     8    -0.002093
     9     0.002014
    10     0.001525
    11    -0.000563
    12     0.000542
    13     0.000063
    14     0.003140
    15     0.003169
    16     0.005146
    17     0.000009
    18    -0.000038
    19    -0.000016
    20     0.002090
    21    -0.001544
    22    -0.000143
    23     0.000157
    24     0.001151
    25    -0.003199
    26    -0.001750
    27    -0.000169
    28     0.000145
    29     0.002288
Sym=     4a
Ene=   -0.251390E+01
Spin= Alpha
Occup= 1.999761
     1     0.100936
     2    -0.384937
     3     0.008500
     4     0.000825
     5    -0.086174
     6    -0.920011
     7     0.014242
     8     0.000773
     9     0.007858
    10    -0.000023
    11     0.000204
    12     0.001868
    13    -0.000025
    14    -0.002242
    15    -0.002210
    16    -0.003695
    17     0.000005
    18    -0.000070
    19    -0.000170
    20     0.000576
    21     0.001373
    22     0.000095
    23     0.000597
    24     0.000382
    25     0.000386
    26     0.001313
    27     0.000048
    28     0.000486
    29    -0.000313
Sym=     5a
Ene=   -0.248089E+01
Spin= Alpha
Occup= 1.999747
     1    -0.092529
     2     0.353183
     3    -0.007858
     4    -0.000773
     5    -0.933733
     6    -0.051673
     7     0.040572
     8     0.008030
     9     0.000482
    10     0.000011
    11     0.001914
    12     0.000126
    13    -0.000030
    14     0.002041
    15     0.002077
    16     0.003398
    17     0.000001
    18     0.000164
    19    -0.000083
    20    -0.000263
    21    -0.001221
    22     0.000513
    23     0.000077
    24    -0.000219
    25    -0.000661
    26    -0.001264
    27     0.000618
    28     0.000019
    29     0.000412
Sym=     6a
Ene=   -0.412980E+00
Spin= Alpha
Occup= 1.962309
     1     0.029259
     2    -0.182012
     3    -0.355358
     4    -0.068062
     5     0.000231
     6    -0.000370
     7     0.106504
     8    -0.000041
     9     0.000307
    10     0.158449
    11     0.000085
    12    -0.000106
    13     0.138159
    14     0.040840
    15     0.043395
    16    -0.082823
    17     0.001274
    18    -0.000028
    19    -0.000012
    20    -0.416755
    21    -0.241619
    22    -0.000002
    23    -0.000012
    24    -0.019735
    25     0.020480
    26     0.075982
    27     0.000000
    28    -0.000007
    29     0.005555
Sym=     7a
Ene=   -0.412981E+00
Spin= Alpha
Occup= 1.962252
     1    -0.029289
     2     0.182114
     3     0.355349
     4     0.068084
     5    -0.000301
     6     0.000153
     7     0.106695
     8     0.000449
     9    -0.000150
    10     0.158472
    11    -0.000123
    12     0.000078
    13     0.138222
    14    -0.043743
    15    -0.040445
    16     0.082863
    17     0.000366
    18     0.000024
    19     0.000003
    20    -0.020542
    21    -0.076068
    22    -0.000010
    23     0.000005
    24     0.005547
    25     0.416788
    26     0.241487
    27    -0.000020
    28     0.000006
    29    -0.019727
Sym=     8a
Ene=   -0.329723E-02
Spin= Alpha
Occup= 0.005385
     1     0.000103
     2    -0.001319
     3     0.019040
     4    -0.005426
     5     0.007020
     6     0.116545
     7     0.003103
     8     0.016141
     9     0.284104
    10     0.012707
    11     0.014460
    12     0.207544
    13    -0.001103
    14     0.000586
    15    -0.000371
    16     0.030547
    17    -0.000154
    18     0.051029
    19     0.494464
    20     0.001324
    21    -0.022026
    22    -0.001728
    23     0.025973
    24     0.002019
    25     0.005342
    26    -0.040739
    27     0.053576
    28     0.604968
    29    -0.010862
Sym=     9a
Ene=   -0.329921E-02
Spin= Alpha
Occup= 0.005394
     1     0.000188
     2    -0.002108
     3     0.023092
     4    -0.007070
     5    -0.108355
     6     0.044701
     7    -0.003979
     8    -0.264044
     9     0.109989
    10    -0.016577
    11    -0.192963
    12     0.077425
    13     0.000526
    14     0.000613
    15     0.000809
    16     0.039706
    17     0.000065
    18     0.466620
    19    -0.169976
    20     0.007631
    21    -0.053626
    22    -0.566977
    23     0.216128
    24     0.013873
    25     0.001106
    26    -0.026761
    27    -0.022604
    28     0.012822
    29    -0.002651
Sym=    10a
Ene=   -0.657384E-03
Spin= Alpha
Occup= 0.000233
     1     0.028995
     2    -0.230196
     3    -0.353337
     4    -0.396376
     5     0.329573
     6     0.026795
     7    -0.011206
     8     1.158083
     9     0.083188
    10    -0.052084
    11    -0.431641
    12    -0.004892
    13     0.025036
    14     0.388263
    15     0.399559
    16     0.760906
    17    -0.001262
    18     0.153453
    19    -0.076585
    20    -0.008116
    21    -0.339865
    22    -0.228760
    23     0.076989
    24     0.121717
    25     0.002976
    26    -0.322084
    27    -0.028564
    28    -0.023438
    29    -0.142573
Sym=    11a
Ene=   -0.625609E-03
Spin= Alpha
Occup= 0.000220
     1    -0.031377
     2     0.249313
     3     0.381969
     4     0.428807
     5     0.039095
     6     0.319398
     7    -0.005311
     8     0.125373
     9     1.134372
    10    -0.024871
    11    -0.017175
    12    -0.451504
    13     0.014293
    14    -0.433323
    15    -0.420383
    16    -0.824779
    17     0.001851
    18    -0.068181
    19    -0.156244
    20    -0.001439
    21     0.358922
    22     0.068988
    23    -0.053522
    24    -0.153513
    25     0.005183
    26     0.362887
    27    -0.028367
    28    -0.273854
    29     0.141324
Sym=    12a
Ene=   -0.264023E-03
Spin= Alpha
Occup= 0.000081
     1     0.043571
     2    -0.348038
     3    -0.543552
     4    -0.604884
     5    -0.093598
     6     0.092623
     7    -0.182176
     8    -0.337395
     9     0.333352
    10    -0.942009
    11     0.142484
    12    -0.141525
    13     0.730904
    14     0.596772
    15     0.595958
    16     1.150280
    17    -0.000577
    18    -0.054102
    19    -0.029637
    20    -0.196307
    21    -0.365351
    22     0.121881
    23    -0.040725
    24    -0.246127
    25     0.180819
    26    -0.621362
    27     0.033178
    28    -0.087669
    29    -0.730689
Sym=    13a
Ene=   -0.378808E-04
Spin= Alpha
Occup= 0.000010
     1     0.000045
     2    -0.001229
     3     0.252242
     4    -0.035472
     5     0.015839
     6    -0.003153
     7    -0.008832
     8     0.131403
     9    -0.022122
    10    -0.192317
    11    -0.276222
    12     0.039235
    13    -0.805205
    14     0.038668
    15     0.031317
    16     0.195916
    17     0.001380
    18     0.572240
    19    -0.363179
    20     0.293727
    21    -1.169209
    22     0.531678
    23    -0.262383
    24    -0.198144
    25    -0.120418
    26     0.489165
    27    -0.551229
    28     0.288204
    29    -0.049345
Sym=    14a
Ene=   -0.551510E-06
Spin= Alpha
Occup= 0.000000
     1     0.000150
     2    -0.001144
     3     0.018524
     4    -0.008177
     5     0.009331
     6     0.011455
     7     0.000312
     8     0.103012
     9     0.132510
    10     0.000604
    11    -0.253986
    12    -0.334254
    13     0.005619
    14    -0.056379
    15     0.054645
    16     0.031914
    17     0.930137
    18    -0.000041
    19     0.129196
    20    -0.000528
    21    -0.019662
    22     0.023278
    23     0.059715
    24    -0.009317
    25    -0.000039
    26    -0.030857
    27     0.020173
    28     0.014714
    29     0.000505
Sym=    15a
Ene=   -0.122673E-01
Spin= Alpha
Occup= 0.025574
     1     0.031925
     2    -0.221482
     3    -0.693245
     4    -0.098426
     5    -0.001478
     6     0.000633
     7    -0.114994
     8    -0.004378
     9     0.002269
    10    -0.391048
    11    -0.000797
    12    -0.000818
    13    -0.500168
    14     0.071507
    15     0.074611
    16    -0.147074
    17     0.000284
    18    -0.002940
    19     0.000360
    20    -0.054566
    21     0.065118
    22     0.000267
    23    -0.000245
    24    -0.007147
    25     1.066474
    26     0.105859
    27    -0.001733
    28    -0.000139
    29    -0.009463
Sym=    16a
Ene=   -0.122397E-01
Spin= Alpha
Occup= 0.025486
     1     0.031930
     2    -0.221544
     3    -0.693052
     4    -0.097966
     5    -0.000271
     6     0.001077
     7     0.115111
     8    -0.001378
     9     0.003460
    10     0.391428
    11     0.001551
    12    -0.000204
    13     0.500072
    14     0.074501
    15     0.072228
    16    -0.146291
    17    -0.001273
    18    -0.000898
    19    -0.001768
    20     1.066924
    21     0.104486
    22     0.000836
    23     0.000760
    24     0.009543
    25    -0.055281
    26     0.064573
    27     0.000185
    28    -0.000246
    29     0.007068
Sym=    17a
Ene=   -0.605578E-04
Spin= Alpha
Occup= 0.000017
     1    -0.000425
     2     0.003667
     3    -0.044970
     4     0.021509
     5    -0.018264
     6    -0.008148
     7     0.003851
     8    -0.090457
     9    -0.017400
    10     0.048665
    11     0.025207
    12    -0.102483
    13     0.084845
    14    -0.008131
    15    -0.004939
    16    -0.066498
    17     0.001100
    18     0.062531
    19    -0.425097
    20    -0.026351
    21     0.165678
    22     0.378899
    23     0.430311
    24     0.056628
    25     0.012243
    26    -0.032163
    27     0.578368
    28     0.385789
    29     0.043896
Sym=    18a
Ene=   -0.373866E-04
Spin= Alpha
Occup= 0.000011
     1     0.000063
     2    -0.001087
     3     0.204332
     4    -0.046644
     5    -0.001602
     6    -0.022143
     7    -0.007171
     8     0.005780
     9    -0.175716
    10    -0.207088
    11    -0.062023
    12     0.354971
    13    -0.970366
    14     0.021603
    15     0.003288
    16     0.199114
    17     0.000784
    18     0.205038
    19     0.554119
    20     0.295656
    21    -1.249035
    22     0.305924
    23     0.603005
    24    -0.180722
    25    -0.206188
    26     0.726058
    27    -0.028338
    28    -0.531812
    29    -0.073703
Sym=    19a
Ene=   -0.606277E-04
Spin= Alpha
Occup= 0.000017
     1     0.000500
     2    -0.005091
     3    -0.060571
     4     0.001230
     5     0.007388
     6    -0.009183
     7     0.000680
     8     0.026284
     9    -0.034556
    10     0.007545
    11     0.056655
    12    -0.057006
    13     0.050447
    14    -0.010692
    15    -0.008211
    16     0.001614
    17     0.003324
    18    -0.405191
    19    -0.136991
    20    -0.040210
    21     0.106725
    22    -0.172569
    23     0.567258
    24     0.048766
    25    -0.011660
    26     0.003530
    27    -0.559645
    28     0.266969
    29    -0.058788
Sym=    20a
Ene=   -0.261856E-03
Spin= Alpha
Occup= 0.000076
     1     0.045785
     2    -0.365909
     3    -0.555083
     4    -0.640871
     5    -0.082978
     6     0.103862
     7     0.176795
     8    -0.295615
     9     0.375563
    10     0.914462
    11     0.119023
    12    -0.162664
    13    -0.696443
    14     0.641585
    15     0.645764
    16     1.191169
    17     0.001717
    18    -0.059453
    19    -0.026399
    20     0.191813
    21    -0.652059
    22     0.099816
    23    -0.064522
    24     0.715149
    25    -0.166564
    26    -0.428557
    27    -0.011372
    28    -0.101077
    29     0.225974
Sym=    21a
Ene=   -0.557123E-06
Spin= Alpha
Occup= 0.000000
     1     0.000130
     2    -0.000931
     3    -0.020759
     4    -0.000132
     5    -0.006606
     6     0.000843
     7    -0.000313
     8    -0.089974
     9    -0.009171
    10     0.003077
    11     0.239900
    12     0.040279
    13     0.018827
    14     0.847128
    15    -0.832009
    16    -0.029541
    17     0.124272
    18     0.064027
    19    -0.033695
    20    -0.004382
    21     0.043201
    22    -0.017517
    23    -0.004709
    24     0.007021
    25     0.009613
    26     0.006041
    27    -0.038585
    28     0.001342
    29     0.006269
Sym=    22a
Ene=   -0.393729E-02
Spin= Alpha
Occup= 0.006789
     1    -0.026359
     2     0.181934
     3     1.311772
     4     0.034943
     5     0.008932
     6    -0.005123
     7     0.162415
     8     0.024838
     9    -0.014974
    10     0.678636
    11     0.007658
    12    -0.002401
    13     0.017931
    14    -0.375752
    15    -0.378643
    16     0.585880
    17     0.000321
    18     0.026359
    19    -0.009585
    20     0.067101
    21    -0.545411
    22     0.000179
    23    -0.000322
    24     0.027753
    25     0.336419
    26    -1.692025
    27     0.027247
    28    -0.011010
    29    -0.476983
Sym=    23a
Ene=   -0.394235E-02
Spin= Alpha
Occup= 0.006810
     1     0.026456
     2    -0.182681
     3    -1.313930
     4    -0.035268
     5    -0.003557
     6     0.006994
     7     0.162757
     8    -0.010704
     9     0.019942
    10     0.680256
    11    -0.000885
    12     0.004624
    13     0.017724
    14     0.378903
    15     0.377472
    16    -0.584199
    17    -0.001605
    18     0.002226
    19    -0.018264
    20    -0.336497
    21     1.692584
    22    -0.004504
    23     0.019001
    24    -0.476489
    25    -0.067329
    26     0.544473
    27    -0.000625
    28     0.000155
    29     0.027693
Sym=    24a
Ene=   -0.811509E-05
Spin= Alpha
Occup= 0.000003
     1    -0.000440
     2     0.003429
     3    -1.126672
     4     0.273297
     5     0.026042
     6    -0.027123
     7     0.001032
     8     0.272695
     9    -0.298223
    10     0.011716
    11    -0.664842
    12     0.743125
    13     0.047564
    14     0.337228
    15     0.181431
    16    -1.790003
    17     0.093887
    18    -0.380569
    19    -0.214517
    20     0.115161
    21     1.428188
    22     0.012897
    23    -0.171584
    24     0.181320
    25     0.140239
    26     1.328585
    27     0.173182
    28    -0.050614
    29    -0.175955
Sym=    25a
Ene=   -0.254424E-04
Spin= Alpha
Occup= 0.000008
     1     0.000088
     2    -0.001371
     3     0.094949
     4    -0.011580
     5     0.004150
     6    -0.009793
     7     0.017507
     8     0.035719
     9    -0.074632
    10     0.498505
    11    -0.082547
    12     0.150385
    13     2.289375
    14     0.052337
    15     0.073343
    16    -0.026992
    17     0.002080
    18     0.304824
    19     0.132743
    20    -0.501858
    21     2.193846
    22     0.292959
    23     0.132416
    24     0.269355
    25     0.678467
    26    -2.471245
    27    -0.235384
    28    -0.142103
    29     0.367299
Sym=    26a
Ene=   -0.394836E-04
Spin= Alpha
Occup= 0.000012
     1    -0.004244
     2     0.037927
     3    -0.871103
     4     0.153027
     5     0.005705
     6    -0.005623
     7     0.006249
     8     0.040786
     9    -0.041449
    10     0.051184
    11    -0.083997
    12     0.086639
    13     0.083385
    14    -0.395999
    15    -0.402811
    16    -0.356774
    17     0.006003
    18     0.181224
    19     0.026456
    20    -0.588233
    21     1.438911
    22     0.164087
    23    -0.012481
    24     0.388948
    25    -0.545826
    26     1.232688
    27    -0.098296
    28    -0.048877
    29    -0.329550
Sym=    27a
Ene=   -0.117730E-04
Spin= Alpha
Occup= 0.000004
     1     0.000317
     2    -0.004430
     3     2.813629
     4    -0.640214
     5     0.006090
     6    -0.007904
     7     0.002375
     8     0.089042
     9    -0.112444
    10     0.032991
    11    -0.243327
    12     0.304856
    13     0.116675
    14    -0.588726
    15    -0.656741
    16     4.373453
    17     0.038878
    18    -0.188696
    19    -0.112392
    20    -0.296417
    21    -3.341127
    22    -0.015431
    23    -0.077345
    24    -0.402945
    25    -0.236196
    26    -3.587681
    27     0.084280
    28    -0.007304
    29     0.439633
Sym=    28a
Ene=   -0.527200E-06
Spin= Alpha
Occup= 0.000000
     1    -0.000014
     2     0.000048
     3     0.053705
     4    -0.002661
     5     0.030822
     6     0.025556
     7     0.002158
     8     0.341206
     9     0.276858
    10     0.015844
    11    -0.843745
    12    -0.679899
    13     0.054587
    14     0.170614
    15    -0.200901
    16     0.086574
    17    -0.330157
    18    -0.103321
    19     0.274550
    20    -0.019815
    21    -0.012960
    22     0.069620
    23     0.115720
    24    -0.006691
    25     0.010639
    26    -0.131259
    27     0.091962
    28     0.026707
    29     0.004628
Sym=    29a
Ene=    0.000000E+00
Spin= Alpha
Occup= 0.000000
     1     0.005487
     2    -0.070052
     3    -0.561417
     4    -2.987532
     5     0.000135
     6    -0.000076
     7    -0.000240
     8     0.002225
     9    -0.000422
    10    -0.001579
    11    -0.005845
    12     0.000043
    13     0.000249
    14     1.153498
    15     1.153490
    16    -1.564807
    17    -0.001503
    18    -0.003125
    19    -0.003699
    20    -0.137202
    21     2.356476
    22    -0.001274
    23    -0.000121
    24     0.098160
    25    -0.137352
    26     2.358044
    27     0.000218
    28     0.004676
    29    -0.100357
