[Molden Format]
p30-5 set                                                                       
[Atoms] AU
 N        1     7        0.0000        0.0000       -1.0394
 N        2     7        0.0000        0.0000        1.0394
[GTO]
    1 0
s    5 1.00
    1712.841585300000 -0.544779958049E-02
     257.648126770000 -0.406271746324E-01
      58.458245853000 -0.181119622506E+00
      16.198367905000 -0.468439755632E+00
       5.005260080900 -0.446168462892E+00
s    1 1.00
       0.587318565710  0.100000000000E+01
s    1 1.00
       0.187645922530  0.100000000000E+01
p    3 1.00
      13.571470233000 -0.588481169695E-01
       2.925737287400 -0.320246247625E+00
       0.799277507540 -0.753282265204E+00
p    1 1.00
       0.219543480340  0.100000000000E+01
d    1 1.00
       1.000000000000  0.100000000000E+01
 
    2 0
s    5 1.00
    1712.841585300000 -0.544779958049E-02
     257.648126770000 -0.406271746324E-01
      58.458245853000 -0.181119622506E+00
      16.198367905000 -0.468439755632E+00
       5.005260080900 -0.446168462892E+00
s    1 1.00
       0.587318565710  0.100000000000E+01
s    1 1.00
       0.187645922530  0.100000000000E+01
p    3 1.00
      13.571470233000 -0.588481169695E-01
       2.925737287400 -0.320246247625E+00
       0.799277507540 -0.753282265204E+00
p    1 1.00
       0.219543480340  0.100000000000E+01
d    1 1.00
       1.000000000000  0.100000000000E+01
 
[MO]
Sym=     1a
Ene=   -0.156633E+02
Spin= Alpha
Occup= 1.999853
     1    -0.000435
     2    -0.002881
     3     0.007281
     4     0.000002
     5    -0.000001
     6     0.004431
     7     0.000002
     8     0.000000
     9     0.001121
    10     0.000050
    11     0.000047
    12    -0.001367
    13    -0.000006
    14    -0.000000
    15     0.000002
    16    -0.994398
    17     0.026083
    18    -0.019518
    19    -0.000002
    20     0.000002
    21     0.004946
    22    -0.000007
    23     0.000004
    24     0.001323
    25    -0.003048
    26    -0.003055
    27    -0.000717
    28    -0.000007
    29     0.000002
    30     0.000002
Sym=     2a
Ene=   -0.156632E+02
Spin= Alpha
Occup= 1.999849
     1     0.994391
     2    -0.026095
     3     0.019488
     4     0.000003
     5    -0.000005
     6     0.004959
     7     0.000004
     8    -0.000003
     9     0.001306
    10     0.003051
    11     0.003053
    12     0.000712
    13     0.000006
    14     0.000001
    15    -0.000004
    16     0.000501
    17     0.002852
    18    -0.007246
    19     0.000003
    20    -0.000004
    21     0.004414
    22    -0.000000
    23     0.000002
    24     0.001113
    25    -0.000042
    26    -0.000044
    27     0.001373
    28     0.000006
    29    -0.000003
    30    -0.000002
Sym=     3a
Ene=   -0.135557E+01
Spin= Alpha
Occup= 1.985707
     1     0.156863
     2     0.322538
     3    -0.006448
     4     0.000024
     5     0.000030
     6    -0.372558
     7    -0.000046
     8    -0.000015
     9     0.103715
    10    -0.007017
    11    -0.006905
    12     0.042037
    13     0.000295
    14    -0.000080
    15     0.000033
    16     0.156838
    17     0.322580
    18    -0.006395
    19     0.000028
    20     0.000019
    21     0.372552
    22    -0.000037
    23    -0.000003
    24    -0.103726
    25    -0.007021
    26    -0.006912
    27     0.042038
    28     0.000296
    29     0.000082
    30    -0.000039
Sym=     4a
Ene=   -0.758167E+00
Spin= Alpha
Occup= 1.982250
     1     0.034095
     2     0.098701
     3     0.038827
     4     0.000345
     5     0.000028
     6    -0.088316
     7    -0.000262
     8     0.000026
     9     0.054495
    10     0.001870
    11     0.001863
    12     0.004089
    13    -0.000023
    14    -0.000081
    15     0.000016
    16    -0.218242
    17    -0.466673
    18    -0.489554
    19     0.000548
    20    -0.000009
    21     0.385801
    22    -0.000350
    23     0.000014
    24    -0.197173
    25    -0.021169
    26    -0.021181
    27     0.000511
    28    -0.000020
    29     0.000064
    30    -0.000018
Sym=     5a
Ene=   -0.758184E+00
Spin= Alpha
Occup= 1.982246
     1     0.218259
     2     0.466701
     3     0.489601
     4    -0.000331
     5    -0.000528
     6     0.385784
     7     0.000211
     8     0.000332
     9    -0.197140
    10     0.021153
    11     0.021174
    12    -0.000513
    13     0.000023
    14     0.000045
    15     0.000016
    16    -0.034079
    17    -0.098688
    18    -0.038857
    19    -0.000189
    20    -0.000415
    21    -0.088305
    22     0.000184
    23     0.000177
    24     0.054515
    25    -0.001871
    26    -0.001866
    27    -0.004090
    28     0.000025
    29    -0.000064
    30    -0.000027
Sym=     6a
Ene=   -0.630981E+00
Spin= Alpha
Occup= 1.878758
     1     0.000026
     2     0.000046
     3     0.000142
     4     0.425786
     5    -0.123053
     6     0.000233
     7    -0.236092
     8     0.068252
     9    -0.000278
    10    -0.000029
    11    -0.000054
    12     0.000049
    13     0.000022
    14    -0.039995
    15     0.011562
    16     0.000213
    17     0.000461
    18     0.000539
    19     0.425795
    20    -0.123069
    21    -0.000433
    22    -0.236076
    23     0.068288
    24     0.000345
    25    -0.000010
    26    -0.000029
    27     0.000063
    28    -0.000003
    29     0.040002
    30    -0.011561
Sym=     7a
Ene=   -0.630902E+00
Spin= Alpha
Occup= 1.878279
     1     0.000249
     2     0.000530
     3     0.000596
     4     0.123135
     5     0.425854
     6     0.000521
     7    -0.068235
     8    -0.236049
     9    -0.000197
    10     0.000033
    11     0.000050
    12    -0.000030
    13     0.000009
    14    -0.011566
    15    -0.039991
    16     0.000011
    17     0.000006
    18     0.000025
    19     0.123126
    20     0.425856
    21    -0.000258
    22    -0.068176
    23    -0.236003
    24     0.000130
    25     0.000015
    26     0.000017
    27    -0.000031
    28     0.000015
    29     0.011557
    30     0.039990
Sym=     8a
Ene=   -0.580905E-01
Spin= Alpha
Occup= 0.118010
     1     0.000094
     2     0.000266
     3     0.002293
     4     0.176465
     5     0.611281
     6     0.000304
     7    -0.087821
     8    -0.302307
     9     0.001576
    10     0.000017
    11     0.000274
    12    -0.000226
    13     0.000059
    14    -0.003477
    15    -0.011619
    16     0.000002
    17     0.000212
    18    -0.002642
    19    -0.176707
    20    -0.611401
    21     0.000122
    22     0.087631
    23     0.302202
    24     0.001510
    25    -0.000084
    26    -0.000097
    27     0.000145
    28    -0.000038
    29    -0.003465
    30    -0.011647
Sym=     9a
Ene=   -0.578733E-01
Spin= Alpha
Occup= 0.117468
     1    -0.000020
     2     0.000520
     3    -0.011310
     4     0.611550
     5    -0.177008
     6    -0.000457
     7    -0.301720
     8     0.086778
     9    -0.006561
    10    -0.000197
    11    -0.000671
    12     0.000795
    13     0.000324
    14    -0.011456
    15     0.003191
    16    -0.000055
    17    -0.000913
    18     0.011579
    19    -0.611525
    20     0.176793
    21    -0.000350
    22     0.301726
    23    -0.086944
    24    -0.006571
    25     0.000107
    26     0.000684
    27    -0.000738
    28    -0.000133
    29    -0.011514
    30     0.003227
Sym=    10a
Ene=   -0.108725E-01
Spin= Alpha
Occup= 0.014991
     1     0.264246
     2     1.384057
     3    -1.466475
     4     0.000196
     5    -0.001214
     6     0.654263
     7     0.000463
     8    -0.001550
     9     0.467164
    10    -0.144176
    11    -0.145283
    12     0.064849
    13    -0.002360
    14     0.000222
    15    -0.000311
    16     0.027861
    17     0.033659
    18     0.243535
    19    -0.000245
    20     0.000068
    21     0.080850
    22    -0.000594
    23     0.000587
    24    -0.095730
    25     0.003362
    26     0.002859
    27    -0.000418
    28    -0.001734
    29     0.000010
    30    -0.000053
Sym=    11a
Ene=   -0.202084E-02
Spin= Alpha
Occup= 0.001378
     1    -0.000372
     2    -0.006440
     3     0.028575
     4    -0.303065
     5    -0.483022
     6     0.006815
     7    -0.192043
     8    -0.307159
     9     0.014550
    10     0.000225
    11     0.002360
    12    -0.006076
    13    -0.003035
    14     0.120926
    15     0.192211
    16    -0.000444
    17     0.001069
    18    -0.026427
    19    -0.010658
    20    -0.017029
    21     0.006168
    22     0.013027
    23     0.021347
    24     0.015074
    25    -0.000164
    26    -0.007232
    27     0.013497
    28     0.006099
    29     0.536891
    30     0.853560
Sym=    12a
Ene=   -0.154392E-01
Spin= Alpha
Occup= 0.011827
     1     0.239955
     2     1.079156
     3    -0.373596
     4     0.005644
     5    -0.002920
     6    -0.844673
     7     0.007021
     8    -0.003600
     9     0.125579
    10    -0.053643
    11    -0.053891
    12     0.083791
    13    -0.000128
    14    -0.006280
    15     0.003064
    16    -0.239949
    17    -1.079114
    18     0.373666
    19    -0.005512
    20     0.002733
    21    -0.844598
    22    -0.006932
    23     0.003443
    24     0.125669
    25     0.053661
    26     0.053834
    27    -0.083868
    28     0.000288
    29    -0.006369
    30     0.003068
Sym=    13a
Ene=   -0.234714E-02
Spin= Alpha
Occup= 0.000137
     1     0.818925
     2     3.100195
     3     0.499186
     4    -0.008734
     5     0.004631
     6     0.089985
     7    -0.008341
     8     0.004619
     9    -0.176541
    10    -1.528215
    11    -1.533016
    12    -1.812752
    13    -0.019090
    14    -0.003624
    15     0.002227
    16     0.023353
    17     0.241573
    18    -0.169530
    19    -0.002290
    20     0.001248
    21     0.315133
    22     0.001511
    23    -0.000935
    24    -0.010802
    25     0.061195
    26     0.054227
    27     0.087099
    28    -0.013483
    29     0.008989
    30    -0.004344
Sym=    14a
Ene=   -0.109521E-03
Spin= Alpha
Occup= 0.000007
     1     0.009024
     2    -0.069544
     3     0.340714
     4    -0.037741
     5     0.037576
     6    -0.328527
     7    -0.055097
     8     0.079479
     9     0.585439
    10    -0.602222
    11    -0.577357
    12     1.201065
    13     0.004819
    14     0.070815
    15    -0.019684
    16     0.036646
    17    -0.488118
    18     0.386363
    19     0.058551
    20    -0.048838
    21    -0.903879
    22     0.070010
    23    -0.087638
    24    -0.551825
    25    -0.139222
    26    -0.136509
    27    -0.753262
    28     0.070071
    29     0.054434
    30    -0.011088
Sym=    15a
Ene=   -0.132225E-02
Spin= Alpha
Occup= 0.000938
     1     0.010386
     2     0.061705
     3    -0.013215
     4     0.007308
     5    -0.000516
     6    -0.023428
     7     0.003946
     8     0.000817
     9    -0.052581
    10     0.463343
    11    -0.486147
    12    -0.008663
    13     0.380239
    14     0.008195
    15    -0.003711
    16     0.010470
    17     0.062663
    18    -0.021091
    19     0.012718
    20    -0.004509
    21     0.024421
    22     0.011878
    23    -0.004698
    24     0.056864
    25     0.465690
    26    -0.489143
    27    -0.007673
    28     0.379569
    29    -0.002353
    30    -0.000735
Sym=    16a
Ene=   -0.140318E-02
Spin= Alpha
Occup= 0.001002
     1    -0.024256
     2    -0.144468
     3     0.036775
     4     0.005538
     5    -0.001388
     6     0.055649
     7     0.006905
     8    -0.001828
     9     0.127260
    10     0.357038
    11    -0.301609
    12     0.017095
    13    -0.540764
    14    -0.006402
    15     0.001319
    16    -0.024286
    17    -0.145121
    18     0.043496
    19     0.001049
    20     0.000797
    21    -0.056507
    22     0.001192
    23     0.001285
    24    -0.130948
    25     0.359355
    26    -0.303538
    27     0.016243
    28    -0.542380
    29     0.000939
    30     0.001380
Sym=    17a
Ene=   -0.202373E-02
Spin= Alpha
Occup= 0.001380
     1    -0.000372
     2     0.001241
     3    -0.024987
     4    -0.016791
     5    -0.023371
     6    -0.005752
     7     0.002256
     8     0.009660
     9    -0.014701
    10    -0.000623
    11    -0.005835
    12     0.011734
    13     0.006246
    14    -0.539897
    15    -0.854479
    16    -0.000277
    17    -0.005254
    18     0.026380
    19    -0.302420
    20    -0.480420
    21    -0.006037
    22    -0.185782
    23    -0.298749
    24    -0.013603
    25     0.000280
    26     0.002328
    27    -0.005445
    28    -0.002965
    29    -0.121655
    30    -0.192332
Sym=    18a
Ene=   -0.202878E-02
Spin= Alpha
Occup= 0.001388
     1    -0.003343
     2    -0.063697
     3     0.320197
     4    -0.480299
     5     0.303315
     6     0.075830
     7    -0.305948
     8     0.193872
     9     0.164011
    10     0.010526
    11     0.020000
    12    -0.065888
    13    -0.007746
    14     0.184080
    15    -0.115864
    16    -0.005429
    17     0.013076
    18    -0.308816
    19    -0.021846
    20     0.013890
    21     0.071534
    22     0.018120
    23    -0.011753
    24     0.179287
    25    -0.024341
    26    -0.048052
    27     0.148667
    28     0.004846
    29     0.844948
    30    -0.532268
Sym=    19a
Ene=   -0.670636E-03
Spin= Alpha
Occup= 0.000308
     1    -0.002673
     2    -0.021923
     3     0.063839
     4     0.016110
     5    -0.004199
     6     0.031559
     7     0.025719
     8    -0.009292
     9     0.028751
    10    -0.114579
    11     0.162717
    12    -0.053747
    13    -0.733514
    14    -0.032338
    15     0.011503
    16     0.003220
    17     0.035998
    18    -0.074929
    19    -0.025580
    20     0.009997
    21     0.041106
    22    -0.030706
    23     0.012240
    24     0.046851
    25     0.125257
    26    -0.153846
    27     0.043073
    28     0.732092
    29    -0.018176
    30     0.002444
Sym=    20a
Ene=   -0.135170E-03
Spin= Alpha
Occup= 0.000008
     1    -0.000729
     2     0.006503
     3    -0.000865
     4    -0.008856
     5     0.003488
     6    -0.012399
     7    -0.011354
     8     0.004317
     9    -0.007228
    10     0.641439
    11    -0.633238
    12     0.007380
    13    -0.162547
    14     0.010524
    15    -0.004924
    16    -0.000113
    17     0.003539
    18    -0.012284
    19     0.008324
    20    -0.003652
    21    -0.001957
    22     0.011008
    23    -0.004372
    24     0.013397
    25    -0.624811
    26     0.643038
    27    -0.015493
    28     0.160615
    29     0.011083
    30    -0.004541
Sym=    21a
Ene=   -0.553697E-04
Spin= Alpha
Occup= 0.000003
     1     0.001384
     2    -0.022310
     3    -0.009662
     4    -0.293351
     5    -0.342032
     6     0.028863
     7    -0.842775
     8    -0.977782
     9     0.018495
    10    -0.019705
    11    -0.015593
    12    -0.003729
    13    -0.001198
    14    -0.289390
    15    -0.334575
    16     0.001791
    17    -0.013439
    18     0.057755
    19     0.303585
    20     0.350746
    21    -0.008332
    22     0.851299
    23     0.985186
    24    -0.055190
    25    -0.029486
    26    -0.031575
    27     0.032710
    28     0.005405
    29    -0.293163
    30    -0.337285
Sym=    22a
Ene=   -0.251439E-02
Spin= Alpha
Occup= 0.002772
     1     0.000252
     2     0.001873
     3     0.001168
     4    -0.155010
     5    -0.529530
     6    -0.001808
     7    -0.167339
     8    -0.564019
     9    -0.003883
    10     0.000228
    11    -0.001784
    12     0.000743
    13    -0.001140
    14     0.071428
    15     0.247430
    16     0.000429
    17     0.003050
    18    -0.002164
    19    -0.149657
    20    -0.524839
    21     0.001964
    22    -0.155572
    23    -0.553100
    24     0.004968
    25    -0.000108
    26    -0.001904
    27     0.001251
    28    -0.001724
    29    -0.072213
    30    -0.248845
Sym=    23a
Ene=   -0.251439E-02
Spin= Alpha
Occup= 0.002772
     1    -0.001909
     2    -0.013814
     3     0.005038
     4    -0.528182
     5     0.150720
     6     0.008068
     7    -0.560955
     8     0.157865
     9     0.019794
    10     0.009128
    11    -0.002787
    12    -0.003925
    13     0.000448
    14     0.247564
    15    -0.071641
    16    -0.002014
    17    -0.014402
    18     0.005975
    19    -0.526095
    20     0.154097
    21    -0.007829
    22    -0.555886
    23     0.164943
    24    -0.019712
    25     0.009440
    26    -0.003122
    27    -0.003895
    28     0.002070
    29    -0.248374
    30     0.071555
Sym=    24a
Ene=   -0.202239E-02
Spin= Alpha
Occup= 0.001383
     1    -0.005507
     2     0.012529
     3    -0.309846
     4    -0.020757
     5     0.011027
     6    -0.071795
     7     0.017549
     8    -0.015033
     9    -0.178551
    10    -0.020616
    11    -0.053441
    12     0.151150
    13     0.026210
    14    -0.844560
    15     0.533901
    16    -0.003527
    17    -0.065887
    18     0.322892
    19    -0.478905
    20     0.303889
    21    -0.077365
    22    -0.303948
    23     0.195193
    24    -0.165724
    25     0.009121
    26     0.020984
    27    -0.066652
    28    -0.016017
    29    -0.186921
    30     0.118141
Sym=    25a
Ene=   -0.108683E-01
Spin= Alpha
Occup= 0.014984
     1    -0.027864
     2    -0.033611
     3    -0.243397
     4     0.000277
     5    -0.000023
     6     0.080797
     7     0.000548
     8    -0.000228
     9    -0.095614
    10    -0.003434
    11    -0.002939
    12     0.000589
    13     0.001786
    14     0.000036
    15    -0.000024
    16    -0.264223
    17    -1.384023
    18     1.466325
    19     0.000224
    20     0.000092
    21     0.654179
    22    -0.000030
    23     0.000257
    24     0.467202
    25     0.144244
    26     0.145321
    27    -0.065092
    28     0.002264
    29     0.000157
    30    -0.000057
Sym=    26a
Ene=   -0.347470E-02
Spin= Alpha
Occup= 0.002158
     1    -0.054861
     2    -0.267115
     3     0.027103
     4    -0.014727
     5     0.006909
     6     0.168316
     7    -0.003934
     8     0.000929
     9     0.521077
    10     0.269380
    11     0.300265
    12    -0.399709
    13     0.085689
    14    -0.037641
    15     0.020278
    16    -0.054827
    17    -0.266862
    18     0.026038
    19    -0.013534
    20     0.007058
    21    -0.168143
    22    -0.001900
    23     0.001143
    24    -0.520513
    25     0.268673
    26     0.300725
    27    -0.399489
    28     0.083388
    29     0.038424
    30    -0.020402
Sym=    27a
Ene=   -0.101275E-03
Spin= Alpha
Occup= 0.000006
     1     0.037239
     2    -0.492157
     3     0.397076
     4     0.063275
     5    -0.014247
     6     0.890601
     7     0.086191
     8     0.007152
     9     0.577044
    10    -0.158993
    11    -0.172739
    12    -0.699319
    13     0.056030
    14    -0.043487
    15     0.040247
    16     0.010830
    17    -0.092594
    18     0.366400
    19    -0.040999
    20     0.002978
    21     0.287063
    22    -0.070303
    23    -0.015369
    24    -0.616099
    25    -0.619311
    26    -0.577102
    27     1.168972
    28     0.023235
    29    -0.061298
    30     0.048615
Sym=    28a
Ene=   -0.234872E-02
Spin= Alpha
Occup= 0.000137
     1    -0.023316
     2    -0.241434
     3     0.169914
     4     0.002134
     5    -0.001222
     6     0.315299
     7    -0.001449
     8     0.000444
     9    -0.010683
    10    -0.061295
    11    -0.053852
    12    -0.087628
    13     0.011987
    14     0.009278
    15    -0.004904
    16    -0.818938
    17    -3.100013
    18    -0.499787
    19     0.008722
    20    -0.004543
    21     0.090311
    22     0.008174
    23    -0.004077
    24    -0.176130
    25     1.528527
    26     1.532749
    27     1.813049
    28     0.020620
    29    -0.003165
    30     0.001489
Sym=    29a
Ene=    0.000000E+00
Spin= Alpha
Occup= 0.000000
     1     0.013530
     2    -0.185214
     3     8.383864
     4     0.115803
     5    -0.096414
     6    -0.057970
     7     0.293440
     8    -0.255855
     9     4.554977
    10    -0.287173
    11    -0.292967
    12     0.457312
    13     0.009752
    14     0.063039
    15    -0.068817
    16    -0.012901
    17     0.178928
    18    -8.375030
    19    -0.115344
    20     0.096193
    21    -0.064642
    22    -0.293119
    23     0.255672
    24     4.541647
    25     0.278562
    26     0.283990
    27    -0.452323
    28    -0.008077
    29     0.062654
    30    -0.068761
Sym=    30a
Ene=    0.000000E+00
Spin= Alpha
Occup= 0.000000
     1     0.002760
     2    -0.068167
     3     2.540151
     4    -0.320962
     5     0.279121
     6     0.018718
     7    -0.932592
     8     0.804705
     9     1.367961
    10    -0.055232
    11    -0.045855
    12     0.056606
    13    -0.008318
    14    -0.344680
    15     0.291044
    16    -0.004594
    17     0.086330
    18    -2.565886
    19     0.320192
    20    -0.277880
    21     0.038012
    22     0.932023
    23    -0.803590
    24     1.406557
    25     0.079924
    26     0.072262
    27    -0.070950
    28     0.002102
    29    -0.344133
    30     0.290860
