[Molden Format]
p30-5 set                                                                       
[Atoms] AU
 C        1     6        0.0000        0.0000        0.0000
 H        2     1       -1.1922        1.1922        1.1922
 H        3     1        1.1922       -1.1922        1.1922
 H        4     1       -1.1922       -1.1922       -1.1922
 H        5     1        1.1922        1.1922       -1.1922
[GTO]
    1 0
s    5 1.00
    1238.401693800000  0.551736504811E-02
     186.290049920000  0.410888285559E-01
      42.251176346000  0.182253821265E+00
      11.676557932000  0.468284594374E+00
       3.593050648200  0.445758173360E+00
s    1 1.00
       0.402451473630  0.100000000000E+01
s    1 1.00
       0.130901826680  0.100000000000E+01
p    3 1.00
       9.468097062100  0.568883320110E-01
       2.010354514200  0.312940593365E+00
       0.547710047070  0.760650165091E+00
p    1 1.00
       0.152686137950  0.100000000000E+01
d    1 1.00
       0.800000000000  0.100000000000E+01
 
    2 0
s    3 1.00
      13.010701000000  0.334854848130E-01
       1.962257200000  0.234721870881E+00
       0.444537960000  0.813770285260E+00
s    1 1.00
       0.121949620000  0.100000000000E+01
p    1 1.00
       0.800000000000  0.100000000000E+01
 
    3 0
s    3 1.00
      13.010701000000  0.334854848130E-01
       1.962257200000  0.234721870881E+00
       0.444537960000  0.813770285260E+00
s    1 1.00
       0.121949620000  0.100000000000E+01
p    1 1.00
       0.800000000000  0.100000000000E+01
 
    4 0
s    3 1.00
      13.010701000000  0.334854848130E-01
       1.962257200000  0.234721870881E+00
       0.444537960000  0.813770285260E+00
s    1 1.00
       0.121949620000  0.100000000000E+01
p    1 1.00
       0.800000000000  0.100000000000E+01
 
    5 0
s    3 1.00
      13.010701000000  0.334854848130E-01
       1.962257200000  0.234721870881E+00
       0.444537960000  0.813770285260E+00
s    1 1.00
       0.121949620000  0.100000000000E+01
p    1 1.00
       0.800000000000  0.100000000000E+01
 
[MO]
Sym=     1a
Ene=   -0.112217E+02
Spin= Alpha
Occup= 1.999728
     1     0.994592
     2     0.027716
     3    -0.031928
     4     0.000010
     5    -0.000002
     6    -0.000019
     7    -0.000000
     8    -0.000001
     9    -0.000013
    10     0.003275
    11     0.003267
    12     0.003274
    13     0.000001
    14    -0.000001
    15     0.000002
    16    -0.004166
    17     0.005560
    18    -0.001271
    19     0.001273
    20     0.001271
    21    -0.004156
    22     0.005557
    23     0.001272
    24    -0.001277
    25     0.001273
    26    -0.004135
    27     0.005557
    28    -0.001270
    29    -0.001269
    30    -0.001271
    31    -0.004129
    32     0.005571
    33     0.001270
    34     0.001272
    35    -0.001271
Sym=     2a
Ene=   -0.663891E+00
Spin= Alpha
Occup= 1.970323
     1    -0.111299
     2     0.213209
     3     0.053747
     4    -0.215090
     5     0.215105
     6     0.214736
     7    -0.090451
     8     0.090431
     9     0.090231
    10     0.013135
    11     0.013173
    12     0.013174
    13    -0.012991
    14    -0.012948
    15     0.012969
    16     0.436158
    17     0.166766
    18     0.012807
    19    -0.012826
    20    -0.012838
    21    -0.024890
    22    -0.028777
    23    -0.005456
    24     0.005460
    25     0.005073
    26    -0.024529
    27    -0.028631
    28    -0.005066
    29     0.005500
    30     0.005504
    31    -0.024532
    32    -0.028652
    33    -0.005493
    34     0.005049
    35     0.005507
Sym=     3a
Ene=   -0.663942E+00
Spin= Alpha
Occup= 1.970312
     1     0.111364
     2    -0.213318
     3    -0.053756
     4    -0.214664
     5     0.214931
     6    -0.215204
     7    -0.090220
     8     0.090380
     9    -0.090513
    10    -0.013187
    11    -0.013176
    12    -0.013144
    13     0.012957
    14    -0.012929
    15     0.012992
    16     0.024326
    17     0.028549
    18    -0.005513
    19     0.005504
    20    -0.005057
    21    -0.436152
    22    -0.166740
    23     0.012852
    24    -0.012844
    25     0.012819
    26     0.024589
    27     0.028684
    28    -0.005504
    29     0.005053
    30    -0.005490
    31     0.024879
    32     0.028790
    33    -0.005077
    34     0.005447
    35    -0.005456
Sym=     4a
Ene=   -0.663970E+00
Spin= Alpha
Occup= 1.970308
     1    -0.111422
     2     0.213346
     3     0.053791
     4    -0.214808
     5    -0.214871
     6    -0.215103
     7    -0.090277
     8    -0.090319
     9    -0.090466
    10     0.013196
    11     0.013177
    12     0.013146
    13     0.012954
    14     0.012922
    15     0.012977
    16    -0.024693
    17    -0.028721
    18    -0.005062
    19    -0.005459
    20    -0.005463
    21    -0.024628
    22    -0.028691
    23    -0.005508
    24    -0.005044
    25    -0.005485
    26     0.436135
    27     0.166757
    28     0.012862
    29     0.012853
    30     0.012829
    31    -0.024440
    32    -0.028624
    33    -0.005507
    34    -0.005493
    35    -0.005069
Sym=     5a
Ene=   -0.663912E+00
Spin= Alpha
Occup= 1.970307
     1    -0.111404
     2     0.213284
     3     0.053731
     4     0.215207
     5     0.214873
     6    -0.214759
     7     0.090503
     8     0.090328
     9    -0.090251
    10     0.013145
    11     0.013183
    12     0.013205
    13     0.012975
    14    -0.012919
    15    -0.012953
    16    -0.024678
    17    -0.028712
    18     0.005481
    19     0.005046
    20    -0.005501
    21    -0.024358
    22    -0.028566
    23     0.005067
    24     0.005503
    25    -0.005510
    26    -0.024831
    27    -0.028770
    28     0.005451
    29     0.005451
    30    -0.005071
    31     0.436142
    32     0.166786
    33    -0.012821
    34    -0.012857
    35     0.012864
Sym=     6a
Ene=   -0.151042E-01
Spin= Alpha
Occup= 0.020894
     1     0.154791
     2    -0.650675
     3     0.085735
     4    -0.486815
     5    -0.486938
     6     0.487318
     7    -0.048047
     8    -0.049093
     9     0.046921
    10    -0.021880
    11    -0.021839
    12    -0.022270
    13    -0.051298
    14     0.052734
    15     0.052662
    16     0.015991
    17    -0.031516
    18     0.005675
    19    -0.000178
    20    -0.004979
    21     0.015980
    22    -0.032961
    23    -0.000826
    24     0.005473
    25    -0.005257
    26     0.014053
    27    -0.031953
    28     0.005618
    29     0.005467
    30     0.000031
    31     0.914005
    32     0.203532
    33     0.025206
    34     0.027313
    35    -0.027919
Sym=     7a
Ene=   -0.151141E-01
Spin= Alpha
Occup= 0.020911
     1     0.154813
     2    -0.650498
     3     0.085248
     4     0.487228
     5     0.486734
     6     0.486746
     7     0.047064
     8     0.048996
     9     0.048561
    10    -0.021902
    11    -0.021661
    12    -0.021947
    13    -0.052577
    14    -0.052630
    15    -0.051315
    16     0.014116
    17    -0.032094
    18    -0.000047
    19    -0.005475
    20    -0.005425
    21     0.015765
    22    -0.031668
    23    -0.004949
    24     0.000177
    25    -0.005449
    26     0.914154
    27     0.203585
    28    -0.028106
    29    -0.027327
    30    -0.025439
    31     0.016272
    32    -0.032746
    33    -0.005256
    34    -0.005447
    35     0.000690
Sym=     8a
Ene=   -0.464374E-02
Spin= Alpha
Occup= 0.005171
     1    -0.001384
     2    -0.126125
     3     1.059826
     4     0.038786
     5    -0.040587
     6     0.039241
     7     0.255321
     8    -0.251727
     9     0.252530
    10     0.014976
    11     0.021810
    12     0.024125
    13     0.115135
    14    -0.108701
    15     0.112075
    16    -0.148190
    17    -0.237228
    18    -0.032968
    19     0.029565
    20    -0.008527
    21    -1.143799
    22     0.680702
    23     0.219822
    24    -0.223123
    25     0.219842
    26    -0.152180
    27    -0.234991
    28    -0.032584
    29     0.006122
    30    -0.031897
    31    -0.148831
    32    -0.240301
    33    -0.007948
    34     0.031200
    35    -0.031470
Sym=     9a
Ene=   -0.150906E-01
Spin= Alpha
Occup= 0.020872
     1    -0.154769
     2     0.650282
     3    -0.084408
     4    -0.486889
     5     0.486582
     6     0.487494
     7    -0.048770
     8     0.049432
     9     0.047359
    10     0.022090
    11     0.021667
    12     0.022325
    13    -0.050897
    14    -0.053019
    15     0.052609
    16    -0.915101
    17    -0.203432
    18     0.025538
    19    -0.026800
    20    -0.027564
    21    -0.014319
    22     0.031866
    23     0.005434
    24    -0.005402
    25    -0.000046
    26    -0.016321
    27     0.032683
    28    -0.000593
    29    -0.005371
    30    -0.005367
    31    -0.016014
    32     0.031690
    33     0.005552
    34     0.000368
    35    -0.005122
Sym=    10a
Ene=   -0.346168E-02
Spin= Alpha
Occup= 0.000264
     1    -0.977196
     2     4.485221
     3    -1.428137
     4     0.002110
     5    -0.004733
     6    -0.000937
     7    -0.004127
     8     0.005187
     9     0.000063
    10    -1.872853
    11    -1.877940
    12    -1.873643
    13     0.000080
    14     0.001574
    15     0.002696
    16     0.200463
    17     0.252368
    18     0.058058
    19    -0.057807
    20    -0.058340
    21     0.202534
    22     0.255692
    23    -0.055864
    24     0.052865
    25    -0.054837
    26     0.200276
    27     0.253287
    28     0.055315
    29     0.053158
    30     0.055046
    31     0.203524
    32     0.251767
    33    -0.056985
    34    -0.056092
    35     0.056681
Sym=    11a
Ene=   -0.464990E-02
Spin= Alpha
Occup= 0.005189
     1    -0.001563
     2    -0.124859
     3     1.055711
     4     0.040669
     5     0.041637
     6    -0.038863
     7     0.251477
     8     0.251562
     9    -0.256287
    10     0.026991
    11     0.019976
    12     0.013924
    13    -0.109594
    14     0.105670
    15     0.115162
    16    -0.151656
    17    -0.234490
    18    -0.031408
    19    -0.005502
    20     0.032172
    21    -0.145863
    22    -0.237022
    23    -0.009092
    24    -0.029315
    25     0.032959
    26    -0.148052
    27    -0.240625
    28    -0.030611
    29    -0.030310
    30     0.007393
    31    -1.146822
    32     0.683653
    33     0.219086
    34     0.223707
    35    -0.220923
Sym=    12a
Ene=   -0.193981E-02
Spin= Alpha
Occup= 0.001635
     1     0.000035
     2     0.000380
     3    -0.000720
     4     0.248798
     5    -0.218605
     6    -0.028350
     7    -0.143089
     8     0.124285
     9     0.015017
    10     0.234912
    11    -0.205513
    12    -0.027283
    13     0.018882
    14     0.161865
    15    -0.177966
    16     0.333941
    17    -0.560498
    18     0.142873
    19     0.010866
    20    -0.001315
    21    -0.297931
    22     0.498287
    23    -0.014413
    24    -0.126573
    25     0.007909
    26    -0.004656
    27     0.003851
    28    -0.632232
    29     0.559178
    30     0.073692
    31    -0.035383
    32     0.060613
    33    -0.018513
    34     0.018585
    35    -0.018250
Sym=    13a
Ene=   -0.151162E-01
Spin= Alpha
Occup= 0.020913
     1    -0.154651
     2     0.649742
     3    -0.084238
     4     0.487204
     5    -0.486503
     6     0.486622
     7     0.047632
     8    -0.049839
     9     0.048898
    10     0.022450
    11     0.021874
    12     0.021989
    13    -0.052744
    14     0.052920
    15    -0.050696
    16    -0.015952
    17     0.032751
    18    -0.005363
    19     0.005532
    20     0.000737
    21    -0.915045
    22    -0.203601
    23    -0.027767
    24     0.026927
    25    -0.025890
    26    -0.016067
    27     0.031670
    28    -0.005102
    29    -0.000411
    30    -0.005553
    31    -0.013852
    32     0.031575
    33     0.000014
    34     0.005468
    35    -0.005460
Sym=    14a
Ene=   -0.464945E-02
Spin= Alpha
Occup= 0.005186
     1     0.001186
     2     0.128138
     3    -1.062400
     4     0.037331
     5    -0.038009
     6    -0.037573
     7     0.255018
     8    -0.254995
     9    -0.256146
    10    -0.023986
    11    -0.021146
    12    -0.015321
    13    -0.111204
    14    -0.109788
    15     0.116273
    16     1.143218
    17    -0.678043
    18     0.217710
    19    -0.220935
    20    -0.218347
    21     0.149944
    22     0.238005
    23    -0.031700
    24     0.031842
    25     0.007701
    26     0.147739
    27     0.237821
    28    -0.008760
    29     0.030064
    30     0.032791
    31     0.151764
    32     0.235816
    33    -0.032378
    34     0.006472
    35     0.031973
Sym=    15a
Ene=   -0.594230E-05
Spin= Alpha
Occup= 0.000001
     1    -0.001946
     2    -0.023015
     3     0.243410
     4    -0.084751
     5     0.034850
     6     0.141916
     7    -0.945093
     8     0.666500
     9     2.259011
    10    -0.010060
    11    -0.002751
    12    -0.018891
    13    -0.395048
    14    -0.113169
    15     0.173507
    16    -0.405223
    17    -2.329452
    18    -0.408129
    19     0.449009
    20     0.203200
    21    -0.071620
    22    -0.430720
    23     0.238103
    24    -0.190007
    25    -0.265991
    26     0.195826
    27     1.078058
    28     0.414193
    29     0.160917
    30    -0.096390
    31     0.259453
    32     1.431495
    33    -0.217887
    34    -0.475366
    35     0.005825
Sym=    16a
Ene=   -0.242399E-03
Spin= Alpha
Occup= 0.000137
     1    -0.007421
     2    -0.127814
     3     0.191732
     4    -0.264419
     5    -0.135801
     6     0.296363
     7     0.212254
     8     0.267935
     9     0.030435
    10    -0.106607
    11    -0.640013
    12     0.369275
    13    -0.833286
    14    -0.486475
    15     0.018670
    16    -0.450422
    17     0.102809
    18    -0.012979
    19     0.349900
    20     0.073708
    21    -0.071294
    22     0.015510
    23    -0.054619
    24    -0.012932
    25     0.025397
    26     0.568083
    27    -0.134908
    28     0.010172
    29    -0.037402
    30     0.450915
    31     0.168744
    32    -0.059315
    33    -0.295375
    34     0.061737
    35     0.712016
Sym=    17a
Ene=   -0.199299E-02
Spin= Alpha
Occup= 0.001679
     1     0.000603
     2    -0.006588
     3     0.007060
     4    -0.108031
     5    -0.158532
     6     0.273971
     7     0.064904
     8     0.093859
     9    -0.154528
    10    -0.106227
    11    -0.154513
    12     0.255052
    13    -0.198633
    14     0.121674
    15     0.081961
    16    -0.147952
    17     0.247521
    18    -0.062650
    19     0.010770
    20    -0.017113
    21    -0.213458
    22     0.354581
    23     0.010454
    24    -0.095357
    25    -0.016799
    26     0.002295
    27     0.002454
    28     0.284234
    29     0.408649
    30    -0.682570
    31     0.363233
    32    -0.607229
    33    -0.000513
    34     0.001588
    35     0.156164
Sym=    18a
Ene=   -0.194177E-02
Spin= Alpha
Occup= 0.001638
     1     0.000034
     2    -0.001007
     3     0.004113
     4    -0.262331
     5    -0.195387
     6     0.068320
     7     0.152905
     8     0.114188
     9    -0.039248
    10     0.245468
    11    -0.182053
    12    -0.063469
    13    -0.047807
    14     0.143144
    15     0.188288
    16    -0.088643
    17     0.148367
    18     0.018714
    19     0.016553
    20     0.039682
    21    -0.005005
    22     0.004815
    23     0.666499
    24     0.493876
    25    -0.171141
    26    -0.263299
    27     0.441959
    28     0.015771
    29    -0.111544
    30    -0.009257
    31     0.352019
    32    -0.595800
    33    -0.150769
    34     0.007200
    35     0.000089
Sym=    19a
Ene=   -0.252275E-03
Spin= Alpha
Occup= 0.000162
     1    -0.020841
     2    -0.346724
     3     0.456210
     4     0.526589
     5    -0.427774
     6    -0.569394
     7    -0.303646
     8     0.289482
     9     0.497063
    10    -0.140903
    11    -0.207564
    12    -0.700985
    13    -0.068235
    14     0.040580
    15    -0.336853
    16     0.214154
    17    -0.043948
    18     0.861449
    19    -0.736273
    20    -0.534107
    21    -0.010622
    22    -0.030207
    23    -0.084315
    24     0.155422
    25     0.031650
    26     0.312589
    27    -0.070619
    28     0.252977
    29     0.115271
    30    -0.052708
    31     0.094938
    32     0.013256
    33    -0.008227
    34    -0.096018
    35    -0.089409
Sym=    20a
Ene=   -0.318035E-05
Spin= Alpha
Occup= 0.000000
     1     0.056822
     2     0.627981
     3    -6.656432
     4    -0.030628
     5     0.014631
     6    -0.026450
     7    -0.520383
     8     0.466908
     9    -0.251390
    10     0.318714
    11     0.286432
    12     0.311755
    13     0.047737
    14    -0.067984
    15     0.093963
    16     0.068994
    17     1.293402
    18     0.084934
    19    -0.068101
    20     0.038527
    21     0.265326
    22     2.434024
    23    -0.190095
    24     0.181787
    25    -0.228923
    26     0.102153
    27     1.527552
    28     0.128108
    29    -0.042215
    30     0.083922
    31     0.125448
    32     1.592882
    33     0.010911
    34    -0.133807
    35     0.106886
Sym=    21a
Ene=   -0.193894E-02
Spin= Alpha
Occup= 0.001633
     1    -0.000010
     2    -0.001050
     3     0.003962
     4     0.056450
     5     0.202549
     6     0.258731
     7    -0.032044
     8    -0.116278
     9    -0.149502
    10    -0.051652
    11    -0.191028
    12     0.241918
    13    -0.185072
    14    -0.149251
    15    -0.039412
    16    -0.274764
    17     0.460013
    18    -0.007834
    19     0.116483
    20    -0.015813
    21    -0.072089
    22     0.120983
    23     0.033013
    24    -0.017858
    25    -0.019037
    26     0.347319
    27    -0.585129
    28     0.001238
    29    -0.008204
    30     0.148798
    31    -0.004673
    32     0.003527
    33    -0.140982
    34    -0.516146
    35    -0.657082
Sym=    22a
Ene=   -0.464801E-02
Spin= Alpha
Occup= 0.005179
     1    -0.001552
     2    -0.125068
     3     1.057760
     4    -0.039532
     5    -0.042202
     6    -0.039546
     7    -0.254783
     8    -0.250531
     9    -0.253508
    10     0.014205
    11     0.021271
    12     0.025557
    13    -0.116921
    14    -0.106761
    15    -0.110075
    16    -0.149265
    17    -0.239214
    18     0.007245
    19     0.030588
    20     0.031198
    21    -0.152450
    22    -0.233646
    23     0.032224
    24     0.005871
    25     0.032684
    26    -1.145292
    27     0.681744
    28    -0.221591
    29    -0.223720
    30    -0.219031
    31    -0.146240
    32    -0.239189
    33     0.032563
    34     0.028913
    35     0.009631
Sym=    23a
Ene=   -0.200037E-02
Spin= Alpha
Occup= 0.001688
     1    -0.000339
     2     0.002462
     3     0.001244
     4    -0.070372
     5     0.188531
     6     0.264860
     7     0.041047
     8    -0.108383
     9    -0.149377
    10     0.070179
    11     0.181368
    12    -0.250014
    13    -0.192309
    14    -0.143832
    15     0.053852
    16    -0.353627
    17     0.588055
    18    -0.000980
    19    -0.005781
    20     0.150306
    21     0.000284
    22    -0.003383
    23     0.189526
    24    -0.483875
    25    -0.666792
    26     0.253735
    27    -0.422484
    28     0.010350
    29     0.112196
    30    -0.014951
    31     0.097915
    32    -0.165726
    33    -0.041111
    34    -0.012321
    35    -0.017089
Sym=    24a
Ene=   -0.199920E-02
Spin= Alpha
Occup= 0.001687
     1     0.000315
     2    -0.002713
     3     0.000700
     4     0.258547
     5     0.208586
     6     0.044611
     7    -0.147210
     8    -0.122531
     9    -0.026840
    10     0.242942
    11    -0.199833
    12    -0.045180
    13    -0.034011
    14    -0.158405
    15    -0.188142
    16     0.000342
    17     0.003355
    18    -0.645340
    19    -0.529934
    20    -0.121235
    21    -0.062375
    22     0.104947
    23    -0.016360
    24    -0.012983
    25     0.026047
    26     0.342610
    27    -0.572252
    28     0.147357
    29    -0.005642
    30     0.003280
    31    -0.279313
    32     0.465948
    33    -0.013244
    34     0.124209
    35    -0.008898
Sym=    25a
Ene=   -0.445419E-05
Spin= Alpha
Occup= 0.000000
     1    -0.015017
     2    -0.181349
     3     1.982220
     4    -0.108955
     5     0.041368
     6    -0.074997
     7    -1.762580
     8     1.255311
     9    -1.135256
    10    -0.065001
    11    -0.077252
    12    -0.086910
    13     0.185488
    14    -0.184589
    15     0.309020
    16    -0.235177
    17    -1.594550
    18    -0.004150
    19     0.080494
    20     0.475438
    21     0.362995
    22     1.905704
    23    -0.266016
    24     0.333408
    25    -0.351427
    26    -0.224070
    27    -1.485981
    28     0.000594
    29    -0.488369
    30    -0.102295
    31    -0.094298
    32    -0.877552
    33     0.389090
    34    -0.089557
    35     0.065065
Sym=    26a
Ene=   -0.257381E-03
Spin= Alpha
Occup= 0.000161
     1     0.023355
     2     0.333228
     3    -0.401909
     4     0.409099
     5     0.308871
     6    -0.530825
     7    -0.191155
     8    -0.195601
     9     0.515004
    10     0.032191
    11     0.220508
    12     0.817446
    13    -0.196500
    14     0.080235
    15    -0.254589
    16    -0.132948
    17    -0.017250
    18    -0.098182
    19     0.061294
    20    -0.082539
    21    -0.379578
    22     0.061761
    23     0.275690
    24    -0.170577
    25    -0.044801
    26    -0.008979
    27     0.074213
    28    -0.211206
    29    -0.246598
    30     0.059201
    31    -0.100957
    32    -0.048194
    33     0.811416
    34     0.628254
    35    -0.396904
Sym=    27a
Ene=   -0.234973E-03
Spin= Alpha
Occup= 0.000132
     1    -0.014126
     2    -0.190613
     3     0.289266
     4     0.382947
     5     0.174085
     6     0.313407
     7    -0.055763
     8    -0.280618
     9    -0.208331
    10     0.169823
    11    -0.710495
    12    -0.070675
    13    -0.077257
    14     0.490314
    15    -0.795050
    16     0.560689
    17    -0.160899
    18     0.439153
    19    -0.012818
    20    -0.082929
    21    -0.423819
    22     0.096573
    23     0.092803
    24    -0.333903
    25    -0.035473
    26     0.201108
    27    -0.043869
    28     0.760631
    29     0.039617
    30     0.455294
    31     0.003490
    32     0.004365
    33     0.039827
    34    -0.016640
    35     0.133156
Sym=    28a
Ene=   -0.251345E-03
Spin= Alpha
Occup= 0.000142
     1     0.012540
     2     0.113977
     3    -0.112767
     4     0.100845
     5    -0.051898
     6     0.076811
     7    -0.333192
     8    -0.112192
     9     0.046592
    10     0.839445
    11    -0.332861
    12    -0.061574
    13    -0.221015
    14     0.246571
    15     0.759936
    16    -0.354859
    17     0.083375
    18    -0.005345
    19     0.167077
    20     0.184180
    21     0.057413
    22    -0.098130
    23    -0.297855
    24    -0.422727
    25     0.322617
    26    -0.379701
    27     0.042820
    28     0.002714
    29    -0.280216
    30    -0.056376
    31     0.421846
    32    -0.049985
    33    -0.380666
    34     0.223699
    35    -0.121199
Sym=    29a
Ene=   -0.236798E-03
Spin= Alpha
Occup= 0.000133
     1    -0.003970
     2    -0.105675
     3     0.202342
     4     0.245324
     5    -0.178632
     6    -0.302620
     7    -0.237640
     8     0.253970
     9    -0.038325
    10    -0.175353
    11    -0.588602
    12     0.496445
    13     0.901790
    14    -0.251534
    15     0.095184
    16     0.223571
    17    -0.113271
    18     0.195877
    19     0.005680
    20    -0.743413
    21     0.531698
    22    -0.126883
    23     0.020025
    24    -0.131834
    25    -0.482613
    26    -0.246755
    27     0.060915
    28    -0.047648
    29    -0.111638
    30    -0.041453
    31    -0.360776
    32     0.058000
    33     0.034885
    34     0.285247
    35    -0.077754
Sym=    30a
Ene=   -0.504664E-05
Spin= Alpha
Occup= 0.000000
     1     0.000928
     2     0.016953
     3    -0.200628
     4    -0.077386
     5    -0.050472
     6    -0.021054
     7    -1.482987
     8    -2.105722
     9    -0.005740
    10    -0.019559
    11     0.004280
    12     0.025589
    13     0.009481
    14     0.297030
    15     0.239489
    16     0.055944
    17     0.408793
    18     0.310598
    19     0.267215
    20    -0.087929
    21    -0.037534
    22    -0.277866
    23     0.299591
    24     0.297377
    25     0.042309
    26    -0.335002
    27    -2.027397
    28    -0.245807
    29    -0.128938
    30    -0.468131
    31     0.342568
    32     2.107990
    33    -0.223849
    34    -0.124168
    35     0.481005
Sym=    31a
Ene=   -0.199294E-02
Spin= Alpha
Occup= 0.001680
     1    -0.000486
     2     0.005227
     3    -0.003294
     4     0.268352
     5    -0.177931
     6     0.082798
     7    -0.149109
     8     0.102639
     9    -0.049493
    10    -0.250389
    11     0.174049
    12     0.081676
    13    -0.063436
    14     0.136978
    15    -0.194684
    16     0.241873
    17    -0.400978
    18    -0.016572
    19    -0.106635
    20    -0.008932
    21    -0.358009
    22     0.594424
    23     0.152400
    24     0.004125
    25     0.001582
    26     0.114182
    27    -0.191656
    28    -0.017613
    29     0.011922
    30     0.048260
    31    -0.002053
    32    -0.002668
    33    -0.673181
    34     0.462007
    35    -0.221135
Sym=    32a
Ene=   -0.253737E-03
Spin= Alpha
Occup= 0.000156
     1     0.020597
     2     0.296330
     3    -0.356465
     4    -0.457546
     5    -0.291832
     6    -0.461784
     7     0.480312
     8     0.133653
     9     0.241524
    10     0.825954
    11     0.025928
    12     0.097534
    13     0.365146
    14     0.049651
    15    -0.322204
    16     0.143417
    17     0.009299
    18     0.161371
    19     0.227082
    20     0.088531
    21    -0.173093
    22    -0.027362
    23    -0.082917
    24    -0.133287
    25    -0.008199
    26    -0.128320
    27    -0.028293
    28    -0.293646
    29    -0.680973
    30    -0.771319
    31    -0.395103
    32     0.108806
    33    -0.014912
    34     0.197697
    35    -0.283722
Sym=    33a
Ene=   -0.227006E-03
Spin= Alpha
Occup= 0.000137
     1    -0.025774
     2    -0.346998
     3     0.495107
     4    -0.650248
     5     0.381975
     6    -0.533419
     7     0.363221
     8    -0.310092
     9     0.323975
    10    -0.388458
    11    -0.501378
    12    -0.231495
    13     0.209225
    14     0.192412
    15     0.514694
    16     0.131891
    17    -0.032437
    18    -0.082964
    19    -0.101996
    20    -0.198546
    21     0.306264
    22    -0.035210
    23    -0.853564
    24     0.582891
    25    -0.815720
    26    -0.162164
    27     0.055998
    28    -0.147295
    29    -0.094273
    30     0.013679
    31     0.358130
    32    -0.142416
    33    -0.282641
    34    -0.143158
    35     0.118009
Sym=    34a
Ene=   -0.194168E-02
Spin= Alpha
Occup= 0.001638
     1    -0.000105
     2     0.000856
     3    -0.000354
     4    -0.094382
     5     0.174130
     6    -0.267860
     7     0.051598
     8    -0.099778
     9     0.155087
    10    -0.088700
    11    -0.162758
    12     0.252717
    13     0.193513
    14    -0.128837
    15     0.066783
    16    -0.005264
    17     0.003472
    18     0.237445
    19    -0.442317
    20     0.682058
    21     0.360397
    22    -0.604946
    23     0.002720
    24    -0.006171
    25    -0.154641
    26    -0.123776
    27     0.206787
    28    -0.055681
    29    -0.016159
    30     0.017853
    31    -0.237131
    32     0.397964
    33     0.011352
    34     0.099468
    35     0.016808
Sym=    35a
Ene=   -0.811401E-04
Spin= Alpha
Occup= 0.000006
     1     0.003818
     2     0.009977
     3    -0.028414
     4    -0.177644
     5    -0.910359
     6     0.084803
     7     0.054674
     8     0.216299
     9    -0.008437
    10    -0.302326
    11     0.057542
    12     0.323724
    13    -0.123990
    14     1.094570
    15     0.181526
    16     0.272739
    17     0.004789
    18    -0.003650
    19    -0.488481
    20    -0.253748
    21    -0.382251
    22    -0.002456
    23     0.325226
    24    -0.540003
    25     0.168915
    26    -0.417232
    27    -0.009655
    28    -0.480526
    29    -0.594660
    30    -0.157087
    31     0.489435
    32     0.015865
    33    -0.250974
    34    -0.640271
    35     0.473713
