[Molden Format]
p30-5 set                                                                       
[Atoms] AU
 P        1    15        0.0000        0.0000       -1.7936
 P        2    15        0.0000        0.0000        1.7936
[GTO]
    1 0
s    5 1.00
    8002.479510600000  0.552555527945E-02
    1203.681359000000  0.413263671710E-01
     273.442270310000  0.186070058991E+00
      76.655541517000  0.477107006766E+00
      23.516927435000  0.432247688783E+00
s    3 1.00
      39.791683439000  0.909541455125E-01
       4.277034332300 -0.550855656186E+00
       1.694025688800 -0.518269979075E+00
s    1 1.00
       0.275676746440  0.100000000000E+01
s    1 1.00
       0.104955900990  0.100000000000E+01
p    5 1.00
     219.507558230000  0.957391014006E-02
      51.274155030000  0.679938519137E-01
      15.921595892000  0.249832097533E+00
       5.506991348100  0.481481790475E+00
       1.953771942600  0.388697985432E+00
p    1 1.00
       0.478033979320  0.100000000000E+01
p    1 1.00
       0.136579526210  0.100000000000E+01
d    1 1.00
       0.450000000000  0.100000000000E+01
 
    2 0
s    5 1.00
    8002.479510600000  0.552555527945E-02
    1203.681359000000  0.413263671710E-01
     273.442270310000  0.186070058991E+00
      76.655541517000  0.477107006766E+00
      23.516927435000  0.432247688783E+00
s    3 1.00
      39.791683439000  0.909541455125E-01
       4.277034332300 -0.550855656186E+00
       1.694025688800 -0.518269979075E+00
s    1 1.00
       0.275676746440  0.100000000000E+01
s    1 1.00
       0.104955900990  0.100000000000E+01
p    5 1.00
     219.507558230000  0.957391014006E-02
      51.274155030000  0.679938519137E-01
      15.921595892000  0.249832097533E+00
       5.506991348100  0.481481790475E+00
       1.953771942600  0.388697985432E+00
p    1 1.00
       0.478033979320  0.100000000000E+01
p    1 1.00
       0.136579526210  0.100000000000E+01
d    1 1.00
       0.450000000000  0.100000000000E+01
 
[MO]
Sym=     1a
Ene=   -0.799323E+02
Spin= Alpha
Occup= 2.000000
     1     0.698367
     2    -0.014701
     3    -0.019519
     4     0.000147
     5    -0.000106
     6     0.000110
     7    -0.000420
     8    -0.000004
     9     0.000004
    10     0.000294
    11     0.000001
    12    -0.000001
    13     0.000071
    14     0.006816
    15     0.006816
    16     0.007424
    17    -0.000000
    18    -0.000000
    19     0.000000
    20    -0.710037
    21     0.014926
    22     0.019840
    23    -0.000152
    24     0.000098
    25    -0.000261
    26    -0.000364
    27     0.000004
    28    -0.000010
    29     0.000295
    30    -0.000001
    31     0.000001
    32     0.000069
    33    -0.006930
    34    -0.006931
    35    -0.007535
    36     0.000000
    37     0.000000
    38     0.000000
Sym=     2a
Ene=   -0.799323E+02
Spin= Alpha
Occup= 2.000000
     1     0.710036
     2    -0.014902
     3    -0.019581
     4     0.000310
     5    -0.000113
     6     0.000113
     7    -0.000391
     8    -0.000004
     9     0.000005
    10    -0.000087
    11     0.000000
    12    -0.000001
    13    -0.000003
    14     0.006962
    15     0.006961
    16     0.006822
    17    -0.000001
    18    -0.000000
    19     0.000000
    20     0.698377
    21    -0.014637
    22    -0.019255
    23     0.000303
    24    -0.000099
    25     0.000261
    26     0.000323
    27    -0.000005
    28     0.000011
    29     0.000089
    30     0.000001
    31    -0.000002
    32     0.000007
    33     0.006848
    34     0.006848
    35     0.006698
    36    -0.000000
    37     0.000000
    38     0.000000
Sym=     3a
Ene=   -0.590637E+01
Spin= Alpha
Occup= 1.999849
     1     0.143975
     2     0.503876
     3    -0.012360
     4     0.006369
     5    -0.196541
     6     0.125844
     7    -0.829687
     8    -0.008284
     9     0.005315
    10    -0.032138
    11     0.001326
    12    -0.000843
    13     0.009604
    14    -0.000477
    15    -0.000487
    16    -0.002225
    17     0.000001
    18    -0.000054
    19     0.000040
    20     0.000457
    21     0.003042
    22     0.004616
    23    -0.002705
    24    -0.000084
    25     0.000560
    26     0.001187
    27     0.000000
    28     0.000029
    29    -0.004411
    30    -0.000262
    31     0.000172
    32    -0.001510
    33    -0.000010
    34    -0.000018
    35     0.004019
    36    -0.000003
    37    -0.000060
    38     0.000029
Sym=     4a
Ene=   -0.590656E+01
Spin= Alpha
Occup= 1.999848
     1    -0.000465
     2    -0.003064
     3    -0.004592
     4     0.002690
     5     0.000389
     6    -0.000164
     7     0.001265
     8     0.000012
     9    -0.000018
    10    -0.004380
    11     0.000142
    12    -0.000323
    13    -0.001498
    14     0.000012
    15     0.000017
    16    -0.003994
    17    -0.000000
    18    -0.000035
    19     0.000054
    20    -0.144024
    21    -0.504014
    22     0.012328
    23    -0.006381
    24     0.110754
    25    -0.228767
    26    -0.823456
    27     0.004666
    28    -0.009666
    29    -0.031905
    30    -0.000750
    31     0.001528
    32     0.009531
    33     0.000472
    34     0.000489
    35     0.002212
    36     0.000002
    37    -0.000029
    38     0.000074
Sym=     5a
Ene=   -0.592523E+01
Spin= Alpha
Occup= 1.999830
     1     0.000184
     2     0.001096
     3     0.001275
     4    -0.000458
     5    -0.000141
     6     0.000181
     7    -0.001092
     8    -0.000011
     9    -0.000026
    10     0.001781
    11     0.000326
    12    -0.000954
    13     0.001401
    14    -0.000043
    15    -0.000045
    16     0.001256
    17     0.000002
    18    -0.000067
    19     0.000152
    20    -0.148740
    21    -0.519974
    22     0.007703
    23    -0.007211
    24     0.240294
    25    -0.645449
    26     0.504159
    27     0.010143
    28    -0.027320
    29     0.017891
    30    -0.001640
    31     0.004340
    32    -0.006177
    33     0.000301
    34     0.000338
    35    -0.000089
    36    -0.000016
    37    -0.000050
    38     0.000136
Sym=     6a
Ene=   -0.592957E+01
Spin= Alpha
Occup= 1.999826
     1    -0.149411
     2    -0.521686
     3     0.008086
     4    -0.007192
     5     0.074947
     6    -0.737437
     7    -0.420502
     8     0.003158
     9    -0.031218
    10    -0.014762
    11    -0.000518
    12     0.004954
    13     0.005164
    14     0.000302
    15     0.000356
    16     0.000046
    17    -0.000004
    18     0.000015
    19    -0.000161
    20     0.000117
    21     0.000747
    22     0.000899
    23    -0.000247
    24    -0.000059
    25     0.000218
    26     0.000708
    27    -0.000009
    28    -0.000033
    29    -0.001393
    30     0.000095
    31    -0.001092
    32    -0.001214
    33    -0.000040
    34    -0.000041
    35     0.000922
    36     0.000003
    37     0.000024
    38    -0.000173
Sym=     7a
Ene=   -0.593369E+01
Spin= Alpha
Occup= 1.999822
     1     0.149974
     2     0.523262
     3    -0.008469
     4     0.007182
     5    -0.531922
     6    -0.576513
     7     0.329952
     8    -0.022491
     9    -0.024416
    10     0.011368
    11     0.003605
    12     0.003866
    13    -0.004080
    14    -0.000335
    15    -0.000346
    16    -0.000196
    17    -0.000033
    18    -0.000118
    19    -0.000132
    20    -0.000061
    21    -0.000414
    22    -0.000479
    23     0.000021
    24     0.000081
    25    -0.000023
    26    -0.000490
    27    -0.000006
    28    -0.000040
    29     0.000965
    30    -0.000756
    31    -0.000860
    32     0.001023
    33     0.000035
    34     0.000035
    35    -0.000561
    36     0.000003
    37    -0.000139
    38    -0.000131
Sym=     8a
Ene=   -0.593527E+01
Spin= Alpha
Occup= 1.999819
     1    -0.000063
     2    -0.000252
     3    -0.000268
     4     0.000377
     5    -0.000049
     6    -0.000174
     7     0.000197
     8     0.000009
     9     0.000038
    10     0.000206
    11     0.000674
    12     0.001023
    13     0.000657
    14    -0.000029
    15    -0.000025
    16    -0.000095
    17    -0.000002
    18    -0.000124
    19    -0.000158
    20    -0.150062
    21    -0.523214
    22     0.009090
    23    -0.007114
    24     0.473308
    25     0.686942
    26     0.165764
    27     0.020016
    28     0.029090
    29     0.005220
    30    -0.003203
    31    -0.004606
    32    -0.002108
    33     0.000347
    34     0.000376
    35     0.000468
    36     0.000034
    37    -0.000110
    38    -0.000167
Sym=     9a
Ene=   -0.592712E+01
Spin= Alpha
Occup= 1.999817
     1    -0.148748
     2    -0.518740
     3     0.009371
     4    -0.007041
     5    -0.802880
     6     0.282326
     7    -0.054748
     8    -0.033924
     9     0.011940
    10    -0.001051
    11     0.005453
    12    -0.001905
    13     0.000793
    14     0.000392
    15     0.000353
    16     0.000651
    17    -0.000020
    18    -0.000189
    19     0.000069
    20    -0.000123
    21    -0.000620
    22    -0.000784
    23     0.000629
    24     0.000165
    25    -0.000107
    26    -0.000392
    27     0.000005
    28     0.000004
    29     0.000309
    30    -0.001115
    31     0.000404
    32    -0.000423
    33    -0.000026
    34    -0.000017
    35    -0.000534
    36     0.000002
    37    -0.000224
    38     0.000073
Sym=    10a
Ene=   -0.592972E+01
Spin= Alpha
Occup= 1.999816
     1     0.000071
     2     0.000330
     3     0.000438
     4    -0.000447
     5    -0.000088
     6     0.000014
     7    -0.000104
     8    -0.000000
     9    -0.000001
    10    -0.000045
    11     0.001147
    12    -0.000245
    13    -0.000593
    14     0.000030
    15     0.000021
    16     0.000229
    17    -0.000004
    18    -0.000227
    19     0.000047
    20     0.149234
    21     0.520388
    22    -0.009129
    23     0.007090
    24     0.823268
    25    -0.175786
    26    -0.131673
    27     0.034791
    28    -0.007427
    29    -0.003936
    30    -0.005592
    31     0.001190
    32     0.001711
    33    -0.000386
    34    -0.000339
    35    -0.000520
    36     0.000012
    37    -0.000190
    38     0.000041
Sym=    11a
Ene=   -0.901354E+00
Spin= Alpha
Occup= 1.987925
     1     0.047940
     2     0.304069
     3     0.441938
     4     0.152485
     5    -0.000089
     6     0.000047
     7    -0.065575
     8    -0.000031
     9     0.000005
    10     0.116159
    11    -0.000053
    12     0.000014
    13     0.052332
    14     0.000939
    15    -0.000257
    16     0.057944
    17    -0.000226
    18    -0.000017
    19     0.000012
    20     0.047954
    21     0.304175
    22     0.442133
    23     0.152622
    24    -0.000051
    25     0.000051
    26     0.065557
    27    -0.000030
    28     0.000001
    29    -0.116123
    30    -0.000046
    31     0.000023
    32    -0.052310
    33     0.000952
    34    -0.000250
    35     0.057945
    36    -0.000231
    37     0.000016
    38    -0.000015
Sym=    12a
Ene=   -0.506857E+00
Spin= Alpha
Occup= 1.960140
     1     0.043572
     2     0.284042
     3     0.419957
     4     0.395741
     5     0.000141
     6    -0.000064
     7     0.166568
     8    -0.000238
     9     0.000077
    10    -0.325126
    11    -0.000314
    12     0.000117
    13    -0.309374
    14     0.038472
    15     0.038228
    16    -0.024832
    17    -0.000115
    18    -0.000057
    19     0.000009
    20    -0.026649
    21    -0.167999
    22    -0.269742
    23    -0.028778
    24     0.000111
    25    -0.000056
    26    -0.088486
    27    -0.000203
    28     0.000082
    29     0.175094
    30    -0.000258
    31     0.000106
    32     0.167392
    33     0.002481
    34     0.002599
    35    -0.052342
    36     0.000031
    37     0.000083
    38    -0.000016
Sym=    13a
Ene=   -0.506812E+00
Spin= Alpha
Occup= 1.960103
     1    -0.026653
     2    -0.168023
     3    -0.269779
     4    -0.028717
     5     0.000098
     6    -0.000069
     7     0.088550
     8    -0.000173
     9     0.000119
    10    -0.175207
    11    -0.000210
    12     0.000160
    13    -0.167478
    14     0.002494
    15     0.002604
    16    -0.052366
    17     0.000021
    18    -0.000067
    19     0.000037
    20     0.043551
    21     0.283914
    22     0.419778
    23     0.395687
    24     0.000108
    25    -0.000150
    26    -0.166596
    27    -0.000187
    28     0.000122
    29     0.325195
    30    -0.000250
    31     0.000191
    32     0.309425
    33     0.038467
    34     0.038233
    35    -0.024858
    36    -0.000104
    37     0.000053
    38    -0.000008
Sym=    14a
Ene=   -0.363287E+00
Spin= Alpha
Occup= 1.779590
     1     0.000006
     2     0.000034
     3     0.000039
     4     0.000010
     5    -0.060375
     6    -0.157270
     7    -0.000016
     8     0.107172
     9     0.279054
    10     0.000035
    11     0.142280
    12     0.370042
    13     0.000015
    14    -0.000008
    15     0.000007
    16     0.000005
    17    -0.000021
    18     0.021015
    19     0.056064
    20    -0.000008
    21    -0.000054
    22    -0.000114
    23    -0.000020
    24    -0.060378
    25    -0.157272
    26     0.000034
    27     0.107167
    28     0.279057
    29    -0.000061
    30     0.142289
    31     0.370052
    32    -0.000071
    33    -0.000000
    34    -0.000019
    35     0.000007
    36    -0.000034
    37    -0.021011
    38    -0.056056
Sym=    15a
Ene=   -0.362576E+00
Spin= Alpha
Occup= 1.768409
     1    -0.000021
     2    -0.000144
     3    -0.000244
     4    -0.000248
     5     0.157210
     6    -0.060424
     7    -0.000195
     8    -0.279406
     9     0.107347
    10     0.000340
    11    -0.370514
    12     0.142187
    13     0.000399
    14    -0.000070
    15     0.000003
    16     0.000031
    17     0.000033
    18    -0.052986
    19     0.020871
    20    -0.000016
    21    -0.000111
    22    -0.000195
    23    -0.000231
    24     0.157208
    25    -0.060419
    26     0.000186
    27    -0.279397
    28     0.107348
    29    -0.000334
    30    -0.370522
    31     0.142185
    32    -0.000370
    33    -0.000064
    34     0.000004
    35     0.000031
    36     0.000019
    37     0.052987
    38    -0.020875
Sym=    16a
Ene=   -0.617945E-01
Spin= Alpha
Occup= 0.231591
     1    -0.000011
     2    -0.000068
     3    -0.000033
     4    -0.000955
     5    -0.186226
     6     0.071606
     7     0.000098
     8     0.379366
     9    -0.145893
    10    -0.000174
    11     0.501449
    12    -0.192891
    13    -0.000939
    14     0.000197
    15    -0.000241
    16     0.000028
    17    -0.000201
    18    -0.001322
    19    -0.000942
    20     0.000011
    21     0.000071
    22     0.000055
    23     0.000949
    24     0.186211
    25    -0.071606
    26     0.000104
    27    -0.379306
    28     0.145894
    29    -0.000214
    30    -0.501502
    31     0.192888
    32    -0.000884
    33    -0.000175
    34     0.000237
    35    -0.000034
    36     0.000110
    37    -0.001351
    38    -0.000952
Sym=    17a
Ene=   -0.591046E-01
Spin= Alpha
Occup= 0.220410
     1     0.000004
     2     0.000024
     3     0.000048
     4     0.000251
     5    -0.071774
     6    -0.187008
     7    -0.000025
     8     0.146541
     9     0.381865
    10     0.000073
    11     0.192110
    12     0.500769
    13     0.000165
    14    -0.000050
    15     0.000113
    16    -0.000032
    17    -0.000123
    18     0.000860
    19     0.006172
    20     0.000003
    21     0.000028
    22     0.000216
    23    -0.000478
    24     0.071764
    25     0.187003
    26    -0.000018
    27    -0.146504
    28    -0.381846
    29     0.000004
    30    -0.192132
    31    -0.500793
    32     0.000284
    33    -0.000058
    34     0.000059
    35     0.000038
    36     0.000226
    37     0.000864
    38     0.006089
Sym=    18a
Ene=   -0.152275E-01
Spin= Alpha
Occup= 0.039897
     1    -0.025127
     2    -0.169884
     3    -0.514121
     4    -0.164942
     5     0.000004
     6     0.000008
     7     0.119996
     8    -0.000023
     9    -0.000007
    10    -0.280089
    11     0.000259
    12    -0.000336
    13    -0.371310
    14     0.053002
    15     0.055138
    16    -0.127575
    17     0.000119
    18    -0.000624
    19     0.000477
    20     0.001231
    21     0.013479
    22    -0.281876
    23     0.968943
    24    -0.000274
    25     0.000388
    26     0.138020
    27     0.000860
    28    -0.001309
    29    -0.310653
    30    -0.000363
    31     0.000867
    32    -0.619327
    33     0.249130
    34     0.252524
    35    -0.624035
    36    -0.000844
    37     0.001414
    38    -0.001266
Sym=    19a
Ene=   -0.152198E-01
Spin= Alpha
Occup= 0.039860
     1    -0.001220
     2    -0.013404
     3     0.282062
     4    -0.968775
     5     0.000403
     6    -0.000226
     7     0.138030
     8    -0.001317
     9     0.000750
    10    -0.310760
    11     0.000734
    12    -0.000446
    13    -0.618820
    14    -0.249096
    15    -0.252758
    16     0.624252
    17     0.000536
    18     0.001630
    19    -0.000787
    20     0.025116
    21     0.169811
    22     0.513902
    23     0.164714
    24     0.000009
    25    -0.000012
    26     0.119939
    27    -0.000013
    28     0.000039
    29    -0.279906
    30    -0.000341
    31     0.000143
    32    -0.371032
    33    -0.052996
    34    -0.055216
    35     0.127612
    36    -0.000183
    37    -0.000725
    38     0.000277
Sym=    20a
Ene=   -0.567437E-02
Spin= Alpha
Occup= 0.012075
     1    -0.000023
     2    -0.000245
     3    -0.001778
     4     0.001805
     5    -0.020427
     6     0.003200
     7     0.000574
     8     0.114683
     9    -0.018196
    10    -0.002529
    11    -0.226954
    12     0.036549
    13     0.003857
    14    -0.001337
    15     0.002445
    16    -0.000485
    17     0.001462
    18     0.614172
    19    -0.100872
    20    -0.000032
    21    -0.000260
    22    -0.001595
    23    -0.000391
    24    -0.020609
    25     0.003377
    26    -0.000471
    27     0.115351
    28    -0.018867
    29     0.002041
    30    -0.227611
    31     0.037316
    32    -0.001456
    33    -0.000420
    34     0.001596
    35    -0.001010
    36     0.001226
    37    -0.614457
    38     0.100828
Sym=    21a
Ene=   -0.110871E-02
Spin= Alpha
Occup= 0.000184
     1     0.000133
     2    -0.007870
     3    -0.070175
     4     0.049584
     5     0.011722
     6    -0.002426
     7    -0.009662
     8    -0.016826
     9     0.003365
    10     0.046361
    11    -0.209822
    12     0.044719
    13     0.071763
    14     0.024140
    15     0.036103
    16     0.074398
    17     0.005540
    18     0.152008
    19    -0.031378
    20     0.072912
    21     0.787163
    22     2.368980
    23    -0.216242
    24     0.289908
    25    -0.061356
    26    -0.051457
    27    -1.067860
    28     0.226018
    29     0.195325
    30     0.977620
    31    -0.207103
    32    -0.106989
    33    -0.812128
    34    -0.888813
    35    -0.982120
    36    -0.020271
    37     0.017588
    38    -0.002748
Sym=    22a
Ene=   -0.110459E-02
Spin= Alpha
Occup= 0.000183
     1     0.072515
     2     0.780705
     3     2.361270
     4    -0.248507
     5     0.282397
     6    -0.099098
     7     0.023431
     8    -1.040007
     9     0.365238
    10    -0.085057
    11     0.951111
    12    -0.335920
    13     0.010526
    14    -0.812867
    15    -0.879737
    16    -0.942771
    17    -0.031227
    18    -0.022405
    19     0.000788
    20     0.000050
    21    -0.003109
    22    -0.045317
    23     0.098496
    24     0.010959
    25    -0.003288
    26     0.006451
    27    -0.015018
    28     0.002677
    29    -0.042396
    30    -0.204004
    31     0.076409
    32    -0.065327
    33     0.028114
    34     0.040855
    35     0.009700
    36     0.002071
    37    -0.151989
    38     0.050144
Sym=    23a
Ene=   -0.108874E-02
Spin= Alpha
Occup= 0.000181
     1     0.000202
     2    -0.009898
     3    -0.080200
     4     0.024203
     5    -0.006504
     6    -0.007807
     7    -0.012161
     8     0.007999
     9     0.003295
    10     0.052358
    11     0.125774
    12     0.199392
    13     0.070389
    14     0.025390
    15     0.030696
    16     0.105431
    17    -0.005713
    18    -0.085103
    19    -0.113338
    20     0.073194
    21     0.791518
    22     2.376675
    23    -0.197856
    24    -0.167422
    25    -0.241502
    26    -0.064214
    27     0.616997
    28     0.891012
    29     0.245262
    30    -0.566742
    31    -0.825191
    32    -0.150797
    33    -0.871703
    34    -0.836368
    35    -1.003942
    36     0.049233
    37    -0.002424
    38     0.025264
Sym=    24a
Ene=   -0.107962E-02
Spin= Alpha
Occup= 0.000178
     1     0.073416
     2     0.798763
     3     2.371141
     4    -0.121444
     5    -0.188364
     6    -0.203001
     7     0.123906
     8     0.694357
     9     0.748982
    10    -0.480850
    11    -0.638853
    12    -0.694310
    13     0.360798
    14    -0.864084
    15    -0.852114
    16    -1.077195
    17     0.048041
    18    -0.002154
    19    -0.033188
    20     0.000272
    21    -0.020771
    22    -0.136067
    23    -0.081548
    24    -0.007536
    25    -0.007153
    26     0.018057
    27     0.009582
    28     0.004195
    29    -0.056710
    30     0.142310
    31     0.169646
    32    -0.084048
    33     0.019772
    34     0.017016
    35     0.242550
    36    -0.008022
    37     0.091715
    38     0.093472
Sym=    25a
Ene=   -0.106274E-02
Spin= Alpha
Occup= 0.000174
     1    -0.073229
     2    -0.799945
     3    -2.360132
     4     0.070036
     5     0.027189
     6    -0.260653
     7    -0.156558
     8    -0.100133
     9     0.961158
    10     0.608981
    11     0.091228
    12    -0.888950
    13    -0.476927
    14     0.896215
    15     0.817143
    16     1.118837
    17     0.006908
    18    -0.007613
    19    -0.045161
    20    -0.000441
    21     0.025693
    22     0.161064
    23     0.148436
    24     0.001202
    25    -0.009129
    26    -0.023794
    27    -0.002587
    28     0.005243
    29     0.069174
    30    -0.016488
    31     0.217616
    32     0.079558
    33    -0.013485
    34    -0.011441
    35    -0.318962
    36    -0.005116
    37    -0.012540
    38     0.126030
Sym=    26a
Ene=   -0.104737E-02
Spin= Alpha
Occup= 0.000170
     1    -0.000438
     2     0.031487
     3     0.190754
     4     0.204391
     5     0.003916
     6    -0.007682
     7     0.026297
     8    -0.006987
     9     0.003161
    10    -0.069098
    11    -0.059229
    12     0.193493
    13    -0.086130
    14    -0.009195
    15    -0.005026
    16    -0.388791
    17    -0.004456
    18     0.040127
    19    -0.108438
    20    -0.072991
    21    -0.799957
    22    -2.344769
    23     0.026083
    24     0.085598
    25    -0.228648
    26     0.187338
    27    -0.315461
    28     0.843255
    29    -0.730868
    30     0.289230
    31    -0.780849
    32     0.588182
    33     0.882230
    34     0.829799
    35     1.150208
    36     0.025542
    37     0.006925
    38     0.044336
Sym=    27a
Ene=   -0.932278E-03
Spin= Alpha
Occup= 0.000152
     1    -0.000871
     2     0.055357
     3     0.253750
     4     0.586026
     5    -0.001923
     6     0.002862
     7     0.029134
     8     0.003875
     9    -0.004040
    10     0.000521
    11     0.025126
    12    -0.055847
    13    -0.080428
    14     0.080681
    15     0.069420
    16    -0.755651
    17    -0.005902
    18    -0.027845
    19     0.038211
    20     0.067073
    21     0.700912
    22     2.229244
    23    -0.490253
    24    -0.039463
    25     0.082002
    26     0.295859
    27     0.144851
    28    -0.302743
    29    -1.167339
    30    -0.129914
    31     0.278606
    32     1.015794
    33    -0.820725
    34    -0.817429
    35    -0.459165
    36    -0.000565
    37    -0.007114
    38     0.024477
Sym=    28a
Ene=   -0.929405E-03
Spin= Alpha
Occup= 0.000151
     1    -0.066998
     2    -0.699912
     3    -2.226849
     4     0.490966
     5     0.069791
     6    -0.045113
     7     0.298312
     8    -0.256338
     9     0.166708
    10    -1.176937
    11     0.230580
    12    -0.153801
    13     1.022672
    14     0.813228
    15     0.823990
    16     0.454415
    17     0.007619
    18    -0.016948
    19     0.012889
    20     0.000842
    21    -0.056222
    22    -0.257393
    23    -0.588690
    24     0.002515
    25    -0.002467
    26     0.029491
    27    -0.003679
    28     0.005612
    29    -0.000134
    30    -0.046676
    31     0.027636
    32    -0.082183
    33    -0.076912
    34    -0.073188
    35     0.762619
    36    -0.001283
    37    -0.049931
    38     0.016351
Sym=    29a
Ene=   -0.151334E-04
Spin= Alpha
Occup= 0.000000
     1    -0.000404
     2    -0.001967
     3    -0.013470
     4     0.036846
     5     0.010539
     6    -0.010618
     7    -0.007455
     8    -0.038085
     9     0.036101
    10     0.028120
    11     0.026957
    12    -0.021018
    13    -0.011988
    14    -0.784237
    15     0.763093
    16     0.011535
    17    -0.026314
    18    -0.010718
    19    -0.000974
    20    -0.000201
    21     0.000352
    22     0.002508
    23     0.000317
    24     0.009093
    25     0.003111
    26     0.001400
    27    -0.033580
    28    -0.013128
    29    -0.006658
    30     0.026985
    31     0.019075
    32     0.022079
    33    -0.316262
    34     0.309818
    35    -0.013687
    36     0.168113
    37    -0.006307
    38     0.062418
Sym=    30a
Ene=   -0.128964E-04
Spin= Alpha
Occup= 0.000000
     1    -0.000107
     2    -0.001144
     3    -0.004389
     4     0.003481
     5     0.009862
     6     0.005008
     7    -0.003635
     8    -0.035401
     9    -0.016552
    10     0.013780
    11     0.025514
    12     0.004499
    13    -0.007829
    14     0.069794
    15    -0.072640
    16     0.007769
    17     0.682404
    18    -0.001682
    19     0.025880
    20    -0.000009
    21     0.001441
    22     0.003809
    23     0.007860
    24     0.006266
    25     0.010168
    26    -0.000579
    27    -0.022477
    28    -0.035764
    29     0.001466
    30     0.014624
    31     0.024248
    32     0.003597
    33     0.055693
    34    -0.059918
    35    -0.012239
    36     0.683900
    37    -0.012470
    38    -0.015551
Sym=    31a
Ene=    0.000000E+00
Spin= Alpha
Occup= 0.000000
     1     0.001118
     2     0.046845
     3     0.384729
     4    -1.846581
     5    -0.007462
     6     0.032349
     7    -0.010546
     8     0.038997
     9    -0.153269
    10     0.093506
    11    -0.114873
    12     0.261365
    13    -1.618722
    14     0.258870
    15    -0.024227
    16    -0.680722
    17     0.125144
    18    -0.301306
    19    -0.297333
    20    -0.001836
    21    -0.062957
    22    -0.419488
    23     1.790964
    24     0.018823
    25     0.014093
    26    -0.020078
    27    -0.089327
    28    -0.070865
    29     0.130435
    30     0.183358
    31     0.096660
    32    -1.652872
    33    -0.350570
    34     0.200085
    35     0.709453
    36    -0.091335
    37    -0.169402
    38     0.517364
Sym=    32a
Ene=    0.000000E+00
Spin= Alpha
Occup= 0.000000
     1    -0.001309
     2    -0.063973
     3    -0.419362
     4     1.544874
     5     0.010689
     6     0.013792
     7     0.012894
     8    -0.038399
     9    -0.060393
    10    -0.119327
    11     0.023918
    12     0.072494
    13     1.586576
    14    -0.174772
    15    -0.058893
    16     0.851417
    17     0.483806
    18    -0.103268
    19    -0.298011
    20     0.005287
    21     0.170370
    22     0.534103
    23    -1.087944
    24    -0.001671
    25     0.006612
    26     0.011740
    27     0.001005
    28    -0.042431
    29    -0.075834
    30     0.019680
    31     0.103164
    32     1.530381
    33    -0.260378
    34    -0.231260
    35    -0.969133
    36    -0.463599
    37    -0.035935
    38     0.123989
Sym=    33a
Ene=    0.000000E+00
Spin= Alpha
Occup= 0.000000
     1     0.005841
     2     0.194080
     3     0.367947
     4     0.471619
     5    -0.009434
     6    -0.014671
     7    -0.014097
     8     0.060139
     9     0.078191
    10     0.056657
    11    -0.192313
    12    -0.172977
    13    -0.550981
    14    -0.620742
    15    -0.262100
    16    -0.778660
    17     0.326781
    18    -0.348938
    19    -0.002578
    20    -0.002537
    21    -0.108368
    22    -0.256141
    23    -0.116476
    24     0.005126
    25    -0.011000
    26    -0.003389
    27    -0.040002
    28     0.042204
    29     0.039837
    30     0.161918
    31    -0.010168
    32    -0.545431
    33     0.396214
    34    -0.070532
    35     0.671091
    36    -0.342189
    37    -0.414328
    38    -0.401422
Sym=    34a
Ene=    0.000000E+00
Spin= Alpha
Occup= 0.000000
     1    -0.004458
     2    -0.159692
     3    -0.016798
     4    -2.533102
     5    -0.019956
     6    -0.001348
     7    -0.009100
     8     0.100009
     9    -0.002611
    10     0.064088
    11    -0.236495
    12     0.081267
    13    -1.048884
    14     0.471463
    15     0.565469
    16     0.347950
    17     0.009453
    18    -0.346263
    19     0.510901
    20     0.006813
    21     0.220625
    22     0.091410
    23     2.786569
    24     0.013645
    25    -0.020848
    26    -0.005258
    27    -0.072975
    28     0.108508
    29     0.068636
    30     0.202346
    31    -0.247195
    32    -1.061033
    33    -0.627814
    34    -0.810739
    35    -0.420364
    36    -0.031606
    37    -0.406027
    38     0.139648
Sym=    35a
Ene=    0.000000E+00
Spin= Alpha
Occup= 0.000000
     1     0.002434
     2     0.083673
     3    -0.075537
     4     1.851406
     5    -0.005922
     6     0.008575
     7     0.000827
     8     0.027120
     9    -0.056399
    10    -0.034886
    11    -0.050944
    12     0.227125
    13     0.938302
    14    -0.186873
    15    -0.497242
    16    -0.026337
    17     0.147265
    18    -0.007904
    19     0.754538
    20    -0.003079
    21    -0.097954
    22     0.059729
    23    -1.904217
    24     0.007222
    25    -0.028691
    26     0.003859
    27    -0.028042
    28     0.151742
    29    -0.052394
    30     0.038434
    31    -0.374861
    32     0.957268
    33     0.014043
    34     0.761102
    35     0.040364
    36    -0.140176
    37    -0.063420
    38     0.427256
Sym=    36a
Ene=    0.000000E+00
Spin= Alpha
Occup= 0.000000
     1     0.010152
     2     0.270295
     3     0.389845
     4     0.593691
     5     0.008146
     6    -0.004585
     7     0.002725
     8    -0.042365
     9     0.021051
    10    -0.089334
    11     0.109140
    12    -0.034860
    13    -0.289829
    14    -0.752928
    15    -0.921457
    16    -0.469569
    17    -0.062301
    18     0.215700
    19     0.008734
    20     0.009365
    21     0.243225
    22     0.173155
    23     1.585569
    24    -0.003473
    25    -0.004302
    26    -0.004703
    27     0.026445
    28     0.016489
    29     0.126294
    30    -0.101122
    31    -0.011038
    32    -0.565726
    33    -1.051450
    34    -0.751378
    35    -0.096202
    36     0.064243
    37     0.199945
    38    -0.068198
Sym=    37a
Ene=    0.000000E+00
Spin= Alpha
Occup= 0.000000
     1    -0.004078
     2    -0.115629
     3     0.089552
     4    -2.086525
     5     0.015776
     6    -0.015122
     7    -0.007809
     8    -0.077061
     9     0.084577
    10     0.095304
    11     0.183569
    12    -0.202034
    13    -1.146127
    14     0.608223
    15     0.417333
    16    -0.099617
    17     0.323821
    18     0.370287
    19    -0.047688
    20    -0.001062
    21    -0.016384
    22    -0.225053
    23     1.533202
    24    -0.011246
    25    -0.011702
    26     0.004619
    27     0.065662
    28     0.042084
    29    -0.005181
    30    -0.192736
    31     0.007041
    32    -1.031137
    33    -0.466825
    34     0.339337
    35     0.235509
    36    -0.295814
    37     0.296326
    38    -0.477093
Sym=    38a
Ene=    0.000000E+00
Spin= Alpha
Occup= 0.000000
     1    -0.000245
     2    -0.015458
     3    -0.182254
     4     0.973797
     5    -0.027223
     6    -0.011454
     7     0.007360
     8     0.132865
     9     0.070302
    10    -0.056300
    11    -0.308518
    12    -0.212865
    13     0.824497
    14     0.138413
    15    -0.298786
    16     0.320603
    17    -0.214838
    18    -0.455715
    19    -0.306442
    20     0.000550
    21     0.025470
    22     0.194461
    23    -0.925723
    24     0.031138
    25     0.007115
    26     0.010407
    27    -0.145125
    28    -0.043368
    29    -0.065411
    30     0.310722
    31     0.154121
    32     0.832191
    33    -0.385321
    34     0.475107
    35    -0.333891
    36     0.225515
    37    -0.484502
    38    -0.470763
