[Molden Format]
p30-5 set                                                                       
[Atoms] AU
 F        1     9        0.0000        0.0000       -1.3372
 F        2     9        0.0000        0.0000        1.3372
[GTO]
    1 0
s    5 1.00
    2894.832599000000 -0.534932117607E-02
     435.419391200000 -0.399677343716E-01
      98.843328866000 -0.179412617888E+00
      27.485198001000 -0.468324686869E+00
       8.540549817100 -0.447241605328E+00
s    1 1.00
       1.065457803800  0.100000000000E+01
s    1 1.00
       0.332473467480  0.100000000000E+01
p    3 1.00
      22.696633924000 -0.647821482412E-01
       4.987233925700 -0.340357853553E+00
       1.349161395400 -0.734858153660E+00
p    1 1.00
       0.348298819770  0.100000000000E+01
d    1 1.00
       1.400000000000  0.100000000000E+01
 
    2 0
s    5 1.00
    2894.832599000000 -0.534932117607E-02
     435.419391200000 -0.399677343716E-01
      98.843328866000 -0.179412617888E+00
      27.485198001000 -0.468324686869E+00
       8.540549817100 -0.447241605328E+00
s    1 1.00
       1.065457803800  0.100000000000E+01
s    1 1.00
       0.332473467480  0.100000000000E+01
p    3 1.00
      22.696633924000 -0.647821482412E-01
       4.987233925700 -0.340357853553E+00
       1.349161395400 -0.734858153660E+00
p    1 1.00
       0.348298819770  0.100000000000E+01
d    1 1.00
       1.400000000000  0.100000000000E+01
 
[MO]
Sym=     1a
Ene=   -0.264103E+02
Spin= Alpha
Occup= 1.999959
     1    -0.000284
     2    -0.000237
     3    -0.002296
     4    -0.000011
     5     0.000001
     6    -0.000703
     7     0.000012
     8     0.000002
     9    -0.000735
    10     0.000119
    11     0.000120
    12     0.000290
    13    -0.000001
    14    -0.000003
    15    -0.000002
    16     0.993164
    17    -0.027077
    18     0.012298
    19     0.000218
    20     0.000108
    21    -0.001239
    22    -0.000146
    23    -0.000070
    24    -0.001016
    25     0.005184
    26     0.005182
    27     0.005992
    28    -0.000001
    29     0.000004
    30     0.000002
Sym=     2a
Ene=   -0.264104E+02
Spin= Alpha
Occup= 1.999956
     1     0.993102
     2    -0.027207
     3     0.012201
     4    -0.000036
     5     0.000226
     6     0.001230
     7     0.000022
     8    -0.000150
     9     0.001016
    10     0.005177
    11     0.005179
    12     0.005985
    13     0.000002
    14    -0.000001
    15    -0.000005
    16    -0.000091
    17    -0.000232
    18    -0.002281
    19     0.000007
    20    -0.000010
    21     0.000696
    22    -0.000006
    23     0.000009
    24     0.000733
    25     0.000120
    26     0.000124
    27     0.000293
    28     0.000002
    29    -0.000000
    30     0.000003
Sym=     3a
Ene=   -0.105094E+01
Spin= Alpha
Occup= 1.990103
     1     0.176568
     2     0.378231
     3     0.266979
     4    -0.368879
     5     0.418942
     6     0.017440
     7     0.246269
     8    -0.279624
     9    -0.010653
    10     0.002861
    11     0.002819
    12     0.006238
    13     0.000122
    14     0.004538
    15    -0.005138
    16    -0.005683
    17    -0.014826
    18    -0.027186
    19     0.015939
    20    -0.017844
    21     0.024042
    22    -0.017287
    23     0.019448
    24    -0.004108
    25    -0.002087
    26    -0.001908
    27     0.006723
    28    -0.000028
    29    -0.004545
    30     0.005174
Sym=     4a
Ene=   -0.105104E+01
Spin= Alpha
Occup= 1.990100
     1    -0.005708
     2    -0.014866
     3    -0.027214
     4    -0.023449
     5     0.004576
     6    -0.024021
     7     0.025526
     8    -0.004916
     9     0.004079
    10    -0.001931
    11    -0.002060
    12     0.006717
    13     0.000079
    14    -0.006771
    15     0.001264
    16     0.176466
    17     0.378295
    18     0.267024
    19     0.548548
    20    -0.103089
    21    -0.017491
    22    -0.366164
    23     0.068862
    24     0.010697
    25     0.002743
    26     0.002938
    27     0.006236
    28     0.000037
    29     0.006741
    30    -0.001280
Sym=     5a
Ene=   -0.103686E+01
Spin= Alpha
Occup= 1.989976
     1     0.005702
     2     0.014827
     3     0.026647
     4    -0.008893
     5     0.022659
     6     0.022993
     7     0.009568
     8    -0.024633
     9    -0.003840
    10     0.001935
    11     0.001961
    12    -0.006518
    13     0.000096
    14    -0.002465
    15     0.006511
    16    -0.172541
    17    -0.369411
    18    -0.260991
    19     0.201471
    20    -0.527918
    21     0.017656
    22    -0.134594
    23     0.352467
    24    -0.010809
    25    -0.002858
    26    -0.002594
    27    -0.006080
    28    -0.000115
    29     0.002497
    30    -0.006445
Sym=     6a
Ene=   -0.103642E+01
Spin= Alpha
Occup= 1.989970
     1     0.172554
     2     0.369120
     3     0.260801
     4     0.556888
     5     0.096968
     6     0.017606
     7    -0.371845
     8    -0.064673
     9    -0.010761
    10     0.002572
    11     0.002880
    12     0.006083
    13    -0.000080
    14    -0.006813
    15    -0.001153
    16    -0.005672
    17    -0.014774
    18    -0.026605
    19    -0.024059
    20    -0.003949
    21     0.022991
    22     0.026094
    23     0.004384
    24    -0.003863
    25    -0.001881
    26    -0.002009
    27     0.006516
    28    -0.000060
    29     0.006855
    30     0.001211
Sym=     7a
Ene=   -0.101807E+01
Spin= Alpha
Occup= 1.989825
     1    -0.167255
     2    -0.357146
     3    -0.252823
     4     0.184930
     5     0.543566
     6    -0.017943
     7    -0.123482
     8    -0.363045
     9     0.010817
    10    -0.002769
    11    -0.002371
    12    -0.005856
    13     0.000175
    14    -0.002193
    15    -0.006514
    16     0.005209
    17     0.013658
    18     0.025366
    19    -0.007989
    20    -0.023689
    21    -0.021497
    22     0.008682
    23     0.025630
    24     0.003214
    25     0.001840
    26     0.001888
    27    -0.006273
    28    -0.000079
    29     0.002279
    30     0.006689
Sym=     8a
Ene=   -0.101759E+01
Spin= Alpha
Occup= 1.989822
     1     0.005227
     2     0.013683
     3     0.025369
     4    -0.016250
     5    -0.018959
     6     0.021471
     7     0.017576
     8     0.020557
     9    -0.003196
    10     0.001935
    11     0.001789
    12    -0.006265
    13    -0.000015
    14    -0.004586
    15    -0.005383
    16    -0.167006
    17    -0.356818
    18    -0.252602
    19     0.372687
    20     0.437083
    21     0.017919
    22    -0.248935
    23    -0.291906
    24    -0.010814
    25    -0.002600
    26    -0.002528
    27    -0.005849
    28     0.000285
    29     0.004478
    30     0.005218
Sym=     9a
Ene=   -0.795542E+00
Spin= Alpha
Occup= 1.800496
     1     0.019456
     2     0.044994
     3     0.093399
     4    -0.000117
     5     0.001445
     6     0.471025
     7     0.000118
     8    -0.000792
     9    -0.274713
    10     0.007381
    11     0.007583
    12    -0.031469
    13     0.000166
    14     0.000013
    15    -0.000229
    16     0.019419
    17     0.044916
    18     0.093354
    19     0.001268
    20     0.000612
    21    -0.471025
    22    -0.000719
    23    -0.000281
    24     0.274727
    25     0.007399
    26     0.007547
    27    -0.031467
    28     0.000185
    29     0.000205
    30     0.000112
Sym=    10a
Ene=   -0.121414E+00
Spin= Alpha
Occup= 0.199248
     1    -0.051774
     2    -0.104982
     3    -0.191502
     4     0.000003
     5     0.000403
     6     0.612964
     7    -0.000012
     8     0.000233
     9    -0.333430
    10    -0.005365
    11    -0.004158
    12     0.013853
    13     0.000682
    14     0.000354
    15    -0.000946
    16     0.051796
    17     0.105085
    18     0.191439
    19    -0.000323
    20    -0.000192
    21     0.613029
    22    -0.000203
    23    -0.000111
    24    -0.333355
    25     0.004998
    26     0.004537
    27    -0.013859
    28    -0.000983
    29    -0.000996
    30    -0.000193
Sym=    11a
Ene=   -0.110693E-01
Spin= Alpha
Occup= 0.008906
     1     0.008908
     2    -0.016203
     3     0.178149
     4    -0.007840
     5    -0.008741
     6    -0.079333
     7     0.094532
     8     0.111859
     9     0.057634
    10     0.006830
    11    -0.012677
    12    -0.005376
    13    -0.003396
    14    -0.008186
    15    -0.010164
    16     0.222844
    17     1.049405
    18    -0.891480
    19    -0.486920
    20    -0.573723
    21    -0.074647
    22    -0.578919
    23    -0.682223
    24    -0.003736
    25    -0.085249
    26    -0.055079
    27    -0.133127
    28     0.101089
    29    -0.006148
    30    -0.008705
Sym=    12a
Ene=   -0.262807E-02
Spin= Alpha
Occup= 0.001272
     1    -0.037269
     2    -0.164361
     3     0.144917
     4     0.030895
     5     0.076233
     6     0.086163
     7     0.036620
     8     0.091692
     9     0.194451
    10    -0.203183
    11     0.864508
    12    -0.535944
    13     0.452805
    14    -0.039084
    15    -0.155559
    16     0.007250
    17     0.024628
    18    -0.077445
    19    -0.001025
    20    -0.001160
    21     0.127538
    22    -0.004559
    23    -0.004802
    24     0.164650
    25     0.007524
    26     0.007397
    27    -0.010900
    28    -0.012770
    29    -0.003466
    30     0.014776
Sym=    13a
Ene=   -0.110143E-01
Spin= Alpha
Occup= 0.008769
     1     0.228165
     2     1.071935
     3    -0.902715
     4     0.732546
     5     0.131708
     6     0.074664
     7     0.871253
     8     0.156635
     9     0.006359
    10     0.013249
    11    -0.154930
    12    -0.142530
    13     0.038833
    14    -0.012120
    15    -0.002542
    16     0.009575
    17    -0.013503
    18     0.176657
    19     0.011642
    20     0.001787
    21     0.086458
    22    -0.142211
    23    -0.025893
    24    -0.049933
    25    -0.011659
    26     0.005042
    27    -0.004694
    28     0.006648
    29    -0.010519
    30    -0.003630
Sym=    14a
Ene=   -0.110113E-01
Spin= Alpha
Occup= 0.008764
     1    -0.009561
     2     0.013547
     3    -0.176386
     4     0.004416
     5    -0.010913
     6     0.085837
     7    -0.050467
     8     0.135429
     9    -0.050395
    10     0.004501
    11     0.002202
    12     0.004664
    13    -0.011747
    14     0.002266
    15    -0.011016
    16    -0.228134
    17    -1.071927
    18     0.903131
    19     0.261357
    20    -0.696685
    21     0.075687
    22     0.310854
    23    -0.828586
    24     0.007566
    25     0.140618
    26     0.000756
    27     0.142381
    28     0.066869
    29     0.003937
    30    -0.011583
Sym=    15a
Ene=   -0.256418E-02
Spin= Alpha
Occup= 0.001242
     1    -0.002294
     2    -0.016118
     3     0.122340
     4     0.014374
     5    -0.002628
     6     0.007010
     7     0.053232
     8    -0.012447
     9     0.063403
    10     0.021793
    11    -0.023501
    12    -0.014822
    13     0.029358
    14    -0.026344
    15     0.004923
    16     0.038806
    17     0.172438
    18    -0.130759
    19     0.059960
    20    -0.002999
    21     0.191990
    22     0.066584
    23    -0.002601
    24     0.302621
    25    -0.748543
    26     0.211806
    27     0.414940
    28     0.253448
    29     0.581223
    30    -0.118182
Sym=    16a
Ene=   -0.109589E-01
Spin= Alpha
Occup= 0.008658
     1     0.231887
     2     1.088450
     3    -0.914616
     4    -0.485754
     5     0.555523
     6     0.077668
     7    -0.577948
     8     0.660867
     9     0.009233
    10    -0.085356
    11    -0.057326
    12    -0.148481
    13    -0.106102
    14     0.009045
    15    -0.009573
    16     0.009495
    17    -0.015072
    18     0.180252
    19    -0.007529
    20     0.008516
    21     0.087142
    22     0.094482
    23    -0.108210
    24    -0.050868
    25     0.008003
    26    -0.013865
    27    -0.006300
    28     0.003266
    29     0.005439
    30    -0.008248
Sym=    17a
Ene=   -0.924011E-03
Spin= Alpha
Occup= 0.000035
     1     0.592423
     2     1.494527
     3     1.757777
     4    -0.000392
     5    -0.000418
     6    -0.063237
     7    -0.000472
     8     0.000067
     9     0.083575
    10    -1.321579
    11    -1.325762
    12    -1.389412
    13     0.001082
    14     0.002335
    15     0.035725
    16    -0.009981
    17     0.015368
    18    -0.313985
    19    -0.001692
    20    -0.002344
    21    -0.003360
    22    -0.002100
    23    -0.005716
    24     0.170071
    25     0.013778
    26     0.000911
    27     0.067745
    28    -0.007719
    29    -0.004653
    30    -0.001759
Sym=    18a
Ene=   -0.134179E-03
Spin= Alpha
Occup= 0.000005
     1    -0.000790
     2    -0.385498
     3     1.564793
     4    -0.014229
     5    -0.033316
     6    -0.074748
     7    -0.031757
     8    -0.055323
     9     0.976948
    10    -0.134873
    11    -0.302011
    12     0.202646
    13    -0.112578
    14    -0.139168
    15    -0.247724
    16    -0.037306
    17     0.309201
    18    -1.543873
    19     0.010195
    20     0.014693
    21     0.731498
    22     0.028112
    23     0.046720
    24     1.763772
    25     0.437431
    26     0.439538
    27    -0.249922
    28    -0.026409
    29    -0.135083
    30    -0.123345
Sym=    19a
Ene=   -0.526082E-03
Spin= Alpha
Occup= 0.000256
     1     0.011997
     2     0.014755
     3     0.031536
     4    -0.003316
     5    -0.008565
     6     0.145983
     7     0.022479
     8     0.032620
     9     0.149651
    10     0.174791
    11    -0.168616
    12    -0.132116
    13    -0.104667
    14    -0.301150
    15    -0.551476
    16     0.011983
    17     0.009484
    18     0.051598
    19    -0.005931
    20    -0.007408
    21    -0.150719
    22     0.016667
    23     0.035640
    24    -0.167828
    25    -0.000212
    26     0.000578
    27    -0.130840
    28    -0.226617
    29     0.323935
    30     0.536596
Sym=    20a
Ene=   -0.262895E-02
Spin= Alpha
Occup= 0.001273
     1    -0.007226
     2    -0.024251
     3     0.077611
     4     0.000423
     5     0.001384
     6     0.122873
     7     0.001826
     8     0.006263
     9     0.159667
    10    -0.015291
    11     0.002641
    12     0.009305
    13     0.005884
    14     0.014091
    15     0.004615
    16     0.037355
    17     0.164624
    18    -0.143688
    19    -0.049880
    20    -0.065493
    21     0.090962
    22    -0.060231
    23    -0.078292
    24     0.198773
    25    -0.239868
    26    -0.421422
    27     0.536224
    28    -0.757820
    29    -0.112990
    30    -0.113067
Sym=    21a
Ene=   -0.110693E-01
Spin= Alpha
Occup= 0.008903
     1    -0.223096
     2    -1.050337
     3     0.891571
     4     0.244026
     5     0.711649
     6    -0.074181
     7     0.290222
     8     0.846169
     9    -0.003248
    10     0.139918
    11     0.000808
    12     0.133686
    13    -0.063404
    14    -0.004276
    15    -0.009699
    16    -0.008921
    17     0.016187
    18    -0.178314
    19     0.003492
    20     0.011198
    21    -0.079825
    22    -0.047801
    23    -0.138419
    24     0.057239
    25     0.004912
    26     0.000804
    27     0.005468
    28     0.011630
    29    -0.004592
    30    -0.012218
Sym=    22a
Ene=   -0.259837E-02
Spin= Alpha
Occup= 0.001260
     1    -0.039122
     2    -0.175727
     3     0.149739
     4    -0.066108
     5    -0.023600
     6     0.154008
     7    -0.075665
     8    -0.027991
     9     0.271673
    10     0.873189
    11    -0.267060
    12    -0.483154
    13     0.191937
    14     0.435420
    15     0.056631
    16     0.005011
    17     0.023768
    18    -0.113755
    19    -0.010074
    20    -0.001266
    21     0.062508
    22    -0.034449
    23    -0.001164
    24     0.117195
    25    -0.016731
    26     0.020562
    27     0.007288
    28     0.005722
    29    -0.022226
    30    -0.005570
Sym=    23a
Ene=   -0.259794E-02
Spin= Alpha
Occup= 0.001260
     1    -0.004867
     2    -0.023921
     3     0.117717
     4    -0.004205
     5     0.009597
     6     0.055374
     7    -0.017147
     8     0.031555
     9     0.112039
    10    -0.005357
    11     0.002579
    12    -0.008534
    13    -0.022899
    14     0.006582
    15    -0.022144
    16     0.039238
    17     0.176905
    18    -0.150948
    19    -0.013159
    20     0.068315
    21     0.161792
    22    -0.014144
    23     0.078537
    24     0.280875
    25     0.112930
    26    -0.714498
    27     0.479669
    28     0.483851
    29    -0.177280
    30     0.413583
Sym=    24a
Ene=   -0.109573E-01
Spin= Alpha
Occup= 0.008657
     1     0.009475
     2    -0.015119
     3     0.179938
     4     0.011155
     5    -0.002114
     6    -0.086401
     7    -0.141304
     8     0.025922
     9     0.051429
    10    -0.010745
    11     0.004798
    12    -0.006265
    13    -0.009474
    14     0.010108
    15    -0.000446
    16     0.231761
    17     1.088037
    18    -0.914847
    19     0.725676
    20    -0.133667
    21    -0.078714
    22     0.863308
    23    -0.159078
    24    -0.010445
    25     0.016437
    26    -0.158780
    27    -0.148118
    28    -0.036337
    29     0.012714
    30    -0.002891
Sym=    25a
Ene=   -0.256207E-02
Spin= Alpha
Occup= 0.001239
     1     0.038752
     2     0.171222
     3    -0.128380
     4    -0.033715
     5     0.050175
     6    -0.185571
     7    -0.036861
     8     0.056092
     9    -0.294207
    10    -0.231884
    11    -0.308498
    12     0.417118
    13     0.613222
    14     0.395593
    15    -0.435447
    16    -0.002358
    17    -0.015616
    18     0.118232
    19    -0.009414
    20     0.010925
    21    -0.012431
    22    -0.037319
    23     0.038942
    24    -0.066538
    25    -0.034098
    26     0.032340
    27    -0.014719
    28    -0.008526
    29    -0.017049
    30     0.019411
Sym=    26a
Ene=   -0.212909E-03
Spin= Alpha
Occup= 0.000009
     1     0.042958
     2    -0.204393
     3     1.181496
     4    -0.002499
     5    -0.005069
     6     0.793853
     7    -0.014888
     8    -0.028936
     9     1.577213
    10    -0.449161
    11    -0.354574
    12     0.189053
    13     0.046744
    14     0.010569
    15    -0.099176
    16     0.007508
    17     0.305126
    18    -1.211833
    19     0.017973
    20     0.024331
    21    -0.289557
    22     0.021812
    23     0.040114
    24     0.519622
    25     0.062802
    26     0.154926
    27    -0.125352
    28     0.147001
    29    -0.095652
    30    -0.198499
Sym=    27a
Ene=   -0.934531E-03
Spin= Alpha
Occup= 0.000036
     1     0.009899
     2    -0.015071
     3     0.313959
     4     0.001091
     5     0.002581
     6    -0.010898
     7     0.003838
     8     0.004842
     9     0.162041
    10    -0.007069
    11    -0.003470
    12    -0.069962
    13     0.009305
    14     0.000282
    15    -0.004581
    16    -0.592882
    17    -1.496085
    18    -1.756013
    19    -0.000011
    20     0.000381
    21    -0.055479
    22    -0.000440
    23     0.000142
    24     0.090535
    25     1.327469
    26     1.322639
    27     1.390017
    28     0.000134
    29     0.029940
    30     0.022159
Sym=    28a
Ene=    0.000000E+00
Spin= Alpha
Occup= 0.000000
     1    -0.005946
     2     0.174433
     3    -0.730299
     4    -0.019107
     5    -0.073970
     6    -0.119034
     7    -0.055059
     8    -0.155217
     9    -0.635156
    10     0.298179
    11     0.122480
    12    -0.263340
    13    -0.192442
    14    -0.188257
    15    -0.604142
    16     0.007088
    17    -0.173805
    18     0.732882
    19     0.029722
    20     0.069074
    21    -0.147064
    22     0.057785
    23     0.153945
    24    -0.663595
    25    -0.218015
    26    -0.209286
    27     0.254689
    28     0.190472
    29    -0.287530
    30    -0.558554
Sym=    29a
Ene=    0.000000E+00
Spin= Alpha
Occup= 0.000000
     1     0.000763
     2    -0.015275
     3     0.066093
     4     0.086311
     5    -0.031939
     6     0.012350
     7     0.111087
     8    -0.024623
     9     0.046424
    10    -0.263639
    11     0.290743
    12    -0.056613
    13    -0.543393
    14     0.688519
    15    -0.221957
    16    -0.001093
    17     0.007052
    18    -0.048049
    19    -0.021625
    20    -0.005992
    21     0.019812
    22    -0.102670
    23     0.017294
    24     0.047796
    25    -0.158080
    26     0.178644
    27    -0.000555
    28    -0.027742
    29    -0.022071
    30     0.163782
Sym=    30a
Ene=    0.000000E+00
Spin= Alpha
Occup= 0.000000
     1     0.000360
     2    -0.027712
     3     0.098331
     4     0.055262
     5    -0.028873
     6     0.008717
     7     0.143546
     8    -0.077723
     9     0.078483
    10    -0.066642
    11     0.031332
    12     0.014802
    13    -0.073985
    14     0.218243
    15    -0.086161
    16    -0.000624
    17     0.015391
    18    -0.070282
    19    -0.098172
    20     0.052704
    21     0.015092
    22    -0.152536
    23     0.079258
    24     0.075553
    25     0.596344
    26    -0.490107
    27    -0.103206
    28    -0.012827
    29     0.645505
    30    -0.368168
