[Molden Format]
p30-5 set                                                                       
[Atoms] AU
 NA       1    11        0.0000        0.0000       -1.7926
 H        2     1        0.0000        0.0000        1.7926
[GTO]
    1 0
s    5 1.00
    4098.200390800000 -0.582973440428E-02
     616.493740310000 -0.434692743388E-01
     139.966440010000 -0.193522713755E+00
      39.073441051000 -0.484866458138E+00
      11.929847205000 -0.417110128653E+00
s    3 1.00
      20.659966030000  0.857687067851E-01
       1.983886097800 -0.562404693737E+00
       0.648363239420 -0.518446102123E+00
s    1 1.00
       0.052443967404  0.100000000000E+01
s    1 1.00
       0.028048160742  0.100000000000E+01
p    5 1.00
      75.401862017000  0.154353625324E-01
      17.274818978000  0.997382931840E-01
       5.184234742500  0.312095939659E+00
       1.660121197300  0.492956748074E+00
       0.512325289580  0.324203983180E+00
p    1 1.00
       0.052000000000  0.100000000000E+01
d    1 1.00
       0.131000000000  0.100000000000E+01
 
    2 0
s    3 1.00
      13.010701000000  0.334854848130E-01
       1.962257200000  0.234721870881E+00
       0.444537960000  0.813770285260E+00
s    1 1.00
       0.121949620000  0.100000000000E+01
p    1 1.00
       0.800000000000  0.100000000000E+01
 
[MO]
Sym=     1a
Ene=   -0.404580E+02
Spin= Alpha
Occup= 2.000000
     1    -0.992362
     2    -0.032679
     3    -0.034721
     4     0.012171
     5     0.002117
     6     0.009536
     7    -0.007415
     8     0.000022
     9     0.000098
    10    -0.000314
    11     0.009364
    12     0.009365
    13     0.009236
    14     0.000000
    15    -0.000003
    16    -0.000026
    17    -0.000322
    18     0.000568
    19     0.000001
    20     0.000012
    21    -0.000180
Sym=     2a
Ene=   -0.155487E+01
Spin= Alpha
Occup= 2.000000
     1     0.036111
     2    -0.176732
     3    -0.013386
     4     0.003567
     5    -0.201045
     6    -0.914048
     7     0.304815
     8    -0.002049
     9    -0.009336
    10     0.000936
    11     0.004487
    12     0.004497
    13     0.000801
    14     0.000002
    15     0.000558
    16     0.002521
    17     0.002002
    18     0.001576
    19    -0.000215
    20    -0.000992
    21    -0.001069
Sym=     3a
Ene=   -0.151896E+01
Spin= Alpha
Occup= 1.999910
     1    -0.011355
     2     0.043950
     3     0.005125
     4    -0.001499
     5    -0.976257
     6     0.166370
     7    -0.121900
     8    -0.010050
     9     0.001719
    10    -0.000392
    11    -0.001587
    12    -0.001579
    13    -0.000117
    14     0.000001
    15     0.002679
    16    -0.000453
    17    -0.000832
    18    -0.000767
    19    -0.000994
    20     0.000184
    21     0.000384
Sym=     4a
Ene=   -0.163870E+01
Spin= Alpha
Occup= 1.999870
     1     0.087980
     2    -0.339573
     3    -0.036240
     4     0.010491
     5    -0.060595
     6     0.363166
     7     0.870209
     8    -0.000627
     9     0.003830
    10     0.002984
    11     0.011411
    12     0.011435
    13     0.001018
    14     0.000005
    15     0.000172
    16    -0.000943
    17     0.006124
    18     0.005531
    19    -0.000051
    20     0.000409
    21    -0.002939
Sym=     5a
Ene=   -0.264271E+01
Spin= Alpha
Occup= 1.999726
     1     0.262585
     2    -0.955162
     3     0.021194
     4    -0.012042
     5     0.013722
     6     0.047164
     7    -0.363100
     8     0.000138
     9     0.000459
    10    -0.001085
    11     0.000443
    12     0.000442
    13     0.004892
    14     0.000001
    15    -0.000043
    16    -0.000150
    17    -0.001365
    18    -0.003999
    19     0.000011
    20     0.000046
    21    -0.000073
Sym=     6a
Ene=   -0.292910E+00
Spin= Alpha
Occup= 1.928726
     1     0.026355
     2    -0.156808
     3    -0.184415
     4    -0.161921
     5     0.000071
     6     0.000588
     7     0.067607
     8    -0.000031
     9     0.000129
    10    -0.155486
    11    -0.028621
    12    -0.026058
    13    -0.075881
    14     0.000318
    15    -0.000026
    16    -0.000021
    17    -0.396278
    18    -0.331540
    19    -0.000004
    20     0.000002
    21     0.011960
Sym=     7a
Ene=   -0.215111E-01
Spin= Alpha
Occup= 0.067289
     1    -0.029490
     2     0.187034
     3     0.422809
     4     0.342400
     5    -0.000026
     6     0.000085
     7     0.013889
     8     0.000202
     9    -0.000667
    10     0.331126
    11     0.065262
    12     0.065519
    13     0.113369
    14     0.000004
    15     0.000404
    16     0.000218
    17    -0.819588
    18    -0.160627
    19     0.000256
    20     0.000020
    21     0.006760
Sym=     8a
Ene=   -0.789763E-03
Spin= Alpha
Occup= 0.000257
     1    -0.118189
     2     1.099882
     3     6.983924
     4    -2.599469
     5    -0.000063
     6     0.002914
     7     0.064044
     8     0.000606
     9    -0.022310
    10    -0.064264
    11    -1.835003
    12    -1.832816
    13    -1.682265
    14     0.000499
    15    -0.006493
    16    -0.021421
    17     0.404576
    18    -0.608709
    19    -0.006412
    20    -0.007135
    21     0.143346
Sym=     9a
Ene=   -0.185480E-03
Spin= Alpha
Occup= 0.000085
     1    -0.034389
     2     0.347602
     3     2.000328
     4    -1.153088
     5     0.002391
     6    -0.044723
     7    -0.100866
     8    -0.020553
     9     0.334845
    10    -0.054500
    11    -0.689149
    12    -0.674154
    13    -0.782147
    14    -0.000778
    15     0.006799
    16     0.154710
    17    -0.656755
    18     1.134686
    19     0.050414
    20     0.087478
    21    -0.521933
Sym=    10a
Ene=   -0.112288E-03
Spin= Alpha
Occup= 0.000054
     1     0.005533
     2    -0.062564
     3    -0.313116
     4     0.244729
     5     0.083715
     6    -0.018963
     7     0.014660
     8    -0.676873
     9     0.145476
    10     0.091904
    11     0.123611
    12     0.150144
    13     0.138262
    14     0.006749
    15    -0.319240
    16     0.067212
    17     0.250367
    18    -0.439865
    19     0.725912
    20    -0.022799
    21    -0.135061
Sym=    11a
Ene=   -0.135152E-05
Spin= Alpha
Occup= 0.000000
     1     0.000690
     2    -0.009594
     3    -0.043578
     4    -0.057011
     5     0.035223
     6    -0.033165
     7    -0.001813
     8    -0.249971
     9     0.232768
    10    -0.028524
    11    -0.479153
    12     0.602825
    13    -0.034772
    14    -0.237129
    15     0.363857
    16    -0.550900
    17     0.004542
    18     0.059136
    19    -0.159075
    20     0.126289
    21     0.015046
Sym=    12a
Ene=   -0.534805E-06
Spin= Alpha
Occup= 0.000000
     1    -0.001769
     2     0.018972
     3     0.278795
     4    -0.123131
     5     0.051253
     6    -0.007613
     7    -0.008050
     8    -0.365600
     9     0.050151
    10     0.261673
    11     0.370473
    12    -0.434859
    13    -0.012907
    14     0.545271
    15     0.516964
    16    -0.220852
    17     0.063803
    18    -0.269137
    19    -0.203015
    20     0.055293
    21     0.052959
Sym=    13a
Ene=   -0.213969E-02
Spin= Alpha
Occup= 0.003985
     1    -0.000534
     2     0.004196
     3     0.035370
     4    -0.017308
     5    -0.062864
     6     0.006567
     7     0.000330
     8     0.450678
     9    -0.047049
    10     0.006845
    11    -0.005721
    12    -0.005841
    13     0.000474
    14     0.000159
    15     0.500815
    16    -0.052021
    17     0.008338
    18    -0.020009
    19     0.603764
    20    -0.062614
    21    -0.009660
Sym=    14a
Ene=   -0.568899E-04
Spin= Alpha
Occup= 0.000017
     1    -0.002486
     2     0.047868
     3     0.291554
     4    -0.103953
     5    -0.000261
     6    -0.078133
     7     0.010981
     8    -0.000777
     9     0.603620
    10     0.036802
    11    -0.100383
    12    -0.078683
    13    -0.205322
    14     0.004981
    15     0.012674
    16     0.313184
    17    -0.114845
    18     0.211068
    19     0.055438
    20    -0.151154
    21     0.709311
Sym=    15a
Ene=   -0.100652E-03
Spin= Alpha
Occup= 0.000045
     1    -0.010265
     2     0.113179
     3     0.532660
     4    -0.484051
     5     0.021531
     6     0.045636
     7    -0.027495
     8    -0.172490
     9    -0.313463
    10    -0.234868
    11    -0.265986
    12    -0.287736
    13    -0.164459
    14    -0.005482
    15    -0.141313
    16    -0.220095
    17    -0.557773
    18     0.929957
    19     0.132872
    20    -0.637943
    21     0.211891
Sym=    16a
Ene=   -0.804204E-04
Spin= Alpha
Occup= 0.000036
     1    -0.006008
     2     0.069499
     3     0.289709
     4    -0.327243
     5     0.014618
     6     0.049142
     7    -0.005715
     8    -0.122727
     9    -0.415614
    10    -0.240626
    11    -0.172623
    12    -0.187259
    13    -0.062104
    14    -0.006225
    15    -0.086967
    16    -0.180339
    17    -0.438562
    18     0.739786
    19     0.196463
    20     0.752843
    21     0.371474
Sym=    17a
Ene=   -0.177369E-05
Spin= Alpha
Occup= 0.000000
     1    -0.011984
     2     0.157348
     3     0.975807
     4    -0.085963
     5     0.013226
     6     0.053030
     7    -0.055862
     8    -0.096814
     9    -0.390697
    10     0.353878
    11    -0.399625
    12     0.152612
    13    -1.165433
    14     0.102823
    15     0.095655
    16     0.309512
    17     0.333624
    18    -0.080760
    19    -0.020946
    20    -0.063242
    21    -0.011070
Sym=    18a
Ene=   -0.562363E-06
Spin= Alpha
Occup= 0.000000
     1     0.007037
     2    -0.107854
     3    -0.812322
     4    -0.168911
     5     0.025661
     6     0.020317
     7     0.032066
     8    -0.181273
     9    -0.135314
    10    -0.668570
    11    -0.067349
    12     0.588146
    13     0.522891
    14     0.277664
    15     0.309158
    16     0.550750
    17    -0.316635
    18     0.688572
    19    -0.116190
    20    -0.136832
    21    -0.048249
Sym=    19a
Ene=    0.000000E+00
Spin= Alpha
Occup= 0.000000
     1    -0.000379
     2     0.009366
     3    -0.959533
     4     0.164710
     5    -0.013283
     6    -0.016562
     7    -0.015734
     8     0.094625
     9     0.119329
    10    -1.733026
    11     0.475474
    12     0.420354
    13    -1.395095
    14     0.238135
    15    -0.138305
    16    -0.188108
    17    -0.160302
    18     2.354166
    19     0.053246
    20     0.038981
    21    -0.297107
Sym=    20a
Ene=    0.000000E+00
Spin= Alpha
Occup= 0.000000
     1     0.003171
     2    -0.098334
     3    -0.263502
     4    -1.114842
     5     0.023320
     6     0.011069
     7    -0.011706
     8    -0.167130
     9    -0.078817
    10    -0.402426
    11     0.986425
    12     0.429615
    13    -0.031023
    14    -0.568568
    15     0.229326
    16     0.146077
    17    -0.073207
    18     0.664588
    19    -0.080498
    20    -0.036282
    21    -0.025471
Sym=    21a
Ene=    0.000000E+00
Spin= Alpha
Occup= 0.000000
     1    -0.005215
     2     0.132446
     3    -0.106581
     4     1.346396
     5     0.028388
     6     0.008362
     7     0.006117
     8    -0.202468
     9    -0.057610
    10    -0.426183
    11    -0.447872
    12    -0.809740
    13    -0.679178
    14    -0.422683
    15     0.301065
    16     0.168714
    17    -0.021200
    18     0.454104
    19    -0.108038
    20    -0.039175
    21    -0.108515
