[Molden Format]
p30-5 set                                                                       
[Atoms] AU
 H        1     1     -129.9765        0.0000        0.0000
 HE       2     2      -11.5887        0.0000        0.0000
[GTO]
    1 0
s    5 1.00
    8002.479510600000  0.552555527945E-02
    1203.681359000000  0.413263671710E-01
     273.442270310000  0.186070058991E+00
      76.655541517000  0.477107006766E+00
      23.516927435000  0.432247688783E+00
s    3 1.00
      39.791683439000  0.909541455125E-01
       4.277034332300 -0.550855656186E+00
       1.694025688800 -0.518269979075E+00
s    1 1.00
       0.275676746440  0.100000000000E+01
s    1 1.00
       0.104955900990  0.100000000000E+01
p    5 1.00
     219.507558230000  0.957391014006E-02
      51.274155030000  0.679938519137E-01
      15.921595892000  0.249832097533E+00
       5.506991348100  0.481481790475E+00
       1.953771942600  0.388697985432E+00
p    1 1.00
       0.478033979320  0.100000000000E+01
p    1 1.00
       0.136579526210  0.100000000000E+01
d    1 1.00
       0.450000000000  0.100000000000E+01
 
    2 0
s    5 1.00
    8002.479510600000  0.552555527945E-02
    1203.681359000000  0.413263671710E-01
     273.442270310000  0.186070058991E+00
      76.655541517000  0.477107006766E+00
      23.516927435000  0.432247688783E+00
s    3 1.00
      39.791683439000  0.909541455125E-01
       4.277034332300 -0.550855656186E+00
       1.694025688800 -0.518269979075E+00
s    1 1.00
       0.275676746440  0.100000000000E+01
s    1 1.00
       0.104955900990  0.100000000000E+01
p    5 1.00
     219.507558230000  0.957391014006E-02
      51.274155030000  0.679938519137E-01
      15.921595892000  0.249832097533E+00
       5.506991348100  0.481481790475E+00
       1.953771942600  0.388697985432E+00
p    1 1.00
       0.478033979320  0.100000000000E+01
p    1 1.00
       0.136579526210  0.100000000000E+01
d    1 1.00
       0.450000000000  0.100000000000E+01
 
[MO]
Sym=     1a
Ene=    0.357620E+01
Spin= Alpha
Occup= 2.000000
     1     0.002555
     2    -0.069182
     3     0.654875
     4    -1.959886
     5    -0.000311
     6    -0.000548
     7     0.000025
     8     0.008306
     9     0.014356
    10    -0.000660
    11    -0.023184
    12    -0.039408
    13     0.001799
    14     0.337778
    15     0.337537
    16     0.336942
    17    -0.000252
    18     0.000461
    19    -0.000317
    20     0.000109
    21    -0.002100
    22     0.015953
    23    -0.044669
    24    -0.000003
    25    -0.000001
    26    -0.000001
    27     0.000079
    28     0.000037
    29     0.000041
    30    -0.000192
    31    -0.000085
    32    -0.000097
    33     0.008067
    34     0.008101
    35     0.007995
    36     0.000036
    37    -0.000023
    38    -0.000012
Sym=     2a
Ene=    0.360336E+01
Spin= Alpha
Occup= 2.000000
     1     0.000019
     2    -0.000926
     3     0.011236
     4    -0.040425
     5    -0.000026
     6    -0.000039
     7    -0.000003
     8     0.000711
     9     0.001004
    10     0.000164
    11    -0.001862
    12    -0.002829
    13    -0.000109
    14     0.005735
    15     0.005894
    16     0.005741
    17    -0.000046
    18     0.000107
    19     0.000149
    20    -0.003052
    21     0.073515
    22    -0.652547
    23     1.960395
    24     0.000164
    25    -0.000204
    26    -0.000153
    27    -0.004166
    28     0.005322
    29     0.003977
    30     0.010979
    31    -0.014604
    32    -0.010928
    33    -0.338194
    34    -0.337920
    35    -0.338019
    36    -0.000009
    37     0.000005
    38     0.000339
Sym=     3a
Ene=    0.398744E+01
Spin= Alpha
Occup= 2.000000
     1     0.000000
     2    -0.000000
     3    -0.000081
     4     0.000218
     5     0.003290
     6    -0.002753
     7    -0.016375
     8    -0.086319
     9     0.072227
    10     0.429678
    11     0.235705
    12    -0.197484
    13    -1.179716
    14     0.000768
    15    -0.001358
    16     0.000547
    17     0.000290
    18    -0.003767
    19    -0.005917
    20     0.000003
    21    -0.000033
    22     0.000175
    23    -0.000323
    24     0.000006
    25    -0.000004
    26    -0.000003
    27    -0.000204
    28     0.000135
    29     0.000088
    30     0.000405
    31    -0.000301
    32    -0.000205
    33     0.000023
    34     0.000098
    35     0.000093
    36    -0.000049
    37    -0.000095
    38    -0.000157
Sym=     4a
Ene=    0.398195E+01
Spin= Alpha
Occup= 1.998234
     1     0.000006
     2     0.000675
     3    -0.011442
     4     0.047519
     5     0.003504
     6    -0.016141
     7     0.003382
     8    -0.091929
     9     0.423407
    10    -0.088753
    11     0.254027
    12    -1.165644
    13     0.245566
    14    -0.007161
    15    -0.000491
    16    -0.009547
    17    -0.004004
    18     0.001243
    19    -0.000931
    20     0.000056
    21    -0.000668
    22     0.002688
    23    -0.003762
    24     0.000003
    25    -0.000011
    26    -0.000009
    27    -0.000044
    28     0.000278
    29     0.000222
    30     0.000187
    31    -0.000797
    32    -0.000640
    33     0.001032
    34     0.001020
    35     0.000910
    36     0.000068
    37     0.000044
    38     0.000113
Sym=     5a
Ene=    0.398183E+01
Spin= Alpha
Occup= 1.998232
     1    -0.000008
     2    -0.000601
     3     0.010439
     4    -0.044768
     5     0.016166
     6     0.004063
     7     0.002530
     8    -0.424046
     9    -0.106564
    10    -0.066396
    11     1.167961
    12     0.292623
    13     0.184048
    14    -0.001716
    15     0.008410
    16     0.009289
    17    -0.000359
    18    -0.000819
    19     0.000900
    20    -0.000054
    21     0.000658
    22    -0.002718
    23     0.004029
    24    -0.000004
    25     0.000011
    26     0.000009
    27     0.000127
    28    -0.000327
    29    -0.000261
    30    -0.000283
    31     0.000824
    32     0.000668
    33    -0.000984
    34    -0.001094
    35    -0.001034
    36    -0.000014
    37     0.000070
    38     0.000118
Sym=     6a
Ene=    0.401049E+01
Spin= Alpha
Occup= 1.997512
     1    -0.000003
     2     0.000047
     3    -0.000174
     4    -0.000219
     5    -0.000007
     6    -0.000011
     7     0.000000
     8     0.000168
     9     0.000296
    10    -0.000020
    11    -0.000482
    12    -0.000826
    13     0.000017
    14    -0.000095
    15    -0.000083
    16    -0.000095
    17    -0.000002
    18    -0.000002
    19     0.000005
    20    -0.000007
    21     0.000312
    22    -0.003342
    23     0.011185
    24     0.010644
    25     0.009142
    26     0.009524
    27    -0.281365
    28    -0.241687
    29    -0.251781
    30     0.766330
    31     0.657855
    32     0.685402
    33     0.000909
    34    -0.003562
    35    -0.002918
    36     0.000860
    37     0.001326
    38    -0.001159
Sym=     7a
Ene=    0.401227E+01
Spin= Alpha
Occup= 1.997403
     1    -0.000003
     2     0.000057
     3    -0.000361
     4     0.000584
     5     0.000006
     6     0.000011
     7     0.000004
     8    -0.000159
     9    -0.000271
    10    -0.000106
    11     0.000424
    12     0.000768
    13     0.000338
    14    -0.000230
    15    -0.000148
    16    -0.000180
    17    -0.000032
    18     0.000026
    19     0.000033
    20    -0.000029
    21    -0.000129
    22     0.005418
    23    -0.021366
    24     0.010713
    25     0.001144
    26    -0.013081
    27    -0.283146
    28    -0.030219
    29     0.345744
    30     0.772048
    31     0.081691
    32    -0.941592
    33     0.003397
    34     0.004284
    35     0.001708
    36    -0.000368
    37     0.002633
    38     0.002221
Sym=     8a
Ene=    0.401226E+01
Spin= Alpha
Occup= 1.997403
     1     0.000003
     2    -0.000058
     3     0.000366
     4    -0.000587
     5    -0.000005
     6    -0.000011
     7    -0.000004
     8     0.000123
     9     0.000294
    10     0.000094
    11    -0.000397
    12    -0.000770
    13    -0.000315
    14     0.000221
    15     0.000151
    16     0.000194
    17     0.000001
    18    -0.000024
    19    -0.000034
    20     0.000030
    21     0.000116
    22    -0.005206
    23     0.020716
    24    -0.007670
    25     0.014232
    26    -0.005079
    27     0.202723
    28    -0.376181
    29     0.134246
    30    -0.553084
    31     1.024736
    32    -0.365183
    33    -0.004112
    34    -0.001682
    35    -0.003311
    36    -0.001648
    37     0.000257
    38    -0.003111
Sym=     9a
Ene=    0.481397E+01
Spin= Alpha
Occup= 1.950187
     1     0.005011
     2    -0.079775
     3     0.442330
     4    -0.398266
     5     0.000107
     6     0.000150
     7    -0.000007
     8    -0.002737
     9    -0.003747
    10     0.000254
    11     0.007169
    12     0.011404
    13    -0.000417
    14     0.225356
    15     0.226910
    16     0.223103
    17     0.001192
    18    -0.004392
    19     0.002622
    20     0.017386
    21    -0.190722
    22     0.625460
    23    -0.415814
    24     0.000031
    25    -0.000037
    26    -0.000024
    27    -0.000834
    28     0.001058
    29     0.000757
    30     0.003205
    31    -0.002545
    32    -0.001645
    33     0.175875
    34     0.180328
    35     0.182192
    36     0.005082
    37     0.003055
    38    -0.001432
Sym=    10a
Ene=    0.476441E+01
Spin= Alpha
Occup= 1.919973
     1     0.006030
     2    -0.096020
     3     0.535821
     4    -0.486479
     5     0.000084
     6     0.000123
     7    -0.000005
     8    -0.001969
     9    -0.003457
    10     0.000074
    11     0.005359
    12     0.008658
    13    -0.000379
    14     0.274090
    15     0.276091
    16     0.268309
    17     0.002208
    18    -0.008150
    19     0.004587
    20    -0.014523
    21     0.159145
    22    -0.527145
    23     0.355028
    24    -0.000010
    25     0.000027
    26     0.000020
    27     0.000466
    28    -0.000643
    29    -0.000443
    30    -0.001549
    31     0.001971
    32     0.001434
    33    -0.144106
    34    -0.148591
    35    -0.149741
    36    -0.004786
    37    -0.002595
    38     0.001349
Sym=    11a
Ene=    0.300039E+01
Spin= Alpha
Occup= 1.000341
     1     0.000047
     2    -0.000675
     3     0.004430
     4    -0.002428
     5    -0.006792
     6    -0.004639
     7     0.001983
     8     0.465667
     9     0.317854
    10    -0.136669
    11    -0.162577
    12    -0.111083
    13     0.047615
    14     0.144690
    15    -0.193899
    16     0.052326
    17    -0.193653
    18     0.410354
    19    -0.164249
    20    -0.010947
    21     0.081241
    22    -0.520401
    23    -0.166345
    24     0.000879
    25    -0.001442
    26    -0.001706
    27    -0.178419
    28     0.298491
    29     0.356115
    30     0.062075
    31    -0.103731
    32    -0.123720
    33     0.090478
    34     0.443627
    35     0.509393
    36     0.318827
    37     0.215755
    38     0.002436
Sym=    12a
Ene=    0.298448E+01
Spin= Alpha
Occup= 1.000191
     1    -0.000012
     2     0.000200
     3    -0.000613
     4     0.000688
     5    -0.007771
     6     0.006336
     7    -0.003894
     8     0.529874
     9    -0.432640
    10     0.261492
    11    -0.184979
    12     0.151124
    13    -0.090966
    14     0.256995
    15    -0.222856
    16    -0.035962
    17     0.199918
    18    -0.143512
    19     0.025951
    20     0.004691
    21    -0.034805
    22     0.223098
    23     0.071147
    24     0.000799
    25     0.001471
    26    -0.003301
    27    -0.167166
    28    -0.313139
    29     0.697468
    30     0.058038
    31     0.108833
    32    -0.242273
    33    -0.083268
    34    -0.083168
    35    -0.280589
    36    -0.196223
    37     0.035294
    38     0.072251
Sym=    13a
Ene=    0.305260E+01
Spin= Alpha
Occup= 1.000097
     1     0.000008
     2    -0.000038
     3     0.001863
     4    -0.000498
     5     0.000078
     6     0.000122
     7     0.000014
     8    -0.005464
     9    -0.008717
    10    -0.000985
    11     0.001934
    12     0.002999
    13     0.000317
    14     0.076690
    15    -0.196775
    16     0.118819
    17    -0.357352
    18    -0.189887
    19     0.151421
    20     0.017926
    21    -0.132502
    22     0.850891
    23     0.283242
    24     0.000012
    25     0.000000
    26    -0.000014
    27    -0.003004
    28     0.000761
    29     0.001987
    30     0.001033
    31    -0.000212
    32    -0.000696
    33    -0.866603
    34    -0.864301
    35    -0.007774
    36     0.075401
    37     0.344108
    38    -0.069650
Sym=    14a
Ene=    0.299434E+01
Spin= Alpha
Occup= 1.000093
     1     0.000047
     2    -0.000787
     3     0.003074
     4    -0.003198
     5     0.003470
     6     0.007408
     7     0.000657
     8    -0.238015
     9    -0.508158
    10    -0.045091
    11     0.083108
    12     0.177454
    13     0.015659
    14    -0.169269
    15    -0.250812
    16     0.426229
    17    -0.033807
    18     0.302605
    19    -0.109448
    20    -0.004274
    21     0.031797
    22    -0.202946
    23    -0.064069
    24    -0.003384
    25     0.001443
    26    -0.000692
    27     0.704456
    28    -0.299065
    29     0.149384
    30    -0.244703
    31     0.103864
    32    -0.051901
    33    -0.057035
    34     0.222529
    35     0.239603
    36     0.046386
    37     0.001207
    38    -0.173090
Sym=    15a
Ene=    0.298517E+01
Spin= Alpha
Occup= 1.000064
     1    -0.000016
     2     0.000263
     3    -0.001220
     4     0.000995
     5    -0.002309
     6     0.003096
     7     0.009972
     8     0.161288
     9    -0.213953
    10    -0.682154
    11    -0.056277
    12     0.074660
    13     0.237147
    14    -0.011856
    15     0.100676
    16    -0.090711
    17     0.067192
    18     0.046765
    19     0.345225
    20     0.005368
    21    -0.039824
    22     0.255251
    23     0.081725
    24    -0.001628
    25    -0.003055
    26    -0.001126
    27     0.344752
    28     0.643373
    29     0.236930
    30    -0.119814
    31    -0.223424
    32    -0.082266
    33    -0.149686
    34    -0.162490
    35    -0.200026
    36    -0.153187
    37    -0.159563
    38     0.148006
Sym=    16a
Ene=    0.298470E+01
Spin= Alpha
Occup= 0.999936
     1     0.000019
     2    -0.000304
     3     0.001416
     4    -0.001238
     5     0.002316
     6    -0.003089
     7    -0.009963
     8    -0.161794
     9     0.213538
    10     0.681670
    11     0.056459
    12    -0.074515
    13    -0.236975
    14     0.012431
    15    -0.100782
    16     0.090678
    17    -0.066359
    18    -0.047357
    19    -0.345679
    20     0.005322
    21    -0.039419
    22     0.253038
    23     0.081999
    24    -0.001652
    25    -0.003036
    26    -0.001135
    27     0.349166
    28     0.640707
    29     0.237876
    30    -0.121354
    31    -0.222486
    32    -0.082568
    33    -0.147388
    34    -0.161864
    35    -0.201203
    36    -0.151953
    37    -0.156888
    38     0.152894
Sym=    17a
Ene=    0.299381E+01
Spin= Alpha
Occup= 0.999907
     1    -0.000051
     2     0.000844
     3    -0.003531
     4     0.003592
     5    -0.003523
     6    -0.007375
     7    -0.000695
     8     0.241473
     9     0.506142
    10     0.047647
    11    -0.084317
    12    -0.176756
    13    -0.016612
    14     0.165704
    15     0.254517
    16    -0.426929
    17     0.032275
    18    -0.299195
    19     0.114795
    20    -0.004215
    21     0.031178
    22    -0.200751
    23    -0.065159
    24    -0.003378
    25     0.001437
    26    -0.000692
    27     0.704534
    28    -0.298615
    29     0.149611
    30    -0.244731
    31     0.103708
    32    -0.051985
    33    -0.057475
    34     0.224087
    35     0.239009
    36     0.048298
    37     0.001339
    38    -0.172985
Sym=    18a
Ene=    0.305199E+01
Spin= Alpha
Occup= 0.999903
     1     0.000015
     2    -0.000314
     3     0.000621
     4    -0.001693
     5    -0.000054
     6    -0.000130
     7    -0.000007
     8     0.003723
     9     0.009234
    10     0.000501
    11    -0.001318
    12    -0.003189
    13    -0.000149
    14    -0.076005
    15     0.197389
    16    -0.116908
    17     0.356795
    18     0.190424
    19    -0.152741
    20     0.017925
    21    -0.132467
    22     0.850871
    23     0.283603
    24     0.000011
    25    -0.000016
    26     0.000007
    27    -0.002913
    28     0.002349
    29    -0.000617
    30     0.000977
    31    -0.000835
    32     0.000266
    33    -0.740514
    34    -0.177335
    35    -0.821806
    36     0.521124
    37    -0.010507
    38    -0.140334
Sym=    19a
Ene=    0.298313E+01
Spin= Alpha
Occup= 0.999809
     1     0.000015
     2    -0.000248
     3     0.000937
     4    -0.000994
     5     0.007780
     6    -0.006332
     7     0.003925
     8    -0.530306
     9     0.432268
    10    -0.263569
    11     0.185125
    12    -0.150995
    13     0.091705
    14    -0.255847
    15     0.222240
    16     0.035893
    17    -0.199416
    18     0.142072
    19    -0.026136
    20     0.004619
    21    -0.034224
    22     0.219637
    23     0.071087
    24     0.000812
    25     0.001468
    26    -0.003312
    27    -0.169129
    28    -0.311605
    29     0.698923
    30     0.058717
    31     0.108267
    32    -0.242750
    33    -0.084287
    34    -0.081269
    35    -0.277441
    36    -0.199147
    37     0.031744
    38     0.066176
Sym=    20a
Ene=    0.299834E+01
Spin= Alpha
Occup= 0.999659
     1    -0.000056
     2     0.000819
     3    -0.005402
     4     0.003344
     5     0.006805
     6     0.004644
     7    -0.001945
     8    -0.466657
     9    -0.318151
    10     0.134175
    11     0.162966
    12     0.111174
    13    -0.046715
    14    -0.143220
    15     0.190743
    16    -0.052045
    17     0.194993
    18    -0.411298
    19     0.161480
    20    -0.010906
    21     0.080766
    22    -0.518870
    23    -0.167877
    24     0.000874
    25    -0.001433
    26    -0.001693
    27    -0.178207
    28     0.298206
    29     0.355528
    30     0.061996
    31    -0.103644
    32    -0.123533
    33     0.090852
    34     0.444794
    35     0.510364
    36     0.319533
    37     0.215772
    38     0.001572
Sym=    21a
Ene=    0.201874E+00
Spin= Alpha
Occup= 0.080027
     1     0.000012
     2     0.000119
     3     0.004685
     4     0.001485
     5     0.000079
     6     0.000133
     7     0.000023
     8    -0.009382
     9    -0.017014
    10    -0.002176
    11     0.003401
    12     0.006041
    13     0.000742
    14     0.119429
    15    -0.308556
    16     0.179445
    17    -0.558139
    18    -0.294216
    19     0.235457
    20     0.000002
    21    -0.000018
    22     0.000085
    23    -0.000110
    24     0.000005
    25     0.000026
    26    -0.000028
    27     0.000390
    28     0.002063
    29    -0.002155
    30    -0.000154
    31    -0.000784
    32     0.000805
    33     0.080706
    34     0.442316
    35    -0.522816
    36     0.285459
    37    -0.226319
    38    -0.045595
Sym=    22a
Ene=    0.136545E+00
Spin= Alpha
Occup= 0.049813
     1     0.000001
     2    -0.000021
     3    -0.000044
     4    -0.000123
     5    -0.002023
     6     0.001062
     7    -0.004054
     8     0.148630
     9    -0.075822
    10     0.338071
    11    -0.054140
    12     0.027606
    13    -0.122428
    14    -0.253254
    15     0.275868
    16    -0.022261
    17    -0.127325
    18     0.205292
    19     0.294550
    20    -0.000169
    21     0.001717
    22    -0.002848
    23    -0.001957
    24    -0.003927
    25     0.002104
    26     0.001129
    27    -0.257153
    28     0.143982
    29     0.079116
    30     0.092595
    31    -0.051760
    32    -0.028395
    33    -0.225706
    34     0.070395
    35     0.163907
    36    -0.202983
    37    -0.345551
    38    -0.621836
Sym=    23a
Ene=    0.305363E-02
Spin= Alpha
Occup= 0.002597
     1    -0.000001
     2     0.000023
     3     0.000058
     4    -0.000099
     5    -0.001403
     6     0.000738
     7    -0.002680
     8     0.081973
     9    -0.033731
    10     0.322222
    11    -0.030085
    12     0.012415
    13    -0.117035
    14    -0.171453
    15     0.195395
    16    -0.023746
    17    -0.081260
    18     0.221864
    19     0.330359
    20    -0.003417
    21     0.056230
    22     0.138460
    23     0.003901
    24     0.001604
    25    -0.011849
    26     0.003720
    27     0.046282
    28    -0.235602
    29     0.067581
    30    -0.016799
    31     0.084636
    32    -0.024150
    33    -0.034579
    34    -0.321849
    35     0.193503
    36     0.359776
    37    -0.382383
    38     0.552474
Sym=    24a
Ene=    0.305335E-02
Spin= Alpha
Occup= 0.002597
     1    -0.000001
     2     0.000029
     3     0.000156
     4    -0.000086
     5    -0.001404
     6     0.000738
     7    -0.002678
     8     0.082109
     9    -0.033800
    10     0.322014
    11    -0.030135
    12     0.012441
    13    -0.116959
    14    -0.171597
    15     0.196069
    16    -0.024423
    17    -0.079659
    18     0.222577
    19     0.329566
    20    -0.003415
    21     0.056251
    22     0.138755
    23     0.004000
    24     0.004243
    25     0.001249
    26    -0.011753
    27     0.097003
    28     0.016289
    29    -0.229943
    30    -0.034965
    31    -0.005704
    32     0.082533
    33    -0.285220
    34     0.422951
    35    -0.301232
    36    -0.284605
    37     0.528154
    38     0.286139
Sym=    25a
Ene=    0.305398E-02
Spin= Alpha
Occup= 0.002488
     1     0.000000
     2     0.000016
     3     0.000316
     4    -0.000031
     5     0.000747
     6    -0.000382
     7     0.001549
     8    -0.040964
     9     0.014320
    10    -0.199314
    11     0.015062
    12    -0.005297
    13     0.072378
    14     0.092956
    15    -0.108498
    16     0.015281
    17     0.042371
    18    -0.140867
    19    -0.210793
    20    -0.001833
    21     0.029336
    22     0.069543
    23     0.000993
    24    -0.009943
    25    -0.006469
    26    -0.007157
    27    -0.190597
    28    -0.122269
    29    -0.135677
    30     0.068642
    31     0.043905
    32     0.048757
    33    -0.775310
    34     0.435886
    35     0.260301
    36    -0.235798
    37    -0.370717
    38     0.279851
Sym=    26a
Ene=    0.224219E-02
Spin= Alpha
Occup= 0.001768
     1    -0.001920
     2     0.077659
     3     0.635378
     4     0.083682
     5    -0.004876
     6    -0.000935
     7    -0.000105
     8     0.516343
     9     0.100907
    10    -0.107238
    11    -0.187930
    12    -0.036624
    13     0.038496
    14    -1.075278
    15    -0.069294
    16     0.210566
    17     0.004340
    18    -0.333222
    19    -0.191206
    20     0.000381
    21    -0.005734
    22    -0.013311
    23     0.000060
    24     0.001582
    25    -0.000618
    26    -0.000265
    27     0.024260
    28    -0.010195
    29    -0.004667
    30    -0.008750
    31     0.003675
    32     0.001680
    33     0.036317
    34    -0.006606
    35    -0.015361
    36     0.022440
    37     0.035718
    38     0.051635
Sym=    27a
Ene=    0.223173E-02
Spin= Alpha
Occup= 0.001766
     1    -0.001929
     2     0.077835
     3     0.635366
     4     0.083896
     5     0.001166
     6    -0.004819
     7     0.000412
     8    -0.114614
     9     0.518518
    10     0.069404
    11     0.041797
    12    -0.188446
    13    -0.024809
    14    -0.264202
    15    -0.839469
    16     0.169316
    17     0.474793
    18     0.014647
    19     0.437166
    20    -0.000375
    21     0.005588
    22     0.012417
    23     0.000322
    24    -0.001595
    25     0.000631
    26     0.000269
    27    -0.024449
    28     0.010380
    29     0.004725
    30     0.008816
    31    -0.003741
    32    -0.001701
    33    -0.036101
    34     0.009268
    35     0.012401
    36    -0.020979
    37    -0.037246
    38    -0.052366
Sym=    28a
Ene=   -0.185432E-05
Spin= Alpha
Occup= 0.000000
     1     0.000002
     2    -0.000080
     3    -0.000349
     4    -0.000015
     5    -0.000063
     6     0.000044
     7     0.000039
     8     0.002616
     9    -0.000714
    10     0.017771
    11    -0.000965
    12     0.000269
    13    -0.006451
    14    -0.006733
    15     0.008495
    16    -0.001332
    17    -0.003013
    18     0.012965
    19     0.019556
    20     0.248879
    21    -1.662589
    22    -4.052598
    23    -0.096590
    24    -0.000250
    25    -0.005682
    26    -0.004872
    27     0.001246
    28    -0.006418
    29    -0.005245
    30    -0.000445
    31     0.002234
    32     0.001821
    33     1.544497
    34     1.577723
    35     1.568231
    36    -0.002017
    37    -0.002008
    38     0.030496
Sym=    29a
Ene=   -0.119244E-07
Spin= Alpha
Occup= 0.000000
     1     0.000001
     2     0.000021
     3     0.000091
     4     0.000008
     5    -0.000005
     6     0.000000
     7    -0.000063
     8    -0.000665
     9     0.000360
    10    -0.001084
    11     0.000243
    12    -0.000132
    13     0.000394
    14     0.001099
    15    -0.001257
    16     0.000034
    17     0.000572
    18    -0.000666
    19    -0.000918
    20     0.000335
    21    -0.001754
    22    -0.004325
    23    -0.000130
    24     0.581789
    25    -0.459184
    26     0.782503
    27    -0.265349
    28     0.209485
    29    -0.357336
    30     0.104016
    31    -0.082108
    32     0.140037
    33    -0.006714
    34     0.011222
    35     0.000550
    36    -0.007577
    37     0.003027
    38    -0.002429
Sym=    30a
Ene=   -0.567190E-08
Spin= Alpha
Occup= 0.000000
     1     0.000002
     2    -0.000308
     3    -0.001048
     4    -0.000080
     5    -0.000085
     6     0.000216
     7    -0.000084
     8     0.001116
     9    -0.000635
    10     0.001909
    11    -0.000410
    12     0.000235
    13    -0.000697
    14    -0.001403
    15     0.002392
    16     0.000379
    17    -0.000930
    18     0.001117
    19     0.001597
    20     0.000270
    21    -0.001784
    22    -0.004319
    23    -0.000061
    24    -0.902290
    25    -0.195117
    26     0.556306
    27     0.411583
    28     0.089260
    29    -0.253905
    30    -0.161335
    31    -0.034965
    32     0.099513
    33     0.004731
    34     0.004148
    35    -0.003966
    36    -0.001505
    37     0.010133
    38     0.002600
Sym=    31a
Ene=    0.000000E+00
Spin= Alpha
Occup= 0.000000
     1    -0.337184
     2     0.629335
     3     0.249095
     4    -0.186462
     5     0.328314
     6    -0.386455
     7     0.028182
     8    -0.103590
     9     0.233206
    10    -0.015123
    11     0.041998
    12    -0.089802
    13     0.005872
    14     0.016274
    15     0.059125
    16     0.191110
    17     0.047741
    18    -0.031746
    19     0.026789
    20    -0.210411
    21    -0.200910
    22    -0.340482
    23    -0.004867
    24     0.035859
    25     0.359795
    26     0.184493
    27    -0.016402
    28    -0.164516
    29    -0.084465
    30     0.006424
    31     0.064470
    32     0.033097
    33     0.123588
    34     0.129602
    35     0.127728
    36     0.000441
    37    -0.001941
    38     0.004799
Sym=    32a
Ene=    0.000000E+00
Spin= Alpha
Occup= 0.000000
     1    -0.659996
     2    -0.265879
     3    -0.738147
     4    -0.080250
     5    -0.655604
     6     0.186113
     7     0.356635
     8     0.306447
     9    -0.056061
    10    -0.160205
    11    -0.120027
    12     0.022854
    13     0.062909
    14     0.310701
    15     0.329713
    16     0.384808
    17     0.019611
    18    -0.015150
    19     0.008279
    20     0.179837
    21     0.169722
    22     0.286660
    23     0.003949
    24    -0.013917
    25    -0.140253
    26    -0.071938
    27     0.006237
    28     0.064307
    29     0.033053
    30    -0.002447
    31    -0.025195
    32    -0.012948
    33    -0.105222
    34    -0.107385
    35    -0.107643
    36     0.000093
    37     0.000375
    38    -0.002579
Sym=    33a
Ene=    0.000000E+00
Spin= Alpha
Occup= 0.000000
     1     0.046025
     2     0.463961
     3     1.251643
     4     0.065630
     5     0.216063
     6    -0.569143
     7     0.452850
     8    -0.111207
     9     0.227317
    10    -0.199620
    11     0.043285
    12    -0.090160
    13     0.078539
    14    -0.487440
    15    -0.506649
    16    -0.554317
    17    -0.017261
    18     0.011076
    19    -0.011157
    20     0.166195
    21     0.162721
    22     0.278577
    23     0.003962
    24    -0.060585
    25    -0.605559
    26    -0.310252
    27     0.027640
    28     0.276714
    29     0.141859
    30    -0.010827
    31    -0.108444
    32    -0.055593
    33    -0.098682
    34    -0.106981
    35    -0.106052
    36    -0.000301
    37     0.002630
    38    -0.007617
Sym=    34a
Ene=    0.000000E+00
Spin= Alpha
Occup= 0.000000
     1    -0.031965
     2     0.274818
     3     1.709147
     4     0.202806
     5    -0.527381
     6    -0.527990
     7    -0.070498
     8     0.186020
     9     0.160819
    10     0.036866
    11    -0.074582
    12    -0.065479
    13    -0.014324
    14    -0.733254
    15    -0.780129
    16    -0.930956
    17    -0.054704
    18     0.038091
    19    -0.027251
    20    -0.399810
    21    -0.376511
    22    -0.635347
    23    -0.008778
    24     0.025941
    25     0.261520
    26     0.134168
    27    -0.011763
    28    -0.119905
    29    -0.061659
    30     0.004610
    31     0.046978
    32     0.024154
    33     0.233436
    34     0.237735
    35     0.238668
    36    -0.000455
    37    -0.000822
    38     0.004708
Sym=    35a
Ene=    0.000000E+00
Spin= Alpha
Occup= 0.000000
     1     0.469453
     2     0.788806
     3     1.520486
     4     0.030443
     5    -0.083274
     6     0.300096
     7     0.761737
     8     0.030442
     9    -0.143495
    10    -0.335675
    11    -0.012149
    12     0.056097
    13     0.132039
    14    -0.565728
    15    -0.571729
    16    -0.594861
    17    -0.008877
    18     0.004493
    19    -0.006151
    20    -0.002108
    21    -0.006001
    22    -0.012701
    23    -0.000294
    24     0.034148
    25     0.342392
    26     0.175577
    27    -0.015806
    28    -0.156242
    29    -0.080131
    30     0.006185
    31     0.061238
    32     0.031407
    33     0.001887
    34     0.006346
    35     0.006383
    36    -0.000106
    37    -0.001704
    38     0.003417
Sym=    36a
Ene=    0.000000E+00
Spin= Alpha
Occup= 0.000000
     1     0.104008
     2     0.443190
     3     1.019535
     4     0.035881
     5    -0.139549
     6    -0.242441
     7    -0.250508
     8     0.052746
     9     0.093864
    10     0.109885
    11    -0.021017
    12    -0.037323
    13    -0.043240
    14    -0.387626
    15    -0.397657
    16    -0.424057
    17    -0.009668
    18     0.005925
    19    -0.006418
    20     0.869884
    21     0.808245
    22     1.356485
    23     0.018523
    24     0.029446
    25     0.296227
    26     0.151829
    27    -0.013553
    28    -0.134237
    29    -0.068480
    30     0.005304
    31     0.052642
    32     0.026866
    33    -0.505051
    34    -0.505413
    35    -0.504202
    36     0.000286
    37    -0.000900
    38    -0.000068
Sym=    37a
Ene=    0.000000E+00
Spin= Alpha
Occup= 0.000000
     1    -0.333863
     2     1.017150
     3     3.282091
     4     0.210285
     5     0.268977
     6     0.466593
     7    -0.192115
     8    -0.169657
     9    -0.283867
    10     0.089610
    11     0.065205
    12     0.109266
    13    -0.035093
    14    -1.301586
    15    -1.355620
    16    -1.520103
    17    -0.060015
    18     0.040981
    19    -0.031208
    20    -0.013848
    21    -0.011974
    22    -0.019505
    23    -0.000307
    24    -0.008923
    25    -0.088323
    26    -0.045229
    27     0.004159
    28     0.040279
    29     0.020640
    30    -0.001627
    31    -0.015788
    32    -0.008090
    33     0.007963
    34     0.006251
    35     0.007640
    36    -0.000368
    37     0.000770
    38    -0.000744
Sym=    38a
Ene=    0.000000E+00
Spin= Alpha
Occup= 0.000000
     1    -0.458812
     2    -1.076712
     3    -1.220385
     4     0.117731
     5     0.447665
     6    -0.091424
     7     0.379023
     8    -0.223921
     9    -0.000724
    10    -0.164628
    11     0.087297
    12    -0.000990
    13     0.064847
    14     0.373070
    15     0.344643
    16     0.258807
    17    -0.030868
    18     0.021036
    19    -0.016892
    20     0.145581
    21     0.131838
    22     0.218778
    23     0.002999
    24     0.033887
    25     0.340125
    26     0.174408
    27    -0.015595
    28    -0.155094
    29    -0.079479
    30     0.006104
    31     0.060792
    32     0.031155
    33    -0.083956
    34    -0.080671
    35    -0.079601
    36    -0.000228
    37    -0.001301
    38     0.003112
