[Molden Format]
p30-5 set                                                                       
[Atoms] AU
 LI       1     3        0.0000        0.0000        2.6356
 LI       2     3        0.0000        0.0000       -2.6356
[GTO]
    1 0
s    5 1.00
     266.277855160000  0.635428653465E-02
      40.069783447000  0.467348893628E-01
       9.055994438900  0.198387923560E+00
       2.450300905100  0.475753833454E+00
       0.722095718550  0.427014289368E+00
s    1 1.00
       0.052810884721  0.100000000000E+01
s    1 1.00
       0.020960948798  0.100000000000E+01
p    2 1.00
       1.450000000000  0.224912327222E+00
       0.300000000000  0.869730577039E+00
p    1 1.00
       0.082000000000  0.100000000000E+01
 
    2 0
s    5 1.00
     266.277855160000  0.635428653465E-02
      40.069783447000  0.467348893628E-01
       9.055994438900  0.198387923560E+00
       2.450300905100  0.475753833454E+00
       0.722095718550  0.427014289368E+00
s    1 1.00
       0.052810884721  0.100000000000E+01
s    1 1.00
       0.020960948798  0.100000000000E+01
p    2 1.00
       1.450000000000  0.224912327222E+00
       0.300000000000  0.869730577039E+00
p    1 1.00
       0.082000000000  0.100000000000E+01
 
[MO]
Sym=     1a
Ene=   -0.245685E+01
Spin= Alpha
Occup= 1.999033
     1     0.996041
     2     0.023866
     3    -0.011557
     4     0.000005
     5     0.000013
     6     0.004415
     7    -0.000002
     8    -0.000003
     9    -0.004398
    10    -0.000153
    11    -0.005495
    12     0.003211
    13    -0.000005
    14    -0.000013
    15    -0.000212
    16     0.000012
    17     0.000011
    18    -0.002587
Sym=     2a
Ene=   -0.245685E+01
Spin= Alpha
Occup= 1.999032
     1    -0.000161
     2    -0.005480
     3     0.003214
     4    -0.000014
     5     0.000003
     6     0.000211
     7     0.000008
     8     0.000006
     9     0.002573
    10     0.996033
    11     0.023923
    12    -0.011620
    13     0.000007
    14     0.000014
    15    -0.004409
    16    -0.000006
    17    -0.000004
    18     0.004376
Sym=     3a
Ene=   -0.185116E+00
Spin= Alpha
Occup= 1.809463
     1     0.171254
     2    -0.431260
     3    -0.137116
     4    -0.000003
     5    -0.000008
     6     0.031063
     7     0.000003
     8    -0.000008
     9     0.071641
    10     0.171266
    11    -0.431262
    12    -0.137075
    13    -0.000004
    14    -0.000015
    15    -0.031067
    16     0.000007
    17     0.000007
    18    -0.071587
Sym=     4a
Ene=   -0.814379E-02
Spin= Alpha
Occup= 0.054889
     1    -0.000017
     2     0.000141
     3    -0.000018
     4    -0.058021
     5     0.024724
     6    -0.000014
     7    -0.536284
     8     0.227282
     9    -0.000025
    10     0.000024
    11    -0.000183
    12     0.000048
    13    -0.058057
    14     0.024560
    15     0.000012
    16    -0.536122
    17     0.227887
    18    -0.000031
Sym=     5a
Ene=   -0.873281E-03
Spin= Alpha
Occup= 0.000309
     1     0.000102
     2     0.000335
     3     0.000483
     4     0.018254
     5     0.009400
     6    -0.000040
     7    -0.118966
     8    -0.061248
     9    -0.000120
    10     0.000099
    11    -0.000727
    12     0.000077
    13     1.047950
    14     0.540803
    15     0.002911
    16    -0.466585
    17    -0.240912
    18    -0.001914
Sym=     6a
Ene=   -0.872362E-03
Spin= Alpha
Occup= 0.000308
     1    -0.000033
     2     0.000302
     3    -0.000043
     4     0.533859
     5    -1.051658
     6     0.001144
     7    -0.237836
     8     0.468706
     9    -0.000807
    10    -0.000023
    11    -0.000219
    12    -0.000116
    13     0.009328
    14    -0.018346
    15    -0.000003
    16    -0.060496
    17     0.118945
    18    -0.000078
Sym=     7a
Ene=   -0.814570E-02
Spin= Alpha
Occup= 0.054907
     1    -0.000025
     2     0.000217
     3    -0.000011
     4    -0.024550
     5    -0.058052
     6     0.000003
     7    -0.227906
     8    -0.536140
     9    -0.000046
    10     0.000036
    11    -0.000176
    12    -0.000015
    13    -0.024696
    14    -0.058029
    15     0.000010
    16    -0.227283
    17    -0.536265
    18    -0.000056
Sym=     8a
Ene=   -0.892091E-03
Spin= Alpha
Occup= 0.000313
     1     0.037320
     2     0.157998
     3     0.190807
     4    -0.000039
     5    -0.000007
     6    -0.015585
     7     0.000307
     8     0.000109
     9    -0.047437
    10     0.044695
    11    -0.301673
    12     0.031144
    13    -0.002799
    14    -0.000665
    15     1.229310
    16     0.001272
    17     0.000263
    18    -0.812204
Sym=     9a
Ene=   -0.891206E-03
Spin= Alpha
Occup= 0.000312
     1    -0.044704
     2     0.301308
     3    -0.031007
     4    -0.000370
     5     0.001028
     6     1.229121
     7     0.000139
     8    -0.000439
     9    -0.810971
    10    -0.037457
    11    -0.156103
    12    -0.192209
    13    -0.000012
    14     0.000033
    15    -0.015620
    16     0.000063
    17    -0.000131
    18    -0.046817
Sym=    10a
Ene=   -0.655391E-02
Spin= Alpha
Occup= 0.041372
     1    -0.209420
     2     1.320660
     3    -0.154528
     4     0.000021
     5     0.000005
     6    -0.027834
     7     0.000092
     8     0.000043
     9    -0.248176
    10     0.209658
    11    -1.322538
    12     0.156960
    13     0.000010
    14     0.000016
    15    -0.028309
    16     0.000098
    17     0.000062
    18    -0.249378
Sym=    11a
Ene=   -0.870995E-03
Spin= Alpha
Occup= 0.000307
     1     0.000013
     2     0.000081
     3     0.000171
     4     0.007143
     5    -0.013779
     6     0.000007
     7    -0.045858
     8     0.088617
     9    -0.000085
    10     0.000035
    11    -0.000222
    12     0.000009
    13     0.545276
    14    -1.056770
    15     0.000711
    16    -0.257532
    17     0.499353
    18    -0.000482
Sym=    12a
Ene=   -0.871231E-03
Spin= Alpha
Occup= 0.000308
     1    -0.000002
     2     0.000063
     3    -0.000017
     4    -1.060657
     5    -0.538492
     6     0.000136
     7     0.502247
     8     0.255096
     9    -0.000096
    10    -0.000012
    11    -0.000031
    12    -0.000013
    13    -0.013601
    14    -0.006903
    15     0.000010
    16     0.087741
    17     0.044436
    18    -0.000025
Sym=    13a
Ene=   -0.101935E-05
Spin= Alpha
Occup= 0.000008
     1    -0.044799
     2     0.088879
     3    -2.051653
     4    -0.000028
     5     0.000058
     6    -0.165041
     7     0.000102
     8    -0.000209
     9     1.283825
    10     0.045081
    11    -0.091713
    12     2.054020
    13     0.000041
    14    -0.000069
    15    -0.165367
    16    -0.000108
    17     0.000201
    18     1.284981
Sym=    14a
Ene=   -0.546567E-04
Spin= Alpha
Occup= 0.000018
     1    -0.005578
     2    -0.434474
     3     0.191301
     4    -0.000622
     5    -0.000108
     6    -0.215615
     7     0.002493
     8     0.000410
     9     1.393714
    10    -0.161777
    11     2.202973
    12    -1.647895
    13     0.000749
    14     0.000131
    15    -0.000300
    16    -0.002571
    17    -0.000405
    18     0.644358
Sym=    15a
Ene=   -0.613554E-04
Spin= Alpha
Occup= 0.000019
     1     0.075099
     2    -1.021949
     3     0.766297
     4    -0.117941
     5     0.230611
     6    -0.000039
     7     0.408869
     8    -0.799476
     9     0.298082
    10     0.002486
    11     0.202370
    12    -0.091212
    13     0.100608
    14    -0.196746
    15    -0.099312
    16    -0.399200
    17     0.780572
    18     0.645023
Sym=    16a
Ene=   -0.626781E-02
Spin= Alpha
Occup= 0.039362
     1     0.050422
     2    -0.399109
     3     0.574222
     4     0.000006
     5    -0.000002
     6     0.129093
     7    -0.000007
     8    -0.000003
     9     0.393772
    10     0.049696
    11    -0.394480
    12     0.573559
    13     0.000008
    14    -0.000008
    15    -0.128968
    16    -0.000002
    17     0.000005
    18    -0.393012
Sym=    17a
Ene=   -0.657004E-04
Spin= Alpha
Occup= 0.000021
     1    -0.000027
     2    -0.000957
     3     0.000386
     4     0.220497
     5     0.112789
     6    -0.000539
     7    -0.880221
     8    -0.450201
     9     0.003369
    10    -0.000392
    11     0.005355
    12    -0.004004
    13    -0.260781
    14    -0.133390
    15     0.000013
    16     0.902706
    17     0.461700
    18     0.001502
Sym=    18a
Ene=   -0.581233E-04
Spin= Alpha
Occup= 0.000019
     1    -0.143442
     2     1.953129
     3    -1.463330
     4    -0.061738
     5     0.120713
     6     0.000588
     7     0.214051
     8    -0.418439
     9    -0.572529
    10    -0.004500
    11    -0.390327
    12     0.176059
    13     0.052705
    14    -0.102986
    15     0.189872
    16    -0.209017
    17     0.408554
    18    -1.234071
