[Molden Format]
p30-5 set                                                                       
[Atoms] AU
 NA       1    11        0.0000        0.0000        2.9521
 NA       2    11        0.0000        0.0000       -2.9521
[GTO]
    1 0
s    5 1.00
    4098.200390800000 -0.582973440428E-02
     616.493740310000 -0.434692743388E-01
     139.966440010000 -0.193522713755E+00
      39.073441051000 -0.484866458138E+00
      11.929847205000 -0.417110128653E+00
s    3 1.00
      20.659966030000  0.857687067851E-01
       1.983886097800 -0.562404693737E+00
       0.648363239420 -0.518446102123E+00
s    1 1.00
       0.052443967404  0.100000000000E+01
s    1 1.00
       0.028048160742  0.100000000000E+01
p    5 1.00
      75.401862017000  0.154353625324E-01
      17.274818978000  0.997382931840E-01
       5.184234742500  0.312095939659E+00
       1.660121197300  0.492956748074E+00
       0.512325289580  0.324203983180E+00
p    1 1.00
       0.052000000000  0.100000000000E+01
d    1 1.00
       0.131000000000  0.100000000000E+01

    2 0
s    5 1.00
    4098.200390800000 -0.582973440428E-02
     616.493740310000 -0.434692743388E-01
     139.966440010000 -0.193522713755E+00
      39.073441051000 -0.484866458138E+00
      11.929847205000 -0.417110128653E+00
s    3 1.00
      20.659966030000  0.857687067851E-01
       1.983886097800 -0.562404693737E+00
       0.648363239420 -0.518446102123E+00
s    1 1.00
       0.052443967404  0.100000000000E+01
s    1 1.00
       0.028048160742  0.100000000000E+01
p    5 1.00
      75.401862017000  0.154353625324E-01
      17.274818978000  0.997382931840E-01
       5.184234742500  0.312095939659E+00
       1.660121197300  0.492956748074E+00
       0.512325289580  0.324203983180E+00
p    1 1.00
       0.052000000000  0.100000000000E+01
d    1 1.00
       0.131000000000  0.100000000000E+01

[MO]
Sym=     1a
Ene=   -0.404669E+02
Spin= Alpha
Occup= 2.000000
     1    -0.702585
     2    -0.020900
     3    -0.026260
     4     0.010233
     5     0.000045
     6    -0.000071
     7    -0.001829
     8    -0.000000
     9    -0.000001
    10     0.000306
    11     0.006676
    12     0.006676
    13     0.006915
    14    -0.000000
    15    -0.000000
    16     0.000000
    17     0.702140
    18     0.020928
    19     0.026245
    20    -0.010228
    21     0.000458
    22    -0.000070
    23    -0.001782
    24     0.000005
    25    -0.000001
    26     0.000307
    27    -0.006672
    28    -0.006672
    29    -0.006911
    30     0.000000
    31     0.000000
    32    -0.000000
Sym=     2a
Ene=   -0.404668E+02
Spin= Alpha
Occup= 2.000000
     1     0.702160
     2     0.020851
     3     0.023827
     4    -0.007926
     5    -0.000016
     6    -0.000062
     7     0.001784
     8    -0.000001
     9    -0.000001
    10     0.000163
    11    -0.006770
    12    -0.006770
    13    -0.006332
    14     0.000000
    15    -0.000000
    16     0.000000
    17     0.702583
    18     0.020904
    19     0.023842
    20    -0.007932
    21     0.000496
    22    -0.000181
    23    -0.001735
    24     0.000006
    25    -0.000002
    26    -0.000163
    27    -0.006774
    28    -0.006774
    29    -0.006337
    30     0.000000
    31    -0.000000
    32    -0.000000
Sym=     3a
Ene=   -0.151459E+01
Spin= Alpha
Occup= 1.999865
     1     0.006408
     2    -0.024964
     3     0.000994
     4    -0.000700
     5    -0.802484
     6     0.336545
     7     0.085359
     8    -0.009223
     9     0.004339
    10     0.000391
    11    -0.000016
    12    -0.000018
    13     0.000690
    14    -0.000001
    15    -0.000236
    16     0.000306
    17     0.001053
    18    -0.004118
    19    -0.000426
    20     0.000257
    21     0.158671
    22    -0.453153
    23     0.040538
    24     0.002764
    25    -0.005509
    26    -0.000247
    27     0.000148
    28     0.000147
    29    -0.000788
    30     0.000000
    31    -0.000459
    32     0.000266
Sym=     4a
Ene=   -0.151451E+01
Spin= Alpha
Occup= 1.999865
     1     0.000565
     2    -0.002208
     3     0.000604
     4    -0.000257
     5    -0.103204
     6     0.470037
     7     0.020024
     8    -0.000150
     9     0.005005
    10     0.000912
    11     0.000006
    12     0.000006
    13    -0.001174
    14     0.000000
    15     0.000425
    16    -0.000036
    17    -0.005789
    18     0.022730
    19     0.001867
    20    -0.001111
    21    -0.830241
    22     0.232051
    23    -0.146326
    24    -0.009219
    25     0.002039
    26    -0.001374
    27    -0.000418
    28    -0.000415
    29    -0.000107
    30     0.000001
    31     0.000099
    32     0.000209
Sym=     5a
Ene=   -0.151382E+01
Spin= Alpha
Occup= 1.999865
     1     0.000534
     2    -0.002063
     3     0.000270
     4    -0.000171
     5    -0.470896
     6    -0.106122
     7     0.023894
     8    -0.005584
     9    -0.002220
    10     0.000157
    11    -0.000028
    12    -0.000028
    13     0.000089
    14    -0.000000
    15    -0.000215
    16    -0.000471
    17     0.000020
    18    -0.000085
    19     0.000003
    20    -0.000000
    21     0.234013
    22     0.841966
    23     0.003249
    24     0.003207
    25     0.009605
    26    -0.000122
    27     0.000013
    28     0.000014
    29    -0.000210
    30    -0.000001
    31    -0.000297
    32    -0.000214
Sym=     6a
Ene=   -0.151395E+01
Spin= Alpha
Occup= 1.999865
     1    -0.000095
     2     0.000384
     3    -0.000107
     4     0.000023
     5     0.337247
     6     0.806297
     7     0.003059
     8     0.003248
     9     0.008873
    10    -0.000329
    11    -0.000022
    12    -0.000023
    13     0.000543
    14     0.000000
    15    -0.000178
    16     0.000062
    17     0.001218
    18    -0.004752
    19    -0.000823
    20     0.000491
    21     0.449302
    22     0.164884
    23     0.063898
    24     0.004644
    25     0.000872
    26     0.000505
    27     0.000159
    28     0.000159
    29    -0.000091
    30    -0.000000
    31     0.000097
    32     0.000401
Sym=     7a
Ene=   -0.197049E+01
Spin= Alpha
Occup= 1.999818
     1    -0.000547
     2     0.002255
     3     0.000016
     4    -0.000057
     5    -0.001635
     6     0.000024
     7     0.001791
     8     0.000153
     9    -0.000044
    10    -0.006578
    11    -0.000651
    12    -0.000651
    13     0.007561
    14    -0.000000
    15     0.000059
    16    -0.000015
    17    -0.162163
    18     0.612268
    19    -0.012169
    20     0.008899
    21    -0.116120
    22     0.028311
    23     0.793271
    24    -0.001421
    25     0.000348
    26     0.005096
    27    -0.001829
    28    -0.001828
    29    -0.006082
    30     0.000000
    31     0.000023
    32    -0.000005
Sym=     8a
Ene=   -0.197203E+01
Spin= Alpha
Occup= 1.999817
     1    -0.162430
     2     0.613287
     3    -0.012233
     4     0.008944
     5    -0.077682
     6     0.035930
     7    -0.796727
     8    -0.000935
     9     0.000449
    10    -0.005144
    11    -0.001827
    12    -0.001826
    13    -0.006079
    14     0.000000
    15    -0.000023
    16     0.000018
    17    -0.000527
    18     0.002177
    19    -0.000012
    20    -0.000049
    21     0.004677
    22    -0.016169
    23    -0.000257
    24     0.000179
    25    -0.000236
    26     0.006615
    27    -0.000651
    28    -0.000651
    29     0.007593
    30     0.000000
    31    -0.000041
    32     0.000022
Sym=     9a
Ene=   -0.233869E+01
Spin= Alpha
Occup= 1.999744
     1    -0.000460
     2     0.001880
     3    -0.004180
     4     0.000271
     5    -0.002219
     6     0.006764
     7    -0.000123
     8     0.000143
     9     0.000032
    10    -0.000052
    11     0.000277
    12     0.000277
    13     0.004405
    14    -0.000000
    15     0.000054
    16    -0.000013
    17     0.223405
    18    -0.827804
    19    -0.002645
    20     0.001347
    21    -0.111979
    22     0.028465
    23     0.582513
    24    -0.001378
    25     0.000343
    26     0.008273
    27     0.005122
    28     0.005121
    29     0.004767
    30    -0.000001
    31     0.000005
    32     0.000002
Sym=    10a
Ene=   -0.233697E+01
Spin= Alpha
Occup= 1.999744
     1    -0.223130
     2     0.827001
     3     0.002786
     4    -0.001449
     5     0.031790
     6    -0.015887
     7     0.593881
     8     0.000402
     9    -0.000201
    10     0.008385
    11    -0.005135
    12    -0.005135
    13    -0.004747
    14    -0.000000
    15     0.000004
    16    -0.000002
    17     0.000460
    18    -0.001881
    19     0.004215
    20    -0.000275
    21     0.000057
    22     0.000814
    23    -0.000590
    24    -0.000063
    25     0.000037
    26    -0.000121
    27    -0.000273
    28    -0.000273
    29    -0.004508
    30    -0.000000
    31     0.000015
    32    -0.000008
Sym=    11a
Ene=   -0.165144E+00
Spin= Alpha
Occup= 1.848723
     1    -0.028803
     2     0.170770
     3     0.116922
     4     0.333847
     5     0.000004
     6     0.000007
     7     0.030406
     8    -0.000121
     9     0.000067
    10    -0.037961
    11     0.058904
    12     0.058906
    13     0.072055
    14     0.000002
    15     0.000013
    16    -0.000008
    17    -0.028802
    18     0.170765
    19     0.116915
    20     0.333879
    21    -0.000018
    22     0.000007
    23    -0.030402
    24     0.000181
    25    -0.000083
    26     0.037982
    27     0.058908
    28     0.058906
    29     0.072052
    30     0.000000
    31    -0.000003
    32    -0.000002
Sym=    12a
Ene=   -0.195038E-01
Spin= Alpha
Occup= 0.151277
     1     0.031598
     2    -0.195980
     3    -0.588352
     4    -0.369531
     5    -0.000117
     6     0.000067
     7     0.030577
     8     0.000793
     9    -0.000435
    10     0.116557
    11    -0.081587
    12    -0.081601
    13    -0.086165
    14    -0.000012
    15    -0.000227
    16     0.000127
    17    -0.031596
    18     0.195971
    19     0.588290
    20     0.369612
    21    -0.000105
    22     0.000061
    23     0.030584
    24     0.000555
    25    -0.000343
    26     0.116536
    27     0.081616
    28     0.081604
    29     0.086114
    30    -0.000001
    31     0.000041
    32    -0.000059
Sym=    13a
Ene=   -0.690224E-03
Spin= Alpha
Occup= 0.000256
     1     0.100676
     2    -0.947836
     3    -5.770587
     4     1.809800
     5    -0.004734
     6     0.002348
     7    -0.097566
     8     0.039766
     9    -0.019152
    10     0.826081
    11     1.604414
    12     1.604219
    13     1.599270
    14    -0.000068
    15    -0.002982
    16     0.001436
    17    -0.003872
    18     0.034731
    19     0.577440
    20     0.150027
    21     0.001654
    22    -0.000443
    23     0.007867
    24    -0.020855
    25     0.007367
    26     0.310205
    27     0.071504
    28     0.071534
    29    -0.360956
    30     0.000001
    31    -0.001923
    32     0.000991
Sym=    14a
Ene=   -0.688345E-03
Spin= Alpha
Occup= 0.000256
     1     0.003812
     2    -0.034176
     3    -0.570373
     4    -0.141884
     5    -0.000876
     6     0.000374
     7     0.007030
     8     0.035510
     9    -0.010287
    10     0.307290
    11    -0.069498
    12    -0.069557
    13     0.355398
    14    -0.000081
    15    -0.005895
    16     0.001274
    17    -0.100725
    18     0.948375
    19     5.778697
    20    -1.823280
    21     0.016870
    22    -0.004332
    23    -0.095508
    24    -0.134057
    25     0.034607
    26     0.809385
    27    -1.604321
    28    -1.605027
    29    -1.601181
    30    -0.000211
    31    -0.013608
    32     0.003548
Sym=    15a
Ene=   -0.424707E-03
Spin= Alpha
Occup= 0.000183
     1     0.072611
     2    -0.687593
     3    -4.669001
     4     2.682969
     5     0.010797
     6    -0.004998
     7     0.123591
     8    -0.089283
     9     0.040290
    10    -1.010384
    11     1.231592
    12     1.232257
    13     0.954867
    14     0.000345
    15    -0.001245
    16     0.000853
    17     0.005602
    18    -0.050804
    19    -0.232337
    20    -0.846565
    21    -0.003296
    22     0.000861
    23    -0.030816
    24     0.042026
    25    -0.014181
    26    -0.235263
    27    -0.122726
    28    -0.122714
    29     0.394248
    30    -0.000000
    31     0.001642
    32    -0.000749
Sym=    16a
Ene=   -0.422294E-03
Spin= Alpha
Occup= 0.000182
     1     0.005632
     2    -0.051051
     3    -0.230985
     4    -0.846262
     5    -0.001576
     6     0.000687
     7     0.029771
     8     0.038935
     9    -0.012005
    10     0.240010
    11    -0.121208
    12    -0.121613
    13     0.393265
    14    -0.000194
    15    -0.003442
    16     0.000572
    17     0.072508
    18    -0.686645
    19    -4.660141
    20     2.679033
    21     0.017438
    22    -0.004322
    23    -0.122587
    24    -0.138696
    25     0.034783
    26     1.005132
    27     1.231317
    28     1.232114
    29     0.951272
    30     0.000234
    31     0.000075
    32     0.000190
Sym=    17a
Ene=   -0.170531E-03
Spin= Alpha
Occup= 0.000135
     1    -0.000018
     2     0.000132
     3    -0.000686
     4     0.004334
     5     0.053209
     6     0.126943
     7     0.000613
     8    -0.416834
     9    -0.994397
    10    -0.005277
    11     0.000960
    12    -0.000653
    13    -0.000908
    14     0.000349
    15     0.018011
    16     0.044111
    17     0.000052
    18    -0.000459
    19    -0.003355
    20    -0.002751
    21    -0.001225
    22    -0.002504
    23    -0.000040
    24     0.094177
    25     0.221729
    26    -0.002157
    27    -0.000307
    28    -0.000562
    29     0.002719
    30    -0.000366
    31    -0.006592
    32    -0.013159
Sym=    18a
Ene=   -0.170467E-03
Spin= Alpha
Occup= 0.000135
     1    -0.000023
     2     0.000179
     3     0.001294
     4     0.003796
     5    -0.001065
     6    -0.002771
     7    -0.000015
     8     0.066800
     9     0.232606
    10    -0.002076
    11     0.001220
    12     0.001263
    13    -0.002889
    14    -0.000202
    15     0.006342
    16     0.013639
    17    -0.000002
    18     0.000074
    19     0.002463
    20    -0.005295
    21     0.036882
    22     0.132609
    23     0.000677
    24    -0.288868
    25    -1.038985
    26    -0.005346
    27    -0.001401
    28    -0.000105
    29     0.001024
    30    -0.000542
    31    -0.012140
    32    -0.044967
Sym=    19a
Ene=   -0.170802E-03
Spin= Alpha
Occup= 0.000135
     1     0.000609
     2    -0.004889
     3    -0.052037
     4    -0.122150
     5     0.002279
     6    -0.000695
     7     0.000868
     8    -0.226111
     9     0.063497
    10     0.065864
    11    -0.040950
    12    -0.044278
    13     0.104049
    14     0.000066
    15    -0.011667
    16     0.003670
    17    -0.003376
    18     0.030899
    19     0.130533
    20     0.087645
    21    -0.130389
    22     0.036410
    23    -0.026969
    24     1.021423
    25    -0.285210
    26     0.206415
    27    -0.023671
    28    -0.031878
    29    -0.107200
    30    -0.003270
    31     0.048152
    32    -0.013008
Sym=    20a
Ene=   -0.170608E-03
Spin= Alpha
Occup= 0.000135
     1     0.002365
     2    -0.023007
     3    -0.182582
     4     0.157416
     5    -0.126395
     6     0.052900
     7     0.013844
     8     0.989948
     9    -0.414217
    10    -0.109374
    11     0.045004
    12     0.052159
    13     0.017367
    14     0.003960
    15    -0.041398
    16     0.017040
    17     0.000271
    18    -0.002097
    19    -0.016132
    20    -0.082133
    21     0.002430
    22    -0.001341
    23    -0.001434
    24    -0.219762
    25     0.094325
    26    -0.036127
    27    -0.024560
    28    -0.025223
    29     0.051335
    30     0.000996
    31     0.012851
    32    -0.008204
Sym=    21a
Ene=   -0.160945E-05
Spin= Alpha
Occup= 0.000000
     1    -0.005884
     2     0.085836
     3     0.483946
     4     0.041746
     5     0.003666
     6    -0.003098
     7    -0.009000
     8    -0.072601
     9     0.059318
    10    -0.165379
    11    -0.116668
    12     0.040525
    13    -0.659853
    14     0.100693
    15    -0.293228
    16     0.258192
    17    -0.005950
    18     0.086270
    19     0.488196
    20     0.009743
    21     0.004221
    22    -0.003517
    23     0.009359
    24    -0.075531
    25     0.065963
    26     0.144651
    27    -0.123269
    28     0.051533
    29    -0.665670
    30     0.103870
    31     0.302273
    32    -0.247399
Sym=    22a
Ene=   -0.157847E-05
Spin= Alpha
Occup= 0.000000
     1     0.000157
     2    -0.001692
     3    -0.010788
     4     0.002604
     5    -0.005075
     6    -0.006663
     7     0.000322
     8     0.095641
     9     0.119487
    10    -0.000059
    11     0.051129
    12    -0.051100
    13     0.010040
    14     0.048093
    15     0.389886
    16     0.471264
    17     0.000360
    18    -0.003690
    19    -0.024646
    20     0.008296
    21    -0.005339
    22    -0.006568
    23    -0.000635
    24     0.098599
    25     0.119288
    26     0.000613
    27     0.066761
    28    -0.056192
    29     0.010145
    30     0.054174
    31    -0.387926
    32    -0.468515
Sym=    23a
Ene=    0.000000E+00
Spin= Alpha
Occup= 0.000000
     1    -0.004450
     2     0.080121
     3     0.213646
     4     0.374234
     5    -0.002680
     6     0.003509
     7    -0.002374
     8     0.047175
     9    -0.066224
    10    -0.022382
    11     0.044393
    12    -0.456225
    13    -0.487950
    14     0.403284
    15     0.202645
    16    -0.212400
    17    -0.002943
    18     0.048392
    19     0.221621
    20     0.082575
    21    -0.002500
    22     0.002738
    23     0.003962
    24     0.049710
    25    -0.049579
    26     0.153929
    27     0.210928
    28    -0.382764
    29    -0.277262
    30     0.391235
    31    -0.185848
    32     0.249868
Sym=    24a
Ene=    0.000000E+00
Spin= Alpha
Occup= 0.000000
     1     0.004662
     2    -0.082534
     3    -0.235294
     4    -0.288715
     5     0.004960
     6    -0.002150
     7     0.003167
     8    -0.093165
     9     0.036189
    10    -0.025432
    11     0.498718
    12    -0.128248
    13     0.547474
    14     0.172462
    15    -0.257668
    16     0.203549
    17     0.003083
    18    -0.050361
    19    -0.250677
    20    -0.135173
    21     0.003585
    22    -0.002702
    23    -0.004043
    24    -0.059552
    25     0.053634
    26    -0.222446
    27     0.459500
    28    -0.294258
    29     0.287966
    30     0.254371
    31     0.340205
    32    -0.154693
Sym=    25a
Ene=    0.000000E+00
Spin= Alpha
Occup= 0.000000
     1     0.000228
     2    -0.003924
     3    -0.010432
     4     0.032215
     5     0.000321
     6    -0.000284
     7     0.000388
     8    -0.002714
     9     0.002961
    10    -0.023656
    11     0.045248
    12    -0.035315
    13     0.032924
    14     0.754747
    15    -0.023492
    16     0.018383
    17     0.000421
    18    -0.007875
    19    -0.019087
    20    -0.087805
    21     0.000666
    22    -0.000375
    23     0.000174
    24    -0.009158
    25     0.005889
    26    -0.036848
    27     0.025834
    28     0.036750
    29     0.025198
    30    -0.733564
    31     0.010687
    32    -0.010087
Sym=    26a
Ene=    0.000000E+00
Spin= Alpha
Occup= 0.000000
     1    -0.000091
     2     0.002412
     3     0.004160
     4     0.084524
     5    -0.000240
     6    -0.000108
     7     0.000403
     8    -0.001531
     9     0.004047
    10    -0.055344
    11     0.669640
    12    -0.712849
    13     0.016797
    14    -0.032113
    15     0.006381
    16    -0.007308
    17    -0.000203
    18     0.003294
    19    -0.000509
    20    -0.044023
    21    -0.000302
    22     0.000123
    23     0.000199
    24     0.003873
    25    -0.003208
    26    -0.053225
    27    -0.601465
    28     0.589025
    29    -0.030435
    30     0.024055
    31     0.012837
    32    -0.013003
Sym=    27a
Ene=    0.000000E+00
Spin= Alpha
Occup= 0.000000
     1    -0.002340
     2     0.069992
     3    -0.196265
     4     1.179393
     5     0.002073
     6    -0.000216
     7     0.008126
     8    -0.033703
     9    -0.003793
    10    -0.160622
    11    -0.815210
    12    -0.365024
    13     0.125401
    14     0.294829
    15    -0.057255
    16     0.122764
    17    -0.001691
    18     0.052240
    19    -0.229648
    20     0.413454
    21     0.000230
    22    -0.001668
    23    -0.004899
    24    -0.006432
    25     0.037833
    26    -0.259222
    27    -0.691886
    28    -0.185047
    29     0.035025
    30     0.288345
    31     0.097378
    32    -0.011208
Sym=    28a
Ene=    0.000000E+00
Spin= Alpha
Occup= 0.000000
     1     0.000808
     2    -0.013635
     3    -0.030407
     4    -0.181965
     5     0.012974
     6    -0.010453
     7    -0.000750
     8    -0.307016
     9     0.251432
    10     0.064472
    11     0.023944
    12     0.102954
    13     0.022802
    14     0.048209
    15     0.758188
    16    -0.624452
    17    -0.000767
    18     0.007948
    19     0.047491
    20     0.101150
    21    -0.012669
    22     0.010401
    23    -0.001278
    24     0.308597
    25    -0.253643
    26     0.063809
    27    -0.054167
    28     0.006367
    29    -0.000730
    30     0.033647
    31     0.736961
    32    -0.609106
Sym=    29a
Ene=    0.000000E+00
Spin= Alpha
Occup= 0.000000
     1     0.000144
     2    -0.004167
     3     0.022837
     4    -0.083977
     5     0.010171
     6     0.012861
     7    -0.000873
     8    -0.248402
     9    -0.307915
    10    -0.054939
    11     0.038959
    12     0.007206
    13     0.038065
    14    -0.063402
    15     0.631651
    16     0.731973
    17    -0.001387
    18     0.024292
    19     0.037749
    20     0.158954
    21    -0.010556
    22    -0.012745
    23    -0.000637
    24     0.255639
    25     0.304141
    26    -0.034186
    27    -0.062948
    28    -0.097364
    29    -0.130114
    30    -0.072147
    31     0.602555
    32     0.750409
Sym=    30a
Ene=    0.000000E+00
Spin= Alpha
Occup= 0.000000
     1    -0.002015
     2     0.035295
     3    -0.375521
     4    -3.255144
     5     0.000349
     6     0.000624
     7    -0.013061
     8    -0.001556
     9    -0.018278
    10     3.436080
    11     0.311394
    12     0.428056
    13    -1.662465
    14     0.122386
    15    -0.015755
    16     0.052525
    17     0.004274
    18    -0.080141
    19     0.312327
    20     2.971949
    21    -0.001373
    22    -0.000464
    23    -0.013733
    24     0.007496
    25     0.017673
    26     3.405801
    27    -0.285851
    28    -0.089540
    29     1.834579
    30     0.114087
    31    -0.012558
    32     0.050094
Sym=    31a
Ene=    0.000000E+00
Spin= Alpha
Occup= 0.000000
     1     0.007666
     2    -0.166253
     3     0.094806
     4    -0.943486
     5    -0.001520
     6     0.001652
     7    -0.004068
     8     0.037537
     9    -0.038122
    10    -0.940639
    11     0.458605
    12     0.819403
    13     1.095655
    14     0.301810
    15     0.001308
    16     0.012366
    17    -0.002157
    18     0.049443
    19    -0.126651
    20     0.030202
    21    -0.000626
    22    -0.000185
    23    -0.001829
    24    -0.002658
    25     0.011580
    26    -0.976844
    27    -0.279639
    28     0.193300
    29    -0.803377
    30     0.293937
    31    -0.127889
    32     0.116954
Sym=    32a
Ene=    0.000000E+00
Spin= Alpha
Occup= 0.000000
     1     0.000172
     2    -0.011986
     3     0.030791
     4    -1.113412
     5    -0.000797
     6    -0.001878
     7    -0.007077
     8     0.021719
     9     0.043057
    10     0.258573
    11     0.225909
    12    -0.058886
    13     0.100914
    14    -0.188797
    15    -0.071478
    16    -0.094593
    17    -0.007894
    18     0.173085
    19     0.064463
    20     2.304340
    21     0.000252
    22     0.001893
    23    -0.009263
    24    -0.020619
    25    -0.041793
    26     0.331221
    27    -0.679702
    28    -1.031575
    29    -0.570950
    30    -0.226734
    31    -0.057668
    32    -0.102743
