[Molden Format]
p30-5 set                                                                       
[Atoms] AU
 CA       1    20        0.0000        0.0000       -1.6984
 O        2     8        0.0000        0.0000        1.6984
[GTO]
    1 0
s    6 1.00
   35138.713928999998  0.180479325772E-02
    5276.411134800000  0.138204344333E-01
    1200.469258900000  0.683474707386E-01
     338.718105420000  0.235857640075E+00
     109.853859220000  0.472631385247E+00
      37.608880299000  0.351692498575E+00
s    3 1.00
      73.107977555000 -0.102531311079E+00
       8.240770568800  0.609202407151E+00
       3.295981299300  0.464398802507E+00
s    3 1.00
       5.234180091400 -0.205301572010E+00
       0.841872205150  0.677915479198E+00
       0.365102940290  0.441009016342E+00
s    1 1.00
       0.051222402884  0.100000000000E+01
s    1 1.00
       0.019825111408  0.100000000000E+01
p    5 1.00
     413.113138930000  0.988446570905E-02
      96.935786224000  0.716288395041E-01
      30.372154659000  0.266899547729E+00
      10.684776830000  0.507697430817E+00
       3.882125835000  0.333840977912E+00
p    3 1.00
       1.799301629500  0.316604443154E+00
       0.691890565300  0.562979576248E+00
       0.263640240960  0.236757670930E+00
p    1 1.00
       0.074979000000  0.100000000000E+01
d    3 1.00
       5.497909387900  0.116004757206E+00
       1.317712803200  0.409686110613E+00
       0.321886826490  0.711310748747E+00
d    1 1.00
       0.070528614919  0.100000000000E+01

    2 0
s    5 1.00
    2266.176778500000 -0.538935039217E-02
     340.870101910000 -0.402347213890E-01
      77.363135167000 -0.180081842055E+00
      21.479644940000 -0.468288576577E+00
       6.658943312400 -0.446926171602E+00
s    1 1.00
       0.809759756680  0.100000000000E+01
s    1 1.00
       0.255307722340  0.100000000000E+01
p    3 1.00
      17.721504317000  0.626302487632E-01
       3.863550544000  0.333311384824E+00
       1.048092088300  0.741486383081E+00
p    1 1.00
       0.276415444110  0.100000000000E+01
d    1 1.00
       1.200000000000  0.100000000000E+01

[MO]
Sym=     1a
Ene=   -0.149196E+03
Spin= Alpha
Occup= 2.000000
     1     0.998604
     2     0.005120
     3    -0.006062
     4    -0.006978
     5    -0.000183
     6    -0.000206
     7    -0.000904
     8     0.004510
     9     0.000004
    10     0.000011
    11     0.000004
    12     0.000001
    13     0.000003
    14     0.000002
    15     0.003429
    16     0.003428
    17     0.003517
    18    -0.000000
    19    -0.000000
    20    -0.000001
    21     0.002063
    22     0.002064
    23     0.002038
    24     0.000000
    25     0.000000
    26    -0.000000
    27     0.000012
    28     0.000031
    29     0.000030
    30     0.000000
    31     0.000000
    32     0.000101
    33     0.000000
    34     0.000000
    35     0.000084
    36    -0.000023
    37    -0.000023
    38    -0.000111
    39    -0.000000
    40    -0.000000
    41    -0.000000
Sym=     2a
Ene=   -0.166364E+02
Spin= Alpha
Occup= 1.999996
     1    -0.314227
     2     1.050250
     3    -0.014034
     4    -0.001357
     5    -0.000524
     6     0.002261
     7     0.008614
     8    -0.081430
     9    -0.000079
    10    -0.000150
    11     0.000388
    12    -0.000011
    13    -0.000028
    14     0.000174
    15    -0.002606
    16    -0.002488
    17    -0.002492
    18     0.000012
    19     0.000004
    20     0.000020
    21     0.000805
    22     0.000796
    23     0.000659
    24    -0.000001
    25    -0.000003
    26    -0.000002
    27    -0.000069
    28    -0.000336
    29     0.000320
    30    -0.000005
    31     0.000001
    32     0.000406
    33    -0.000006
    34    -0.000005
    35    -0.000224
    36     0.000014
    37     0.000014
    38    -0.000128
    39    -0.000000
    40     0.000001
    41     0.000002
Sym=     3a
Ene=   -0.134686E+02
Spin= Alpha
Occup= 1.999993
     1     0.000186
     2    -0.000649
     3     0.000298
     4    -0.000061
     5     0.000000
     6     0.968496
     7    -0.260829
     8    -0.007468
     9    -0.008818
    10     0.003317
    11     0.000714
    12    -0.002927
    13     0.000802
    14     0.000021
    15     0.000017
    16     0.000006
    17    -0.000065
    18     0.000010
    19     0.000584
    20    -0.000174
    21     0.000019
    22     0.000020
    23     0.000013
    24    -0.000001
    25     0.000076
    26    -0.000019
    27     0.000004
    28     0.000020
    29     0.000035
    30    -0.000247
    31     0.000085
    32    -0.000023
    33    -0.000371
    34     0.000110
    35    -0.000031
    36    -0.000008
    37    -0.000007
    38     0.000013
    39    -0.000000
    40     0.000252
    41    -0.000070
Sym=     4a
Ene=   -0.134637E+02
Spin= Alpha
Occup= 1.999993
     1    -0.002176
     2     0.007574
     3    -0.002339
     4     0.001145
     5     0.000004
     6     0.257595
     7     0.953536
     8     0.188904
     9    -0.003474
    10    -0.016845
    11    -0.005105
    12    -0.000789
    13    -0.002985
    14    -0.000309
    15    -0.000180
    16    -0.000122
    17     0.000894
    18     0.000008
    19     0.000180
    20     0.000736
    21    -0.000363
    22    -0.000363
    23    -0.000254
    24     0.000001
    25     0.000026
    26     0.000084
    27    -0.000037
    28    -0.000005
    29    -0.000814
    30    -0.000070
    31    -0.000345
    32     0.000165
    33    -0.000096
    34    -0.000404
    35     0.000745
    36     0.000165
    37     0.000165
    38    -0.000186
    39    -0.000000
    40     0.000069
    41     0.000266
Sym=     5a
Ene=   -0.134931E+02
Spin= Alpha
Occup= 1.999990
     1    -0.030523
     2     0.086665
     3    -0.004990
     4     0.005292
     5     0.000012
     6    -0.041862
     7    -0.182705
     8     0.981468
     9     0.000376
    10     0.000187
    11    -0.007704
    12     0.000126
    13     0.000542
    14    -0.001259
    15    -0.000783
    16    -0.000736
    17     0.003406
    18     0.000006
    19    -0.000026
    20    -0.000083
    21    -0.001666
    22    -0.001660
    23    -0.001179
    24     0.000001
    25    -0.000004
    26    -0.000013
    27    -0.000243
    28     0.000549
    29    -0.004287
    30     0.000007
    31     0.000029
    32     0.000310
    33     0.000015
    34     0.000074
    35     0.003887
    36     0.000827
    37     0.000827
    38    -0.000797
    39     0.000000
    40    -0.000011
    41    -0.000045
Sym=     6a
Ene=   -0.203852E+02
Spin= Alpha
Occup= 1.999911
     1     0.000055
     2    -0.000173
     3    -0.000315
     4    -0.003813
     5     0.000460
     6    -0.000007
     7    -0.000088
     8     0.000190
     9    -0.000001
    10     0.000055
    11    -0.001429
    12    -0.000004
    13    -0.000033
    14    -0.002281
    15     0.000174
    16     0.000177
    17     0.000566
    18     0.000001
    19    -0.000004
    20    -0.000040
    21     0.001247
    22     0.001248
    23    -0.000864
    24    -0.000000
    25    -0.000004
    26    -0.000036
    27     0.992463
    28    -0.030793
    29     0.017281
    30    -0.000019
    31    -0.000167
    32     0.000923
    33    -0.000012
    34    -0.000101
    35    -0.001018
    36     0.003888
    37     0.003887
    38     0.003925
    39    -0.000001
    40     0.000000
    41     0.000004
Sym=     7a
Ene=   -0.211613E+01
Spin= Alpha
Occup= 1.998500
     1    -0.097280
     2     0.391763
     3    -1.038680
     4    -0.036357
     5     0.001394
     6     0.000807
     7    -0.005596
     8    -0.037361
     9    -0.002775
    10     0.015381
    11     0.113305
    12    -0.000206
    13    -0.000106
    14     0.006326
    15    -0.012391
    16    -0.004685
    17    -0.005603
    18     0.000780
    19     0.000157
    20     0.000507
    21     0.009558
    22     0.008868
    23     0.007264
    24    -0.000072
    25    -0.000163
    26    -0.000339
    27    -0.004613
    28    -0.011102
    29    -0.000413
    30    -0.000248
    31     0.000177
    32     0.015081
    33    -0.000241
    34    -0.000100
    35     0.002929
    36    -0.000352
    37    -0.000324
    38    -0.002181
    39     0.000002
    40     0.000011
    41    -0.000063
Sym=     8a
Ene=   -0.125591E+01
Spin= Alpha
Occup= 1.992644
     1     0.010600
     2    -0.042052
     3     0.134792
     4    -0.040010
     5     0.000297
     6    -0.000733
     7    -0.142412
     8    -0.284804
     9     0.004736
    10     0.475172
    11     0.915247
    12    -0.000094
    13     0.006735
    14     0.014304
    15     0.009409
    16     0.007257
    17    -0.045205
    18    -0.000206
    19    -0.000337
    20    -0.008871
    21     0.012273
    22     0.012034
    23     0.006656
    24    -0.000054
    25    -0.000133
    26    -0.000179
    27     0.017824
    28     0.031016
    29     0.006591
    30    -0.000381
    31     0.006975
    32    -0.040499
    33    -0.000315
    34     0.003295
    35    -0.015499
    36    -0.002274
    37    -0.002286
    38     0.009048
    39    -0.000002
    40     0.000005
    41    -0.001115
Sym=     9a
Ene=   -0.123638E+01
Spin= Alpha
Occup= 1.992243
     1    -0.002133
     2     0.008395
     3    -0.026889
     4     0.010211
     5     0.000055
     6    -0.284534
     7    -0.141300
     8     0.074507
     9     0.909593
    10     0.461275
    11    -0.233682
    12     0.015085
    13     0.007469
    14    -0.003131
    15    -0.001817
    16    -0.002071
    17     0.010235
    18    -0.000536
    19    -0.012819
    20    -0.007120
    21    -0.003138
    22    -0.003058
    23    -0.001539
    24     0.000105
    25     0.000980
    26     0.000269
    27    -0.004975
    28    -0.008682
    29    -0.002630
    30     0.019874
    31     0.009128
    32     0.012651
    33     0.011348
    34     0.005023
    35     0.005873
    36     0.000622
    37     0.000628
    38    -0.002427
    39     0.000010
    40    -0.002490
    41    -0.001243
Sym=    10a
Ene=   -0.123859E+01
Spin= Alpha
Occup= 1.991890
     1     0.003094
     2    -0.012148
     3     0.040742
     4    -0.017973
     5    -0.000049
     6    -0.163332
     7     0.250711
     8    -0.127893
     9     0.519100
    10    -0.811832
    11     0.402217
    12     0.008834
    13    -0.013545
    14     0.005539
    15     0.003087
    16     0.003592
    17    -0.017940
    18    -0.000278
    19    -0.007071
    20     0.011909
    21     0.005555
    22     0.005254
    23     0.002772
    24     0.000073
    25     0.000788
    26    -0.000903
    27     0.008259
    28     0.014314
    29     0.004025
    30     0.011952
    31    -0.017358
    32    -0.021019
    33     0.006967
    34    -0.009887
    35    -0.009571
    36    -0.001057
    37    -0.001088
    38     0.004114
    39     0.000009
    40    -0.001437
    41     0.002224
Sym=    11a
Ene=   -0.711652E+00
Spin= Alpha
Occup= 1.985177
     1     0.003189
     2    -0.006274
     3     0.049129
     4    -0.122771
     5     0.031026
     6    -0.000389
     7    -0.003543
     8     0.010998
     9     0.001326
    10     0.012355
    11    -0.028272
    12    -0.001561
    13    -0.017143
    14     0.104863
    15     0.065729
    16     0.063832
    17    -0.092537
    18    -0.000794
    19    -0.001145
    20    -0.010588
    21     0.012084
    22     0.011246
    23     0.067077
    24    -0.000316
    25    -0.001429
    26    -0.014726
    27     0.223518
    28     0.468373
    29     0.340558
    30    -0.005152
    31    -0.054521
    32     0.371823
    33    -0.004139
    34    -0.043939
    35     0.289144
    36     0.010679
    37     0.010661
    38     0.002846
    39    -0.000011
    40     0.000130
    41     0.001351
Sym=    12a
Ene=   -0.632228E+00
Spin= Alpha
Occup= 1.976224
     1     0.020876
     2    -0.067981
     3     0.288419
     4    -0.272307
     5     0.041098
     6     0.000479
     7     0.001696
     8    -0.072594
     9    -0.001536
    10    -0.005003
    11     0.250564
    12     0.000662
    13    -0.003219
    14     0.056709
    15     0.132481
    16     0.127574
    17    -0.238963
    18    -0.001658
    19     0.001737
    20     0.009512
    21     0.042995
    22     0.041755
    23     0.057144
    24    -0.000370
    25     0.000899
    26    -0.000045
    27    -0.170603
    28    -0.343936
    29    -0.265521
    30     0.003039
    31    -0.001194
    32     0.457576
    33     0.002353
    34    -0.001561
    35     0.356136
    36     0.000481
    37     0.000461
    38    -0.020734
    39    -0.000006
    40    -0.000099
    41    -0.000093
Sym=    13a
Ene=   -0.322565E+00
Spin= Alpha
Occup= 1.932442
     1    -0.000442
     2     0.001384
     3    -0.004858
     4     0.015636
     5     0.005655
     6     0.019975
     7     0.038393
     8     0.000250
     9    -0.068296
    10    -0.131669
    11    -0.000713
    12     0.081592
    13     0.163844
    14     0.017033
    15     0.007821
    16     0.009830
    17    -0.020645
    18     0.000370
    19     0.090249
    20     0.167265
    21     0.001558
    22     0.003449
    23     0.000934
    24     0.000754
    25     0.081371
    26     0.157427
    27     0.020723
    28     0.044003
    29     0.025431
    30     0.247294
    31     0.477204
    32     0.031787
    33     0.190841
    34     0.368177
    35     0.023007
    36     0.001075
    37     0.001425
    38    -0.000038
    39     0.000201
    40    -0.007042
    41    -0.013508
Sym=    14a
Ene=   -0.319417E+00
Spin= Alpha
Occup= 1.930685
     1    -0.000008
     2     0.000063
     3    -0.000458
     4    -0.003730
     5    -0.002545
     6     0.039708
     7    -0.020383
     8     0.000320
     9    -0.135388
    10     0.069686
    11    -0.001141
    12     0.158854
    13    -0.084973
    14    -0.007372
    15    -0.003142
    16    -0.005780
    17     0.009871
    18     0.002368
    19     0.176380
    20    -0.087275
    21    -0.000728
    22    -0.002073
    23    -0.000726
    24     0.001482
    25     0.158698
    26    -0.081839
    27    -0.007296
    28    -0.015583
    29    -0.008798
    30     0.478938
    31    -0.246392
    32    -0.015440
    33     0.369134
    34    -0.189851
    35    -0.011283
    36    -0.000448
    37    -0.000553
    38     0.000121
    39     0.000171
    40    -0.013644
    41     0.006978
Sym=    15a
Ene=   -0.268101E-01
Spin= Alpha
Occup= 0.069315
     1     0.001020
     2    -0.002682
     3     0.010484
     4    -0.035707
     5    -0.002616
     6     0.033153
     7    -0.018973
     8    -0.003859
     9    -0.124502
    10     0.070849
    11     0.013913
    12     0.374582
    13    -0.209061
    14    -0.029857
    15    -0.001262
    16    -0.020135
    17     0.035526
    18     0.014908
    19     0.373934
    20    -0.164752
    21     0.004964
    22    -0.002724
    23    -0.006096
    24     0.005075
    25     0.366712
    26    -0.197045
    27     0.007267
    28     0.030411
    29    -0.011625
    30    -0.636566
    31     0.328123
    32     0.017026
    33     0.078421
    34    -0.042080
    35     0.001873
    36     0.002034
    37    -0.000217
    38    -0.001084
    39    -0.003844
    40    -0.008875
    41     0.004131
Sym=    16a
Ene=   -0.264536E-01
Spin= Alpha
Occup= 0.067558
     1    -0.003015
     2     0.007851
     3    -0.033804
     4     0.111090
     5     0.005058
     6     0.017058
     7     0.036754
     8     0.009148
     9    -0.064046
    10    -0.137189
    11    -0.033484
    12     0.191572
    13     0.402288
    14     0.075148
    15     0.015813
    16     0.027656
    17    -0.080667
    18     0.000745
    19     0.192018
    20     0.314252
    21    -0.010714
    22    -0.004679
    23     0.013180
    24     0.000798
    25     0.187127
    26     0.377933
    27    -0.021049
    28    -0.087881
    29     0.032931
    30    -0.329830
    31    -0.637410
    32    -0.034060
    33     0.044467
    34     0.089505
    35    -0.005526
    36     0.003085
    37    -0.008855
    38     0.003643
    39    -0.009052
    40    -0.004788
    41    -0.008345
Sym=    17a
Ene=   -0.177811E-01
Spin= Alpha
Occup= 0.023776
     1     0.024174
     2    -0.063434
     3     0.414912
     4    -0.840068
     5     0.086000
     6    -0.000119
     7    -0.004432
     8    -0.003601
     9     0.000362
    10     0.015443
    11     0.053027
    12    -0.000465
    13    -0.031654
    14    -0.067637
    15     0.290782
    16     0.246539
    17    -0.503204
    18    -0.018043
    19     0.009886
    20     0.100790
    21     0.160149
    22     0.158062
    23     0.093455
    24     0.000425
    25    -0.000337
    26    -0.027221
    27     0.201587
    28     0.876676
    29    -0.441968
    30    -0.005057
    31    -0.001411
    32    -0.666868
    33     0.001380
    34    -0.013103
    35     0.360677
    36    -0.077007
    37    -0.077643
    38     0.083325
    39    -0.000300
    40     0.000820
    41    -0.004433
Sym=    18a
Ene=   -0.121288E-01
Spin= Alpha
Occup= 0.014823
     1    -0.002498
     2     0.004448
     3    -0.046232
     4     0.051317
     5    -0.056527
     6     0.000637
     7     0.007161
     8    -0.025336
     9    -0.002279
    10    -0.025556
    11     0.079408
    12     0.003721
    13     0.043366
    14    -0.351782
    15    -0.073968
    16    -0.074694
    17     0.128763
    18     0.005470
    19    -0.002716
    20    -0.037238
    21     0.017834
    22     0.018942
    23    -0.177140
    24     0.000560
    25     0.003895
    26     0.041794
    27     0.251326
    28     1.140707
    29    -0.736662
    30    -0.011806
    31    -0.118736
    32     0.611873
    33     0.009158
    34     0.093221
    35    -0.535522
    36    -0.122417
    37    -0.119244
    38     0.058559
    39     0.000267
    40    -0.002847
    41    -0.029762
Sym=    19a
Ene=   -0.832792E-02
Spin= Alpha
Occup= 0.008110
     1    -0.002318
     2     0.005747
     3    -0.004836
     4     0.017490
     5    -0.015042
     6    -0.004147
     7     0.014904
     8     0.013378
     9     0.014533
    10    -0.051888
    11    -0.049078
    12    -0.028961
    13     0.096611
    14    -0.037405
    15    -0.647855
    16     0.795207
    17    -0.221092
    18    -0.429146
    19     0.092962
    20    -0.368439
    21     0.094410
    22    -0.092783
    23     0.036158
    24     0.060475
    25    -0.036771
    26     0.135704
    27     0.001300
    28    -0.021277
    29     0.099148
    30     0.012580
    31    -0.041852
    32     0.001876
    33    -0.021868
    34     0.086963
    35    -0.119231
    36    -0.003985
    37    -0.002167
    38    -0.001118
    39    -0.000700
    40     0.002407
    41    -0.011321
Sym=    20a
Ene=   -0.784964E-02
Spin= Alpha
Occup= 0.007757
     1    -0.002746
     2     0.007679
     3    -0.019496
     4     0.016994
     5    -0.015709
     6     0.004777
     7     0.007259
     8     0.013106
     9    -0.016764
    10    -0.025274
    11    -0.048266
    12     0.033372
    13     0.046704
    14    -0.038986
    15    -0.234654
    16     0.392168
    17    -0.209893
    18     0.924811
    19    -0.111201
    20    -0.181889
    21     0.038332
    22    -0.039091
    23     0.032405
    24    -0.125787
    25     0.042993
    26     0.065549
    27     0.000850
    28    -0.023427
    29     0.101065
    30    -0.015795
    31    -0.021573
    32     0.006456
    33     0.026839
    34     0.044016
    35    -0.119937
    36    -0.003798
    37    -0.003002
    38    -0.000634
    39     0.000585
    40    -0.003306
    41    -0.005714
Sym=    21a
Ene=   -0.784952E-02
Spin= Alpha
Occup= 0.007356
     1    -0.011099
     2     0.040632
     3    -0.208482
     4    -0.025180
     5    -0.028046
     6     0.002516
     7     0.032415
     8     0.038085
     9    -0.008748
    10    -0.112916
    11    -0.141107
    12     0.016110
    13     0.214171
    14    -0.033134
    15     0.696411
    16    -0.142029
    17    -0.424021
    18    -0.067219
    19    -0.059473
    20    -0.739117
    21    -0.033024
    22     0.082461
    23     0.070296
    24     0.008166
    25     0.022034
    26     0.278714
    27    -0.003800
    28    -0.078718
    29     0.242451
    30    -0.007753
    31    -0.091722
    32     0.046912
    33     0.014624
    34     0.173069
    35    -0.309215
    36    -0.018904
    37    -0.022843
    38     0.010140
    39    -0.001246
    40    -0.001656
    41    -0.019741
Sym=    22a
Ene=   -0.204963E-02
Spin= Alpha
Occup= 0.001500
     1     0.002557
     2    -0.012314
     3     0.089232
     4     0.043067
     5     0.002300
     6    -0.039830
     7     0.003816
     8    -0.002627
     9     0.138509
    10    -0.013285
    11     0.010205
    12    -0.219629
    13     0.021672
    14     0.013372
    15    -0.013689
    16    -0.135681
    17     0.012145
    18     0.150150
    19     0.932098
    20    -0.084282
    21    -0.023012
    22     0.001692
    23    -0.019366
    24    -0.033606
    25    -0.390742
    26     0.037951
    27     0.000427
    28     0.007690
    29    -0.024767
    30     0.281351
    31    -0.026558
    32    -0.012920
    33    -0.389712
    34     0.035479
    35     0.034534
    36     0.001221
    37     0.003258
    38    -0.000575
    39     0.003065
    40     0.035438
    41    -0.002881
Sym=    23a
Ene=   -0.190735E-02
Spin= Alpha
Occup= 0.000089
     1     0.004630
     2    -0.012713
     3     0.086570
     4    -0.060057
     5    -0.018151
     6    -0.000053
     7    -0.000480
     8    -0.004475
     9     0.000207
    10     0.001906
    11     0.034841
    12    -0.001964
    13    -0.018229
    14    -0.011060
    15     0.035618
    16     0.030131
    17    -0.068857
    18    -0.002674
    19     0.001063
    20     0.008784
    21    -0.006324
    22    -0.008770
    23     0.037838
    24     0.000322
    25    -0.002025
    26    -0.016711
    27    -0.731982
    28    -2.429747
    29    -0.833241
    30    -0.003740
    31    -0.034612
    32     0.027984
    33     0.005212
    34     0.047295
    35    -0.040053
    36     1.364282
    37     1.365932
    38     1.504628
    39     0.000281
    40    -0.000941
    41    -0.014836
Sym=    24a
Ene=   -0.131967E-03
Spin= Alpha
Occup= 0.000010
     1     0.006850
     2    -0.012884
     3    -0.189171
     4     0.518791
     5     0.009519
     6     0.003035
     7     0.015555
     8    -0.134380
     9    -0.010303
    10    -0.052708
    11     0.508987
    12     0.003250
    13     0.007779
    14     0.113756
    15    -0.152527
    16    -0.175749
    17     0.993474
    18     0.041388
    19    -0.078528
    20    -0.396343
    21    -0.144494
    22    -0.140910
    23    -0.187825
    24    -0.005681
    25     0.011599
    26     0.053196
    27    -0.019916
    28     0.230971
    29    -1.092970
    30    -0.047225
    31    -0.267879
    32    -0.425038
    33     0.071844
    34     0.399860
    35     1.142720
    36     0.298172
    37     0.290106
    38    -0.081849
    39     0.002479
    40    -0.011585
    41    -0.053915
Sym=    25a
Ene=   -0.939024E-04
Spin= Alpha
Occup= 0.000007
     1    -0.000006
     2    -0.000091
     3    -0.000801
     4     0.012003
     5     0.000366
     6     0.000112
     7     0.000077
     8    -0.000913
     9    -0.000242
    10    -0.000653
    11     0.003702
    12    -0.003643
    13     0.008223
    14     0.003753
    15     0.013084
    16    -0.019723
    17     0.007312
    18     0.006663
    19    -0.002283
    20     0.001585
    21    -0.014247
    22     0.008679
    23    -0.003502
    24    -0.004587
    25    -0.004002
    26     0.008280
    27    -0.000187
    28     0.002569
    29    -0.011915
    30    -0.006125
    31     0.000494
    32    -0.005099
    33     0.009218
    34    -0.006014
    35     0.012385
    36    -0.818071
    37     0.811384
    38     0.010562
    39    -0.330952
    40    -0.023745
    41     0.064093
Sym=    26a
Ene=   -0.929303E-04
Spin= Alpha
Occup= 0.000007
     1     0.000260
     2    -0.001409
     3     0.010272
     4     0.004456
     5    -0.000069
     6     0.001467
     7    -0.000925
     8    -0.000221
     9    -0.003692
    10     0.003009
    11     0.000580
    12    -0.013132
    13    -0.003677
    14    -0.001638
    15    -0.012201
    16    -0.001143
    17    -0.004569
    18     0.017502
    19    -0.022063
    20     0.003904
    21     0.002416
    22    -0.005277
    23    -0.002500
    24    -0.012778
    25    -0.014918
    26    -0.002313
    27    -0.000371
    28    -0.000240
    29    -0.003924
    30     0.005763
    31     0.003746
    32     0.002777
    33     0.005153
    34     0.000717
    35    -0.004548
    36     0.294306
    37    -0.273377
    38    -0.012059
    39    -0.899750
    40    -0.279997
    41     0.066578
Sym=    27a
Ene=   -0.646970E-04
Spin= Alpha
Occup= 0.000004
     1    -0.000117
     2     0.000564
     3    -0.003048
     4    -0.007617
     5     0.000084
     6    -0.006164
     7     0.002496
     8     0.000904
     9     0.017399
    10    -0.006862
    11    -0.003616
    12     0.020715
    13    -0.010276
    14     0.000354
    15     0.002637
    16     0.004457
    17    -0.003042
    18     0.004444
    19     0.067761
    20    -0.028306
    21     0.002495
    22     0.000583
    23     0.003380
    24    -0.002318
    25     0.020316
    26    -0.009418
    27     0.000883
    28    -0.002351
    29     0.019411
    30    -0.004987
    31     0.007404
    32     0.000514
    33    -0.004336
    34    -0.003090
    35    -0.004973
    36     0.039471
    37    -0.048014
    38    -0.011939
    39    -0.281282
    40     0.879033
    41    -0.392330
Sym=    28a
Ene=   -0.847153E-05
Spin= Alpha
Occup= 0.000000
     1     0.000685
     2    -0.001857
     3     0.000388
     4     0.005178
     5    -0.002100
     6    -0.002632
     7    -0.006040
     8    -0.006197
     9     0.007331
    10     0.016852
    11     0.022819
    12     0.009851
    13     0.019035
    14    -0.004837
    15    -0.005523
    16    -0.002858
    17     0.030854
    18     0.001329
    19     0.028353
    20     0.062529
    21     0.000860
    22     0.000518
    23    -0.005220
    24    -0.000047
    25     0.009653
    26     0.017700
    27    -0.003879
    28     0.009793
    29    -0.083429
    30    -0.004832
    31    -0.020286
    32     0.000111
    33     0.000975
    34     0.016066
    35     0.020885
    36     0.108281
    37    -0.000513
    38    -0.020680
    39    -0.031213
    40     0.396384
    41     0.917432
Sym=    29a
Ene=    0.000000E+00
Spin= Alpha
Occup= 0.000000
     1     0.010423
     2    -0.030620
     3     0.281740
     4     0.290087
     5    -1.155643
     6     0.017145
     7     0.053173
     8     0.019782
     9    -0.059929
    10    -0.189802
    11    -0.069354
    12     0.048595
    13     0.412713
    14     0.526562
    15    -0.083357
    16    -0.127310
    17    -0.006777
    18     0.006862
    19     0.029422
    20     0.074581
    21     0.220842
    22     0.490241
    23     0.671821
    24    -0.020011
    25    -0.395094
    26    -0.635884
    27    -0.011455
    28     0.163919
    29    -0.839199
    30    -0.204241
    31    -0.133926
    32     0.001817
    33     0.378500
    34     0.294215
    35     0.004759
    36     0.033080
    37     0.017799
    38     0.250183
    39     0.000605
    40     0.003191
    41     0.013510
Sym=    30a
Ene=    0.000000E+00
Spin= Alpha
Occup= 0.000000
     1    -0.039063
     2    -0.025325
     3     0.174539
     4     4.731341
     5     0.837130
     6     0.030265
     7    -0.011956
     8     0.000443
     9    -0.109634
    10     0.043020
    11     0.008360
    12     0.335067
    13    -0.118366
    14     0.463630
    15    -0.971174
    16    -1.072037
    17    -0.788679
    18     0.011304
    19     0.040536
    20     0.016772
    21    -2.160581
    22    -1.348432
    23    -2.382805
    24    -0.083304
    25    -0.118828
    26     0.021886
    27    -0.007356
    28     0.056436
    29    -0.357772
    30     0.099998
    31    -0.004934
    32    -0.083273
    33    -0.162492
    34     0.021643
    35     0.404799
    36     0.038927
    37     0.006577
    38     0.090235
    39     0.001065
    40     0.010614
    41     0.001440
Sym=    31a
Ene=    0.000000E+00
Spin= Alpha
Occup= 0.000000
     1    -0.007940
     2    -0.114490
     3     0.785166
     4     3.714512
     5     0.747305
     6    -0.025561
     7     0.007971
     8     0.033000
     9     0.092567
    10    -0.029181
    11    -0.119987
    12    -0.279035
    13     0.126526
    14     1.332154
    15    -1.176120
    16    -1.115669
    17    -0.735790
    18    -0.011872
    19    -0.051753
    20    -0.097441
    21    -1.596148
    22    -1.898282
    23    -0.658730
    24     0.175075
    25     0.128351
    26     0.179064
    27    -0.034527
    28     0.382593
    29    -2.160440
    30    -0.077363
    31     0.100609
    32     0.070079
    33     0.122168
    34    -0.186889
    35     0.045987
    36     0.268275
    37     0.276378
    38     0.271550
    39    -0.004614
    40    -0.008015
    41    -0.000234
Sym=    32a
Ene=    0.000000E+00
Spin= Alpha
Occup= 0.000000
     1     0.006614
     2    -0.058362
     3     0.560525
     4    -0.058039
     5     0.797818
     6    -0.015040
     7    -0.037161
     8     0.039430
     9     0.057504
    10     0.137077
    11    -0.150539
    12    -0.364965
    13    -0.564315
    14    -0.152115
    15    -0.312592
    16    -0.417792
    17    -0.515602
    18     0.002690
    19     0.000957
    20    -0.085099
    21    -0.437629
    22     0.029657
    23    -0.299678
    24     0.010526
    25    -0.413694
    26    -0.160421
    27     0.018540
    28    -0.091312
    29     0.594752
    30    -0.417609
    31    -0.405801
    32     0.103096
    33     0.744370
    34     0.703126
    35    -0.351305
    36    -0.111595
    37    -0.124419
    38    -0.083995
    39     0.003691
    40    -0.011083
    41    -0.022560
Sym=    33a
Ene=    0.000000E+00
Spin= Alpha
Occup= 0.000000
     1    -0.011716
     2     0.029072
     3    -0.274574
     4     0.802627
     5    -0.344553
     6    -0.029093
     7     0.010323
     8    -0.038962
     9     0.107935
    10    -0.040441
    11     0.140437
    12    -0.495369
    13     0.300363
    14    -0.317160
    15     0.120016
    16     0.013678
    17    -0.015903
    18     0.005532
    19     0.015513
    20     0.064221
    21    -0.576902
    22    -0.062638
    23    -0.233088
    24     0.009738
    25    -0.330932
    26     0.346802
    27    -0.000272
    28    -0.075101
    29     0.267380
    30    -0.420555
    31     0.368644
    32    -0.054810
    33     0.740805
    34    -0.665286
    35     0.143023
    36     0.115532
    37     0.093234
    38    -0.273021
    39     0.006240
    40    -0.017641
    41     0.004635
Sym=    34a
Ene=    0.000000E+00
Spin= Alpha
Occup= 0.000000
     1    -0.007979
     2    -0.122275
     3     1.126592
     4     2.556596
     5     1.472748
     6     0.001716
     7     0.045119
     8     0.023434
     9    -0.006494
    10    -0.162454
    11    -0.088604
    12     0.040063
    13     0.446540
    14    -0.747002
    15    -1.230525
    16    -1.261516
    17    -1.288372
    18     0.044172
    19    -0.034371
    20    -0.056550
    21    -1.558239
    22    -1.449233
    23    -1.750244
    24    -0.186178
    25     0.085820
    26    -0.139068
    27     0.042951
    28    -0.327367
    29     1.773967
    30     0.040305
    31     0.033088
    32     0.024375
    33    -0.081403
    34    -0.073667
    35    -0.216547
    36    -0.473776
    37    -0.488142
    38     0.012264
    39     0.002909
    40     0.006508
    41     0.021470
Sym=    35a
Ene=    0.000000E+00
Spin= Alpha
Occup= 0.000000
     1    -0.036956
     2    -0.272415
     3     2.635398
     4    10.234841
     5     0.146606
     6    -0.017126
     7    -0.009870
     8    -0.014446
     9     0.062185
    10     0.035975
    11     0.057116
    12    -0.200801
    13    -0.126917
    14    -0.084931
    15    -3.283825
    16    -3.174691
    17    -3.289664
    18     0.026481
    19    -0.010074
    20     0.030745
    21    -2.725946
    22    -3.400183
    23    -3.334724
    24    -0.178298
    25     0.026031
    26    -0.059962
    27    -0.001480
    28    -0.047737
    29     0.022878
    30    -0.076351
    31    -0.059378
    32    -0.125630
    33     0.130849
    34     0.114226
    35     0.126406
    36    -0.036871
    37    -0.010261
    38     0.058131
    39     0.008106
    40    -0.005139
    41    -0.003947
Sym=    36a
Ene=    0.000000E+00
Spin= Alpha
Occup= 0.000000
     1     0.011735
     2     0.015329
     3    -0.088026
     4    -1.438908
     5    -0.883651
     6    -0.050587
     7     0.000955
     8     0.033528
     9     0.181061
    10    -0.002260
    11    -0.119572
    12    -0.418969
    13    -0.060849
    14    -0.229283
    15     0.333567
    16     0.265382
    17     0.388022
    18    -0.053937
    19    -0.080700
    20    -0.061248
    21     0.692897
    22     1.103221
    23     0.077882
    24     0.368939
    25     0.529909
    26    -0.089901
    27     0.025660
    28    -0.182627
    29     1.106716
    30     0.092996
    31    -0.135082
    32     0.005188
    33    -0.197167
    34     0.228208
    35    -0.032268
    36    -0.276922
    37    -0.296414
    38     0.011186
    39    -0.017486
    40    -0.007175
    41     0.003817
Sym=    37a
Ene=    0.000000E+00
Spin= Alpha
Occup= 0.000000
     1     0.024197
     2    -0.100268
     3     0.880077
     4     0.071072
     5    -0.812755
     6     0.001043
     7    -0.012757
     8     0.023980
     9    -0.004801
    10     0.045405
    11    -0.091111
    12     0.084030
    13    -0.071564
    14     0.224320
    15    -0.379767
    16    -0.531667
    17    -0.312098
    18     0.112941
    19    -0.051746
    20    -0.121413
    21    -0.064801
    22     0.665883
    23     0.627523
    24    -0.630375
    25     0.225263
    26     0.336126
    27    -0.006629
    28     0.052473
    29    -0.348682
    30     0.132866
    31     0.083946
    32     0.053557
    33    -0.252133
    34    -0.179036
    35    -0.203859
    36     0.072207
    37     0.047179
    38     0.029660
    39     0.024604
    40     0.001405
    41    -0.007758
Sym=    38a
Ene=    0.000000E+00
Spin= Alpha
Occup= 0.000000
     1     0.021055
     2    -0.150064
     3     1.334491
     4     0.845211
     5     0.232966
     6     0.027086
     7     0.014780
     8     0.022837
     9    -0.097507
    10    -0.054429
    11    -0.089598
    12     0.268638
    13     0.238220
    14    -0.257046
    15    -0.954274
    16    -0.999862
    17    -0.796327
    18    -0.074932
    19     0.001137
    20    -0.054088
    21    -0.079302
    22     0.043439
    23    -0.805002
    24     0.439263
    25    -0.138761
    26     0.199904
    27     0.001301
    28    -0.174565
    29     0.740061
    30     0.033126
    31     0.185495
    32     0.054981
    33    -0.049442
    34    -0.344011
    35    -0.245831
    36     0.169846
    37     0.177739
    38    -0.456227
    39    -0.008389
    40    -0.002237
    41    -0.014356
Sym=    39a
Ene=    0.000000E+00
Spin= Alpha
Occup= 0.000000
     1    -0.009967
     2    -0.010056
     3     0.135280
     4     1.118435
     5     0.911852
     6    -0.035199
     7     0.021940
     8    -0.037922
     9     0.126195
    10    -0.079920
    11     0.144633
    12    -0.308935
    13     0.267247
    14     0.181332
    15    -0.262892
    16    -0.364162
    17    -0.293882
    18     0.004699
    19    -0.022980
    20     0.124972
    21    -0.649804
    22    -0.083700
    23    -0.361440
    24    -0.050643
    25     0.290779
    26    -0.193796
    27    -0.031862
    28     0.169011
    29    -1.010039
    30     0.034093
    31     0.146029
    32    -0.080179
    33    -0.076094
    34    -0.197002
    35     0.198922
    36     0.232536
    37     0.208132
    38     0.207190
    39     0.000987
    40    -0.007474
    41     0.010444
Sym=    40a
Ene=    0.000000E+00
Spin= Alpha
Occup= 0.000000
     1    -0.020280
     2    -0.109887
     3     1.051769
     4     4.783994
     5     0.033187
     6     0.014148
     7    -0.010778
     8    -0.029351
     9    -0.052669
    10     0.039669
    11     0.102078
    12     0.249814
    13    -0.170566
    14    -0.016253
    15    -1.231658
    16    -1.377728
    17    -1.612275
    18    -0.093761
    19     0.014830
    20     0.043724
    21    -2.160081
    22    -1.495336
    23    -0.639116
    24     0.430532
    25     0.157885
    26    -0.121325
    27    -0.005975
    28     0.099724
    29    -0.647462
    30     0.221328
    31    -0.137085
    32    -0.029188
    33    -0.387914
    34     0.238232
    35    -0.070678
    36     0.081255
    37     0.065209
    38     0.043043
    39    -0.017097
    40     0.005075
    41    -0.007397
Sym=    41a
Ene=    0.000000E+00
Spin= Alpha
Occup= 0.000000
     1     0.000863
     2    -0.039564
     3     0.457145
     4     0.990901
     5    -0.183300
     6     0.015406
     7    -0.013916
     8    -0.001988
     9    -0.054428
    10     0.048225
    11     0.019572
    12     0.080504
    13    -0.003207
    14     0.081372
    15    -0.446398
    16    -0.456492
    17    -0.285797
    18    -0.032571
    19     0.011915
    20    -0.105105
    21    -0.114319
    22    -0.053443
    23    -0.030671
    24     0.252998
    25    -0.260729
    26     0.470983
    27    -0.002239
    28     0.064218
    29    -0.276378
    30    -0.116038
    31     0.238603
    32    -0.093847
    33     0.218608
    34    -0.434686
    35     0.177244
    36    -0.341955
    37    -0.374762
    38     0.738494
    39    -0.017392
    40     0.015459
    41     0.030234
