[Molden Format]
p30-5 set                                                                       
[Atoms] AU
 LI       1     3        0.1136        0.0000        0.0000
 BE       2     4        0.2418        0.0000        0.0000
 B        3     5       -1.2095        0.0000        0.0000
[GTO]
    1 0
s    5 1.00
    2266.176778500000 -0.538935039217E-02
     340.870101910000 -0.402347213890E-01
      77.363135167000 -0.180081842055E+00
      21.479644940000 -0.468288576577E+00
       6.658943312400 -0.446926171602E+00
s    1 1.00
       0.809759756680  0.100000000000E+01
s    1 1.00
       0.255307722340  0.100000000000E+01
p    3 1.00
      17.721504317000  0.626302487632E-01
       3.863550544000  0.333311384824E+00
       1.048092088300  0.741486383081E+00
p    1 1.00
       0.276415444110  0.100000000000E+01
d    1 1.00
       1.200000000000  0.100000000000E+01
 
    2 0
s    3 1.00
      13.010701000000  0.334854848130E-01
       1.962257200000  0.234721870881E+00
       0.444537960000  0.813770285260E+00
s    1 1.00
       0.121949620000  0.100000000000E+01
p    1 1.00
       0.800000000000  0.100000000000E+01
 
    3 0
s    3 1.00
      13.010701000000  0.334854848130E-01
       1.962257200000  0.234721870881E+00
       0.444537960000  0.813770285260E+00
s    1 1.00
       0.121949620000  0.100000000000E+01
p    1 1.00
       0.800000000000  0.100000000000E+01
 
[MO]
Sym=     1a
Ene=   -0.588069E+01
Spin= Alpha
Occup= 1.999813
     1    -0.014479
     2     0.388544
     3    -0.945977
     4     0.004694
     5     0.000125
     6    -0.000047
     7     0.751889
     8     0.000058
     9    -0.000023
    10    -0.533631
    11    -0.053114
    12    -0.053116
    13    -0.000004
    14    -0.000002
    15     0.000002
    16    -1.119293
    17     0.167533
    18     0.830966
    19     0.000026
    20    -0.000003
    21     3.088103
    22    -0.130427
    23     0.990994
    24     0.000094
    25    -0.000033
Sym=     2a
Ene=   -0.131527E+02
Spin= Alpha
Occup= 1.999215
     1     0.461318
     2     2.931477
     3     2.679027
     4    -0.102294
     5    -0.000020
     6     0.000016
     7     0.202654
     8    -0.000015
     9     0.000003
    10    -0.147882
    11     0.001828
    12     0.001824
    13    -0.000002
    14     0.000003
    15    -0.000003
    16    -5.291724
    17    -0.649157
    18     0.613200
    19     0.000011
    20    -0.000005
    21     0.338291
    22    -0.028139
    23     0.159181
    24    -0.000009
    25     0.000010
Sym=     3a
Ene=   -0.169528E+01
Spin= Alpha
Occup= 1.974543
     1    -0.000002
     2     0.000480
     3     0.000282
     4    -0.000025
     5    -0.490422
     6     0.107330
     7     0.000148
     8    -0.261197
     9     0.057172
    10    -0.000090
    11    -0.000026
    12    -0.000027
    13     0.032937
    14    -0.007208
    15     0.000001
    16    -0.000696
    17    -0.000114
    18     0.000162
    19    -0.111144
    20     0.024328
    21     0.000514
    22     0.000001
    23     0.000147
    24    -0.334290
    25     0.073163
Sym=     4a
Ene=   -0.169711E+01
Spin= Alpha
Occup= 1.974285
     1    -0.000023
     2    -0.000241
     3    -0.000458
     4     0.000035
     5     0.107411
     6     0.490758
     7     0.000073
     8     0.056980
     9     0.260384
    10    -0.000041
    11     0.000007
    12     0.000007
    13    -0.007269
    14    -0.033235
    15     0.000002
    16     0.000326
    17     0.000084
    18     0.000052
    19     0.024698
    20     0.112817
    21     0.000283
    22     0.000024
    23     0.000038
    24     0.072803
    25     0.332627
Sym=     5a
Ene=   -0.165445E+01
Spin= Alpha
Occup= 1.858191
     1    -0.097318
     2    -2.304858
     3    -3.058293
     4     0.257648
     5    -0.000058
     6    -0.000054
     7     0.263156
     8    -0.000061
     9    -0.000026
    10    -0.161498
    11     0.069390
    12     0.069299
    13     0.000013
    14    -0.000001
    15    -0.000027
    16     3.049230
    17     0.640210
    18     0.110900
    19    -0.000034
    20    -0.000006
    21     1.323584
    22    -0.006332
    23     0.014896
    24    -0.000053
    25    -0.000036
Sym=     6a
Ene=   -0.134047E+00
Spin= Alpha
Occup= 0.140379
     1    -0.048599
     2    -0.027174
     3    -0.556305
     4    -0.632094
     5    -0.000128
     6     0.000038
     7    -0.207521
     8    -0.000321
     9     0.000137
    10     0.172164
    11    -0.090499
    12    -0.090104
    13    -0.000038
    14    -0.000058
    15     0.000122
    16     0.486160
    17     0.022911
    18    -0.334868
    19    -0.000011
    20    -0.000055
    21    -0.678492
    22     0.012533
    23     0.087546
    24     0.000418
    25    -0.000116
Sym=     7a
Ene=   -0.226918E-01
Spin= Alpha
Occup= 0.018293
     1     0.000008
     2     0.001339
     3    -0.002771
     4    -0.000279
     5     0.148199
     6     0.676740
     7     0.000388
     8    -0.040687
     9    -0.185504
    10    -0.000359
    11     0.000019
    12     0.000013
    13     0.033684
    14     0.153091
    15    -0.000011
    16    -0.000952
    17     0.000755
    18     0.000632
    19     0.039040
    20     0.180438
    21     0.000553
    22     0.002137
    23     0.000540
    24    -0.172627
    25    -0.791414
Sym=     8a
Ene=   -0.530374E-02
Spin= Alpha
Occup= 0.003255
     1     0.001889
     2    -0.075898
     3    -0.032277
     4     0.012120
     5    -0.670500
     6     0.145752
     7    -0.088646
     8     0.836573
     9    -0.184876
    10    -0.021656
    11     0.135577
    12    -0.042242
    13     0.554513
    14    -0.119704
    15    -0.047130
    16     0.146595
    17     0.015136
    18    -0.080219
    19     0.101097
    20    -0.020699
    21    -0.096347
    22     0.008305
    23    -0.097851
    24    -0.069901
    25     0.017034
Sym=     9a
Ene=   -0.957755E-02
Spin= Alpha
Occup= 0.000552
     1    -1.246267
     2     4.190534
     3     4.309382
     4    -0.769610
     5     0.008026
     6    -0.001019
     7     0.198686
     8    -0.002887
     9     0.000088
    10    -0.187716
    11     0.295643
    12     0.294733
    13     0.003692
    14     0.000826
    15    -0.000208
    16    -8.284731
    17    -0.887681
    18     1.669194
    19    -0.008752
    20     0.000748
    21     0.486537
    22    -0.126870
    23     0.108616
    24     0.005154
    25     0.000408
Sym=    10a
Ene=   -0.705516E-03
Spin= Alpha
Occup= 0.000162
     1     0.047951
     2    -0.458166
     3     1.548311
     4    -0.040660
     5    -0.010107
     6     0.005573
     7    -0.779023
     8    -0.090987
     9     0.042407
    10     2.426252
    11    -0.272996
    12    -0.277697
    13     0.075502
    14    -0.033197
    15    -0.001107
    16     2.006698
    17    -0.527661
    18    -2.774745
    19     0.029080
    20    -0.015420
    21    -4.841714
    22     0.494859
    23    -2.728029
    24     0.091387
    25    -0.040829
Sym=    11a
Ene=   -0.324016E-03
Spin= Alpha
Occup= 0.000143
     1    -0.016656
     2     0.503300
     3    -0.205664
     4     0.019782
     5     0.018055
     6     0.059003
     7     0.121989
     8    -0.236802
     9    -0.908542
    10    -0.063583
    11    -0.019852
    12    -0.020513
    13     0.241452
    14     0.919493
    15    -0.000121
    16    -0.614807
    17    -0.012702
    18     0.115615
    19     0.011601
    20     0.058229
    21     0.143929
    22     0.389683
    23     0.139551
    24     0.274812
    25     1.048105
Sym=    12a
Ene=   -0.511769E-02
Spin= Alpha
Occup= 0.003020
     1    -0.000858
     2     0.041620
     3     0.034054
     4    -0.008442
     5    -0.140039
     6    -0.635015
     7     0.036947
     8     0.170902
     9     0.782758
    10     0.014280
    11     0.017517
    12    -0.067308
    13     0.142437
    14     0.651045
    15    -0.022431
    16    -0.070718
    17    -0.010774
    18     0.031606
    19     0.015287
    20     0.063557
    21     0.029251
    22    -0.007988
    23     0.035253
    24     0.003341
    25     0.015260
Sym=    13a
Ene=   -0.230739E-01
Spin= Alpha
Occup= 0.018849
     1    -0.000154
     2    -0.004920
     3     0.000471
     4     0.000204
     5     0.663356
     6    -0.144805
     7    -0.001825
     8    -0.170582
     9     0.036985
    10     0.002664
    11    -0.000277
    12    -0.000591
    13     0.146287
    14    -0.031572
    15    -0.000055
    16     0.005925
    17     0.000464
    18    -0.003460
    19     0.191206
    20    -0.041912
    21    -0.005547
    22     0.001124
    23    -0.001905
    24    -0.803817
    25     0.176027
Sym=    14a
Ene=   -0.118759E-02
Spin= Alpha
Occup= 0.000085
     1    -0.094317
     2     0.443023
     3     0.562085
     4     0.244511
     5    -0.580068
     6     2.136451
     7     0.133837
     8    -0.314439
     9     0.977927
    10     0.151203
    11     0.051060
    12     0.051283
    13    -0.076528
    14     0.447637
    15     0.000114
    16    -0.912301
    17    -0.241978
    18    -0.311732
    19     0.815188
    20    -2.974558
    21    -0.136840
    22     0.043564
    23    -0.079452
    24     0.004131
    25     0.183331
Sym=    15a
Ene=   -0.914149E-04
Spin= Alpha
Occup= 0.000022
     1     0.112104
     2    -0.242117
     3     0.810896
     4     0.652635
     5    -0.003992
     6    -0.000330
     7     1.760369
     8    -0.016601
     9     0.001661
    10    -0.149897
    11    -0.231553
    12    -0.233492
    13     0.011241
    14    -0.000574
    15    -0.000481
    16     0.384675
    17    -0.652435
    18    -2.355759
    19     0.008500
    20    -0.000344
    21    -0.404794
    22     0.739257
    23    -0.821371
    24     0.014668
    25    -0.001077
Sym=    16a
Ene=   -0.254691E-02
Spin= Alpha
Occup= 0.001281
     1     0.071005
     2     4.579096
     3     0.536924
     4    -0.679317
     5    -0.011217
     6     0.005571
     7     0.884631
     8     0.003810
     9    -0.003096
    10    -0.349268
    11     0.064486
    12     0.068004
    13    -0.011390
    14     0.005591
    15     0.000651
    16    -3.879301
    17    -0.794313
    18     0.493827
    19     0.015398
    20    -0.006714
    21     0.050210
    22     0.502147
    23    -0.964602
    24    -0.012363
    25     0.006250
Sym=    17a
Ene=   -0.518463E-02
Spin= Alpha
Occup= 0.002959
     1     0.010878
     2    -0.594751
     3    -0.310439
     4     0.124655
     5    -0.007817
     6    -0.049546
     7    -0.508188
     8     0.007837
     9     0.060823
    10    -0.186442
    11    -0.224506
    12     0.886018
    13     0.011576
    14     0.050440
    15     0.294241
    16     0.950719
    17     0.137764
    18    -0.428619
    19     0.000304
    20     0.005117
    21    -0.377906
    22    -0.059269
    23    -0.480443
    24     0.003586
    25     0.001171
Sym=    18a
Ene=   -0.523786E-02
Spin= Alpha
Occup= 0.003007
     1     0.010637
     2    -0.594337
     3    -0.329390
     4     0.124823
     5     0.108599
     6    -0.024111
     7    -0.498261
     8    -0.132335
     9     0.029262
    10    -0.188179
    11     0.883012
    12    -0.215028
    13    -0.100524
    14     0.022478
    15    -0.291036
    16     0.944981
    17     0.138642
    18    -0.417758
    19    -0.014519
    20     0.003097
    21    -0.357386
    22    -0.058264
    23    -0.467831
    24     0.003042
    25    -0.000350
Sym=    19a
Ene=   -0.110299E-02
Spin= Alpha
Occup= 0.000067
     1     0.863721
     2    -5.279343
     3    -5.254180
     4    -2.228770
     5    -0.392701
     6     0.141096
     7    -1.390176
     8    -0.227981
     9     0.088477
    10    -1.336989
    11    -0.326388
    12    -0.329088
    13    -0.043181
    14     0.010081
    15    -0.000638
    16     9.630586
    17     2.364057
    18     2.795723
    19     0.556572
    20    -0.201521
    21     1.337340
    22    -1.023745
    23     0.724996
    24     0.015083
    25    -0.011799
Sym=    20a
Ene=   -0.190391E-05
Spin= Alpha
Occup= 0.000001
     1     0.058261
     2    -2.698950
     3    -6.010879
     4    -0.522716
     5     0.001682
     6    -0.002214
     7    -1.597641
     8     0.008883
     9    -0.009357
    10     0.913037
    11     0.802797
    12     0.803136
    13    -0.006060
    14     0.006493
    15     0.000073
    16     4.757019
    17     5.605830
    18     0.242962
    19    -0.004174
    20     0.004722
    21    -0.572737
    22    -2.784506
    23    -0.502492
    24    -0.007796
    25     0.008356
Sym=    21a
Ene=   -0.130090E-04
Spin= Alpha
Occup= 0.000006
     1     0.215048
     2    -4.736442
     3    -0.469738
     4    -0.373878
     5     0.003752
     6    -0.050642
     7    -0.800973
     8     0.009411
     9    -0.230833
    10     0.669029
    11     0.251606
    12     0.251935
    13    -0.003239
    14     0.177994
    15     0.000078
    16     6.306575
    17     0.298728
    18    -0.769751
    19    -0.007422
    20     0.107384
    21    -1.148449
    22    -1.785278
    23    -0.916142
    24    -0.006100
    25     0.216971
Sym=    22a
Ene=   -0.298339E-02
Spin= Alpha
Occup= 0.001442
     1     0.000005
     2     0.001011
     3    -0.000211
     4    -0.000028
     5     0.000084
     6    -0.000097
     7     0.000269
     8    -0.000064
     9    -0.000024
    10    -0.000281
    11     0.361427
    12    -0.361104
    13     0.000134
    14    -0.000126
    15     0.908836
    16    -0.001035
    17    -0.000091
    18     0.000275
    19    -0.000127
    20     0.000173
    21     0.000514
    22     0.000030
    23     0.000015
    24     0.000157
    25    -0.000106
Sym=    23a
Ene=   -0.736113E-03
Spin= Alpha
Occup= 0.000345
     1     0.005854
     2     0.206673
     3     0.205031
     4    -0.015234
     5    -0.278335
     6     0.057778
     7    -0.027911
     8     0.728643
     9    -0.188355
    10     0.118442
    11    -0.081268
    12    -0.069913
    13    -1.037883
    14     0.254325
    15     0.003182
    16    -0.128475
    17    -0.073245
    18    -0.147827
    19     0.303151
    20    -0.058156
    21    -0.319318
    22     0.134954
    23    -0.159778
    24    -1.069546
    25     0.265088
Sym=    24a
Ene=   -0.112868E-02
Spin= Alpha
Occup= 0.000081
     1    -0.139304
     2     0.747426
     3     0.735539
     4     0.347657
     5    -2.093824
     6    -0.628862
     7     0.221408
     8    -1.054985
     9    -0.264136
    10     0.191439
    11     0.071842
    12     0.072173
    13    -0.351452
    14    -0.154815
    15     0.000085
    16    -1.445409
    17    -0.343423
    18    -0.399368
    19     2.931046
    20     0.872470
    21    -0.140418
    22     0.153140
    23    -0.069945
    24    -0.074822
    25    -0.081124
Sym=    25a
Ene=   -0.167743E-04
Spin= Alpha
Occup= 0.000003
     1     0.623487
     2   -16.352554
     3   -12.784998
     4    -1.398232
     5     0.009193
     6     0.002802
     7    -0.489924
     8     0.018839
     9     0.021409
    10     2.161697
    11     1.938801
    12     1.940672
    13    -0.011490
    14    -0.017015
    15     0.000479
    16    22.201192
    17     2.467940
    18    -1.131724
    19    -0.015441
    20    -0.007740
    21    -1.036256
    22     1.052172
    23    -0.605302
    24    -0.014786
    25    -0.020717
