[Molden Format]
p30-5 set                                                                       
[Atoms] AU
 N        1     7        0.0000        0.0000       -0.5463
 H        2     1       -0.8836       -1.5305        0.1821
 H        3     1       -0.8836        1.5305        0.1821
 H        4     1        1.7672        0.0000        0.1821
[GTO]
    1 0
s    5 1.00
    1712.841585300000 -0.544779958049E-02
     257.648126770000 -0.406271746324E-01
      58.458245853000 -0.181119622506E+00
      16.198367905000 -0.468439755632E+00
       5.005260080900 -0.446168462892E+00
s    1 1.00
       0.587318565710  0.100000000000E+01
s    1 1.00
       0.187645922530  0.100000000000E+01
p    3 1.00
      13.571470233000 -0.588481169695E-01
       2.925737287400 -0.320246247625E+00
       0.799277507540 -0.753282265204E+00
p    1 1.00
       0.219543480340  0.100000000000E+01
d    1 1.00
       1.000000000000  0.100000000000E+01
 
    2 0
s    3 1.00
      13.010701000000  0.334854848130E-01
       1.962257200000  0.234721870881E+00
       0.444537960000  0.813770285260E+00
s    1 1.00
       0.121949620000  0.100000000000E+01
p    1 1.00
       0.800000000000  0.100000000000E+01
 
    3 0
s    3 1.00
      13.010701000000  0.334854848130E-01
       1.962257200000  0.234721870881E+00
       0.444537960000  0.813770285260E+00
s    1 1.00
       0.121949620000  0.100000000000E+01
p    1 1.00
       0.800000000000  0.100000000000E+01
 
    4 0
s    3 1.00
      13.010701000000  0.334854848130E-01
       1.962257200000  0.234721870881E+00
       0.444537960000  0.813770285260E+00
s    1 1.00
       0.121949620000  0.100000000000E+01
p    1 1.00
       0.800000000000  0.100000000000E+01
 
[MO]
Sym=     1a
Ene=   -0.155415E+02
Spin= Alpha
Occup= 1.999853
     1     0.993624
     2    -0.029501
     3     0.017518
     4     0.000034
     5     0.000002
     6     0.005942
     7     0.000020
     8    -0.000006
     9    -0.002337
    10     0.000349
    11     0.000369
    12     0.001421
    13     0.000001
    14    -0.000004
    15    -0.000003
    16     0.003731
    17    -0.002278
    18     0.001186
    19     0.002071
    20    -0.001086
    21     0.003734
    22    -0.002273
    23     0.001190
    24    -0.002072
    25    -0.001088
    26     0.003721
    27    -0.002286
    28    -0.002420
    29     0.000000
    30    -0.001098
Sym=     2a
Ene=   -0.564297E+00
Spin= Alpha
Occup= 1.983659
     1    -0.170628
     2    -0.364826
     3    -0.338058
     4    -0.000566
     5     0.000035
     6    -0.462177
     7     0.000084
     8     0.000010
     9     0.415269
    10    -0.018478
    11    -0.018495
    12     0.005358
    13    -0.000000
    14     0.000060
    15    -0.000004
    16     0.004218
    17     0.030582
    18     0.000611
    19     0.001006
    20     0.017300
    21     0.004180
    22     0.030547
    23     0.000612
    24    -0.001014
    25     0.017299
    26     0.004830
    27     0.030915
    28    -0.001198
    29    -0.000005
    30     0.017279
Sym=     3a
Ene=   -0.772196E+00
Spin= Alpha
Occup= 1.971129
     1     0.107392
     2     0.213223
     3     0.020206
     4    -0.371081
     5    -0.000083
     6    -0.175323
     7     0.161922
     8     0.000055
     9     0.105914
    10     0.017733
    11    -0.004241
    12     0.010354
    13     0.000003
    14     0.019897
    15     0.000009
    16    -0.031425
    17    -0.031845
    18     0.013934
    19    -0.001011
    20     0.007606
    21    -0.031314
    22    -0.031823
    23     0.013938
    24     0.001011
    25     0.007603
    26     0.438563
    27     0.135509
    28    -0.033170
    29    -0.000001
    30    -0.007298
Sym=     4a
Ene=   -0.770907E+00
Spin= Alpha
Occup= 1.970997
     1    -0.106700
     2    -0.211846
     3    -0.019589
     4    -0.186262
     5    -0.321673
     6     0.175202
     7     0.081325
     8     0.140468
     9    -0.105984
    10    -0.001136
    11    -0.012218
    12    -0.010319
    13    -0.011094
    14     0.009991
    15     0.017259
    16    -0.438783
    17    -0.135768
    18    -0.016474
    19    -0.028561
    20     0.007208
    21     0.031752
    22     0.031888
    23     0.007900
    24     0.011548
    25    -0.007587
    26     0.032310
    27     0.032014
    28     0.006033
    29     0.012621
    30    -0.007620
Sym=     5a
Ene=   -0.770792E+00
Spin= Alpha
Occup= 1.970987
     1    -0.106646
     2    -0.211730
     3    -0.019510
     4    -0.186336
     5     0.321729
     6     0.175159
     7     0.081349
     8    -0.140509
     9    -0.105958
    10    -0.001128
    11    -0.012218
    12    -0.010314
    13     0.011100
    14     0.009993
    15    -0.017265
    16     0.031787
    17     0.031878
    18     0.007903
    19    -0.011551
    20    -0.007585
    21    -0.438796
    22    -0.135784
    23    -0.016468
    24     0.028563
    25     0.007213
    26     0.032405
    27     0.032033
    28     0.006031
    29    -0.012622
    30    -0.007618
Sym=     6a
Ene=   -0.271329E-03
Spin= Alpha
Occup= 0.000166
     1     0.011887
     2     0.375390
     3    -0.270246
     4     0.525322
     5    -0.678248
     6    -0.250856
     7     0.604627
     8    -0.739480
     9    -0.143355
    10     0.167468
    11     0.392192
    12     0.011228
    13    -0.147881
    14     0.008157
    15     0.005171
    16    -0.160605
    17    -0.012578
    18    -0.244357
    19     0.121400
    20     0.139177
    21     0.036962
    22     0.143076
    23    -0.582054
    24     0.884176
    25     0.445637
    26    -0.213171
    27    -0.055286
    28    -0.152625
    29     0.218868
    30     0.079218
Sym=     7a
Ene=   -0.171823E-02
Spin= Alpha
Occup= 0.001304
     1     0.024181
     2     0.249127
     3    -0.454833
     4     0.057500
     5    -0.192611
     6    -0.092843
     7    -0.019618
     8    -0.000031
     9     0.212010
    10    -0.049522
    11     0.282097
    12    -0.062618
    13    -0.009912
    14     0.111598
    15     0.108966
    16    -0.039254
    17     0.007171
    18     0.210019
    19    -0.504990
    20    -0.729198
    21    -0.338639
    22     0.478894
    23    -0.164565
    24     0.040634
    25     0.088991
    26    -0.037208
    27     0.051993
    28     0.058558
    29    -0.023775
    30    -0.017762
Sym=     8a
Ene=   -0.390292E-02
Spin= Alpha
Occup= 0.003599
     1    -0.012174
     2     0.083330
     3    -1.055162
     4     0.082998
     5    -0.000538
     6     0.065739
     7    -0.504878
     8    -0.000953
     9    -0.444503
    10     0.176820
    11    -0.131621
    12    -0.043778
    13     0.000820
    14     0.119900
    15     0.000038
    16     0.257201
    17     0.213465
    18     0.052007
    19     0.029149
    20     0.020881
    21     0.257973
    22     0.214470
    23     0.051582
    24    -0.029419
    25     0.020728
    26     1.309266
    27    -0.686523
    28    -0.443038
    29    -0.000983
    30    -0.174187
Sym=     9a
Ene=   -0.105020E-01
Spin= Alpha
Occup= 0.014314
     1    -0.203643
     2    -1.053328
     3     1.055916
     4    -0.002163
     5     0.000127
     6    -0.831520
     7    -0.003148
     8     0.000493
     9    -0.813185
    10     0.120828
    11     0.119854
    12    -0.086470
    13    -0.000058
    14    -0.000090
    15    -0.000032
    16     0.001440
    17    -0.086081
    18    -0.002496
    19    -0.004981
    20    -0.018678
    21     0.001108
    22    -0.086529
    23    -0.002496
    24     0.004911
    25    -0.018667
    26     0.002396
    27    -0.084865
    28     0.007181
    29     0.000006
    30    -0.017234
Sym=    10a
Ene=   -0.344828E-05
Spin= Alpha
Occup= 0.000000
     1     0.016939
     2    -0.497588
     3     4.215621
     4     0.007106
     5     0.002240
     6    -0.070300
     7    -0.014635
     8     0.010073
     9     1.332050
    10    -0.110472
    11    -0.075963
    12    -0.070545
    13    -0.001327
    14    -0.002089
    15     0.001786
    16    -0.516937
    17    -1.149598
    18    -0.279548
    19    -0.470052
    20    -0.134587
    21    -0.523524
    22    -1.158165
    23    -0.281022
    24     0.468831
    25    -0.133341
    26    -0.503653
    27    -1.130476
    28     0.526004
    29    -0.002314
    30    -0.149300
Sym=    11a
Ene=   -0.173738E-02
Spin= Alpha
Occup= 0.001308
     1     0.013903
     2     0.136597
     3    -0.244806
     4     0.200148
     5     0.201516
     6    -0.049990
     7     0.006249
     8     0.002158
     9     0.124702
    10    -0.183749
    11     0.307236
    12    -0.036446
    13     0.113077
    14     0.106377
    15    -0.036190
    16    -0.366656
    17     0.534552
    18    -0.164981
    19    -0.028252
    20     0.114107
    21    -0.019461
    22     0.003412
    23     0.554989
    24     0.537114
    25    -0.415480
    26     0.146715
    27    -0.237608
    28    -0.014381
    29    -0.049230
    30    -0.078889
Sym=    12a
Ene=   -0.174803E-02
Spin= Alpha
Occup= 0.001318
     1    -0.012972
     2    -0.146491
     3     0.279095
     4     0.295085
     5    -0.063314
     6     0.055710
     7     0.045959
     8     0.006625
     9    -0.113840
    10    -0.274774
    11     0.126178
    12     0.036064
    13    -0.204688
    14     0.020337
    15    -0.113967
    16     0.028791
    17    -0.000024
    18     0.729896
    19    -0.208588
    20     0.414292
    21    -0.149943
    22     0.239096
    23    -0.045188
    24    -0.014754
    25     0.072801
    26     0.347985
    27    -0.550469
    28    -0.124137
    29     0.132372
    30    -0.123589
Sym=    13a
Ene=   -0.260255E-03
Spin= Alpha
Occup= 0.000129
     1    -0.000347
     2    -0.014460
     3     0.009476
     4     0.048434
     5     0.033107
     6     0.010284
     7     0.052299
     8     0.243101
     9     0.005075
    10    -0.012043
    11    -0.009739
    12    -0.002026
    13    -1.059951
    14    -0.002057
    15    -0.173739
    16     0.434548
    17    -0.097982
    18    -0.255787
    19     0.185287
    20    -0.300737
    21    -0.413172
    22     0.098954
    23     0.232173
    24     0.191537
    25     0.294522
    26    -0.008536
    27    -0.001686
    28    -0.055595
    29     0.598504
    30    -0.018910
Sym=    14a
Ene=   -0.945845E-03
Spin= Alpha
Occup= 0.000592
     1    -0.028703
     2     0.199151
     3    -1.349226
     4     0.065607
     5    -0.014070
     6    -0.209608
     7    -0.031093
     8     0.004190
     9    -0.329843
    10    -0.433873
    11    -0.230183
    12     1.062464
    13    -0.026012
    14    -0.410809
    15     0.083150
    16     0.233547
    17     0.294708
    18    -0.070140
    19    -0.142991
    20    -0.236611
    21     0.130311
    22     0.397386
    23    -0.094045
    24     0.182906
    25    -0.269838
    26     0.619327
    27    -0.077912
    28    -0.014623
    29    -0.001124
    30    -0.108645
Sym=    15a
Ene=   -0.604068E-05
Spin= Alpha
Occup= 0.000000
     1    -0.007702
     2     0.042846
     3    -0.048066
     4     0.165031
     5     0.036472
     6    -0.051727
     7    -2.165253
     8    -0.405398
     9    -0.040957
    10    -0.182014
    11     0.369548
    12    -0.001035
    13     0.079443
    14    -0.612026
    15    -0.112471
    16    -0.536740
    17    -1.201925
    18     0.009451
    19    -0.683717
    20     0.316305
    21    -0.277114
    22    -0.612723
    23     0.203455
    24     0.489020
    25     0.184363
    26     0.731515
    27     1.816886
    28    -0.716061
    29     0.071279
    30    -0.295521
Sym=    16a
Ene=   -0.183671E-01
Spin= Alpha
Occup= 0.022554
     1     0.152327
     2     0.601159
     3    -0.014901
     4     0.371616
     5    -0.642664
     6    -0.318631
     7    -0.045531
     8     0.080944
     9    -0.004230
    10    -0.013521
    11     0.031264
    12    -0.007698
    13    -0.047122
    14    -0.035782
    15     0.061328
    16     0.001891
    17     0.038319
    18    -0.000685
    19    -0.007579
    20     0.001103
    21    -0.896093
    22    -0.196065
    23     0.001280
    24    -0.001122
    25    -0.021159
    26    -0.000021
    27     0.039363
    28     0.006612
    29    -0.002647
    30     0.001719
Sym=    17a
Ene=   -0.393074E-02
Spin= Alpha
Occup= 0.003662
     1     0.010025
     2    -0.101948
     3     1.068069
     4     0.025804
     5     0.046491
     6    -0.056856
     7    -0.267701
     8    -0.459739
     9     0.451784
    10     0.052624
    11    -0.105303
    12     0.043395
    13    -0.155659
    14     0.060696
    15     0.106437
    16    -1.308388
    17     0.675981
    18    -0.209252
    19    -0.359639
    20     0.155737
    21    -0.256043
    22    -0.212042
    23     0.000852
    24     0.060040
    25    -0.021953
    26    -0.255162
    27    -0.209268
    28     0.052872
    29     0.028260
    30    -0.019546
Sym=    18a
Ene=   -0.168929E-02
Spin= Alpha
Occup= 0.001266
     1     0.011042
     2     0.113664
     3    -0.201597
     4     0.049441
     5     0.293026
     6    -0.043660
     7    -0.013640
     8     0.005743
     9     0.090752
    10     0.079913
    11     0.020462
    12    -0.023389
    13     0.326737
    14    -0.063305
    15     0.076214
    16    -0.364538
    17     0.529936
    18     0.060671
    19    -0.154387
    20     0.122364
    21     0.195921
    22    -0.306764
    23    -0.041948
    24    -0.054421
    25    -0.091058
    26    -0.014946
    27     0.013497
    28     0.153889
    29     0.793241
    30    -0.314618
Sym=    19a
Ene=   -0.975504E-03
Spin= Alpha
Occup= 0.000622
     1     0.000438
     2    -0.003229
     3     0.021772
     4    -0.038915
     5    -0.236521
     6     0.003434
     7    -0.016740
     8    -0.097665
     9     0.005365
    10     0.039639
    11    -0.026724
    12    -0.018826
    13    -0.266191
    14     0.170323
    15     1.021227
    16     0.631322
    17    -0.747840
    18     0.171548
    19     0.293397
    20     0.227289
    21    -0.534096
    22     0.612584
    23    -0.148246
    24     0.235032
    25    -0.179331
    26    -0.114808
    27     0.126244
    28     0.056497
    29    -0.008838
    30    -0.036856
Sym=    20a
Ene=   -0.803859E-05
Spin= Alpha
Occup= 0.000001
     1     0.011238
     2    -0.057095
     3     0.071262
     4     0.048169
     5     0.215243
     6     0.073982
     7     0.432876
     8    -2.137177
     9     0.048241
    10    -0.115280
    11    -0.131889
    12    -0.014729
    13     0.449299
    14     0.102680
    15    -0.596834
    16    -0.594693
    17    -1.411967
    18    -0.541095
    19    -0.383586
    20     0.263403
    21     0.797662
    22     1.713717
    23     0.491912
    24    -0.693757
    25    -0.459595
    26    -0.090824
    27    -0.307033
    28    -0.033588
    29     0.358189
    30    -0.051552
Sym=    21a
Ene=   -0.393235E-02
Spin= Alpha
Occup= 0.003667
     1    -0.010041
     2     0.101598
     3    -1.066047
     4    -0.024737
     5     0.045268
     6     0.056702
     7     0.268998
     8    -0.461541
     9    -0.451797
    10    -0.052929
    11     0.104699
    12    -0.042823
    13    -0.154899
    14    -0.060750
    15     0.106833
    16     0.255586
    17     0.211373
    18    -0.000781
    19     0.060038
    20     0.021418
    21     1.309189
    22    -0.676055
    23     0.209030
    24    -0.358680
    25    -0.154520
    26     0.254934
    27     0.208190
    28    -0.053376
    29     0.028332
    30     0.019610
Sym=    22a
Ene=   -0.183798E-01
Spin= Alpha
Occup= 0.022567
     1     0.152266
     2     0.600664
     3    -0.014097
     4     0.371510
     5     0.642671
     6    -0.318604
     7    -0.045767
     8    -0.080698
     9    -0.004223
    10    -0.013610
    11     0.031130
    12    -0.007528
    13     0.046908
    14    -0.035761
    15    -0.061425
    16    -0.896048
    17    -0.196111
    18     0.001403
    19     0.001304
    20    -0.021049
    21     0.001699
    22     0.038041
    23    -0.000637
    24     0.007485
    25     0.001041
    26     0.000152
    27     0.039113
    28     0.006578
    29     0.002582
    30     0.001780
Sym=    23a
Ene=   -0.184365E-01
Spin= Alpha
Occup= 0.022593
     1    -0.152361
     2    -0.600501
     3     0.015309
     4     0.743228
     5    -0.000057
     6     0.317993
     7    -0.086092
     8    -0.000431
     9     0.005326
    10    -0.053137
    11     0.037474
    12     0.007521
    13     0.000158
    14    -0.071866
    15    -0.000009
    16    -0.000019
    17    -0.038221
    18     0.005848
    19     0.003396
    20    -0.001943
    21     0.000161
    22    -0.037613
    23     0.005892
    24    -0.003491
    25    -0.002002
    26     0.891324
    27     0.194498
    28     0.004042
    29     0.000142
    30     0.021806
Sym=    24a
Ene=   -0.315971E-03
Spin= Alpha
Occup= 0.000186
     1     0.005932
     2    -0.061248
     3     0.068404
     4     0.102922
     5     0.013430
     6     0.056793
     7     0.540655
     8     0.016507
     9     0.055354
    10     0.818508
    11    -1.040834
    12     0.024101
    13     0.021742
    14    -0.087501
    15     0.003930
    16     0.330960
    17     0.007441
    18     0.429813
    19    -0.155058
    20    -0.239977
    21     0.339137
    22    -0.007083
    23     0.426163
    24     0.129595
    25    -0.255398
    26    -0.579462
    27    -0.014668
    28    -0.022605
    29    -0.016511
    30     0.242568
Sym=    25a
Ene=   -0.248037E-02
Spin= Alpha
Occup= 0.000143
     1     0.843298
     2     3.207509
     3     0.103792
     4    -0.058649
     5     0.001358
     6     0.018836
     7    -0.061234
     8     0.002794
     9    -0.296980
    10    -1.674818
    11    -1.713215
    12    -1.601421
    13    -0.004287
    14     0.001715
    15    -0.000577
    16     0.314252
    17    -0.038251
    18     0.099631
    19     0.134536
    20    -0.019159
    21     0.310242
    22    -0.038917
    23     0.102054
    24    -0.134098
    25    -0.017315
    26     0.323424
    27    -0.032207
    28    -0.089373
    29     0.002414
    30     0.012177
Sym=    26a
Ene=   -0.173234E-02
Spin= Alpha
Occup= 0.001318
     1    -0.023178
     2    -0.250806
     3     0.469823
     4     0.225925
     5    -0.049262
     6     0.094047
     7     0.050169
     8    -0.016436
     9    -0.205642
    10    -0.212166
    11    -0.035738
    12     0.064838
    13     0.174238
    14    -0.040006
    15     0.154194
    16     0.040603
    17    -0.043610
    18     0.044900
    19     0.033790
    20     0.017218
    21     0.045086
    22     0.004029
    23     0.517380
    24    -0.075462
    25     0.728155
    26     0.318027
    27    -0.499238
    28    -0.136686
    29    -0.126344
    30    -0.099286
Sym=    27a
Ene=   -0.259530E-03
Spin= Alpha
Occup= 0.000153
     1     0.008721
     2     0.381359
     3    -0.287537
     4     0.515919
     5     0.672768
     6    -0.261997
     7     0.582546
     8     0.692560
     9    -0.158647
    10     0.181762
    11     0.434779
    12     0.006976
    13     0.195850
    14     0.007353
    15    -0.008400
    16    -0.003954
    17     0.124729
    18    -0.586250
    19    -0.900045
    20     0.485234
    21    -0.144495
    22     0.004119
    23    -0.257808
    24    -0.123765
    25     0.146889
    26    -0.205416
    27    -0.049868
    28    -0.134601
    29    -0.236439
    30     0.096168
Sym=    28a
Ene=   -0.169144E-02
Spin= Alpha
Occup= 0.001284
     1    -0.027758
     2    -0.284783
     3     0.502996
     4    -0.118403
     5     0.115870
     6     0.108787
     7     0.036673
     8    -0.001817
     9    -0.222815
    10    -0.200855
    11    -0.050449
    12     0.060788
    13     0.134202
    14     0.158312
    15     0.031960
    16     0.094795
    17    -0.109510
    18    -0.002522
    19     0.081659
    20     0.003345
    21     0.322704
    22    -0.443245
    23    -0.045111
    24    -0.164275
    25    -0.082576
    26     0.038926
    27    -0.037739
    28    -0.384910
    29     0.319652
    30     0.775383
Sym=    29a
Ene=   -0.982986E-03
Spin= Alpha
Occup= 0.000627
     1     0.013409
     2    -0.079733
     3     0.585434
     4     0.236157
     5    -0.036853
     6     0.088036
     7     0.144568
     8    -0.021796
     9     0.147413
    10    -0.021973
    11     0.316108
    12    -0.464030
    13    -0.036878
    14    -0.940295
    15     0.147856
    16    -0.354739
    17     0.177756
    18    -0.015340
    19    -0.076778
    20     0.004717
    21    -0.519321
    22     0.381625
    23    -0.062122
    24     0.154960
    25    -0.054844
    26     0.435857
    27    -0.824209
    28    -0.376745
    29    -0.000055
    30     0.312443
Sym=    30a
Ene=   -0.492780E-04
Spin= Alpha
Occup= 0.000003
     1    -0.065420
     2     0.303821
     3    -0.349039
     4    -0.590405
     5     0.016632
     6    -0.421697
     7    -0.225069
     8    -0.322284
     9    -0.236061
    10     1.005432
    11     0.357964
    12     0.118527
    13     0.017615
    14     0.087859
    15    -0.094814
    16    -0.250420
    17    -0.125153
    18    -0.015428
    19    -0.343372
    20     0.337603
    21    -0.075526
    22     0.344120
    23     0.149749
    24     0.226532
    25     0.264294
    26    -0.320607
    27    -0.235756
    28     1.176720
    29     0.084848
    30     0.712971
