[Molden Format]
p30-5 set                                                                       
[Atoms] AU
 O        1     8        0.0000        0.0000        0.7444
 H        2     1       -1.4268        0.0000       -0.3722
 H        3     1        1.4268        0.0000       -0.3722
[GTO]
    1 0
s    5 1.00
    2266.176778500000 -0.538935039217E-02
     340.870101910000 -0.402347213890E-01
      77.363135167000 -0.180081842055E+00
      21.479644940000 -0.468288576577E+00
       6.658943312400 -0.446926171602E+00
s    1 1.00
       0.809759756680  0.100000000000E+01
s    1 1.00
       0.255307722340  0.100000000000E+01
p    3 1.00
      17.721504317000  0.626302487632E-01
       3.863550544000  0.333311384824E+00
       1.048092088300  0.741486383081E+00
p    1 1.00
       0.276415444110  0.100000000000E+01
d    1 1.00
       1.200000000000  0.100000000000E+01
 
    2 0
s    3 1.00
      13.010701000000  0.334854848130E-01
       1.962257200000  0.234721870881E+00
       0.444537960000  0.813770285260E+00
s    1 1.00
       0.121949620000  0.100000000000E+01
p    1 1.00
       0.800000000000  0.100000000000E+01
 
    3 0
s    3 1.00
      13.010701000000  0.334854848130E-01
       1.962257200000  0.234721870881E+00
       0.444537960000  0.813770285260E+00
s    1 1.00
       0.121949620000  0.100000000000E+01
p    1 1.00
       0.800000000000  0.100000000000E+01
 
[MO]
Sym=     1a
Ene=   -0.205590E+02
Spin= Alpha
Occup= 1.999924
     1     0.992876
     2    -0.029578
     3     0.013390
     4     0.000005
     5     0.000084
     6     0.004942
     7    -0.000009
     8     0.000058
     9     0.002225
    10     0.003280
    11     0.004237
    12     0.003484
    13     0.000003
    14     0.000001
    15    -0.000006
    16     0.002339
    17    -0.001487
    18     0.001531
    19     0.000004
    20     0.001308
    21     0.002347
    22    -0.001482
    23    -0.001526
    24    -0.000003
    25     0.001314
Sym=     2a
Ene=   -0.743698E+00
Spin= Alpha
Occup= 1.987305
     1     0.176498
     2     0.370920
     3     0.314783
     4    -0.001308
     5    -0.437925
     6     0.243102
     7     0.000230
     8    -0.343874
     9     0.190161
    10     0.009725
    11     0.009631
    12    -0.003618
    13    -0.000139
    14     0.000060
    15     0.012475
    16    -0.012085
    17    -0.021837
    18    -0.000466
    19    -0.019313
    20     0.011171
    21    -0.013696
    22    -0.023418
    23     0.000468
    24    -0.019786
    25     0.011254
Sym=     3a
Ene=   -0.725484E+00
Spin= Alpha
Occup= 1.986982
     1     0.168869
     2     0.355827
     3     0.300085
     4    -0.000871
     5     0.457220
     6     0.233463
     7    -0.000819
     8     0.359225
     9     0.182322
    10     0.009302
    11     0.008935
    12    -0.003008
    13     0.000062
    14     0.000052
    15    -0.012852
    16    -0.012322
    17    -0.021110
    18    -0.000418
    19     0.020073
    20     0.010616
    21    -0.013149
    22    -0.021042
    23     0.000477
    24     0.020355
    25     0.010423
Sym=     4a
Ene=   -0.861121E+00
Spin= Alpha
Occup= 1.970861
     1     0.090967
     2     0.183962
     3    -0.030270
     4     0.348580
     5     0.000268
     6    -0.312743
     7     0.150805
     8     0.000068
     9    -0.165348
    10     0.004712
    11    -0.003002
    12     0.015521
    13     0.000089
    14    -0.018949
    15    -0.000140
    16    -0.030218
    17    -0.029802
    18     0.014724
    19     0.000092
    20    -0.016073
    21     0.439312
    22     0.096107
    23    -0.041741
    24     0.000065
    25     0.023035
Sym=     5a
Ene=   -0.857409E+00
Spin= Alpha
Occup= 1.970324
     1    -0.089163
     2    -0.180128
     3     0.031994
     4     0.351196
     5    -0.000309
     6     0.311149
     7     0.152449
     8    -0.000181
     9     0.164955
    10    -0.004727
    11     0.003117
    12    -0.015368
    13    -0.000034
    14    -0.019130
    15     0.000053
    16    -0.440078
    17    -0.096197
    18    -0.041766
    19    -0.000041
    20    -0.023230
    21     0.033491
    22     0.030111
    23     0.014307
    24    -0.000208
    25     0.016307
Sym=     6a
Ene=   -0.170793E-02
Spin= Alpha
Occup= 0.001206
     1    -0.009707
     2    -0.065769
     3     0.021355
     4    -0.040130
     5    -0.046279
     6     0.053676
     7    -0.084701
     8     0.368248
     9     0.112146
    10    -0.144277
    11    -0.061201
    12     0.180317
    13     0.201391
    14     0.043845
    15     0.136712
    16     0.011009
    17     0.014211
    18     0.266606
    19    -0.831927
    20    -0.270361
    21     0.154859
    22    -0.114318
    23    -0.020280
    24     0.033285
    25     0.075689
Sym=     7a
Ene=   -0.640917E-03
Spin= Alpha
Occup= 0.000407
     1    -0.028808
     2    -0.295439
     3     0.355111
     4    -0.179691
     5     0.021625
     6     0.211425
     7     0.481739
     8    -0.434880
     9    -0.034985
    10    -0.125347
    11     0.014408
    12    -0.090512
    13    -0.036521
    14    -0.040942
    15     0.138466
    16     0.294663
    17    -0.135450
    18    -0.018867
    19     0.157588
    20     0.195341
    21    -0.065400
    22    -0.221106
    23    -0.562880
    24     0.899736
    25    -0.160364
Sym=     8a
Ene=   -0.110204E-01
Spin= Alpha
Occup= 0.011373
     1    -0.210225
     2    -1.032110
     3     0.969368
     4     0.000695
     5    -0.687727
     6    -0.412426
     7     0.000240
     8     0.711598
     9     0.390303
    10     0.137984
    11    -0.030372
    12     0.098737
    13     0.001179
    14     0.000664
    15    -0.096509
    16    -0.054612
    17    -0.061335
    18    -0.015925
    19     0.024716
    20     0.009284
    21    -0.055125
    22    -0.062862
    23     0.013682
    24     0.026927
    25     0.009307
Sym=     9a
Ene=   -0.321496E-03
Spin= Alpha
Occup= 0.000205
     1     0.002698
     2    -0.066618
     3     0.097595
     4     0.659967
     5    -0.009520
     6     0.083657
     7    -1.339167
     8    -0.140030
     9     0.129110
    10     0.129018
    11     0.083862
    12    -0.398887
    13    -0.072943
    14     0.275295
    15     0.181753
    16    -0.408386
    17    -0.364011
    18     0.566657
    19     0.114886
    20    -0.055568
    21     0.625283
    22     0.218688
    23     0.117191
    24     0.281519
    25    -0.160167
Sym=    10a
Ene=   -0.766151E-05
Spin= Alpha
Occup= 0.000000
     1     0.003257
     2     0.044251
     3    -0.545720
     4    -0.361236
     5    -0.001265
     6     0.079766
     7    -1.609118
     8     0.009426
     9     0.215750
    10    -0.102333
    11     0.065896
    12    -0.057355
    13     0.007743
    14     0.738656
    15     0.005928
    16    -0.506702
    17    -1.145269
    18    -0.570122
    19     0.007744
    20    -0.595469
    21     0.807591
    22     1.537821
    23    -0.933656
    24    -0.028132
    25     0.859173
Sym=    11a
Ene=   -0.139150E-02
Spin= Alpha
Occup= 0.000967
     1    -0.022588
     2    -0.222129
     3     0.326098
     4    -0.244511
     5     0.019620
     6     0.141729
     7     0.012981
     8    -0.190955
     9     0.087730
    10    -0.258945
    11    -0.049006
    12     0.166266
    13    -0.085636
    14     0.086436
    15    -0.022567
    16    -0.076684
    17     0.176373
    18     0.490296
    19     0.424114
    20    -0.611982
    21     0.278849
    22    -0.497369
    23    -0.071093
    24     0.006267
    25     0.284843
Sym=    12a
Ene=   -0.161305E-02
Spin= Alpha
Occup= 0.001121
     1    -0.021524
     2    -0.191707
     3     0.245985
     4     0.195293
     5    -0.025679
     6     0.125806
     7     0.021550
     8     0.211028
     9     0.120953
    10    -0.277262
    11    -0.077467
    12     0.249169
    13    -0.085271
    14    -0.086062
    15     0.072456
    16     0.259047
    17    -0.399621
    18     0.064962
    19    -0.006403
    20     0.226361
    21    -0.043842
    22     0.125394
    23    -0.480298
    24    -0.453969
    25    -0.577702
Sym=    13a
Ene=   -0.737168E-03
Spin= Alpha
Occup= 0.000391
     1    -0.007115
     2     0.314641
     3    -0.955650
     4     0.088684
     5    -0.060369
     6    -0.275220
     7    -0.200552
     8    -0.175499
     9     0.289114
    10    -0.329460
    11     0.108432
    12     0.762521
    13     0.063603
    14     0.051118
    15     0.627289
    16     0.071412
    17     0.175045
    18    -0.304333
    19     0.362031
    20     0.081655
    21     0.229541
    22     0.282486
    23     0.374657
    24     0.301487
    25     0.073123
Sym=    14a
Ene=   -0.917337E-03
Spin= Alpha
Occup= 0.000472
     1    -0.008712
     2     0.089555
     3    -0.398763
     4    -0.140925
     5     0.029029
     6    -0.092066
     7    -0.143037
     8     0.059513
     9     0.157047
    10    -0.179545
    11     0.118180
    12     0.258280
    13    -0.650437
    14     0.699942
    15    -0.300417
    16    -0.430385
    17     0.591150
    18    -0.329768
    19    -0.408260
    20     0.013160
    21     0.672877
    22    -0.450846
    23    -0.140867
    24     0.152274
    25     0.074882
Sym=    15a
Ene=   -0.362400E-05
Spin= Alpha
Occup= 0.000000
     1    -0.007948
     2     0.443614
     3    -3.300150
     4     0.005016
     5    -0.003539
     6     0.088697
     7     0.423629
     8     0.000834
     9     1.532043
    10    -0.083279
    11     0.517349
    12    -0.255726
    13     0.002244
    14    -0.159696
    15     0.002751
    16     1.026934
    17     1.317424
    18     0.890351
    19     0.011433
    20     0.349842
    21     0.683211
    22     0.773876
    23    -0.683358
    24    -0.004187
    25     0.090050
Sym=    16a
Ene=   -0.333111E-02
Spin= Alpha
Occup= 0.002717
     1     0.015985
     2    -0.078952
     3     0.946331
     4    -0.022129
     5    -0.001695
     6    -0.044243
     7    -0.498983
     8    -0.001236
     9    -0.682643
    10    -0.120087
    11     0.055112
    12    -0.040024
    13     0.011944
    14    -0.234602
    15     0.013305
    16    -1.365328
    17     0.679662
    18    -0.420632
    19    -0.023133
    20    -0.286377
    21    -0.334968
    22    -0.176918
    23     0.055127
    24     0.031534
    25    -0.002875
Sym=    17a
Ene=   -0.333811E-02
Spin= Alpha
Occup= 0.002696
     1     0.015059
     2    -0.087007
     3     0.968542
     4     0.035478
     5     0.001664
     6    -0.043842
     7     0.494575
     8    -0.026413
     9    -0.680689
    10    -0.132395
    11     0.062833
    12    -0.036609
    13     0.004051
    14     0.242730
    15    -0.003918
    16    -0.341321
    17    -0.175369
    18    -0.057618
    19     0.015288
    20     0.006901
    21    -1.354767
    22     0.657445
    23     0.408053
    24     0.046543
    25    -0.317571
Sym=    18a
Ene=   -0.139009E-02
Spin= Alpha
Occup= 0.000757
     1     0.064715
     2     0.267896
     3     0.157150
     4     0.102776
     5     0.027028
     6     0.011255
     7    -0.202442
     8    -0.087947
     9    -0.406815
    10     0.459207
    11    -1.001044
    12     0.458550
    13     0.134072
    14     0.098554
    15    -0.223072
    16    -0.749860
    17     0.303711
    18    -0.110124
    19     0.062348
    20    -0.035664
    21    -0.523067
    22     0.315664
    23     0.147315
    24     0.066725
    25    -0.111203
Sym=    19a
Ene=   -0.108872E-01
Spin= Alpha
Occup= 0.011102
     1    -0.215202
     2    -1.051808
     3     0.978187
     4     0.002253
     5     0.668353
     6    -0.429001
     7    -0.000447
     8    -0.693388
     9     0.406885
    10     0.147739
    11    -0.037490
    12     0.107290
    13     0.000056
    14    -0.000074
    15     0.097784
    16    -0.059935
    17    -0.054174
    18    -0.016483
    19    -0.023609
    20     0.008761
    21    -0.061535
    22    -0.053766
    23     0.017814
    24    -0.020340
    25     0.005884
Sym=    20a
Ene=   -0.160372E-02
Spin= Alpha
Occup= 0.000073
     1    -0.716857
     2    -2.301978
     3    -0.857354
     4     0.021122
     5    -0.000150
     6     0.032473
     7    -0.039173
     8     0.009993
     9    -0.354835
    10     1.539536
    11     1.370483
    12     1.508014
    13     0.003540
    14     0.004478
    15    -0.003329
    16    -0.368718
    17     0.157214
    18    -0.126356
    19    -0.003601
    20    -0.041421
    21    -0.341176
    22     0.168704
    23     0.162713
    24    -0.021661
    25    -0.038018
Sym=    21a
Ene=   -0.220590E-01
Spin= Alpha
Occup= 0.024785
     1    -0.136494
     2    -0.492163
     3    -0.084535
     4     0.612783
     5     0.000725
     6     0.505929
     7     0.072402
     8     0.000961
     9    -0.012991
    10    -0.007905
    11     0.040893
    12    -0.019087
    13    -0.001485
    14    -0.062834
    15     0.001661
    16     0.901099
    17     0.155965
    18     0.032491
    19    -0.000303
    20    -0.005772
    21    -0.021390
    22    -0.045304
    23    -0.006165
    24    -0.003892
    25    -0.002734
Sym=    22a
Ene=   -0.221913E-01
Spin= Alpha
Occup= 0.024914
     1     0.137757
     2     0.496106
     3     0.088856
     4     0.611386
     5     0.000797
     6    -0.507946
     7     0.066459
     8    -0.003726
     9     0.011808
    10     0.004026
    11    -0.038496
    12     0.019875
    13     0.002396
    14    -0.064377
    15    -0.005215
    16     0.018009
    17     0.034882
    18    -0.005963
    19     0.002106
    20     0.003770
    21    -0.897478
    22    -0.157105
    23     0.032551
    24     0.005384
    25     0.003191
Sym=    23a
Ene=   -0.948984E-03
Spin= Alpha
Occup= 0.000497
     1     0.007270
     2     0.061112
     3    -0.046903
     4     0.195692
     5    -0.002436
     6    -0.027600
     7    -0.013809
     8     0.009519
     9    -0.042471
    10     0.050902
    11    -0.124095
    12     0.120750
    13    -0.736235
    14    -0.699753
    15    -0.002278
    16     0.418916
    17    -0.523230
    18     0.225404
    19    -0.304428
    20    -0.010881
    21    -0.605321
    22     0.659159
    23     0.335246
    24     0.286221
    25    -0.008929
Sym=    24a
Ene=   -0.157494E-02
Spin= Alpha
Occup= 0.000916
     1     0.033195
     2    -0.071500
     3     0.639397
     4    -0.253195
     5    -0.087562
     6     0.152424
     7     0.348983
     8     0.102569
     9    -0.407340
    10     0.374177
    11    -0.381586
    12    -0.356878
    13    -0.306812
    14     0.223587
    15     0.689253
    16    -0.448321
    17     0.358447
    18    -0.059446
    19     0.035033
    20    -0.042565
    21    -0.267992
    22    -0.381362
    23    -0.214707
    24     0.003196
    25     0.087308
Sym=    25a
Ene=   -0.386102E-04
Spin= Alpha
Occup= 0.000002
     1    -0.049292
     2     0.247386
     3    -0.231268
     4    -0.147540
     5    -0.003024
     6    -0.539464
     7     0.038800
     8    -0.033900
     9     0.401447
    10     0.990675
    11     0.167198
    12    -0.015000
    13    -0.019922
    14     0.073130
    15     0.031492
    16    -0.158897
    17    -0.112643
    18    -0.502876
    19     0.019464
    20    -0.945548
    21    -0.127790
    22     0.033180
    23     0.173314
    24     0.077306
    25    -0.808356
