[Molden Format]
p30-10 set                                                                      
[Atoms] AU
 O        1     8        0.0000        0.0000        0.7444
 H        2     1       -1.4268        0.0000       -0.3722
 H        3     1        1.4268        0.0000       -0.3722
[GTO]
    1 0
s    5 1.00
    2266.176778500000 -0.538935039217E-02
     340.870101910000 -0.402347213890E-01
      77.363135167000 -0.180081842055E+00
      21.479644940000 -0.468288576577E+00
       6.658943312400 -0.446926171602E+00
s    1 1.00
       0.809759756680  0.100000000000E+01
s    1 1.00
       0.255307722340  0.100000000000E+01
p    3 1.00
      17.721504317000  0.626302487632E-01
       3.863550544000  0.333311384824E+00
       1.048092088300  0.741486383081E+00
p    1 1.00
       0.276415444110  0.100000000000E+01
d    1 1.00
       1.200000000000  0.100000000000E+01
 
    2 0
s    3 1.00
      13.010701000000  0.334854848130E-01
       1.962257200000  0.234721870881E+00
       0.444537960000  0.813770285260E+00
s    1 1.00
       0.121949620000  0.100000000000E+01
p    1 1.00
       0.800000000000  0.100000000000E+01
 
    3 0
s    3 1.00
      13.010701000000  0.334854848130E-01
       1.962257200000  0.234721870881E+00
       0.444537960000  0.813770285260E+00
s    1 1.00
       0.121949620000  0.100000000000E+01
p    1 1.00
       0.800000000000  0.100000000000E+01
 
[MO]
Sym=     1a
Ene=   -0.211238E+02
Spin= Alpha
Occup= 1.999919
     1     0.994121
     2    -0.026353
     3     0.013539
     4     0.000066
     5    -0.000001
     6     0.005226
     7     0.000021
     8     0.000001
     9     0.002196
    10     0.003215
    11     0.004645
    12     0.003380
    13     0.000000
    14     0.000001
    15    -0.000001
    16     0.002912
    17    -0.001460
    18     0.001615
    19    -0.000001
    20     0.001357
    21     0.003006
    22    -0.001456
    23    -0.001630
    24     0.000001
    25     0.001382
Sym=     2a
Ene=   -0.137037E+01
Spin= Alpha
Occup= 1.985147
     1     0.232304
     2     0.528244
     3     0.351083
     4     0.002523
     5     0.000016
     6     0.423256
     7     0.001125
     8     0.000010
     9     0.257142
    10     0.018853
    11     0.017258
    12    -0.004083
    13     0.000001
    14    -0.000070
    15    -0.000002
    16    -0.035305
    17    -0.015305
    18    -0.008823
    19     0.000001
    20     0.012933
    21    -0.032875
    22    -0.015069
    23     0.008586
    24    -0.000000
    25     0.013107
Sym=     3a
Ene=   -0.138977E+01
Spin= Alpha
Occup= 1.969484
     1     0.111152
     2     0.235714
     3     0.018584
     4     0.398322
     5    -0.000006
     6    -0.320044
     7     0.155858
     8    -0.000004
     9    -0.132854
    10     0.002807
    11    -0.002780
    12     0.014960
    13    -0.000002
    14    -0.019284
    15     0.000002
    16    -0.033763
    17    -0.003089
    18     0.014632
    19    -0.000000
    20    -0.016153
    21     0.412183
    22     0.013442
    23    -0.052625
    24     0.000000
    25     0.031632
Sym=     4a
Ene=   -0.139545E+01
Spin= Alpha
Occup= 1.968959
     1    -0.114328
     2    -0.242912
     3    -0.019664
     4     0.393101
     5     0.000009
     6     0.321855
     7     0.153161
     8     0.000001
     9     0.132174
    10    -0.003195
    11     0.002857
    12    -0.014991
    13     0.000001
    14    -0.019091
    15    -0.000001
    16    -0.413235
    17    -0.013365
    18    -0.052218
    19     0.000002
    20    -0.031078
    21     0.028369
    22     0.003056
    23     0.014930
    24    -0.000001
    25     0.015323
Sym=     5a
Ene=   -0.590938E+00
Spin= Alpha
Occup= 1.000000
     1     0.000004
     2     0.000015
     3    -0.000006
     4    -0.000004
     5    -0.725877
     6     0.000016
     7     0.000013
     8    -0.395330
     9     0.000013
    10     0.000001
    11     0.000001
    12    -0.000002
    13     0.000053
    14    -0.000000
    15     0.023519
    16     0.000013
    17    -0.000008
    18    -0.000002
    19    -0.023947
    20     0.000003
    21    -0.000005
    22     0.000003
    23    -0.000001
    24    -0.023915
    25    -0.000001
Sym=     6a
Ene=   -0.254582E-02
Spin= Alpha
Occup= 0.000772
     1    -0.000036
     2    -0.000609
     3     0.002693
     4     0.000488
     5     0.421179
     6     0.000492
     7    -0.000514
     8    -0.618484
     9    -0.002114
    10    -0.000947
    11     0.002807
    12    -0.002075
    13    -0.581176
    14    -0.003811
    15    -0.464095
    16    -0.000587
    17    -0.000148
    18    -0.000778
    19     0.283925
    20    -0.000250
    21    -0.001823
    22    -0.000038
    23     0.000296
    24    -0.046918
    25    -0.000337
Sym=     7a
Ene=   -0.165185E-02
Spin= Alpha
Occup= 0.000516
     1     0.026173
     2     0.205204
     3    -0.319420
     4    -0.129198
     5    -0.000940
     6     0.026539
     7    -0.143966
     8     0.001463
     9    -0.153675
    10     0.446566
    11     0.300095
    12    -0.650055
    13    -0.000661
    14     0.146749
    15     0.000008
    16    -0.070608
    17     0.067209
    18    -0.001367
    19    -0.001123
    20    -0.206146
    21     0.185192
    22    -0.056359
    23     0.318179
    24     0.000279
    25     0.495172
Sym=     8a
Ene=   -0.376245E-02
Spin= Alpha
Occup= 0.001539
     1    -0.000069
     2    -0.000362
     3     0.000880
     4     0.000116
     5    -0.683142
     6    -0.000100
     7    -0.000926
     8     0.758125
     9    -0.000442
    10     0.000015
    11    -0.000635
    12     0.000911
    13    -0.022732
    14     0.000784
    15    -0.652397
    16    -0.001455
    17     0.000311
    18    -0.000449
    19     0.035898
    20    -0.000235
    21     0.000164
    22    -0.000133
    23    -0.000019
    24     0.052026
    25    -0.000066
Sym=     9a
Ene=   -0.144723E-02
Spin= Alpha
Occup= 0.000050
     1     0.713931
     2     2.308573
     3     0.858083
     4    -0.000610
     5    -0.000075
     6    -0.031969
     7     0.037685
     8    -0.000039
     9     0.253935
    10    -1.490386
    11    -1.386472
    12    -1.491773
    13     0.000224
    14    -0.008572
    15     0.000084
    16     0.266134
    17    -0.078782
    18     0.067964
    19     0.000404
    20     0.073904
    21     0.216100
    22    -0.060996
    23    -0.079790
    24    -0.000065
    25     0.027782
Sym=    10a
Ene=   -0.263559E-03
Spin= Alpha
Occup= 0.000082
     1     0.000164
     2    -0.002335
     3     0.029070
     4    -0.000580
     5     0.081488
     6    -0.003236
     7    -0.036028
     8     0.315083
     9    -0.020120
    10     0.005732
    11    -0.012641
    12     0.008726
    13    -0.492097
    14     0.028430
    15    -0.328939
    16    -0.052782
    17     0.006380
    18    -0.020848
    19    -1.097598
    20    -0.009794
    21     0.010629
    22    -0.004740
    23     0.001482
    24     0.012559
    25     0.005839
Sym=    11a
Ene=   -0.266924E-02
Spin= Alpha
Occup= 0.000855
     1    -0.000024
     2    -0.000252
     3     0.000843
     4     0.000184
     5    -0.394950
     6    -0.000041
     7    -0.000737
     8     0.581390
     9    -0.000322
    10    -0.000089
    11    -0.000517
    12     0.000566
    13    -0.617838
    14     0.000299
    15     0.466511
    16    -0.001076
    17     0.000206
    18    -0.000276
    19     0.037869
    20    -0.000077
    21     0.000064
    22    -0.000109
    23    -0.000149
    24    -0.260667
    25    -0.000219
Sym=    12a
Ene=   -0.137053E-01
Spin= Alpha
Occup= 0.013314
     1    -0.272392
     2    -1.314195
     3     1.154877
     4    -0.004087
     5    -0.000012
     6    -0.676622
     7     0.006761
     8     0.000023
     9     0.670314
    10     0.210887
    11     0.190627
    12    -0.008546
    13     0.000009
    14    -0.000772
    15    -0.000004
    16    -0.074678
    17    -0.038447
    18    -0.048558
    19    -0.000026
    20     0.007014
    21    -0.078829
    22    -0.036587
    23     0.047821
    24    -0.000005
    25     0.004520
Sym=    13a
Ene=   -0.204475E-03
Spin= Alpha
Occup= 0.000030
     1     0.002747
     2    -0.021380
     3     0.172602
     4     0.799894
     5    -0.000024
     6     0.001464
     7    -0.818790
     8    -0.001584
     9    -0.104813
    10     0.005332
    11    -0.053081
    12     0.011148
    13     0.002053
    14    -0.208952
    15     0.001174
    16    -0.197487
    17    -0.214611
    18     0.689130
    19     0.004484
    20     0.292691
    21     0.011443
    22     0.203240
    23     0.764744
    24    -0.000272
    25    -0.292113
Sym=    14a
Ene=   -0.564754E-03
Spin= Alpha
Occup= 0.000135
     1    -0.002961
     2    -0.032579
     3     0.122185
     4     0.189737
     5    -0.000274
     6     0.060160
     7     0.445944
     8     0.000506
     9    -0.248258
    10     0.456574
    11     0.000178
    12    -0.387123
    13     0.000329
    14    -0.022962
    15    -0.000044
    16     0.113936
    17    -0.102827
    18    -0.274868
    19    -0.000124
    20     0.689493
    21    -0.485432
    22     0.161493
    23    -0.207904
    24    -0.000319
    25    -0.624675
Sym=    15a
Ene=   -0.361043E-03
Spin= Alpha
Occup= 0.000091
     1    -0.002700
     2    -0.328344
     3     1.959881
     4    -0.045095
     5     0.000001
     6    -0.031996
     7     0.251932
     8    -0.001175
     9    -1.177223
    10     0.690794
    11    -0.881659
    12     0.129711
    13     0.002647
    14    -0.319792
    15     0.000934
    16    -1.056464
    17    -0.014529
    18    -0.196321
    19     0.004452
    20    -0.313499
    21    -1.574700
    22     0.079762
    23     0.465718
    24    -0.001375
    25    -0.155286
Sym=    16a
Ene=    0.000000E+00
Spin= Alpha
Occup= 0.000000
     1    -0.005050
     2     0.216272
     3    -1.680805
     4     0.116588
     5     0.000807
     6     0.085195
     7     1.149655
     8     0.010027
     9     0.835660
    10    -0.093954
    11     0.369611
    12    -0.196589
    13    -0.013163
    14    -0.995524
    15    -0.008237
    16     1.692769
    17     0.169801
    18     0.881504
    19    -0.030018
    20     0.403643
    21    -0.474988
    22     0.608662
    23     0.001989
    24     0.001196
    25    -0.201303
Sym=    17a
Ene=    0.000000E+00
Spin= Alpha
Occup= 0.000000
     1    -0.014913
     2     0.098748
     3    -0.502390
     4     0.015005
     5    -0.038148
     6    -0.097040
     7     0.336816
     8    -0.259120
     9    -0.253051
    10    -0.264938
    11     0.013397
    12     0.580213
    13    -0.270276
    14    -0.130928
    15     0.238200
    16    -0.037548
    17     0.496917
    18    -0.317984
    19     0.091687
    20     0.516270
    21    -0.359175
    22     0.166970
    23     0.449147
    24     0.709068
    25     0.257169
Sym=    18a
Ene=   -0.400907E-02
Spin= Alpha
Occup= 0.001949
     1    -0.011978
     2    -0.181089
     3     0.824904
     4     0.092823
     5    -0.002104
     6     0.071925
     7    -0.496145
     8     0.003618
     9    -0.587737
    10    -0.238134
    11     0.446302
    12    -0.232629
    13     0.002194
    14    -0.463733
    15     0.001666
    16    -0.696156
    17     0.104883
    18    -0.319831
    19    -0.002952
    20    -0.167157
    21    -0.207786
    22    -0.087698
    23     0.029455
    24     0.000331
    25    -0.023189
Sym=    19a
Ene=   -0.285364E-01
Spin= Alpha
Occup= 0.024825
     1     0.168351
     2     0.670664
     3    -0.030538
     4     0.643760
     5     0.000006
     6    -0.465917
     7     0.011026
     8    -0.000008
     9    -0.010292
    10    -0.023633
    11    -0.015126
    12    -0.023525
    13    -0.000008
    14    -0.046278
    15    -0.000000
    16     0.021783
    17     0.021811
    18    -0.007245
    19    -0.000006
    20     0.005675
    21    -0.983029
    22    -0.047173
    23     0.119732
    24     0.000007
    25    -0.071276
Sym=    20a
Ene=    0.000000E+00
Spin= Alpha
Occup= 0.000000
     1    -0.031480
     2     0.405704
     3    -2.057972
     4    -0.049636
     5    -0.015050
     6    -0.183739
     7    -0.985056
     8    -0.103459
     9     0.867269
    10     0.524716
    11     0.290791
    12    -0.039087
    13    -0.103144
    14     0.449177
    15     0.094822
    16    -0.314110
    17     0.216712
    18    -0.084307
    19     0.041885
    20    -0.638129
    21     0.608599
    22     1.396340
    23    -0.518248
    24     0.277243
    25    -0.039820
Sym=    21a
Ene=    0.000000E+00
Spin= Alpha
Occup= 0.000000
     1     0.013101
     2     0.087011
     3    -1.451590
     4    -0.007270
     5     0.016529
     6     0.273862
     7     0.525070
     8     0.110004
     9     0.416886
    10    -0.295593
    11     0.082585
    12    -0.118080
    13     0.120930
    14     0.048958
    15    -0.101592
    16     0.010051
    17     1.799435
    18     0.690081
    19    -0.032165
    20     0.601911
    21     0.367682
    22    -0.373580
    23    -0.359740
    24    -0.308865
    25     0.280626
Sym=    22a
Ene=   -0.307398E-01
Spin= Alpha
Occup= 0.028101
     1    -0.169930
     2    -0.676114
     3     0.031618
     4     0.630679
     5     0.000056
     6     0.466546
     7     0.021086
     8     0.000010
     9     0.015843
    10     0.020045
    11     0.013457
    12     0.023814
    13    -0.000006
    14    -0.043884
    15     0.000013
    16     0.982593
    17     0.055620
    18     0.116009
    19    -0.000189
    20     0.067292
    21    -0.014804
    22    -0.019478
    23    -0.007922
    24    -0.000006
    25    -0.006428
Sym=    23a
Ene=   -0.546818E-02
Spin= Alpha
Occup= 0.004229
     1    -0.023324
     2    -0.273409
     3     1.011289
     4    -0.094878
     5     0.000003
     6     0.078081
     7     0.586355
     8    -0.000080
     9    -0.631755
    10    -0.302488
    11     0.348063
    12    -0.078685
    13     0.000012
    14     0.366215
    15     0.000047
    16    -0.230461
    17    -0.113234
    18     0.003728
    19     0.000344
    20    -0.042598
    21    -0.907867
    22     0.182825
    23     0.269758
    24    -0.000142
    25    -0.259054
Sym=    24a
Ene=    0.000000E+00
Spin= Alpha
Occup= 0.000000
     1     0.048824
     2    -0.296142
     3     0.496811
     4    -0.033210
     5    -0.030491
     6     0.490339
     7    -0.520292
     8    -0.206692
     9     0.007867
    10    -0.452078
    11    -0.141232
    12    -0.589854
    13    -0.219423
    14     0.188103
    15     0.189991
    16     0.071278
    17    -0.547300
    18     0.559154
    19     0.068792
    20     0.160267
    21     0.479186
    22     0.170303
    23    -0.826341
    24     0.570130
    25     0.556816
Sym=    25a
Ene=    0.000000E+00
Spin= Alpha
Occup= 0.000000
     1    -0.009188
     2     0.025863
     3     0.412269
     4     0.041136
     5    -0.025882
     6    -0.155281
     7     1.015607
     8    -0.175726
     9     0.125362
    10     0.432418
    11     0.029194
    12    -0.207049
    13    -0.186841
    14    -0.254573
    15     0.161510
    16     0.151246
    17     0.938068
    18     0.293332
    19     0.058090
    20    -0.195918
    21    -0.156160
    22    -1.481309
    23     0.383285
    24     0.484982
    25    -0.830241
