[Molden Format]
p30-10 set                                                                      
[Atoms] AU
 N        1     7        0.0000        0.0000        0.0000
 H        2     1        0.9626       -1.6673        0.0000
 H        3     1        0.9626        1.6673        0.0000
 H        4     1       -1.9253        0.0000        0.0000
[GTO]
    1 0
s    5 1.00
    1712.841585300000 -0.544779958049E-02
     257.648126770000 -0.406271746324E-01
      58.458245853000 -0.181119622506E+00
      16.198367905000 -0.468439755632E+00
       5.005260080900 -0.446168462892E+00
s    1 1.00
       0.587318565710  0.100000000000E+01
s    1 1.00
       0.187645922530  0.100000000000E+01
p    3 1.00
      13.571470233000 -0.588481169695E-01
       2.925737287400 -0.320246247625E+00
       0.799277507540 -0.753282265204E+00
p    1 1.00
       0.219543480340  0.100000000000E+01
d    1 1.00
       1.000000000000  0.100000000000E+01
 
    2 0
s    3 1.00
      13.010701000000  0.334854848130E-01
       1.962257200000  0.234721870881E+00
       0.444537960000  0.813770285260E+00
s    1 1.00
       0.121949620000  0.100000000000E+01
p    1 1.00
       0.800000000000  0.100000000000E+01
 
    3 0
s    3 1.00
      13.010701000000  0.334854848130E-01
       1.962257200000  0.234721870881E+00
       0.444537960000  0.813770285260E+00
s    1 1.00
       0.121949620000  0.100000000000E+01
p    1 1.00
       0.800000000000  0.100000000000E+01
 
    4 0
s    3 1.00
      13.010701000000  0.334854848130E-01
       1.962257200000  0.234721870881E+00
       0.444537960000  0.813770285260E+00
s    1 1.00
       0.121949620000  0.100000000000E+01
p    1 1.00
       0.800000000000  0.100000000000E+01
 
[MO]
Sym=     1a
Ene=   -0.160050E+02
Spin= Alpha
Occup= 1.999817
     1     0.994184
     2    -0.028293
     3     0.017269
     4     0.000032
     5     0.000053
     6     0.000002
     7    -0.000022
     8    -0.000039
     9     0.000004
    10    -0.000003
    11    -0.000013
    12     0.002646
    13    -0.000006
    14    -0.000002
    15    -0.000000
    16     0.004868
    17    -0.002413
    18    -0.001390
    19     0.002395
    20     0.000001
    21     0.004798
    22    -0.002407
    23    -0.001379
    24    -0.002388
    25     0.000001
    26     0.004872
    27    -0.002409
    28     0.002767
    29    -0.000004
    30    -0.000002
Sym=     2a
Ene=   -0.122340E+01
Spin= Alpha
Occup= 1.967865
     1     0.145699
     2     0.313616
     3     0.115931
     4    -0.206869
     5     0.359028
     6     0.000004
     7     0.085326
     8    -0.148079
     9    -0.000007
    10     0.007827
    11     0.019620
    12     0.005733
    13    -0.011891
    14     0.000002
    15    -0.000001
    16     0.402835
    17     0.033237
    18    -0.020583
    19     0.035559
    20     0.000000
    21    -0.047768
    22    -0.012817
    23     0.009966
    24    -0.004845
    25     0.000003
    26    -0.047196
    27    -0.012739
    28    -0.000742
    29    -0.011096
    30     0.000001
Sym=     3a
Ene=   -0.122341E+01
Spin= Alpha
Occup= 1.967847
     1    -0.145701
     2    -0.313629
     3    -0.115918
     4    -0.414330
     5    -0.000250
     6    -0.000002
     7     0.170908
     8     0.000100
     9     0.000005
    10    -0.025584
    11    -0.001849
    12    -0.005737
    13     0.000048
    14    -0.000004
    15    -0.000001
    16     0.047238
    17     0.012735
    18     0.009235
    19     0.006190
    20    -0.000002
    21     0.047680
    22     0.012804
    23     0.009186
    24    -0.006192
    25     0.000002
    26    -0.402855
    27    -0.033240
    28    -0.041084
    29     0.000037
    30    -0.000002
Sym=     4a
Ene=   -0.122421E+01
Spin= Alpha
Occup= 1.967754
     1     0.146319
     2     0.314578
     3     0.116304
     4    -0.206901
     5    -0.358218
     6     0.000000
     7     0.085380
     8     0.147808
     9     0.000007
    10     0.007803
    11     0.019647
    12     0.005907
    13     0.011840
    14     0.000003
    15    -0.000004
    16    -0.046940
    17    -0.012794
    18     0.009914
    19     0.004945
    20    -0.000003
    21     0.402696
    22     0.033132
    23    -0.020567
    24    -0.035625
    25     0.000000
    26    -0.047009
    27    -0.012795
    28    -0.000676
    29     0.011059
    30     0.000002
Sym=     5a
Ene=   -0.484717E+00
Spin= Alpha
Occup= 1.000000
     1     0.000000
     2    -0.000002
     3     0.000004
     4    -0.000004
     5    -0.000011
     6     0.687151
     7    -0.000023
     8    -0.000001
     9    -0.430257
    10     0.000010
    11    -0.000002
    12    -0.000001
    13    -0.000003
    14     0.000010
    15     0.000004
    16     0.000000
    17     0.000002
    18     0.000001
    19     0.000001
    20    -0.019828
    21     0.000002
    22     0.000010
    23    -0.000000
    24     0.000002
    25    -0.019838
    26    -0.000016
    27    -0.000016
    28    -0.000006
    29    -0.000003
    30    -0.019837
Sym=     6a
Ene=   -0.247253E-01
Spin= Alpha
Occup= 0.024395
     1     0.187219
     2     0.787966
     3    -0.145604
     4    -0.398431
     5    -0.690446
     6     0.000069
     7     0.019940
     8     0.034404
     9     0.000118
    10    -0.028269
    11     0.014289
    12    -0.016007
    13     0.042336
    14    -0.000025
    15    -0.000034
    16     0.002252
    17     0.022642
    18     0.004343
    19    -0.003353
    20    -0.000059
    21    -0.985693
    22    -0.065662
    23     0.050096
    24     0.086664
    25    -0.000034
    26     0.002139
    27     0.022680
    28    -0.005103
    29     0.002053
    30    -0.000002
Sym=     7a
Ene=   -0.521095E-02
Spin= Alpha
Occup= 0.003891
     1     0.040353
     2     0.327998
     3    -0.985874
     4     0.044493
     5    -0.006191
     6     0.000656
     7     0.823418
     8    -0.015360
     9     0.000628
    10     0.389160
    11    -0.136620
    12    -0.280511
    13    -0.003766
    14     0.000621
    15     0.000150
    16    -0.033322
    17     0.150644
    18    -0.045230
    19    -0.031525
    20    -0.000023
    21    -0.019042
    22     0.157067
    23    -0.045442
    24     0.038050
    25     0.000188
    26     0.944164
    27    -0.245115
    28     0.412406
    29    -0.004196
    30     0.000171
Sym=     8a
Ene=   -0.246837E-01
Spin= Alpha
Occup= 0.024365
     1     0.185995
     2     0.780694
     3    -0.135454
     4    -0.397453
     5     0.690657
     6    -0.000070
     7     0.025271
     8    -0.040062
     9    -0.000076
    10    -0.028481
    11     0.013859
    12    -0.014524
    13    -0.041066
    14     0.000008
    15    -0.000015
    16    -0.994450
    17    -0.064420
    18     0.050007
    19    -0.088227
    20    -0.000010
    21     0.001554
    22     0.023122
    23     0.003714
    24     0.003550
    25    -0.000017
    26     0.002599
    27     0.023526
    28    -0.005283
    29    -0.001708
    30     0.000011
Sym=     9a
Ene=   -0.180208E-04
Spin= Alpha
Occup= 0.000001
     1     0.095321
     2    -0.449367
     3     0.678777
     4    -0.003942
     5    -0.007627
     6     0.000315
     7    -0.006177
     8    -0.015739
     9    -0.000162
    10    -0.984260
    11    -1.046495
    12    -0.190947
    13    -0.064757
    14     0.000979
    15     0.000821
    16     0.416433
    17    -0.118923
    18    -0.521102
    19     0.808239
    20     0.000706
    21     0.485986
    22    -0.155717
    23    -0.486052
    24    -0.842572
    25    -0.000646
    26     0.418668
    27    -0.116596
    28     0.961105
    29    -0.047580
    30     0.001389
Sym=    10a
Ene=   -0.514686E-02
Spin= Alpha
Occup= 0.003842
     1    -0.038596
     2    -0.322474
     3     0.995067
     4     0.016379
     5     0.027968
     6     0.000835
     7     0.409342
     8     0.708515
     9     0.000774
    10     0.009753
    11    -0.255516
    12     0.269899
    13    -0.264889
    14    -0.000259
    15    -0.000308
    16     0.023818
    17    -0.157714
    18    -0.054510
    19    -0.019584
    20     0.000083
    21    -0.953569
    22     0.246554
    23     0.210101
    24     0.363525
    25     0.000242
    26     0.023942
    27    -0.157767
    28     0.010228
    29    -0.056904
    30     0.000176
Sym=    11a
Ene=   -0.474668E-03
Spin= Alpha
Occup= 0.000261
     1    -0.000195
     2    -0.001399
     3    -0.000553
     4    -0.005887
     5    -0.000595
     6    -0.215339
     7    -0.008865
     8    -0.000429
     9     0.178000
    10     0.003421
    11    -0.004552
    12     0.000663
    13    -0.000920
    14    -0.610006
    15     0.015869
    16     0.002905
    17     0.000446
    18    -0.002166
    19    -0.002020
    20    -0.046163
    21     0.002999
    22     0.001770
    23    -0.001009
    24     0.001764
    25    -0.070815
    26    -0.003539
    27    -0.002413
    28     0.005034
    29    -0.001292
    30    -1.062998
Sym=    12a
Ene=   -0.521234E-02
Spin= Alpha
Occup= 0.003894
     1     0.040327
     2     0.327764
     3    -0.985634
     4    -0.027230
     5     0.035615
     6     0.000521
     7    -0.424311
     8     0.705808
     9     0.000320
    10    -0.002456
    11     0.254717
    12    -0.280344
    13    -0.264981
    14    -0.000067
    15    -0.000034
    16     0.944220
    17    -0.245286
    18    -0.209621
    19     0.355355
    20     0.000609
    21    -0.019177
    22     0.156827
    23     0.055771
    24    -0.020538
    25     0.000038
    26    -0.032951
    27     0.150761
    28    -0.004619
    29    -0.055053
    30     0.000130
Sym=    13a
Ene=   -0.295523E-02
Spin= Alpha
Occup= 0.000174
     1     0.844646
     2     3.260390
     3     0.073507
     4     0.004676
     5     0.007740
     6    -0.000196
     7     0.010374
     8     0.017957
     9     0.000102
    10    -1.690755
    11    -1.678710
    12    -1.521989
    13     0.012323
    14    -0.000240
    15    -0.000403
    16     0.235462
    17     0.010665
    18    -0.035688
    19     0.073763
    20    -0.000551
    21     0.216585
    22     0.002411
    23    -0.043000
    24    -0.074391
    25     0.000115
    26     0.235268
    27     0.010687
    28     0.081350
    29     0.006015
    30    -0.000475
Sym=    14a
Ene=   -0.403818E-02
Spin= Alpha
Occup= 0.002685
     1    -0.000045
     2    -0.000247
     3    -0.000139
     4     0.001068
     5     0.000164
     6     0.501193
     7     0.001627
     8    -0.000364
     9     0.701331
    10    -0.000514
    11     0.000507
    12    -0.000015
    13     0.000396
    14    -0.319566
    15    -0.548793
    16    -0.000470
    17    -0.000187
    18     0.000258
    19     0.000380
    20     0.015022
    21     0.000423
    22    -0.001008
    23     0.000265
    24    -0.000976
    25    -0.387592
    26     0.000570
    27     0.001085
    28    -0.000397
    29     0.000248
    30     0.013028
Sym=    15a
Ene=   -0.246867E-01
Spin= Alpha
Occup= 0.024374
     1     0.185933
     2     0.780353
     3    -0.135219
     4     0.796879
     5     0.001111
     6    -0.000038
     7    -0.047523
     8     0.001699
     9    -0.000092
    10     0.034144
    11    -0.048679
    12    -0.014631
    13     0.000665
    14    -0.000050
    15    -0.000004
    16     0.002660
    17     0.023502
    18     0.001148
    19    -0.005441
    20     0.000095
    21     0.001774
    22     0.023237
    23     0.001212
    24     0.005009
    25    -0.000008
    26    -0.994513
    27    -0.064566
    28    -0.101296
    29    -0.000823
    30     0.000055
Sym=    16a
Ene=   -0.405408E-02
Spin= Alpha
Occup= 0.002701
     1     0.000022
     2     0.000155
     3    -0.000212
     4     0.000032
     5     0.000149
     6     0.511954
     7     0.000271
     8     0.000159
     9     0.711204
    10    -0.000288
    11     0.000262
    12     0.000022
    13     0.000210
    14    -0.319678
    15     0.545394
    16     0.000006
    17     0.000019
    18    -0.000453
    19    -0.000351
    20    -0.380652
    21     0.000109
    22    -0.000373
    23     0.000023
    24    -0.000149
    25     0.012781
    26     0.000081
    27     0.000320
    28    -0.000076
    29     0.000216
    30     0.015036
Sym=    17a
Ene=   -0.601627E-04
Spin= Alpha
Occup= 0.000004
     1    -0.000148
     2     0.000692
     3    -0.006109
     4     0.678704
     5    -0.376272
     6     0.000382
     7     0.389063
     8    -0.216695
     9    -0.000931
    10     0.604889
    11    -0.605498
    12     0.002590
    13     0.385869
    14    -0.002867
    15     0.002635
    16     0.191891
    17     0.003001
    18    -0.690624
    19     0.571103
    20     0.005187
    21     0.005855
    22     0.002007
    23    -0.532613
    24     0.286797
    25     0.000288
    26    -0.193014
    27    -0.002979
    28    -0.857239
    29     0.292167
    30    -0.001671
Sym=    18a
Ene=   -0.680484E-03
Spin= Alpha
Occup= 0.000334
     1     0.009058
     2     0.316483
     3    -1.879341
     4    -0.029059
     5    -0.062590
     6    -0.000222
     7    -0.012611
     8    -0.054374
     9     0.000063
    10    -0.553880
    11    -0.490093
    12     1.025250
    13     0.039797
    14     0.000669
    15     0.000590
    16     0.860660
    17    -0.011040
    18    -0.119752
    19     0.260189
    20    -0.000068
    21     0.835736
    22     0.052223
    23    -0.081771
    24    -0.151895
    25    -0.001276
    26     0.879076
    27    -0.004100
    28     0.282852
    29     0.020239
    30     0.000458
Sym=    19a
Ene=   -0.124677E-02
Spin= Alpha
Occup= 0.000729
     1     0.000204
     2     0.005523
     3    -0.031417
     4     0.004041
     5     0.380429
     6    -0.000467
     7     0.015624
     8    -0.529628
     9     0.000179
    10    -0.012297
    11    -0.003783
    12     0.016553
    13    -0.554905
    14     0.000164
    15    -0.000106
    16    -0.690202
    17     0.375354
    18     0.068162
    19    -0.330900
    20    -0.000655
    21     0.707219
    22    -0.374998
    23    -0.073458
    24    -0.337009
    25    -0.000461
    26     0.023755
    27     0.000896
    28     0.004225
    29     0.817629
    30    -0.000876
Sym=    20a
Ene=   -0.456101E-03
Spin= Alpha
Occup= 0.000243
     1     0.001960
     2     0.020279
     3    -0.013495
     4    -0.127934
     5    -0.003940
     6     0.196662
     7    -0.309563
     8    -0.077275
     9    -0.163631
    10     0.206729
    11    -0.193334
    12    -0.000154
    13    -0.087399
    14    -0.303834
    15     0.517894
    16     0.038495
    17     0.020121
    18    -0.076950
    19    -0.110057
    20     1.014484
    21     0.154696
    22     0.060242
    23    -0.066277
    24     0.046480
    25     0.034937
    26    -0.205603
    27    -0.073238
    28     0.022989
    29    -0.045959
    30     0.031213
Sym=    21a
Ene=   -0.199379E-05
Spin= Alpha
Occup= 0.000000
     1     0.003143
     2    -0.027365
     3     0.177845
     4     0.059015
     5     0.047777
     6    -0.000235
     7    -1.651142
     8    -1.418632
     9     0.000871
    10     0.129960
    11    -0.160995
    12    -0.031917
    13    -0.132413
    14     0.000736
    15    -0.001311
    16    -0.088572
    17    -0.437647
    18     0.446394
    19     0.121452
    20    -0.002655
    21     0.424281
    22     1.941666
    23    -0.195311
    24    -0.625485
    25    -0.000239
    26    -0.356307
    27    -1.648769
    28    -0.514256
    29     0.302573
    30    -0.000261
Sym=    22a
Ene=   -0.127973E-02
Spin= Alpha
Occup= 0.000746
     1    -0.000017
     2     0.000071
     3    -0.001212
     4     0.317148
     5    -0.182461
     6    -0.000494
     7    -0.479492
     8     0.277612
     9    -0.000537
    10     0.425635
    11    -0.426689
    12     0.001007
    13     0.284399
    14     0.000055
    15     0.000429
    16     0.705722
    17    -0.360286
    18    -0.258035
    19     0.218210
    20     0.000117
    21     0.000777
    22    -0.000624
    23     0.704137
    24    -0.407420
    25    -0.000049
    26    -0.703737
    27     0.360131
    28    -0.317935
    29     0.114453
    30    -0.000146
Sym=    23a
Ene=   -0.405198E-02
Spin= Alpha
Occup= 0.002703
     1    -0.000035
     2    -0.000098
     3    -0.000652
     4    -0.001032
     5    -0.000028
     6    -0.516004
     7    -0.001181
     8    -0.000196
     9    -0.713344
    10     0.000875
    11    -0.000571
    12    -0.000201
    13    -0.000502
    14    -0.630994
    15     0.003570
    16     0.000229
    17     0.000333
    18    -0.000344
    19    -0.000448
    20    -0.016394
    21     0.000368
    22     0.000817
    23    -0.000146
    24     0.000293
    25    -0.014993
    26     0.000149
    27    -0.001081
    28     0.000959
    29     0.000049
    30     0.377252
Sym=    24a
Ene=   -0.124705E-02
Spin= Alpha
Occup= 0.000730
     1     0.000140
     2     0.004962
     3    -0.029869
     4     0.329199
     5     0.193609
     6    -0.000895
     7    -0.461928
     8    -0.251041
     9     0.000780
    10     0.408761
    11    -0.424778
    12     0.016553
    13    -0.272360
    14     0.000382
    15    -0.000601
    16     0.022752
    17    -0.000024
    18     0.706318
    19     0.413211
    20    -0.003186
    21     0.705600
    22    -0.376355
    23    -0.255052
    24    -0.232197
    25    -0.000946
    26    -0.688260
    27     0.376707
    28    -0.321340
    29    -0.105936
    30    -0.000879
Sym=    25a
Ene=   -0.717253E-04
Spin= Alpha
Occup= 0.000004
     1     0.004303
     2    -0.022514
     3     0.172262
     4    -0.416575
     5    -0.751433
     6     0.000158
     7    -0.310154
     8    -0.557891
     9     0.000736
    10    -0.245095
    11     0.267142
    12    -0.083407
    13     0.538491
    14     0.001796
    15    -0.003410
    16    -0.020616
    17    -0.010947
    18     0.114171
    19     0.660691
    20    -0.004610
    21    -0.112635
    22    -0.013874
    23     0.493422
    24     0.874343
    25     0.001644
    26    -0.025998
    27    -0.008310
    28     0.484105
    29     0.439357
    30     0.001422
Sym=    26a
Ene=   -0.459458E-03
Spin= Alpha
Occup= 0.000245
     1    -0.000097
     2    -0.000825
     3    -0.001904
     4     0.004786
     5     0.000924
     6     0.201670
     7     0.009161
     8    -0.000425
     9    -0.164428
    10    -0.006610
    11     0.004100
    12     0.001437
    13    -0.000511
    14    -0.337856
    15    -0.544270
    16    -0.001673
    17    -0.001574
    18     0.002186
    19     0.002822
    20     0.038551
    21    -0.000371
    22    -0.001579
    23     0.000999
    24    -0.004558
    25     1.056794
    26     0.006682
    27     0.002786
    28    -0.000831
    29     0.000088
    30     0.003383
Sym=    27a
Ene=   -0.379452E-03
Spin= Alpha
Occup= 0.000195
     1    -0.005157
     2    -0.057199
     3     0.002186
     4    -0.198395
     5     0.368858
     6     0.000356
     7    -0.288476
     8     1.004710
     9     0.000005
    10     0.087595
    11    -0.159993
    12     0.018622
    13     0.845810
    14     0.000775
    15    -0.002492
    16     0.712664
    17     0.233942
    18     0.167839
    19     0.033211
    20    -0.002153
    21    -0.502668
    22    -0.192287
    23    -0.263852
    24     0.127512
    25     0.002100
    26    -0.116846
    27    -0.056034
    28     0.191926
    29     0.446689
    30     0.001169
Sym=    28a
Ene=   -0.388668E-03
Spin= Alpha
Occup= 0.000203
     1     0.005204
     2     0.060551
     3    -0.042650
     4    -0.403335
     5    -0.013463
     6    -0.055018
     7    -0.977806
     8    -0.244974
     9     0.048998
    10     0.686235
    11    -0.639812
    12     0.001769
    13    -0.290836
    14     0.095370
    15    -0.163657
    16     0.126854
    17     0.056837
    18    -0.277636
    19    -0.365786
    20    -0.308901
    21     0.501065
    22     0.188237
    23    -0.229514
    24     0.149914
    25    -0.001401
    26    -0.665257
    27    -0.225559
    28     0.062496
    29    -0.157939
    30    -0.000953
Sym=    29a
Ene=   -0.184636E-05
Spin= Alpha
Occup= 0.000000
     1     0.003418
     2    -0.040788
     3     0.354855
     4    -0.053309
     5     0.059163
     6     0.000064
     7     1.425709
     8    -1.644390
     9    -0.000298
    10    -0.145457
    11     0.134114
    12    -0.044935
    13    -0.174958
    14    -0.000259
    15     0.000808
    16    -0.472660
    17    -2.181692
    18     0.284490
    19    -0.647735
    20     0.001205
    21     0.135539
    22     0.577861
    23    -0.449831
    24     0.038016
    25    -0.000249
    26     0.292642
    27     1.272373
    28     0.424093
    29     0.333854
    30     0.000065
Sym=    30a
Ene=    0.000000E+00
Spin= Alpha
Occup= 0.000000
     1     0.030613
     2    -0.411480
     3     3.812820
     4     0.005390
     5    -0.001294
     6     0.000018
     7    -0.065497
     8     0.203416
     9    -0.000085
    10    -0.005558
    11    -0.023680
    12    -0.434626
    13     0.018833
    14    -0.000127
    15     0.000145
    16    -0.108461
    17    -1.022318
    18     0.148319
    19    -0.281603
    20     0.000305
    21    -0.180146
    22    -1.359431
    23     0.234362
    24     0.345143
    25     0.000035
    26    -0.168105
    27    -1.287575
    28    -0.404265
    29    -0.042954
    30    -0.000041
