[Molden Format]
p30-5 set                                                                       
[Atoms] AU
 O        1     8        2.3864        0.0000        0.1340
 O        2     8       -2.3864        0.0000       -0.1340
 H        3     1        2.6495        1.4648       -0.9582
 H        4     1        2.6495       -1.4648       -0.9582
 H        5     1       -2.6495        1.4648        0.9582
 H        6     1       -2.6495       -1.4648        0.9582
[GTO]
    1 0
s    5 1.00
    2266.176778500000 -0.538935039217E-02
     340.870101910000 -0.402347213890E-01
      77.363135167000 -0.180081842055E+00
      21.479644940000 -0.468288576577E+00
       6.658943312400 -0.446926171602E+00
s    1 1.00
       0.809759756680  0.100000000000E+01
s    1 1.00
       0.255307722340  0.100000000000E+01
p    3 1.00
      17.721504317000  0.626302487632E-01
       3.863550544000  0.333311384824E+00
       1.048092088300  0.741486383081E+00
p    1 1.00
       0.276415444110  0.100000000000E+01
d    1 1.00
       1.200000000000  0.100000000000E+01
 
    2 0
s    5 1.00
    2266.176778500000 -0.538935039217E-02
     340.870101910000 -0.402347213890E-01
      77.363135167000 -0.180081842055E+00
      21.479644940000 -0.468288576577E+00
       6.658943312400 -0.446926171602E+00
s    1 1.00
       0.809759756680  0.100000000000E+01
s    1 1.00
       0.255307722340  0.100000000000E+01
p    3 1.00
      17.721504317000  0.626302487632E-01
       3.863550544000  0.333311384824E+00
       1.048092088300  0.741486383081E+00
p    1 1.00
       0.276415444110  0.100000000000E+01
d    1 1.00
       1.200000000000  0.100000000000E+01
 
    3 0
s    3 1.00
      13.010701000000  0.334854848130E-01
       1.962257200000  0.234721870881E+00
       0.444537960000  0.813770285260E+00
s    1 1.00
       0.121949620000  0.100000000000E+01
p    1 1.00
       0.800000000000  0.100000000000E+01
 
    4 0
s    3 1.00
      13.010701000000  0.334854848130E-01
       1.962257200000  0.234721870881E+00
       0.444537960000  0.813770285260E+00
s    1 1.00
       0.121949620000  0.100000000000E+01
p    1 1.00
       0.800000000000  0.100000000000E+01
 
    5 0
s    3 1.00
      13.010701000000  0.334854848130E-01
       1.962257200000  0.234721870881E+00
       0.444537960000  0.813770285260E+00
s    1 1.00
       0.121949620000  0.100000000000E+01
p    1 1.00
       0.800000000000  0.100000000000E+01
 
    6 0
s    3 1.00
      13.010701000000  0.334854848130E-01
       1.962257200000  0.234721870881E+00
       0.444537960000  0.813770285260E+00
s    1 1.00
       0.121949620000  0.100000000000E+01
p    1 1.00
       0.800000000000  0.100000000000E+01
 
[MO]
Sym=     1a
Ene=   -0.207983E+02
Spin= Alpha
Occup= 1.999914
     1     0.992552
     2    -0.030126
     3     0.012993
     4    -0.000148
     5    -0.000005
     6     0.004302
     7    -0.000330
     8    -0.000001
     9     0.001691
    10     0.004197
    11     0.003285
    12     0.003537
    13    -0.000001
    14     0.000140
    15     0.000002
    16    -0.000061
    17     0.000010
    18    -0.000617
    19     0.000316
    20    -0.000001
    21     0.000064
    22    -0.000183
    23     0.000005
    24    -0.000207
    25     0.000108
    26     0.000051
    27     0.000073
    28    -0.000000
    29    -0.000018
    30     0.000003
    31     0.002048
    32    -0.001363
    33    -0.000202
    34    -0.001441
    35     0.001174
    36     0.002041
    37    -0.001357
    38    -0.000201
    39     0.001437
    40     0.001173
    41     0.000212
    42     0.000032
    43     0.000126
    44    -0.000041
    45     0.000019
    46     0.000216
    47     0.000042
    48     0.000124
    49     0.000048
    50     0.000017
Sym=     2a
Ene=   -0.210594E+02
Spin= Alpha
Occup= 1.999905
     1     0.000063
     2     0.000007
     3     0.000713
     4    -0.000124
     5    -0.000002
     6     0.000010
     7    -0.000572
     8     0.000002
     9    -0.000288
    10    -0.000113
    11    -0.000056
    12    -0.000070
    13     0.000002
    14     0.000028
    15    -0.000002
    16    -0.993673
    17     0.027313
    18    -0.013484
    19    -0.000403
    20    -0.000067
    21     0.005045
    22    -0.000292
    23    -0.000023
    24     0.002015
    25    -0.004522
    26    -0.003286
    27    -0.003496
    28    -0.000005
    29    -0.000253
    30     0.000003
    31    -0.000249
    32    -0.000005
    33     0.000103
    34     0.000053
    35     0.000017
    36    -0.000252
    37    -0.000001
    38     0.000103
    39    -0.000054
    40     0.000013
    41    -0.002466
    42     0.001414
    43    -0.000227
    44     0.001512
    45     0.001238
    46    -0.002420
    47     0.001412
    48    -0.000222
    49    -0.001505
    50     0.001228
Sym=     3a
Ene=   -0.102507E+01
Spin= Alpha
Occup= 1.987441
     1     0.205668
     2     0.440750
     3     0.342186
     4     0.256050
     5     0.000033
     6     0.370860
     7     0.195390
     8     0.000016
     9     0.282978
    10     0.013017
    11     0.013842
    12    -0.004232
    13    -0.000002
    14    -0.006468
    15    -0.000002
    16    -0.001921
    17    -0.002597
    18    -0.002144
    19    -0.064291
    20     0.000213
    21    -0.013885
    22    -0.048192
    23     0.000076
    24    -0.004794
    25    -0.000601
    26     0.000566
    27    -0.000020
    28     0.000065
    29    -0.001241
    30     0.000031
    31    -0.013924
    32    -0.024540
    33     0.011578
    34     0.000904
    35     0.014726
    36    -0.013952
    37    -0.024560
    38     0.011577
    39    -0.000903
    40     0.014725
    41    -0.002414
    42    -0.000189
    43    -0.002773
    44     0.000621
    45    -0.000794
    46    -0.002642
    47    -0.000156
    48    -0.002811
    49    -0.000654
    50    -0.000776
Sym=     4a
Ene=   -0.127062E+01
Spin= Alpha
Occup= 1.984718
     1    -0.001443
     2    -0.003728
     3    -0.003458
     4     0.017851
     5    -0.000049
     6     0.002955
     7     0.012188
     8     0.000026
     9     0.001467
    10     0.000512
    11    -0.000573
    12    -0.000593
    13    -0.000015
    14     0.000060
    15    -0.000002
    16     0.222224
    17     0.502112
    18     0.352095
    19     0.049042
    20     0.020045
    21    -0.443339
    22     0.023629
    23     0.008645
    24    -0.275497
    25     0.016475
    26     0.018041
    27    -0.003937
    28    -0.000053
    29     0.003857
    30     0.000670
    31    -0.001848
    32     0.004012
    33     0.000576
    34    -0.000126
    35     0.000320
    36    -0.001690
    37     0.003784
    38     0.000604
    39     0.000117
    40     0.000330
    41    -0.037144
    42    -0.019617
    43     0.001504
    44     0.009681
    45    -0.012968
    46    -0.057618
    47    -0.020561
    48     0.000882
    49    -0.011585
    50    -0.010726
Sym=     5a
Ene=   -0.902784E+00
Spin= Alpha
Occup= 1.977493
     1    -0.129351
     2    -0.260959
     3    -0.244966
     4     0.512154
     5    -0.000123
     6    -0.050215
     7     0.405021
     8    -0.000058
     9    -0.035762
    10    -0.005098
    11    -0.002671
    12     0.000808
    13     0.000001
    14    -0.013759
    15     0.000007
    16    -0.002909
    17     0.005902
    18    -0.016727
    19    -0.164988
    20     0.000550
    21    -0.031790
    22    -0.149157
    23     0.000271
    24    -0.028161
    25    -0.000797
    26     0.004231
    27     0.002290
    28     0.000092
    29    -0.005689
    30     0.000057
    31     0.012728
    32     0.011115
    33     0.020163
    34    -0.000630
    35    -0.001915
    36     0.012873
    37     0.011159
    38     0.020160
    39     0.000636
    40    -0.001894
    41     0.011028
    42    -0.021285
    43    -0.006395
    44     0.000029
    45    -0.001078
    46     0.010554
    47    -0.021157
    48    -0.006414
    49    -0.000086
    50    -0.001002
Sym=     6a
Ene=   -0.135790E+01
Spin= Alpha
Occup= 1.970444
     1    -0.001616
     2    -0.003686
     3    -0.001988
     4     0.011822
     5     0.001745
     6    -0.001486
     7     0.007551
     8    -0.000119
     9    -0.000278
    10    -0.000421
    11    -0.000258
    12    -0.000317
    13     0.000258
    14    -0.000482
    15    -0.000029
    16     0.130166
    17     0.277329
    18     0.050742
    19    -0.059421
    20    -0.380961
    21     0.288104
    22    -0.025737
    23    -0.156069
    24     0.122345
    25    -0.001254
    26     0.005164
    27     0.014486
    28     0.003819
    29    -0.004128
    30    -0.017635
    31     0.002940
    32    -0.001916
    33     0.001396
    34    -0.000151
    35     0.000168
    36    -0.001139
    37     0.001335
    38     0.000887
    39     0.000195
    40    -0.000178
    41    -0.027499
    42    -0.008084
    43    -0.002628
    44    -0.014556
    45     0.014021
    46     0.404397
    47     0.021241
    48     0.006871
    49     0.049972
    50    -0.029881
Sym=     7a
Ene=   -0.106975E+01
Spin= Alpha
Occup= 1.968678
     1    -0.094139
     2    -0.192551
     3     0.009895
     4    -0.077675
     5     0.357647
     6     0.305944
     7    -0.043269
     8     0.162103
     9     0.163276
    10     0.002476
    11    -0.004943
    12    -0.014291
    13     0.002417
    14     0.003237
    15    -0.017913
    16     0.001078
    17     0.001874
    18     0.000401
    19     0.021563
    20    -0.002662
    21    -0.000491
    22     0.017205
    23     0.000827
    24     0.003136
    25     0.000452
    26    -0.000041
    27     0.000194
    28     0.000375
    29     0.001107
    30    -0.000014
    31     0.031882
    32     0.022354
    33    -0.004137
    34     0.013328
    35     0.014708
    36    -0.424300
    37    -0.072825
    38     0.008807
    39    -0.043197
    40    -0.023984
    41    -0.006475
    42     0.009972
    43     0.002026
    44     0.000353
    45     0.000228
    46     0.000187
    47     0.001101
    48     0.001143
    49    -0.000403
    50    -0.000424
Sym=     8a
Ene=   -0.106954E+01
Spin= Alpha
Occup= 1.968658
     1     0.094057
     2     0.192371
     3    -0.009998
     4     0.077804
     5     0.357730
     6    -0.305921
     7     0.043369
     8     0.162156
     9    -0.163271
    10    -0.002474
    11     0.004944
    12     0.014281
    13     0.002415
    14    -0.003238
    15    -0.017919
    16    -0.001081
    17    -0.001885
    18    -0.000447
    19    -0.021651
    20    -0.002741
    21     0.000588
    22    -0.017262
    23     0.000770
    24    -0.003088
    25    -0.000456
    26     0.000030
    27    -0.000195
    28     0.000452
    29    -0.001105
    30     0.000005
    31     0.424309
    32     0.072832
    33    -0.008799
    34    -0.043200
    35     0.023987
    36    -0.031960
    37    -0.022371
    38     0.004149
    39     0.013318
    40    -0.014720
    41    -0.000167
    42    -0.001148
    43    -0.001084
    44    -0.000423
    45     0.000445
    46     0.006567
    47    -0.009945
    48    -0.002085
    49     0.000363
    50    -0.000248
Sym=     9a
Ene=   -0.132067E+01
Spin= Alpha
Occup= 1.968367
     1    -0.001396
     2    -0.003199
     3    -0.001611
     4     0.009810
     5    -0.001880
     6    -0.001756
     7     0.006097
     8     0.000096
     9    -0.000468
    10    -0.000435
    11    -0.000228
    12    -0.000271
    13    -0.000269
    14    -0.000444
    15     0.000033
    16     0.114016
    17     0.241875
    18     0.030937
    19    -0.058941
    20     0.396734
    21     0.298805
    22    -0.025427
    23     0.162736
    24     0.130802
    25    -0.001823
    26     0.004101
    27     0.014014
    28    -0.004136
    29    -0.004158
    30     0.018361
    31    -0.001159
    32     0.001186
    33     0.000772
    34    -0.000183
    35    -0.000201
    36     0.003121
    37    -0.002073
    38     0.001302
    39     0.000147
    40     0.000161
    41     0.408236
    42     0.022130
    43     0.006974
    44    -0.050196
    45    -0.030026
    46    -0.040320
    47    -0.007870
    48    -0.002918
    49     0.012976
    50     0.015700
Sym=    10a
Ene=   -0.533455E+00
Spin= Alpha
Occup= 1.000000
     1    -0.018698
     2    -0.034522
     3    -0.059448
     4     0.226407
     5     0.000027
     6     0.002737
     7     0.176591
     8    -0.000019
     9     0.012790
    10     0.002450
    11     0.000577
    12     0.000638
    13    -0.000003
    14    -0.006595
    15     0.000012
    16     0.018908
    17     0.050955
    18     0.014572
    19     0.685538
    20    -0.000298
    21     0.116140
    22     0.369998
    23     0.000525
    24     0.063131
    25    -0.006325
    26     0.002557
    27     0.008399
    28    -0.001333
    29     0.020534
    30    -0.000444
    31     0.018640
    32     0.005058
    33     0.006778
    34    -0.002911
    35     0.001368
    36     0.018489
    37     0.005352
    38     0.006774
    39     0.002922
    40     0.001359
    41    -0.005570
    42    -0.009530
    43     0.021483
    44     0.001725
    45     0.004580
    46    -0.004296
    47    -0.010079
    48     0.023053
    49    -0.001479
    50     0.005063
Sym=    11a
Ene=   -0.293350E-01
Spin= Alpha
Occup= 0.026477
     1    -0.000831
     2     0.001888
     3    -0.010941
     4     0.003355
     5    -0.001970
     6    -0.001243
     7     0.016549
     8     0.001932
     9    -0.001040
    10     0.001170
    11    -0.000322
    12    -0.000438
    13    -0.000363
    14    -0.000573
    15    -0.000176
    16    -0.163512
    17    -0.641289
    18     0.034192
    19     0.108344
    20    -0.640605
    21    -0.442815
    22     0.004409
    23    -0.022028
    24    -0.008163
    25     0.027290
    26     0.018165
    27     0.008412
    28     0.004232
    29     0.006472
    30    -0.051741
    31    -0.002856
    32     0.003292
    33     0.001397
    34    -0.000306
    35    -0.000715
    36     0.006601
    37    -0.002729
    38     0.001982
    39     0.000308
    40     0.000309
    41     0.971284
    42     0.045711
    43     0.017360
    44    -0.106770
    45    -0.068357
    46    -0.026753
    47    -0.021491
    48     0.001055
    49     0.000127
    50     0.003031
Sym=    12a
Ene=   -0.256551E-01
Spin= Alpha
Occup= 0.026031
     1    -0.140096
     2    -0.511689
     3    -0.061962
     4    -0.144208
     5    -0.614510
     6     0.479918
     7     0.030327
     8    -0.056379
     9    -0.009911
    10     0.033500
    11    -0.003629
    12    -0.008512
    13    -0.007711
    14     0.011231
    15     0.055128
    16     0.000192
    17     0.003870
    18    -0.007447
    19     0.011340
    20    -0.002016
    21     0.004469
    22    -0.017251
    23     0.002751
    24    -0.005341
    25    -0.001165
    26     0.001013
    27     0.001080
    28     0.000606
    29    -0.000294
    30     0.000138
    31     0.908103
    32     0.126577
    33    -0.007352
    34    -0.052438
    35     0.011893
    36    -0.015252
    37    -0.035347
    38     0.003009
    39     0.006934
    40    -0.003676
    41     0.003935
    42    -0.005322
    43    -0.000724
    44    -0.000345
    45     0.000725
    46     0.014632
    47    -0.012411
    48    -0.000550
    49     0.000630
    50    -0.000350
Sym=    13a
Ene=   -0.256571E-01
Spin= Alpha
Occup= 0.026028
     1    -0.140177
     2    -0.512089
     3    -0.061594
     4    -0.144016
     5     0.614539
     6     0.479972
     7     0.030181
     8     0.056046
     9    -0.009968
    10     0.033575
    11    -0.003623
    12    -0.008554
    13     0.007755
    14     0.011296
    15    -0.055234
    16     0.000191
    17     0.003880
    18    -0.007459
    19     0.011225
    20     0.002062
    21     0.004501
    22    -0.017227
    23    -0.002806
    24    -0.005430
    25    -0.001138
    26     0.001009
    27     0.001050
    28    -0.000624
    29    -0.000317
    30    -0.000228
    31    -0.015067
    32    -0.035290
    33     0.003009
    34    -0.006878
    35    -0.003684
    36     0.907841
    37     0.126582
    38    -0.007504
    39     0.052415
    40     0.011893
    41     0.014657
    42    -0.012371
    43    -0.001093
    44    -0.000612
    45    -0.000450
    46     0.003972
    47    -0.005444
    48    -0.000051
    49     0.000427
    50     0.000882
Sym=    14a
Ene=   -0.294551E-01
Spin= Alpha
Occup= 0.026217
     1     0.001005
     2    -0.001451
     3     0.010741
     4    -0.004239
     5    -0.001969
     6     0.001116
     7    -0.017982
     8     0.001754
     9     0.001641
    10    -0.001161
    11     0.000367
    12     0.000519
    13    -0.000342
    14     0.000601
    15    -0.000172
    16     0.175680
    17     0.698653
    18    -0.078279
    19    -0.114085
    20    -0.629808
    21     0.436052
    22    -0.000631
    23    -0.015184
    24     0.019560
    25    -0.035630
    26    -0.019779
    27    -0.007775
    28     0.005499
    29    -0.005202
    30    -0.058670
    31    -0.005393
    32     0.002210
    33    -0.002202
    34     0.000167
    35    -0.000360
    36     0.003920
    37    -0.003850
    38    -0.001606
    39    -0.000222
    40     0.000569
    41     0.010644
    42     0.021269
    43     0.000672
    44     0.000956
    45    -0.001283
    46    -0.961737
    47    -0.043260
    48    -0.016026
    49    -0.106845
    50     0.071913
Sym=    15a
Ene=   -0.156913E-01
Spin= Alpha
Occup= 0.020486
     1    -0.155869
     2    -0.770746
     3     0.750440
     4     0.796497
     5    -0.000329
     6    -0.107824
     7    -0.750632
     8     0.000449
     9     0.089931
    10    -0.091525
    11     0.072018
    12     0.071255
    13     0.000042
    14     0.001891
    15    -0.000078
    16    -0.019339
    17    -0.075267
    18     0.060348
    19    -0.279245
    20     0.000163
    21    -0.039777
    22     0.188166
    23    -0.003994
    24     0.101415
    25     0.015583
    26    -0.019026
    27    -0.014389
    28     0.007219
    29    -0.010539
    30     0.001952
    31    -0.052493
    32    -0.023964
    33    -0.029361
    34     0.006447
    35     0.001233
    36    -0.051741
    37    -0.025116
    38    -0.029324
    39    -0.006548
    40     0.001273
    41    -0.098353
    42     0.060146
    43    -0.001478
    44     0.002990
    45     0.003418
    46    -0.105123
    47     0.060899
    48    -0.010159
    49    -0.004185
    50     0.000475
Sym=    16a
Ene=   -0.386148E-02
Spin= Alpha
Occup= 0.002241
     1    -0.007061
     2    -0.056118
     3     0.101112
     4     0.052595
     5    -0.001365
     6    -0.009936
     7    -0.094308
     8     0.002396
     9    -0.013548
    10    -0.015287
    11     0.003848
    12     0.005684
    13     0.001287
    14    -0.002824
    15    -0.002780
    16     0.028897
    17     0.113672
    18    -0.017089
    19     0.278425
    20     0.022984
    21    -0.004064
    22    -0.276502
    23    -0.057163
    24     0.081231
    25     0.259704
    26     0.020986
    27    -0.366804
    28     0.302495
    29    -0.773484
    30     0.114176
    31    -0.034678
    32     0.011320
    33     0.003465
    34     0.005143
    35     0.001097
    36    -0.025333
    37    -0.000661
    38     0.005255
    39    -0.008088
    40     0.001312
    41    -0.062717
    42     0.039736
    43    -0.026563
    44     0.002401
    45    -0.001722
    46    -0.113232
    47     0.034048
    48    -0.107287
    49    -0.008646
    50    -0.046687
Sym=    17a
Ene=   -0.912688E-03
Spin= Alpha
Occup= 0.000442
     1    -0.000012
     2     0.001414
     3    -0.005539
     4    -0.000658
     5    -0.054120
     6    -0.000339
     7     0.001739
     8    -0.498623
     9     0.001988
    10     0.001963
    11    -0.001505
    12     0.000911
    13     0.344299
    14     0.001167
    15     1.007854
    16     0.000000
    17    -0.000304
    18     0.001394
    19    -0.001538
    20     0.007273
    21     0.000350
    22     0.003379
    23     0.041124
    24     0.002378
    25    -0.001110
    26     0.000278
    27     0.000745
    28     0.015248
    29     0.000080
    30     0.006995
    31     0.764471
    32    -0.490823
    33    -0.286434
    34    -0.271049
    35    -0.012440
    36    -0.759760
    37     0.491081
    38     0.284999
    39    -0.271260
    40     0.013321
    41    -0.026115
    42     0.035728
    43    -0.005509
    44     0.017045
    45     0.012646
    46     0.020498
    47    -0.031705
    48     0.001405
    49     0.014317
    50    -0.015374
Sym=    18a
Ene=   -0.366753E-04
Spin= Alpha
Occup= 0.000002
     1     0.002193
     2    -0.017978
     3     0.039044
     4     0.008462
     5     0.000142
     6     0.014916
     7    -0.070925
     8    -0.011525
     9     0.008724
    10    -0.008815
    11    -0.007961
    12    -0.035304
    13    -0.002617
    14     0.031201
    15     0.006906
    16     0.058669
    17    -0.217530
    18     0.313892
    19     0.152841
    20     0.036653
    21    -0.482971
    22    -0.303946
    23     0.041219
    24    -0.060476
    25    -0.139956
    26    -0.651453
    27    -0.491753
    28    -0.251998
    29    -0.109165
    30     0.011867
    31     0.013805
    32     0.004566
    33     0.032530
    34    -0.036755
    35     0.010068
    36    -0.006062
    37     0.014688
    38     0.030366
    39     0.033037
    40     0.003025
    41     0.189689
    42    -0.067398
    43     0.612019
    44    -0.614196
    45    -0.363803
    46     0.310681
    47    -0.083679
    48     0.300779
    49     0.788915
    50    -0.456880
Sym=    19a
Ene=   -0.816980E-04
Spin= Alpha
Occup= 0.000004
     1    -0.000647
     2     0.002169
     3    -0.010893
     4    -0.001151
     5     0.816437
     6    -0.002444
     7     0.008164
     8    -0.824451
     9     0.000504
    10     0.003751
    11     0.001455
    12     0.006259
    13     0.021248
    14    -0.005094
    15    -0.199288
    16     0.000062
    17    -0.001493
    18     0.009065
    19    -0.003166
    20     0.003563
    21     0.000097
    22     0.008319
    23     0.096439
    24     0.007179
    25    -0.003197
    26     0.001369
    27     0.001037
    28    -0.007230
    29     0.000783
    30     0.044240
    31     0.166191
    32     0.032317
    33     0.075920
    34     0.742514
    35    -0.214250
    36    -0.167838
    37    -0.027795
    38    -0.087804
    39     0.732573
    40     0.213070
    41    -0.085207
    42     0.048737
    43    -0.005421
    44     0.015752
    45     0.037989
    46     0.072634
    47    -0.046176
    48    -0.007465
    49     0.010338
    50    -0.040541
Sym=    20a
Ene=   -0.354661E-02
Spin= Alpha
Occup= 0.001927
     1    -0.001820
     2    -0.011537
     3     0.012479
     4     0.017067
     5    -0.002443
     6    -0.004000
     7    -0.033106
     8     0.002934
     9     0.003602
    10     0.003997
    11    -0.000951
    12     0.003635
    13     0.003001
    14    -0.003164
    15    -0.005968
    16    -0.001558
    17    -0.023678
    18     0.073924
    19     0.042415
    20     0.012544
    21     0.006266
    22    -0.190187
    23    -0.065011
    24     0.003535
    25    -0.136869
    26     0.008592
    27     0.112851
    28     0.684839
    29     0.260033
    30     0.149280
    31    -0.004100
    32     0.006271
    33    -0.011118
    34     0.000414
    35    -0.002374
    36     0.007811
    37    -0.002406
    38    -0.006472
    39    -0.005377
    40    -0.003081
    41    -0.006304
    42     0.001940
    43     0.417801
    44    -0.024319
    45     0.127530
    46    -0.125130
    47     0.045163
    48    -0.117081
    49    -0.028209
    50    -0.037841
Sym=    21a
Ene=   -0.238344E-02
Spin= Alpha
Occup= 0.001555
     1    -0.012677
     2    -0.138081
     3     0.359999
     4     0.074958
     5     0.003666
     6    -0.056277
     7     0.120203
     8     0.021057
     9    -0.008994
    10    -0.140204
    11     0.010139
    12     0.073074
    13    -0.291183
    14     0.225950
    15    -0.019932
    16     0.010644
    17     0.090884
    18    -0.198614
    19     0.319247
    20    -0.005841
    21     0.037817
    22    -0.390887
    23     0.008330
    24    -0.113116
    25    -0.001149
    26     0.001316
    27     0.031366
    28    -0.048770
    29     0.090808
    30    -0.006639
    31    -0.213397
    32     0.096249
    33    -0.706612
    34     0.060585
    35    -0.210613
    36    -0.169769
    37     0.048307
    38     0.058728
    39    -0.023802
    40    -0.007301
    41     0.085741
    42    -0.027018
    43    -0.003444
    44    -0.015816
    45    -0.014644
    46     0.105110
    47    -0.031282
    48     0.028928
    49     0.015980
    50     0.003547
Sym=    22a
Ene=   -0.370729E-02
Spin= Alpha
Occup= 0.002738
     1     0.017062
     2    -0.083128
     3     0.893137
     4    -0.032757
     5     0.017814
     6     0.003119
     7     0.199081
     8    -0.552600
     9    -0.672017
    10     0.085239
    11    -0.147890
    12    -0.047758
    13     0.051629
    14     0.017349
    15    -0.258912
    16     0.000031
    17     0.019391
    18    -0.032710
    19    -0.098542
    20     0.001546
    21    -0.033931
    22     0.050880
    23     0.018865
    24     0.072942
    25     0.002310
    26     0.002377
    27     0.005837
    28     0.024537
    29    -0.031251
    30     0.002478
    31    -0.308597
    32    -0.124172
    33    -0.022231
    34     0.065672
    35     0.007578
    36    -1.275676
    37     0.584868
    38     0.129411
    39    -0.406964
    40    -0.259859
    41    -0.013458
    42     0.006983
    43     0.013970
    44     0.003634
    45     0.017601
    46    -0.009248
    47    -0.035332
    48    -0.003329
    49     0.002905
    50     0.001489
Sym=    23a
Ene=   -0.761138E-03
Spin= Alpha
Occup= 0.000375
     1    -0.003313
     2    -0.045116
     3     0.082568
     4     0.024805
     5     0.014443
     6    -0.012765
     7    -0.071118
     8    -0.007687
     9     0.063663
    10     0.012403
    11    -0.025887
    12    -0.024567
    13    -0.005997
    14    -0.012701
    15    -0.000804
    16     0.005195
    17     0.180609
    18    -0.972528
    19    -0.047321
    20    -0.230266
    21    -0.002819
    22     0.276811
    23    -0.220579
    24    -0.775210
    25     0.468319
    26    -0.615862
    27     0.084346
    28     0.123431
    29     0.067408
    30    -0.175190
    31     0.026460
    32     0.009913
    33    -0.004918
    34    -0.004496
    35    -0.004334
    36     0.035739
    37    -0.050937
    38    -0.001068
    39     0.028602
    40     0.005317
    41     1.164967
    42    -0.412517
    43     0.095566
    44    -0.174290
    45    -0.538445
    46     0.586828
    47     0.092576
    48    -0.196155
    49     0.394452
    50     0.462760
Sym=    24a
Ene=   -0.189978E-02
Spin= Alpha
Occup= 0.001333
     1     0.076462
     2     0.346799
     3    -0.203703
     4    -0.289163
     5    -0.002779
     6     0.037101
     7     0.600988
     8     0.004004
     9    -0.068599
    10    -0.738297
    11     0.295603
    12     0.199614
    13    -0.000262
    14     0.176157
    15    -0.000887
    16    -0.017357
    17    -0.147543
    18     0.306566
    19    -0.525499
    20     0.001382
    21    -0.051251
    22     0.672747
    23    -0.002245
    24     0.165576
    25     0.037980
    26    -0.008055
    27    -0.060072
    28     0.048231
    29    -0.168724
    30     0.013201
    31    -0.199013
    32     0.118259
    33    -0.154268
    34    -0.028767
    35    -0.038705
    36    -0.197174
    37     0.122660
    38    -0.152473
    39     0.026140
    40    -0.040452
    41    -0.142106
    42     0.058743
    43     0.053046
    44     0.021659
    45     0.047037
    46    -0.148839
    47     0.064523
    48    -0.017468
    49    -0.034818
    50     0.019232
Sym=    25a
Ene=   -0.124068E-01
Spin= Alpha
Occup= 0.010887
     1    -0.000970
     2    -0.020166
     3     0.039912
     4     0.020319
     5     0.000038
     6    -0.004515
     7    -0.083653
     8     0.000174
     9    -0.008879
    10    -0.004493
    11    -0.001564
    12     0.000938
    13     0.000020
    14     0.000976
    15     0.000002
    16     0.265425
    17     1.278897
    18    -1.118963
    19    -0.003108
    20     0.024779
    21    -0.709416
    22     0.009393
    23    -0.022675
    24     0.714512
    25    -0.176434
    26    -0.216677
    27    -0.007615
    28     0.001823
    29    -0.010066
    30    -0.008016
    31     0.010926
    32    -0.004485
    33    -0.002772
    34     0.001020
    35    -0.002319
    36     0.010709
    37    -0.004626
    38    -0.002876
    39    -0.000997
    40    -0.002307
    41     0.060006
    42     0.056278
    43     0.006441
    44    -0.044833
    45     0.001024
    46     0.061501
    47     0.049724
    48     0.003795
    49     0.046156
    50    -0.004031
Sym=    26a
Ene=   -0.117096E-01
Spin= Alpha
Occup= 0.010954
     1     0.237812
     2     1.152344
     3    -1.028289
     4     0.407041
     5     0.000030
     6     0.633550
     7    -0.438173
     8    -0.000073
     9    -0.638946
    10    -0.089085
    11    -0.155758
    12    -0.019145
    13     0.000012
    14     0.109550
    15     0.000006
    16    -0.001098
    17     0.005583
    18    -0.027521
    19    -0.012339
    20    -0.000047
    21    -0.001122
    22     0.001640
    23    -0.000081
    24     0.006998
    25     0.002866
    26    -0.001715
    27     0.002493
    28    -0.000117
    29    -0.003133
    30    -0.000151
    31     0.038211
    32     0.058026
    33    -0.018785
    34    -0.018335
    35    -0.010955
    36     0.038132
    37     0.058037
    38    -0.018787
    39     0.018315
    40    -0.010953
    41     0.013349
    42    -0.004780
    43     0.001503
    44    -0.001838
    45     0.003578
    46     0.013119
    47    -0.004782
    48     0.000982
    49     0.001775
    50     0.003407
Sym=    27a
Ene=   -0.189313E-02
Spin= Alpha
Occup= 0.000089
     1    -0.000739
     2     0.023687
     3    -0.089943
     4    -0.024726
     5    -0.000010
     6     0.000696
     7     0.068275
     8     0.000214
     9     0.035177
    10     0.004925
    11     0.006503
    12     0.011306
    13     0.000041
    14     0.000618
    15    -0.000071
    16     0.713481
    17     2.321957
    18     0.869802
    19     0.004022
    20    -0.004303
    21     0.068097
    22     0.047551
    23     0.013525
    24    -0.245038
    25    -1.419944
    26    -1.465315
    27    -1.436583
    28    -0.007458
    29     0.019198
    30     0.002767
    31     0.034032
    32    -0.008688
    33    -0.004820
    34    -0.009890
    35     0.003022
    36     0.034322
    37    -0.008456
    38    -0.005003
    39     0.009865
    40     0.003173
    41     0.187524
    42    -0.053124
    43     0.006314
    44    -0.043944
    45    -0.036809
    46     0.202527
    47    -0.047787
    48     0.018013
    49     0.044818
    50    -0.030865
Sym=    28a
Ene=   -0.171429E-02
Spin= Alpha
Occup= 0.000079
     1     0.719687
     2     2.336520
     3     0.828818
     4     0.014094
     5     0.001185
     6    -0.049340
     7    -0.118322
     8    -0.001377
     9     0.328957
    10    -1.351743
    11    -1.533293
    12    -1.498164
    13     0.000186
    14     0.034995
    15    -0.000417
    16    -0.000748
    17     0.022565
    18    -0.108074
    19     0.036083
    20     0.002004
    21     0.002499
    22    -0.062392
    23    -0.005468
    24    -0.058760
    25     0.006223
    26    -0.001123
    27     0.010862
    28     0.007586
    29     0.010715
    30     0.000304
    31     0.323683
    32    -0.132891
    33     0.020966
    34    -0.121538
    35     0.034449
    36     0.324278
    37    -0.135860
    38     0.021007
    39     0.123501
    40     0.034908
    41     0.050095
    42    -0.000127
    43    -0.007669
    44    -0.017015
    45    -0.014398
    46     0.044032
    47    -0.000823
    48     0.006096
    49     0.018336
    50    -0.011565
Sym=    29a
Ene=   -0.447477E-02
Spin= Alpha
Occup= 0.002858
     1    -0.007656
     2    -0.066375
     3     0.112502
     4     0.053889
     5     0.004323
     6    -0.016158
     7    -0.111999
     8     0.012400
     9     0.030557
    10    -0.001084
    11    -0.008241
    12    -0.008507
    13    -0.004262
    14    -0.004524
    15     0.001866
    16     0.017988
    17     0.259325
    18    -0.991755
    19    -0.096134
    20     0.087912
    21     0.036571
    22     0.210439
    23    -0.643636
    24    -0.565155
    25    -0.244196
    26     0.302958
    27    -0.003551
    28    -0.089047
    29    -0.069974
    30     0.312155
    31    -0.012381
    32     0.031550
    33     0.000177
    34     0.002479
    35    -0.004592
    36     0.001128
    37    -0.040753
    38     0.000977
    39     0.007553
    40     0.005905
    41     1.003070
    42    -0.291479
    43     0.085094
    44    -0.315355
    45    -0.273656
    46     0.161338
    47     0.150030
    48     0.006162
    49     0.001704
    50    -0.020888
Sym=    30a
Ene=   -0.372037E-02
Spin= Alpha
Occup= 0.002751
     1     0.017047
     2    -0.082715
     3     0.890535
     4    -0.034071
     5    -0.019426
     6     0.004177
     7     0.198954
     8     0.555040
     9    -0.671485
    10     0.086830
    11    -0.148327
    12    -0.048477
    13    -0.049340
    14     0.016018
    15     0.258536
    16    -0.000141
    17     0.018061
    18    -0.029694
    19    -0.102011
    20     0.000076
    21    -0.034686
    22     0.055500
    23    -0.026643
    24     0.073573
    25     0.002413
    26     0.001863
    27     0.006083
    28     0.012625
    29    -0.031179
    30     0.006351
    31    -1.274206
    32     0.583522
    33     0.133801
    34     0.404767
    35    -0.258350
    36    -0.304947
    37    -0.125673
    38    -0.021943
    39    -0.065529
    40     0.007379
    41    -0.001768
    42    -0.040008
    43     0.014678
    44    -0.006292
    45     0.008660
    46    -0.020007
    47     0.009012
    48    -0.004518
    49    -0.006311
    50     0.012086
Sym=    31a
Ene=   -0.237750E-02
Spin= Alpha
Occup= 0.001550
     1     0.012871
     2     0.137835
     3    -0.352940
     4    -0.074066
     5     0.005944
     6     0.055665
     7    -0.120929
     8     0.015199
     9     0.001917
    10     0.140959
    11    -0.008475
    12    -0.075923
    13    -0.289375
    14    -0.224514
    15    -0.024380
    16    -0.010524
    17    -0.090065
    18     0.197364
    19    -0.318300
    20     0.003113
    21    -0.038395
    22     0.387629
    23    -0.014417
    24     0.113079
    25     0.000753
    26    -0.000955
    27    -0.031495
    28     0.043419
    29    -0.091285
    30     0.014539
    31     0.163691
    32    -0.042458
    33    -0.058573
    34    -0.022131
    35     0.006760
    36     0.205293
    37    -0.097144
    38     0.708749
    39     0.053915
    40     0.213531
    41    -0.089226
    42     0.027621
    43     0.006666
    44     0.008320
    45     0.013741
    46    -0.101100
    47     0.029847
    48    -0.028595
    49    -0.022128
    50    -0.001015
Sym=    32a
Ene=   -0.440833E-02
Spin= Alpha
Occup= 0.002788
     1    -0.007686
     2    -0.066898
     3     0.115033
     4     0.054605
     5    -0.004337
     6    -0.016057
     7    -0.111732
     8    -0.012317
     9     0.028746
    10    -0.001340
    11    -0.008736
    12    -0.009097
    13     0.004532
    14    -0.005119
    15    -0.002364
    16     0.018482
    17     0.268259
    18    -1.024734
    19    -0.095512
    20    -0.061952
    21     0.027632
    22     0.233128
    23     0.616413
    24    -0.556956
    25    -0.211598
    26     0.309987
    27    -0.042524
    28     0.149716
    29    -0.090426
    30    -0.281101
    31    -0.000897
    32    -0.040416
    33     0.002048
    34    -0.007140
    35     0.006129
    36    -0.013824
    37     0.031533
    38     0.001531
    39    -0.002748
    40    -0.004218
    41     0.182907
    42     0.157566
    43     0.001480
    44     0.004114
    45    -0.021310
    46     1.020119
    47    -0.300289
    48     0.041955
    49     0.310264
    50    -0.317801
Sym=    33a
Ene=   -0.486670E-03
Spin= Alpha
Occup= 0.000287
     1    -0.016409
     2    -0.384494
     3     1.071851
     4     0.015673
     5     0.007257
     6     0.150436
     7    -0.444725
     8    -0.016150
     9    -0.389158
    10    -0.435334
    11     0.238036
    12    -0.178684
    13    -0.012211
    14     0.659484
    15     0.004739
    16     0.002579
    17     0.079154
    18    -0.294545
    19     0.215952
    20     0.012022
    21    -0.003499
    22    -0.257145
    23    -0.033222
    24    -0.097756
    25    -0.015640
    26    -0.000877
    27     0.066456
    28     0.064181
    29     0.109507
    30     0.002597
    31    -0.247207
    32    -0.176986
    33     0.576154
    34    -0.189736
    35     0.039063
    36    -0.263211
    37    -0.185346
    38     0.563681
    39     0.194375
    40     0.038483
    41     0.141129
    42    -0.019475
    43    -0.126949
    44    -0.044705
    45    -0.061760
    46     0.100606
    47    -0.018312
    48    -0.000030
    49     0.055684
    50    -0.031855
Sym=    34a
Ene=   -0.317685E-02
Spin= Alpha
Occup= 0.001752
     1    -0.003269
     2    -0.004404
     3    -0.022674
     4     0.008097
     5    -0.000300
     6    -0.003348
     7     0.004214
     8    -0.000384
     9     0.011758
    10     0.004586
    11     0.005242
    12     0.006935
    13     0.000092
    14    -0.000789
    15     0.000260
    16    -0.044157
    17    -0.212713
    18     0.369082
    19     0.040163
    20    -0.016886
    21     0.110722
    22    -0.080137
    23     0.032069
    24     0.045816
    25    -0.614390
    26    -0.075352
    27     0.878197
    28    -0.021104
    29    -0.417703
    30    -0.032379
    31     0.014510
    32    -0.010636
    33    -0.005388
    34    -0.002396
    35    -0.002082
    36     0.013377
    37    -0.008366
    38    -0.005652
    39     0.001738
    40    -0.002853
    41    -0.338672
    42     0.091710
    43    -0.038057
    44     0.046784
    45     0.131629
    46    -0.321663
    47     0.100420
    48    -0.040196
    49    -0.055453
    50     0.139234
Sym=    35a
Ene=   -0.154454E-02
Spin= Alpha
Occup= 0.000815
     1    -0.041711
     2    -0.038232
     3    -0.633703
     4    -0.107826
     5    -0.000548
     6    -0.005616
     7     0.174601
     8     0.000815
     9     0.540138
    10     0.704603
    11    -0.406444
    12    -0.141736
    13    -0.000971
    14     0.652876
    15    -0.002725
    16    -0.007086
    17    -0.112479
    18     0.309359
    19    -0.311698
    20     0.001584
    21    -0.012883
    22     0.443788
    23    -0.002078
    24     0.095288
    25     0.000787
    26    -0.012382
    27    -0.060116
    28     0.022457
    29    -0.101988
    30     0.007164
    31     0.753682
    32    -0.289096
    33    -0.096476
    34    -0.170149
    35     0.039641
    36     0.755842
    37    -0.289301
    38    -0.097126
    39     0.170694
    40     0.038144
    41    -0.124285
    42     0.055631
    43     0.015388
    44     0.028174
    45     0.020721
    46    -0.126846
    47     0.054937
    48    -0.032166
    49    -0.036765
    50     0.000829
Sym=    36a
Ene=   -0.323629E-04
Spin= Alpha
Occup= 0.000002
     1     0.009495
     2    -0.080367
     3     0.330653
     4     0.077803
     5     0.000722
     6     0.019239
     7    -0.268558
     8    -0.021740
     9    -0.077281
    10    -0.082420
    11    -0.055341
    12    -0.073599
    13    -0.003661
    14     0.074978
    15     0.011654
    16    -0.038492
    17     0.193424
    18    -0.531371
    19     0.007289
    20    -0.001864
    21     0.282884
    22    -0.565074
    23     0.113488
    24    -0.258125
    25     0.343715
    26     0.360065
    27     0.136628
    28    -0.332288
    29    -0.350073
    30     0.008121
    31    -0.053946
    32    -0.007530
    33     0.125325
    34    -0.033141
    35     0.043004
    36    -0.090094
    37     0.012413
    38     0.122313
    39     0.027573
    40     0.029974
    41    -0.088901
    42     0.045733
    43     0.770541
    44     0.418206
    45     0.469583
    46     0.112273
    47     0.022720
    48     0.344421
    49    -0.297078
    50     0.373205
Sym=    37a
Ene=   -0.228415E-04
Spin= Alpha
Occup= 0.000001
     1    -0.000808
     2    -0.009642
     3     0.044288
     4     0.002642
     5     0.000435
     6     0.008072
     7     0.002247
     8     0.005748
     9    -0.076080
    10    -0.012226
    11     0.001542
    12     0.023916
    13     0.000553
    14     0.000533
    15    -0.002931
    16    -0.001163
    17    -0.030912
    18     0.019708
    19     0.003192
    20    -0.003098
    21    -0.015624
    22    -0.123962
    23    -0.058127
    24     0.480403
    25     0.091546
    26    -0.645111
    27     0.541012
    28     0.014420
    29    -0.137884
    30    -0.047494
    31    -0.056582
    32     0.016193
    33     0.002385
    34     0.027964
    35     0.011080
    36    -0.047394
    37     0.011185
    38     0.002924
    39    -0.025267
    40     0.015439
    41    -0.038947
    42     0.033034
    43     0.169864
    44     0.394943
    45    -0.646192
    46    -0.142491
    47     0.038430
    48     0.155830
    49    -0.465935
    50    -0.643809
Sym=    38a
Ene=   -0.734873E-03
Spin= Alpha
Occup= 0.000371
     1    -0.003311
     2    -0.046704
     3     0.089090
     4     0.028599
     5    -0.011611
     6    -0.013147
     7    -0.081091
     8     0.005899
     9     0.056591
    10     0.009382
    11    -0.024217
    12    -0.023098
    13     0.005240
    14    -0.010606
    15     0.000096
    16     0.006053
    17     0.168032
    18    -0.894554
    19    -0.029677
    20     0.274500
    21     0.002248
    22     0.200865
    23     0.105725
    24    -0.747920
    25     0.437459
    26    -0.581862
    27     0.068062
    28    -0.019825
    29     0.058259
    30     0.124513
    31     0.027143
    32    -0.041475
    33     0.002604
    34    -0.023953
    35     0.004355
    36     0.019384
    37     0.009971
    38     0.000197
    39     0.004792
    40    -0.002750
    41     0.604525
    42     0.102929
    43    -0.123099
    44    -0.407785
    45     0.530449
    46     1.019373
    47    -0.395115
    48     0.127144
    49     0.152705
    50    -0.545490
Sym=    39a
Ene=   -0.157240E-02
Spin= Alpha
Occup= 0.001005
     1    -0.022186
     2    -0.182050
     3     0.202450
     4    -0.053227
     5     0.232882
     6     0.101871
     7     0.015976
     8     0.027571
     9     0.198814
    10    -0.037073
    11    -0.337157
    12     0.255658
    13     0.013208
    14    -0.101476
    15    -0.104672
    16    -0.001195
    17    -0.008336
    18    -0.001046
    19    -0.010458
    20    -0.004125
    21     0.007410
    22     0.032316
    23    -0.006554
    24    -0.019555
    25     0.002202
    26     0.000385
    27    -0.001950
    28    -0.003705
    29    -0.001855
    30     0.002264
    31    -0.021444
    32     0.160395
    33     0.128480
    34    -0.512180
    35    -0.661486
    36     0.361923
    37    -0.483592
    38    -0.097224
    39     0.093656
    40     0.266492
    41    -0.003165
    42     0.008059
    43    -0.003797
    44    -0.003748
    45    -0.010049
    46    -0.008652
    47     0.039074
    48     0.000839
    49    -0.007767
    50    -0.003997
Sym=    40a
Ene=   -0.157275E-02
Spin= Alpha
Occup= 0.001005
     1     0.022247
     2     0.182302
     3    -0.201721
     4     0.053277
     5     0.230486
     6    -0.102745
     7    -0.013559
     8     0.031742
     9    -0.197948
    10     0.036237
    11     0.337521
    12    -0.255164
    13     0.015314
    14     0.102701
    15    -0.104022
    16     0.001145
    17     0.007979
    18     0.002135
    19     0.010807
    20    -0.006295
    21    -0.007729
    22    -0.032497
    23    -0.002296
    24     0.018946
    25    -0.001562
    26    -0.000733
    27     0.001850
    28    -0.009778
    29     0.002177
    30     0.001680
    31    -0.363762
    32     0.482440
    33     0.097419
    34     0.093002
    35    -0.266529
    36     0.021390
    37    -0.157893
    38    -0.135351
    39    -0.514200
    40     0.659176
    41     0.008515
    42    -0.042081
    43     0.005505
    44    -0.008679
    45     0.005366
    46     0.006680
    47    -0.009115
    48    -0.002457
    49    -0.003608
    50     0.010305
Sym=    41a
Ene=   -0.359860E-03
Spin= Alpha
Occup= 0.000175
     1    -0.001197
     2    -0.015146
     3     0.042251
     4     0.023359
     5     0.012930
     6    -0.012327
     7    -0.053134
     8     0.002267
     9    -0.000985
    10     0.019866
    11    -0.013890
    12    -0.000899
    13    -0.000342
    14    -0.015074
    15    -0.012445
    16    -0.003800
    17    -0.037979
    18     0.038085
    19    -0.017058
    20     0.052596
    21    -0.027891
    22    -0.255269
    23    -0.177109
    24    -0.062234
    25     0.049795
    26    -0.034039
    27    -0.052849
    28     0.578468
    29    -0.127981
    30     0.060320
    31    -0.032455
    32     0.046027
    33    -0.002433
    34     0.027035
    35    -0.012159
    36     0.009434
    37    -0.027093
    38    -0.005793
    39    -0.006283
    40     0.006248
    41     0.139175
    42    -0.044122
    43    -0.252019
    44    -0.001581
    45    -0.104642
    46    -0.081182
    47    -0.025267
    48     0.991941
    49     0.069629
    50     0.237163
Sym=    42a
Ene=   -0.719480E-03
Spin= Alpha
Occup= 0.000400
     1    -0.000398
     2    -0.006748
     3     0.017673
     4     0.000668
     5     0.083271
     6     0.002027
     7    -0.007119
     8     0.211957
     9    -0.006002
    10    -0.006271
    11     0.003286
    12    -0.002181
    13     0.913815
    14     0.009674
    15    -0.384820
    16     0.000046
    17     0.001057
    18    -0.004537
    19     0.003759
    20    -0.005522
    21    -0.000496
    22    -0.007248
    23    -0.041601
    24    -0.003784
    25     0.001042
    26    -0.000143
    27    -0.000814
    28    -0.011718
    29     0.000136
    30    -0.012881
    31    -0.517587
    32     0.455856
    33    -0.406411
    34     0.186898
    35    -0.122404
    36     0.509483
    37    -0.461642
    38     0.421775
    39     0.191603
    40     0.123857
    41     0.033388
    42    -0.037602
    43     0.004974
    44    -0.014822
    45    -0.013266
    46    -0.025693
    47     0.034004
    48     0.001285
    49    -0.010410
    50     0.015507
Sym=    43a
Ene=   -0.865418E-03
Spin= Alpha
Occup= 0.000403
     1     0.000168
     2     0.002356
     3    -0.005817
     4    -0.003610
     5    -0.021869
     6     0.000580
     7     0.008234
     8    -0.015641
     9     0.002497
    10     0.001435
    11    -0.000529
    12    -0.000241
    13     0.013046
    14    -0.001096
    15     0.009169
    16    -0.001547
    17     0.008532
    18    -0.084137
    19    -0.016868
    20     0.015100
    21    -0.006289
    22     0.060187
    23     1.016974
    24    -0.021141
    25     0.022469
    26    -0.072867
    27     0.067212
    28    -0.141165
    29     0.038384
    30     1.108131
    31     0.039485
    32    -0.094169
    33     0.000512
    34    -0.019188
    35     0.018289
    36    -0.032197
    37     0.089339
    38    -0.004274
    39    -0.017593
    40    -0.018167
    41    -0.995328
    42     0.363308
    43    -0.136878
    44     0.375359
    45     0.092188
    46     1.102487
    47    -0.368401
    48     0.066581
    49     0.378860
    50    -0.170357
Sym=    44a
Ene=   -0.700594E-03
Spin= Alpha
Occup= 0.000349
     1    -0.022996
     2     0.163752
     3    -0.641111
     4     0.063069
     5    -0.001455
     6    -0.260332
     7    -0.284411
     8     0.003120
     9     0.067902
    10    -0.097816
    11    -0.413233
    12     1.022066
    13    -0.000478
    14     0.189120
    15    -0.000562
    16     0.000620
    17     0.002750
    18     0.015054
    19     0.070243
    20    -0.000914
    21    -0.005090
    22    -0.106090
    23     0.001437
    24     0.001844
    25    -0.012086
    26     0.001803
    27     0.005174
    28    -0.006923
    29     0.026421
    30    -0.001370
    31     0.043232
    32     0.207692
    33     0.273262
    34     0.412446
    35     0.246161
    36     0.046105
    37     0.208012
    38     0.272397
    39    -0.414335
    40     0.246086
    41     0.030455
    42    -0.063247
    43    -0.010446
    44    -0.011560
    45     0.002475
    46     0.032313
    47    -0.062780
    48    -0.006838
    49     0.013955
    50     0.006440
Sym=    45a
Ene=   -0.610243E-04
Spin= Alpha
Occup= 0.000003
     1     0.001031
     2    -0.008275
     3     0.032075
     4     0.008116
     5    -0.001970
     6     0.001987
     7    -0.031284
     8    -0.049436
     9    -0.001594
    10    -0.007574
    11    -0.004726
    12    -0.011368
    13    -0.001752
    14     0.009689
    15     0.026688
    16     0.002504
    17     0.001683
    18    -0.077233
    19     0.015726
    20    -0.736303
    21    -0.038693
    22    -0.044826
    23     0.739386
    24    -0.055169
    25     0.032887
    26    -0.044311
    27    -0.048369
    28     0.102148
    29    -0.023283
    30    -0.239597
    31     0.047791
    32    -0.048568
    33     0.015468
    34    -0.012156
    35     0.021778
    36    -0.053627
    37     0.046633
    38     0.014678
    39     0.001790
    40    -0.018046
    41    -0.043548
    42    -0.105617
    43     0.068649
    44    -0.852720
    45    -0.204918
    46     0.179229
    47     0.093319
    48     0.061724
    49    -0.718779
    50     0.172068
Sym=    46a
Ene=   -0.401606E-04
Spin= Alpha
Occup= 0.000002
     1     0.055639
     2    -0.231824
     3     0.347422
     4    -0.147900
     5     0.000579
     6     0.538125
     7     0.147572
     8     0.000243
     9    -0.369809
    10    -0.149793
    11    -0.970712
    12    -0.127558
    13    -0.000071
    14    -0.063308
    15    -0.000572
    16    -0.000966
    17     0.000972
    18    -0.023138
    19     0.008988
    20     0.000375
    21    -0.013002
    22    -0.009048
    23    -0.003948
    24     0.023831
    25    -0.003583
    26     0.012960
    27     0.005669
    28     0.012199
    29     0.010691
    30     0.000277
    31     0.133507
    32    -0.009539
    33    -0.247312
    34    -0.414515
    35     0.815747
    36     0.134298
    37    -0.009801
    38    -0.247928
    39     0.415402
    40     0.816820
    41    -0.009631
    42     0.013653
    43    -0.016970
    44    -0.009748
    45    -0.003205
    46    -0.015839
    47     0.013621
    48     0.000456
    49     0.006834
    50     0.000761
Sym=    47a
Ene=    0.000000E+00
Spin= Alpha
Occup= 0.000000
     1     0.003098
     2    -0.001835
     3    -0.102383
     4     0.020700
     5     0.003183
     6     0.005441
     7    -0.105106
     8     0.042702
     9     0.147950
    10    -0.003690
    11    -0.025606
    12    -0.048939
    13     0.006524
    14     0.004912
    15    -0.014607
    16     0.022187
    17    -0.467737
    18     3.170575
    19    -0.028767
    20    -0.012572
    21     0.022658
    22    -0.283493
    23    -0.409443
    24     1.142823
    25    -0.454770
    26     0.062165
    27    -0.069320
    28     0.022696
    29    -0.141163
    30    -0.103771
    31     0.050176
    32     0.031122
    33    -0.019398
    34    -0.062529
    35    -0.000417
    36     0.057443
    37     0.177949
    38    -0.031816
    39     0.093928
    40     0.034585
    41    -0.436500
    42    -0.761181
    43     0.007421
    44     0.406629
    45     0.138197
    46    -0.600590
    47    -1.601851
    48    -0.105383
    49    -0.648109
    50     0.392268
Sym=    48a
Ene=    0.000000E+00
Spin= Alpha
Occup= 0.000000
     1     0.002379
     2    -0.076005
     3     0.503248
     4     0.002732
     5    -0.036855
     6    -0.010126
     7     0.051114
     8    -1.046789
     9    -0.193888
    10    -0.076141
    11     0.010117
    12     0.011888
    13    -0.113476
    14    -0.036545
    15     0.340259
    16     0.005010
    17    -0.108750
    18     0.724115
    19    -0.011155
    20     0.029679
    21     0.003320
    22    -0.046454
    23     1.336127
    24     0.261337
    25    -0.101271
    26     0.010421
    27    -0.014441
    28    -0.080342
    29    -0.033847
    30     0.355445
    31     0.201941
    32     0.765860
    33    -0.090493
    34    -0.189540
    35     0.327664
    36    -0.422495
    37    -1.072542
    38     0.067530
    39    -0.405240
    40    -0.395089
    41    -0.404845
    42    -1.608257
    43    -0.126185
    44     0.495396
    45     0.487518
    46     0.166860
    47     1.089019
    48     0.098736
    49     0.250554
    50    -0.379087
Sym=    49a
Ene=    0.000000E+00
Spin= Alpha
Occup= 0.000000
     1     0.002015
     2    -0.066261
     3     0.443755
     4     0.001726
     5     0.037925
     6    -0.008069
     7     0.046028
     8     1.659598
     9    -0.177767
    10    -0.066704
    11     0.010493
    12     0.011005
    13     0.163846
    14    -0.028364
    15    -0.524017
    16     0.002570
    17    -0.055597
    18     0.366169
    19    -0.005030
    20     0.011803
    21     0.001193
    22    -0.025680
    23     0.935403
    24     0.128431
    25    -0.049386
    26     0.005358
    27    -0.010454
    28    -0.048946
    29    -0.021141
    30     0.231664
    31    -0.647732
    32    -1.342921
    33     0.096361
    34     0.536194
    35    -0.574570
    36     0.450572
    37     1.063108
    38    -0.102974
    39     0.344467
    40     0.514679
    41    -0.263944
    42    -0.994157
    43    -0.069775
    44     0.311283
    45     0.316537
    46     0.145490
    47     0.736722
    48     0.068233
    49     0.190484
    50    -0.259286
Sym=    50a
Ene=    0.000000E+00
Spin= Alpha
Occup= 0.000000
     1     0.010574
     2    -0.462895
     3     3.219051
     4    -0.012059
     5    -0.000291
     6    -0.066597
     7     0.447240
     8    -0.059963
     9    -1.392448
    10    -0.464629
    11     0.101710
    12     0.134876
    13    -0.004593
    14    -0.219760
    15     0.018417
    16     0.001425
    17    -0.010180
    18    -0.023175
    19    -0.021230
    20    -0.008078
    21    -0.003831
    22     0.074576
    23    -0.345239
    24    -0.058076
    25    -0.000989
    26    -0.012504
    27    -0.025944
    28     0.010069
    29    -0.013508
    30    -0.090970
    31    -0.724891
    32    -1.064280
    33    -0.021042
    34     0.747219
    35    -0.212266
    36    -0.778274
    37    -1.095244
    38    -0.019358
    39    -0.774718
    40    -0.246981
    41     0.066498
    42     0.438452
    43     0.067542
    44    -0.125537
    45    -0.117789
    46    -0.077235
    47    -0.249464
    48    -0.008583
    49    -0.068996
    50     0.099595
