[Molden Format]
p30-5 set                                                                       
[Atoms] AU
 S        1    16        0.0000        0.0000        0.0000
 O        2     8        0.0000        2.6887        0.0000
 O        3     8        2.3285       -1.3443        0.0000
 O        4     8       -2.3285       -1.3443        0.0000
[GTO]
    1 0
s    5 1.00
    9184.930301000000 -0.547294661347E-02
    1381.510550300000 -0.409544021551E-01
     313.871475800000 -0.184758289562E+00
      88.053870623000 -0.475672806440E+00
      27.039914905000 -0.434951535842E+00
s    3 1.00
      45.648731303000 -0.919040458089E-01
       4.966452232600  0.556987772145E+00
       2.011624204700  0.511154682985E+00
s    1 1.00
       0.356610770130  0.100000000000E+01
s    1 1.00
       0.135072214770  0.100000000000E+01
p    5 1.00
     261.982334390000 -0.918305465927E-02
      61.306894736000 -0.659022265260E-01
      19.103729887000 -0.245877845187E+00
       6.656772037800 -0.482314710760E+00
       2.395963516100 -0.389563143514E+00
p    1 1.00
       0.617761616790  0.100000000000E+01
p    1 1.00
       0.169933768710  0.100000000000E+01
d    1 1.00
       0.550000000000  0.100000000000E+01

    2 0
s    5 1.00
    2266.176778500000 -0.538935039217E-02
     340.870101910000 -0.402347213890E-01
      77.363135167000 -0.180081842055E+00
      21.479644940000 -0.468288576577E+00
       6.658943312400 -0.446926171602E+00
s    1 1.00
       0.809759756680  0.100000000000E+01
s    1 1.00
       0.255307722340  0.100000000000E+01
p    3 1.00
      17.721504317000  0.626302487632E-01
       3.863550544000  0.333311384824E+00
       1.048092088300  0.741486383081E+00
p    1 1.00
       0.276415444110  0.100000000000E+01
d    1 1.00
       1.200000000000  0.100000000000E+01

    3 0
s    5 1.00
    2266.176778500000 -0.538935039217E-02
     340.870101910000 -0.402347213890E-01
      77.363135167000 -0.180081842055E+00
      21.479644940000 -0.468288576577E+00
       6.658943312400 -0.446926171602E+00
s    1 1.00
       0.809759756680  0.100000000000E+01
s    1 1.00
       0.255307722340  0.100000000000E+01
p    3 1.00
      17.721504317000  0.626302487632E-01
       3.863550544000  0.333311384824E+00
       1.048092088300  0.741486383081E+00
p    1 1.00
       0.276415444110  0.100000000000E+01
d    1 1.00
       1.200000000000  0.100000000000E+01

    4 0
s    5 1.00
    2266.176778500000 -0.538935039217E-02
     340.870101910000 -0.402347213890E-01
      77.363135167000 -0.180081842055E+00
      21.479644940000 -0.468288576577E+00
       6.658943312400 -0.446926171602E+00
s    1 1.00
       0.809759756680  0.100000000000E+01
s    1 1.00
       0.255307722340  0.100000000000E+01
p    3 1.00
      17.721504317000  0.626302487632E-01
       3.863550544000  0.333311384824E+00
       1.048092088300  0.741486383081E+00
p    1 1.00
       0.276415444110  0.100000000000E+01
d    1 1.00
       1.200000000000  0.100000000000E+01

[MO]
Sym=     1a
Ene=   -0.922671E+02
Spin= Alpha
Occup= 2.000000
     1     0.994546
     2    -0.025784
     3     0.026416
     4     0.000059
     5    -0.000445
     6    -0.000301
     7     0.000646
     8     0.000018
     9     0.000012
    10    -0.000025
    11    -0.000002
    12    -0.000001
    13     0.000006
    14    -0.010135
    15    -0.010134
    16    -0.009460
    17    -0.000001
    18     0.000002
    19     0.000000
    20     0.000003
    21     0.000043
    22     0.000533
    23    -0.000000
    24    -0.000168
    25     0.000002
    26     0.000000
    27    -0.000573
    28     0.000001
    29    -0.000042
    30     0.000119
    31    -0.000059
    32     0.000000
    33     0.000000
    34    -0.000000
    35     0.000003
    36     0.000042
    37     0.000533
    38    -0.000145
    39     0.000084
    40     0.000006
    41    -0.000497
    42     0.000287
    43     0.000004
    44     0.000079
    45    -0.000002
    46    -0.000059
    47    -0.000080
    48    -0.000001
    49     0.000000
    50     0.000003
    51     0.000043
    52     0.000534
    53     0.000146
    54     0.000084
    55    -0.000004
    56     0.000499
    57     0.000288
    58    -0.000004
    59     0.000079
    60    -0.000002
    61    -0.000059
    62     0.000080
    63    -0.000000
    64    -0.000000
Sym=     2a
Ene=   -0.746727E+01
Spin= Alpha
Occup= 1.999935
     1    -0.142928
     2    -0.485251
     3    -0.010180
     4     0.002940
     5     0.708671
     6     0.413871
     7    -0.289586
     8    -0.029311
     9    -0.017144
    10     0.011073
    11     0.003204
    12     0.001860
    13    -0.002672
    14    -0.000605
    15    -0.001891
    16    -0.000583
    17     0.001264
    18    -0.000007
    19    -0.000020
    20     0.000044
    21     0.000171
    22     0.001215
    23     0.000032
    24    -0.000721
    25    -0.000652
    26    -0.000267
    27    -0.002421
    28    -0.000206
    29    -0.000033
    30     0.000173
    31    -0.000069
    32    -0.000076
    33     0.000000
    34     0.000129
    35     0.000048
    36     0.000206
    37     0.001219
    38    -0.000636
    39     0.000392
    40    -0.000591
    41    -0.002229
    42     0.000969
    43    -0.000159
    44     0.000066
    45     0.000075
    46    -0.000068
    47    -0.000141
    48     0.000108
    49    -0.000063
    50     0.000232
    51     0.000121
    52    -0.000608
    53    -0.000241
    54    -0.000146
    55    -0.000548
    56    -0.001380
    57    -0.000802
    58    -0.000128
    59    -0.000286
    60    -0.000057
    61     0.000036
    62    -0.000230
    63    -0.000108
    64    -0.000062
Sym=     3a
Ene=   -0.753769E+01
Spin= Alpha
Occup= 1.999932
     1    -0.153213
     2    -0.517722
     3    -0.010901
     4     0.003144
     5     0.010182
     6    -0.791720
     7    -0.317427
     8    -0.000349
     9     0.032816
    10     0.012106
    11     0.000079
    12    -0.003566
    13    -0.002957
    14    -0.002546
    15    -0.000081
    16    -0.000607
    17     0.000009
    18     0.000027
    19    -0.000012
    20     0.000180
    21     0.000174
    22    -0.000514
    23     0.000023
    24     0.000183
    25    -0.000695
    26     0.000006
    27     0.001408
    28    -0.000202
    29     0.000055
    30    -0.000386
    31     0.000032
    32    -0.000003
    33     0.000000
    34     0.000139
    35    -0.000033
    36     0.000216
    37     0.001241
    38    -0.000684
    39     0.000385
    40    -0.000608
    41    -0.002022
    42     0.001475
    43    -0.000140
    44     0.000176
    45    -0.000037
    46    -0.000073
    47    -0.000068
    48     0.000121
    49    -0.000068
    50    -0.000025
    51     0.000126
    52     0.001189
    53     0.000601
    54     0.000296
    55    -0.000717
    56     0.001930
    57     0.001404
    58    -0.000220
    59     0.000162
    60    -0.000042
    61    -0.000069
    62     0.000053
    63    -0.000123
    64    -0.000072
Sym=     4a
Ene=   -0.753255E+01
Spin= Alpha
Occup= 1.999931
     1     0.152497
     2     0.515449
     3     0.010828
     4    -0.003130
     5     0.684952
     6    -0.416334
     7     0.295409
     8    -0.028461
     9     0.017244
    10    -0.011244
    11     0.003054
    12    -0.001882
    13     0.002764
    14     0.000657
    15     0.001957
    16     0.000606
    17     0.001242
    18     0.000017
    19    -0.000026
    20     0.000046
    21    -0.000180
    22    -0.001243
    23    -0.000003
    24     0.000758
    25     0.000576
    26    -0.000275
    27     0.002502
    28     0.000134
    29     0.000035
    30    -0.000176
    31     0.000074
    32    -0.000071
    33    -0.000002
    34    -0.000129
    35    -0.000195
    36    -0.000218
    37     0.000517
    38    -0.000133
    39     0.000059
    40     0.000708
    41    -0.001228
    42     0.000711
    43     0.000232
    44     0.000276
    45     0.000054
    46    -0.000032
    47    -0.000218
    48    -0.000117
    49     0.000067
    50     0.000037
    51    -0.000133
    52    -0.001187
    53    -0.000568
    54    -0.000354
    55     0.000630
    56    -0.002180
    57    -0.000950
    58     0.000171
    59    -0.000049
    60    -0.000071
    61     0.000069
    62    -0.000128
    63     0.000112
    64     0.000065
Sym=     5a
Ene=   -0.206485E+02
Spin= Alpha
Occup= 1.999931
     1    -0.000051
     2    -0.000254
     3    -0.000340
     4    -0.005017
     5    -0.000568
     6    -0.000317
     7     0.000107
     8    -0.000857
     9    -0.000494
    10     0.000038
    11     0.004609
    12     0.002663
    13     0.000036
    14     0.000872
    15     0.000046
    16     0.000091
    17     0.000824
    18    -0.000018
    19    -0.000012
    20    -0.000017
    21     0.000040
    22    -0.000421
    23     0.000283
    24    -0.000047
    25    -0.000007
    26    -0.000895
    27     0.000288
    28    -0.000012
    29     0.000048
    30     0.000128
    31     0.000122
    32     0.000224
    33    -0.000000
    34    -0.000000
    35    -0.000017
    36     0.000040
    37    -0.000420
    38     0.000099
    39     0.000268
    40     0.000000
    41    -0.000199
    42    -0.000920
    43    -0.000005
    44     0.000276
    45    -0.000100
    46     0.000122
    47     0.000072
    48    -0.000001
    49     0.000000
    50     0.993062
    51    -0.029656
    52     0.020282
    53    -0.003222
    54    -0.001855
    55     0.000077
    56     0.002317
    57     0.001342
    58     0.000052
    59     0.003916
    60     0.003849
    61     0.003939
    62     0.000068
    63     0.000004
    64     0.000003
Sym=     6a
Ene=   -0.206483E+02
Spin= Alpha
Occup= 1.999930
     1    -0.000057
     2    -0.000277
     3    -0.000331
     4    -0.005013
     5    -0.000063
     6     0.000587
     7     0.000060
     8     0.000004
     9     0.001000
    10    -0.000004
    11     0.000002
    12    -0.005320
    13    -0.000002
    14    -0.000366
    15     0.001285
    16     0.000093
    17     0.000002
    18     0.000003
    19    -0.000001
    20     0.993046
    21    -0.029691
    22     0.020253
    23     0.000009
    24     0.003698
    25    -0.000004
    26     0.000006
    27    -0.002689
    28    -0.000002
    29     0.003813
    30     0.003950
    31     0.003937
    32    -0.000000
    33    -0.000001
    34     0.000000
    35    -0.000016
    36     0.000039
    37    -0.000423
    38    -0.000180
    39    -0.000224
    40     0.000008
    41     0.000699
    42     0.000629
    43     0.000007
    44    -0.000060
    45     0.000236
    46     0.000122
    47    -0.000152
    48    -0.000000
    49     0.000000
    50    -0.000015
    51     0.000039
    52    -0.000421
    53     0.000181
    54    -0.000222
    55    -0.000007
    56    -0.000698
    57     0.000631
    58    -0.000006
    59    -0.000060
    60     0.000236
    61     0.000122
    62     0.000152
    63    -0.000001
    64    -0.000000
Sym=     7a
Ene=   -0.206485E+02
Spin= Alpha
Occup= 1.999930
     1     0.000054
     2     0.000268
     3     0.000329
     4     0.005015
     5    -0.000483
     6     0.000345
     7     0.000008
     8    -0.000869
     9     0.000497
    10     0.000042
    11     0.004606
    12    -0.002663
    13     0.000037
    14    -0.000875
    15    -0.000044
    16    -0.000092
    17     0.000825
    18     0.000019
    19    -0.000013
    20     0.000016
    21    -0.000040
    22     0.000423
    23     0.000285
    24     0.000044
    25    -0.000008
    26    -0.000893
    27    -0.000291
    28    -0.000012
    29    -0.000048
    30    -0.000128
    31    -0.000122
    32     0.000224
    33     0.000000
    34    -0.000000
    35    -0.993055
    36     0.029671
    37    -0.020266
    38    -0.003210
    39     0.001837
    40     0.000080
    41     0.002323
    42    -0.001352
    43     0.000054
    44    -0.003916
    45    -0.003849
    46    -0.003938
    47     0.000069
    48    -0.000004
    49     0.000003
    50     0.000015
    51    -0.000040
    52     0.000419
    53     0.000101
    54    -0.000268
    55     0.000000
    56    -0.000198
    57     0.000920
    58    -0.000005
    59    -0.000276
    60     0.000100
    61    -0.000122
    62     0.000072
    63     0.000001
    64     0.000000
Sym=     8a
Ene=   -0.760203E+01
Spin= Alpha
Occup= 1.999916
     1     0.161947
     2     0.545451
     3     0.011543
     4    -0.003352
     5    -0.007179
     6     0.010113
     7    -0.837975
     8     0.000467
     9    -0.000420
    10     0.032053
    11     0.000036
    12     0.000044
    13    -0.007763
    14     0.001358
    15     0.001329
    16     0.000633
    17    -0.000049
    18    -0.000001
    19    -0.000007
    20     0.000003
    21    -0.000198
    22    -0.000641
    23     0.000051
    24     0.000436
    25    -0.001744
    26     0.000031
    27     0.001169
    28    -0.000477
    29     0.000002
    30     0.000026
    31     0.000037
    32    -0.000007
    33     0.000001
    34     0.000370
    35     0.000016
    36    -0.000085
    37    -0.000635
    38     0.000305
    39    -0.000148
    40    -0.001716
    41     0.001024
    42    -0.000577
    43    -0.000455
    44     0.000019
    45     0.000012
    46     0.000038
    47    -0.000017
    48     0.000320
    49    -0.000183
    50    -0.000040
    51    -0.000316
    52    -0.000699
    53    -0.000468
    54    -0.000300
    55    -0.001721
    56    -0.001081
    57    -0.000646
    58    -0.000458
    59     0.000010
    60     0.000004
    61     0.000038
    62     0.000002
    63    -0.000319
    64    -0.000184
Sym=     9a
Ene=   -0.878506E+00
Spin= Alpha
Occup= 1.988404
     1     0.003270
     2     0.024888
     3    -0.063099
     4    -0.012263
     5    -0.038800
     6    -0.006049
     7    -0.002546
     8    -0.063608
     9    -0.031786
    10    -0.004653
    11    -0.105844
    12    -0.008770
    13    -0.003808
    14    -0.002682
    15     0.003407
    16    -0.013125
    17    -0.089422
    18     0.000164
    19    -0.002982
    20     0.190789
    21     0.402873
    22     0.326727
    23    -0.432419
    24     0.170194
    25    -0.013715
    26    -0.306619
    27     0.110191
    28    -0.010177
    29     0.009226
    30     0.002361
    31     0.008980
    32     0.023916
    33     0.000002
    34     0.000895
    35     0.007922
    36     0.013441
    37     0.058684
    38    -0.012205
    39     0.031892
    40     0.000870
    41    -0.015818
    42     0.045780
    43     0.001352
    44    -0.003449
    45    -0.001189
    46    -0.000410
    47     0.000393
    48     0.000033
    49    -0.000047
    50    -0.003766
    51    -0.002877
    52    -0.045260
    53     0.005062
    54    -0.020046
    55     0.000174
    56     0.002593
    57    -0.032342
    58     0.000762
    59     0.006109
    60     0.000880
    61     0.000640
    62     0.000454
    63    -0.000072
    64    -0.000075
Sym=    10a
Ene=   -0.878285E+00
Spin= Alpha
Occup= 1.988401
     1     0.003313
     2     0.025153
     3    -0.063512
     4    -0.012295
     5     0.038771
     6    -0.006174
     7     0.002690
     8     0.063577
     9    -0.032039
    10     0.004952
    11     0.105797
    12    -0.008848
    13     0.004044
    14    -0.002650
    15     0.003318
    16    -0.013107
    17     0.089376
    18     0.000165
    19     0.003222
    20     0.190778
    21     0.402898
    22     0.326883
    23     0.432208
    24     0.170636
    25     0.014761
    26     0.306469
    27     0.110427
    28     0.010960
    29     0.009236
    30     0.002328
    31     0.008989
    32    -0.023904
    33     0.000003
    34    -0.000964
    35    -0.003758
    36    -0.002861
    37    -0.045217
    38    -0.005065
    39    -0.020024
    40    -0.000324
    41    -0.002610
    42    -0.032300
    43    -0.000916
    44     0.006109
    45     0.000876
    46     0.000640
    47    -0.000450
    48    -0.000069
    49     0.000076
    50     0.007920
    51     0.013440
    52     0.058671
    53     0.012207
    54     0.031888
    55    -0.000973
    56     0.015829
    57     0.045784
    58    -0.001475
    59    -0.003445
    60    -0.001193
    61    -0.000409
    62    -0.000397
    63     0.000033
    64     0.000049
Sym=    11a
Ene=   -0.879061E+00
Spin= Alpha
Occup= 1.988391
     1    -0.003207
     2    -0.024485
     3     0.062455
     4     0.012176
     5     0.024461
     6     0.030694
     7    -0.001019
     8     0.058975
     9     0.039421
    10    -0.001852
    11     0.060356
    12     0.087307
    13    -0.001648
    14     0.065148
    15    -0.065943
    16     0.013137
    17     0.047877
    18    -0.001529
    19     0.000892
    20    -0.007917
    21    -0.013417
    22    -0.058634
    23    -0.021536
    24     0.026483
    25     0.001045
    26    -0.031747
    27     0.036531
    28     0.001101
    29     0.001462
    30     0.003180
    31     0.000411
    32     0.000946
    33    -0.000015
    34    -0.000015
    35    -0.190745
    36    -0.402817
    37    -0.326375
    38     0.069699
    39     0.459725
    40    -0.007498
    41     0.058387
    42     0.320776
    43    -0.005661
    44    -0.022065
    45     0.010440
    46    -0.008966
    47    -0.015370
    48     0.000424
    49    -0.000231
    50     0.003785
    51     0.002925
    52     0.045268
    53     0.014894
    54    -0.014417
    55     0.001643
    56     0.026779
    57    -0.018436
    58     0.001500
    59    -0.002533
    60    -0.004458
    61    -0.000639
    62    -0.002841
    63     0.000032
    64     0.000029
Sym=    12a
Ene=   -0.878330E+00
Spin= Alpha
Occup= 1.988379
     1    -0.003311
     2    -0.025143
     3     0.063476
     4     0.012231
     5    -0.014071
     6    -0.036605
     7    -0.003786
     8    -0.004120
     9    -0.070975
    10    -0.006941
    11    -0.045165
    12    -0.095865
    13    -0.005806
    14    -0.068809
    15     0.068161
    16     0.013077
    17    -0.041643
    18    -0.004468
    19     0.002375
    20     0.003754
    21     0.002852
    22     0.045129
    23     0.019889
    24    -0.005686
    25     0.001912
    26     0.029281
    27    -0.013907
    28     0.002394
    29    -0.001846
    30    -0.005131
    31    -0.000642
    32    -0.002392
    33    -0.000041
    34     0.000062
    35    -0.190652
    36    -0.402703
    37    -0.326602
    38    -0.363705
    39    -0.289042
    40    -0.022595
    41    -0.248751
    42    -0.210199
    43    -0.016866
    44     0.013863
    45    -0.025425
    46    -0.008984
    47     0.008498
    48     0.001263
    49    -0.000747
    50    -0.007891
    51    -0.013389
    52    -0.058534
    53    -0.033634
    54     0.005413
    55     0.002008
    56    -0.047468
    57     0.009215
    58     0.002588
    59     0.002053
    60     0.002585
    61     0.000407
    62     0.001329
    63    -0.000057
    64     0.000015
Sym=    13a
Ene=   -0.879333E+00
Spin= Alpha
Occup= 1.988375
     1    -0.003200
     2    -0.024438
     3     0.062376
     4     0.012166
     5    -0.024385
     6     0.030677
     7     0.001279
     8    -0.058882
     9     0.039437
    10     0.002305
    11    -0.060320
    12     0.087282
    13     0.002039
    14     0.065109
    15    -0.065911
    16     0.013143
    17    -0.047899
    18    -0.001787
    19    -0.001061
    20    -0.007912
    21    -0.013408
    22    -0.058610
    23     0.021532
    24     0.026463
    25    -0.001162
    26     0.031740
    27     0.036508
    28    -0.001261
    29     0.001461
    30     0.003179
    31     0.000410
    32    -0.000948
    33    -0.000017
    34     0.000011
    35     0.003789
    36     0.002934
    37     0.045255
    38    -0.014941
    39    -0.014430
    40    -0.001703
    41    -0.026806
    42    -0.018448
    43    -0.001607
    44    -0.002531
    45    -0.004458
    46    -0.000639
    47     0.002840
    48     0.000023
    49    -0.000027
    50    -0.190763
    51    -0.402929
    52    -0.326411
    53    -0.069753
    54     0.459600
    55     0.008897
    56    -0.058408
    57     0.320694
    58     0.006702
    59    -0.022069
    60     0.010435
    61    -0.008966
    62     0.015362
    63     0.000501
    64     0.000275
Sym=    14a
Ene=   -0.878818E+00
Spin= Alpha
Occup= 1.988365
     1     0.003264
     2     0.024836
     3    -0.062987
     4    -0.012187
     5    -0.014214
     6     0.036496
     7    -0.003764
     8    -0.004413
     9     0.070804
    10    -0.006851
    11    -0.045252
    12     0.095824
    13    -0.005752
    14     0.068905
    15    -0.068194
    16    -0.013101
    17    -0.041559
    18     0.004436
    19     0.002354
    20    -0.003765
    21    -0.002879
    22    -0.045159
    23     0.019942
    24     0.005735
    25     0.001939
    26     0.029332
    27     0.013960
    28     0.002401
    29     0.001846
    30     0.005132
    31     0.000642
    32    -0.002389
    33     0.000040
    34     0.000060
    35     0.007888
    36     0.013381
    37     0.058522
    38    -0.033618
    39    -0.005424
    40     0.002030
    41    -0.047438
    42    -0.009228
    43     0.002594
    44    -0.002046
    45    -0.002591
    46    -0.000407
    47     0.001332
    48     0.000054
    49     0.000016
    50     0.190682
    51     0.402790
    52     0.326482
    53    -0.363297
    54     0.289430
    55    -0.022402
    56    -0.248542
    57     0.210424
    58    -0.016725
    59    -0.013838
    60     0.025433
    61     0.008975
    62     0.008528
    63    -0.001250
    64    -0.000739
Sym=    15a
Ene=   -0.929370E+00
Spin= Alpha
Occup= 1.977431
     1     0.029853
     2     0.189275
     3    -0.295400
     4    -0.031251
     5    -0.107736
     6     0.061300
     7     0.071551
     8    -0.203056
     9     0.115615
    10     0.139256
    11    -0.057849
    12     0.030521
    13     0.117321
    14    -0.052300
    15     0.018908
    16     0.010475
    17     0.067100
    18     0.082511
    19    -0.047678
    20     0.007979
    21     0.017288
    22     0.018166
    23     0.019798
    24    -0.032337
    25    -0.034727
    26     0.021626
    27    -0.034024
    28    -0.046859
    29    -0.000269
    30    -0.000524
    31    -0.000618
    32     0.003326
    33     0.000766
    34    -0.001323
    35    -0.066468
    36    -0.135505
    37     0.015682
    38     0.275716
    39    -0.168802
    40     0.374981
    41     0.138346
    42    -0.086539
    43     0.274543
    44    -0.018967
    45    -0.002915
    46     0.003823
    47     0.017009
    48    -0.022206
    49     0.012839
    50     0.007471
    51     0.016448
    52     0.015318
    53     0.036781
    54    -0.000877
    55    -0.033818
    56     0.038594
    57    -0.001327
    58    -0.046170
    59    -0.002858
    60     0.002293
    61    -0.000601
    62     0.001607
    63     0.001581
    64     0.000026
Sym=    16a
Ene=   -0.930639E+00
Spin= Alpha
Occup= 1.977431
     1    -0.029934
     2    -0.189689
     3     0.295857
     4     0.031221
     5    -0.107872
     6    -0.061507
     7     0.071356
     8    -0.203403
     9    -0.116006
    10     0.138914
    11    -0.057764
    12    -0.030825
    13     0.117037
    14     0.052231
    15    -0.018723
    16    -0.010535
    17     0.067388
    18    -0.082320
    19    -0.047559
    20    -0.007947
    21    -0.017240
    22    -0.017983
    23     0.019812
    24     0.032354
    25    -0.034581
    26     0.021598
    27     0.034006
    28    -0.046699
    29     0.000266
    30     0.000514
    31     0.000617
    32     0.003336
    33    -0.000765
    34    -0.001325
    35    -0.007504
    36    -0.016506
    37    -0.015482
    38     0.036969
    39     0.000876
    40    -0.033787
    41     0.038791
    42     0.001348
    43    -0.046094
    44     0.002867
    45    -0.002288
    46     0.000604
    47     0.001608
    48    -0.001576
    49     0.000027
    50     0.066680
    51     0.135896
    52    -0.015574
    53     0.276844
    54     0.168190
    55     0.374088
    56     0.139032
    57     0.086056
    58     0.273878
    59     0.019057
    60     0.002876
    61    -0.003829
    62     0.017014
    63     0.022157
    64     0.012808
Sym=    17a
Ene=   -0.896083E+00
Spin= Alpha
Occup= 1.975467
     1     0.028850
     2     0.183072
     3    -0.286570
     4    -0.033521
     5    -0.001420
     6    -0.119764
     7     0.074979
     8    -0.002598
     9    -0.226794
    10     0.145574
    11    -0.004716
    12    -0.064446
    13     0.122733
    14     0.049953
    15    -0.081098
    16     0.008525
    17    -0.003836
    18     0.000002
    19     0.099764
    20    -0.057753
    21    -0.117117
    22     0.027198
    23    -0.015411
    24     0.315584
    25     0.390951
    26    -0.010656
    27     0.159154
    28     0.286016
    29     0.005888
    30    -0.026420
    31     0.003967
    32     0.000886
    33     0.000026
    34    -0.026672
    35     0.008438
    36     0.018051
    37     0.020106
    38    -0.018459
    39     0.033645
    40    -0.037230
    41    -0.018873
    42     0.036269
    43    -0.049709
    44     0.001958
    45    -0.002732
    46    -0.000623
    47     0.001683
    48    -0.000740
    49     0.001351
    50     0.007433
    51     0.016364
    52     0.014663
    53     0.017544
    54     0.031618
    55    -0.035818
    56     0.017915
    57     0.033089
    58    -0.048656
    59     0.002284
    60    -0.002641
    61    -0.000594
    62    -0.001653
    63     0.000819
    64     0.001399
Sym=    18a
Ene=   -0.893843E+00
Spin= Alpha
Occup= 1.975295
     1    -0.028804
     2    -0.182727
     3     0.285968
     4     0.033747
     5    -0.001366
     6     0.119462
     7     0.075202
     8    -0.002550
     9     0.226401
    10     0.145987
    11    -0.004620
    12     0.064406
    13     0.123120
    14    -0.049846
    15     0.080860
    16    -0.008382
    17    -0.003722
    18    -0.000019
    19     0.100057
    20     0.057106
    21     0.115744
    22    -0.028117
    23    -0.014930
    24    -0.315153
    25     0.391944
    26    -0.010316
    27    -0.158922
    28     0.286712
    29    -0.005896
    30     0.026335
    31    -0.003979
    32     0.000860
    33    -0.000024
    34    -0.026738
    35    -0.007455
    36    -0.016398
    37    -0.014769
    38     0.017614
    39    -0.031658
    40    -0.036008
    41     0.017964
    42    -0.033134
    43    -0.048863
    44    -0.002283
    45     0.002636
    46     0.000596
    47    -0.001643
    48    -0.000820
    49     0.001401
    50    -0.008445
    51    -0.018061
    52    -0.020118
    53    -0.018468
    54    -0.033619
    55    -0.037334
    56    -0.018872
    57    -0.036228
    58    -0.049858
    59    -0.001964
    60     0.002724
    61     0.000623
    62     0.001675
    63     0.000742
    64     0.001356
Sym=    19a
Ene=   -0.860796E+00
Spin= Alpha
Occup= 1.972644
     1     0.027803
     2     0.176545
     3    -0.277259
     4    -0.036494
     5    -0.099316
     6     0.058155
     7    -0.078625
     8    -0.189185
     9     0.110753
    10    -0.152253
    11    -0.053709
    12     0.033848
    13    -0.128585
    14    -0.044125
    15     0.015582
    16     0.006159
    17     0.063623
    18    -0.090415
    19     0.052255
    20     0.007897
    21     0.017111
    22     0.016833
    23     0.018805
    24    -0.031487
    25     0.038918
    26     0.020120
    27    -0.032602
    28     0.052051
    29    -0.000205
    30    -0.000143
    31    -0.000606
    32     0.003130
    33    -0.000837
    34     0.001377
    35    -0.047270
    36    -0.095016
    37     0.041416
    38     0.270501
    39    -0.147199
    40    -0.406931
    41     0.136986
    42    -0.072905
    43    -0.297259
    44    -0.017570
    45    -0.001423
    46     0.004170
    47     0.015251
    48     0.023971
    49    -0.013828
    50     0.008446
    51     0.018045
    52     0.019703
    53     0.037870
    54    -0.000689
    55     0.039454
    56     0.040001
    57    -0.001542
    58     0.052446
    59    -0.002589
    60     0.002033
    61    -0.000619
    62     0.001528
    63    -0.001578
    64     0.000055
Sym=    20a
Ene=   -0.858882E+00
Spin= Alpha
Occup= 1.972444
     1     0.027726
     2     0.176129
     3    -0.276785
     4    -0.036600
     5     0.099149
     6     0.057991
     7     0.078783
     8     0.188878
     9     0.110438
    10     0.152559
    11     0.053747
    12     0.033626
    13     0.128820
    14    -0.044089
    15     0.015719
    16     0.006021
    17    -0.063408
    18    -0.090625
    19    -0.052366
    20     0.007938
    21     0.017181
    22     0.016998
    23    -0.018870
    24    -0.031526
    25    -0.039121
    26    -0.020190
    27    -0.032646
    28    -0.052253
    29    -0.000207
    30    -0.000144
    31    -0.000606
    32    -0.003118
    33    -0.000839
    34    -0.001368
    35     0.008437
    36     0.018031
    37     0.019614
    38    -0.037859
    39    -0.000708
    40    -0.039629
    41    -0.039945
    42    -0.001542
    43    -0.052623
    44    -0.002573
    45     0.002033
    46    -0.000619
    47    -0.001529
    48    -0.001575
    49    -0.000059
    50    -0.046648
    51    -0.093682
    52     0.042261
    53    -0.269913
    54    -0.147574
    55     0.407744
    56    -0.136644
    57    -0.073198
    58     0.297831
    59    -0.017480
    60    -0.001426
    61     0.004187
    62    -0.015233
    63     0.024009
    64     0.013850
Sym=    21a
Ene=   -0.214963E-01
Spin= Alpha
Occup= 0.025733
     1    -0.025010
     2    -0.168024
     3     0.347979
     4     0.048042
     5    -0.152732
     6    -0.091677
     7    -0.106095
     8    -0.397039
     9    -0.237551
    10    -0.239344
    11    -0.137461
    12    -0.090002
    13    -0.136954
    14     0.054506
    15    -0.049933
    16     0.054404
    17     0.114358
    18     0.340567
    19     0.201055
    20     0.000542
    21     0.015256
    22     0.005840
    23     0.021681
    24     0.002389
    25     0.007292
    26     0.096323
    27     0.058299
    28     0.127805
    29     0.001446
    30     0.002836
    31     0.005024
    32    -0.001194
    33     0.004290
    34    -0.000622
    35    -0.000682
    36     0.013679
    37    -0.005217
    38     0.019163
    39     0.015398
    40     0.011231
    41     0.105252
    42     0.059026
    43     0.125720
    44     0.002101
    45     0.003113
    46     0.005043
    47    -0.002067
    48     0.001986
    49     0.003681
    50    -0.097370
    51    -0.338752
    52    -0.061373
    53    -0.497389
    54    -0.276202
    55     0.581565
    56    -0.000514
    57    -0.003130
    58    -0.204451
    59    -0.003190
    60     0.002910
    61    -0.008676
    62    -0.006574
    63    -0.000347
    64    -0.000456
Sym=    22a
Ene=   -0.213990E-01
Spin= Alpha
Occup= 0.025537
     1    -0.024983
     2    -0.167779
     3     0.347330
     4     0.046953
     5     0.153206
     6    -0.092252
     7     0.105593
     8     0.398416
     9    -0.239014
    10     0.238198
    11     0.136530
    12    -0.090547
    13     0.136325
    14     0.055517
    15    -0.049203
    16     0.053140
    17    -0.115475
    18     0.340892
    19    -0.201784
    20     0.000706
    21     0.015637
    22     0.006525
    23    -0.021369
    24     0.001494
    25    -0.006399
    26    -0.096283
    27     0.058027
    28    -0.127449
    29     0.001453
    30     0.002772
    31     0.005022
    32     0.001226
    33     0.004216
    34     0.000506
    35    -0.098048
    36    -0.342005
    37    -0.058669
    38     0.498812
    39    -0.276059
    40    -0.580476
    41     0.000145
    42    -0.003129
    43     0.204314
    44    -0.003275
    45     0.003171
    46    -0.008757
    47     0.006932
    48     0.000510
    49    -0.000124
    50    -0.000631
    51     0.013889
    52    -0.005579
    53    -0.018846
    54     0.015294
    55    -0.010508
    56    -0.105529
    57     0.059674
    58    -0.125442
    59     0.002114
    60     0.003160
    61     0.005007
    62     0.002145
    63     0.001971
    64    -0.003654
Sym=    23a
Ene=   -0.201288E-01
Spin= Alpha
Occup= 0.022912
     1    -0.024917
     2    -0.167930
     3     0.350367
     4     0.018017
     5    -0.006331
     6     0.188817
     7     0.098294
     8    -0.015100
     9     0.490669
    10     0.223959
    11    -0.018339
    12     0.156136
    13     0.113373
    14    -0.119840
    15     0.138425
    16     0.034963
    17    -0.010645
    18    -0.010245
    19     0.397881
    20    -0.108489
    21    -0.393568
    22    -0.010978
    23     0.020058
    24     0.588884
    25    -0.566040
    26    -0.005726
    27    -0.008706
    28     0.213416
    29     0.012360
    30    -0.009783
    31    -0.009474
    32     0.000307
    33     0.000646
    34     0.007728
    35     0.002803
    36     0.019708
    37     0.019780
    38    -0.019271
    39    -0.008166
    40     0.008329
    41    -0.001446
    42    -0.110712
    43    -0.120376
    44     0.003410
    45     0.000842
    46     0.004784
    47     0.000216
    48     0.003011
    49     0.003343
    50     0.000457
    51     0.017391
    52    -0.003334
    53     0.008334
    54    -0.017129
    55    -0.002570
    56     0.004098
    57    -0.127407
    58    -0.114673
    59     0.005747
    60     0.000556
    61     0.004905
    62     0.000771
    63    -0.001878
    64     0.003846
Sym=    24a
Ene=   -0.200430E-01
Spin= Alpha
Occup= 0.022743
     1    -0.024940
     2    -0.168309
     3     0.351811
     4     0.015267
     5     0.006541
     6     0.189337
     7    -0.097950
     8     0.015755
     9     0.491846
    10    -0.223515
    11     0.018246
    12     0.155842
    13    -0.111380
    14    -0.121456
    15     0.139311
    16     0.033719
    17     0.011181
    18    -0.010411
    19    -0.397778
    20    -0.109172
    21    -0.397108
    22    -0.007282
    23    -0.020691
    24     0.589983
    25     0.565138
    26     0.006070
    27    -0.009802
    28    -0.214228
    29     0.012634
    30    -0.009857
    31    -0.009500
    32    -0.000294
    33     0.000878
    34    -0.008012
    35     0.000567
    36     0.017761
    37    -0.002633
    38    -0.009012
    39    -0.016462
    40     0.002157
    41    -0.004244
    42    -0.127754
    43     0.113767
    44     0.005787
    45     0.000559
    46     0.005002
    47    -0.000750
    48    -0.001791
    49    -0.003794
    50     0.002917
    51     0.019843
    52     0.020856
    53     0.019945
    54    -0.007339
    55    -0.009607
    56     0.001761
    57    -0.110644
    58     0.120273
    59     0.003423
    60     0.000892
    61     0.004740
    62    -0.000167
    63     0.003383
    64    -0.003299
Sym=    25a
Ene=   -0.191448E-01
Spin= Alpha
Occup= 0.020802
     1    -0.025086
     2    -0.169806
     3     0.357293
     4    -0.008927
     5    -0.173612
     6    -0.096666
     7     0.091827
     8    -0.451337
     9    -0.251989
    10     0.211457
    11    -0.131073
    12    -0.065950
    13     0.093468
    14     0.092670
    15    -0.061490
    16     0.016144
    17     0.143428
    18    -0.345145
    19    -0.192532
    20     0.002413
    21     0.021317
    22     0.008792
    23     0.014049
    24    -0.011283
    25     0.008059
    26     0.111701
    27     0.056766
    28    -0.107139
    29     0.001461
    30     0.004842
    31     0.004746
    32    -0.002452
    33    -0.004499
    34    -0.000241
    35     0.003443
    36     0.021901
    37     0.020077
    38    -0.009228
    39     0.020224
    40     0.014729
    41     0.098890
    42     0.063123
    43    -0.110785
    44     0.001644
    45     0.003669
    46     0.004588
    47    -0.001995
    48    -0.001784
    49    -0.004302
    50    -0.118985
    51    -0.444933
    52     0.035686
    53    -0.522735
    54    -0.313138
    55    -0.546982
    56     0.014775
    57     0.012003
    58     0.216788
    59    -0.006056
    60     0.010096
    61    -0.008335
    62    -0.015997
    63    -0.011592
    64    -0.007249
Sym=    26a
Ene=   -0.191311E-01
Spin= Alpha
Occup= 0.020807
     1    -0.025080
     2    -0.169981
     3     0.358076
     4    -0.009185
     5     0.173375
     6    -0.095989
     7    -0.092045
     8     0.450417
     9    -0.250042
    10    -0.211936
    11     0.132058
    12    -0.065530
    13    -0.094127
    14     0.092092
    15    -0.063282
    16     0.016460
    17    -0.142766
    18    -0.346011
    19     0.192292
    20     0.002366
    21     0.021418
    22     0.008354
    23    -0.014108
    24    -0.011220
    25    -0.007771
    26    -0.112163
    27     0.057119
    28     0.107429
    29     0.001475
    30     0.004881
    31     0.004883
    32     0.002441
    33    -0.004432
    34     0.000206
    35    -0.118733
    36    -0.444044
    37     0.035578
    38     0.521067
    39    -0.313863
    40     0.547933
    41    -0.014870
    42     0.012667
    43    -0.216865
    44    -0.005778
    45     0.010057
    46    -0.008535
    47     0.015693
    48    -0.011625
    49     0.007452
    50     0.003514
    51     0.021937
    52     0.021077
    53     0.009892
    54     0.020445
    55    -0.015457
    56    -0.098446
    57     0.062741
    58     0.111776
    59     0.001683
    60     0.003589
    61     0.004616
    62     0.001905
    63    -0.001529
    64     0.004456
Sym=    27a
Ene=   -0.109127E-01
Spin= Alpha
Occup= 0.010413
     1    -0.005010
     2    -0.036164
     3     0.129708
     4     0.009831
     5    -0.018143
     6    -0.008807
     7    -0.000112
     8    -0.101161
     9    -0.010314
    10    -0.001759
    11    -0.018337
    12    -0.034129
    13    -0.002667
    14    -0.122941
    15     0.129645
    16     0.042923
    17     0.068952
    18    -0.007440
    19     0.003812
    20    -0.002800
    21    -0.031593
    22     0.020537
    23     0.001431
    24     0.027496
    25    -0.002043
    26    -0.100681
    27    -0.016031
    28    -0.000092
    29    -0.000779
    30    -0.010782
    31     0.001329
    32     0.013750
    33     0.000111
    34     0.000249
    35     0.002266
    36     0.031039
    37    -0.030105
    38    -0.028042
    39     0.020184
    40     0.005057
    41     0.091441
    42     0.059441
    43    -0.002862
    44    -0.000043
    45     0.006565
    46     0.001764
    47    -0.005731
    48     0.000515
    49    -0.000902
    50     0.232954
    51     1.154424
    52    -1.044056
    53    -0.603723
    54     0.446835
    55    -0.033663
    56     0.536423
    57    -0.449276
    58     0.032341
    59    -0.014909
    60    -0.047793
    61    -0.151546
    62    -0.125664
    63     0.008428
    64    -0.008684
Sym=    28a
Ene=   -0.109101E-01
Spin= Alpha
Occup= 0.010405
     1    -0.005019
     2    -0.036245
     3     0.130013
     4     0.010951
     5    -0.016496
     6    -0.011230
     7    -0.000125
     8    -0.059021
     9    -0.082325
    10    -0.001397
    11    -0.038618
    12     0.000888
    13     0.000857
    14     0.118033
    15    -0.111890
    16     0.043486
    17    -0.091806
    18     0.006181
    19    -0.004030
    20     0.002307
    21     0.031426
    22    -0.030792
    23     0.003491
    24    -0.034178
    25     0.001171
    26     0.097053
    27     0.049518
    28    -0.000944
    29     0.000557
    30     0.005986
    31     0.001906
    32    -0.006167
    33    -0.000074
    34    -0.000253
    35    -0.002787
    36    -0.031309
    37     0.019593
    38     0.024773
    39    -0.012583
    40    -0.004853
    41    -0.064152
    42    -0.079509
    43     0.001032
    44     0.002083
    45    -0.013622
    46     0.001445
    47     0.011847
    48    -0.000116
    49     0.000791
    50     0.233058
    51     1.154968
    52    -1.044748
    53     0.086288
    54    -0.746686
    55    -0.010385
    56    -0.122217
    57     0.689674
    58     0.010631
    59    -0.133659
    60     0.071310
    61    -0.152034
    62    -0.046766
    63    -0.001322
    64     0.003836
Sym=    29a
Ene=   -0.109018E-01
Spin= Alpha
Occup= 0.010400
     1    -0.005022
     2    -0.036241
     3     0.129647
     4     0.009578
     5     0.018329
     6    -0.008821
     7     0.000049
     8     0.101514
     9    -0.010295
    10     0.001506
    11     0.018397
    12    -0.033782
    13     0.003051
    14    -0.122741
    15     0.129578
    16     0.042741
    17    -0.068930
    18    -0.007736
    19    -0.003349
    20    -0.002812
    21    -0.031596
    22     0.020370
    23    -0.001470
    24     0.027523
    25     0.001759
    26     0.100496
    27    -0.015913
    28     0.000107
    29    -0.000742
    30    -0.010798
    31     0.001322
    32    -0.013710
    33     0.000063
    34    -0.000334
    35     0.232896
    36     1.154052
    37    -1.043428
    38     0.604430
    39     0.446188
    40     0.034106
    41    -0.537148
    42    -0.448825
    43    -0.032726
    44    -0.014719
    45    -0.048113
    46    -0.151689
    47     0.125719
    48     0.008447
    49     0.008731
    50     0.002286
    51     0.031048
    52    -0.029844
    53     0.028225
    54     0.020188
    55    -0.005188
    56    -0.091480
    57     0.059525
    58     0.002884
    59    -0.000066
    60     0.006567
    61     0.001747
    62     0.005716
    63     0.000571
    64     0.000946
Sym=    30a
Ene=   -0.108999E-01
Spin= Alpha
Occup= 0.010390
     1    -0.005022
     2    -0.036269
     3     0.129937
     4     0.010943
     5     0.016438
     6    -0.011282
     7     0.000081
     8     0.058803
     9    -0.082418
    10     0.001157
    11     0.038434
    12     0.000706
    13    -0.000894
    14     0.118044
    15    -0.111993
    16     0.043473
    17     0.091790
    18     0.006396
    19     0.003561
    20     0.002326
    21     0.031497
    22    -0.030698
    23    -0.003422
    24    -0.034273
    25    -0.000863
    26    -0.097077
    27     0.049495
    28     0.000738
    29     0.000537
    30     0.006007
    31     0.001915
    32     0.006177
    33    -0.000035
    34     0.000314
    35     0.233024
    36     1.154668
    37    -1.044149
    38    -0.086279
    39    -0.746896
    40     0.008123
    41     0.122160
    42     0.690057
    43    -0.008508
    44    -0.133750
    45     0.071309
    46    -0.152183
    47     0.046817
    48    -0.001132
    49    -0.002980
    50    -0.002814
    51    -0.031373
    52     0.019439
    53    -0.024955
    54    -0.012586
    55     0.004911
    56     0.064158
    57    -0.079591
    58    -0.001180
    59     0.002070
    60    -0.013613
    61     0.001458
    62    -0.011853
    63    -0.000121
    64    -0.000806
Sym=    31a
Ene=   -0.108910E-01
Spin= Alpha
Occup= 0.010380
     1     0.005035
     2     0.036325
     3    -0.129678
     4    -0.009629
     5    -0.001547
     6    -0.020252
     7     0.000056
     8    -0.041940
     9    -0.092873
    10    -0.000271
    11     0.020214
    12    -0.032629
    13    -0.003880
    14    -0.014625
    15     0.007829
    16    -0.042780
    17     0.160788
    18     0.000674
    19     0.008294
    20    -0.232916
    21    -1.154015
    22     1.043065
    23    -0.688809
    24    -0.300810
    25    -0.025214
    26     0.657228
    27     0.241266
    28     0.023562
    29    -0.054875
    30     0.117449
    31     0.152192
    32    -0.079773
    33    -0.008416
    34    -0.002326
    35     0.002808
    36     0.031497
    37    -0.020129
    38    -0.023262
    39     0.015108
    40     0.002849
    41    -0.036529
    42    -0.095052
    43    -0.001159
    44     0.018553
    45    -0.007019
    46    -0.001365
    47     0.001791
    48     0.000967
    49     0.000060
    50    -0.002294
    51    -0.031176
    52     0.030152
    53    -0.031572
    54    -0.014292
    55     0.004196
    56    -0.005697
    57     0.108954
    58    -0.002080
    59    -0.009218
    60     0.002696
    61    -0.001785
    62     0.000379
    63    -0.001310
    64    -0.000196
Sym=    32a
Ene=   -0.108914E-01
Spin= Alpha
Occup= 0.010379
     1     0.005025
     2     0.036270
     3    -0.129659
     4    -0.009886
     5     0.001540
     6    -0.020057
     7    -0.000004
     8     0.041936
     9    -0.092432
    10     0.000395
    11    -0.020271
    12    -0.032674
    13     0.003528
    14    -0.014526
    15     0.007956
    16    -0.042950
    17    -0.160982
    18     0.000247
    19    -0.008228
    20    -0.232942
    21    -1.154096
    22     1.043098
    23     0.689194
    24    -0.299978
    25     0.023785
    26    -0.657568
    27     0.240648
    28    -0.022114
    29    -0.055042
    30     0.117577
    31     0.152201
    32     0.079501
    33    -0.007953
    34     0.002257
    35    -0.002294
    36    -0.031235
    37     0.030309
    38     0.031527
    39    -0.014244
    40    -0.003965
    41     0.005674
    42     0.108882
    43     0.001992
    44    -0.009254
    45     0.002709
    46    -0.001810
    47    -0.000342
    48    -0.001258
    49     0.000194
    50     0.002824
    51     0.031560
    52    -0.020125
    53     0.023352
    54     0.015219
    55    -0.003099
    56     0.036593
    57    -0.095313
    58     0.001297
    59     0.018581
    60    -0.007023
    61    -0.001385
    62    -0.001824
    63     0.000954
    64    -0.000091
Sym=    33a
Ene=   -0.120287E-03
Spin= Alpha
Occup= 0.000015
     1     0.001665
     2    -0.020167
     3     0.305668
     4    -0.423226
     5    -0.006418
     6    -0.002803
     7    -0.024138
     8    -0.040053
     9    -0.020405
    10    -0.083237
    11     0.011479
    12     0.006643
    13     0.062849
    14    -0.583911
    15    -0.761871
    16     0.958689
    17     0.157538
    18    -0.043797
    19    -0.010972
    20    -0.014928
    21    -0.037276
    22     0.189345
    23     0.009695
    24    -0.309822
    25    -0.016882
    26    -0.067800
    27     0.048350
    28     0.012851
    29     0.070005
    30     0.340597
    31    -0.104627
    32     0.072009
    33    -0.000414
    34    -0.050358
    35    -0.014679
    36    -0.038301
    37     0.190866
    38    -0.259853
    39     0.161593
    40    -0.001870
    41     0.004846
    42    -0.086031
    43     0.004832
    44     0.326428
    45     0.079818
    46    -0.106449
    47    -0.093994
    48    -0.045125
    49     0.018089
    50    -0.011517
    51    -0.027157
    52     0.137002
    53     0.221606
    54     0.128489
    55    -0.015899
    56    -0.095800
    57    -0.060474
    58    -0.008392
    59     0.178561
    60     0.121414
    61    -0.074580
    62     0.047641
    63     0.017563
    64     0.007694
Sym=    34a
Ene=   -0.147937E-02
Spin= Alpha
Occup= 0.000067
     1    -0.003635
     2    -0.017330
     3     0.004744
     4    -0.308507
     5     0.039278
     6    -0.022329
     7    -0.001336
     8     0.072497
     9    -0.040359
    10    -0.004434
    11    -0.282910
    12     0.162482
    13     0.002482
    14     0.068297
    15     0.004351
    16     0.020786
    17    -0.064237
    18    -0.005666
    19     0.002853
    20    -0.000354
    21     0.019336
    22    -0.068441
    23     0.007765
    24    -0.028897
    25    -0.000473
    26     0.029822
    27     0.057435
    28    -0.000651
    29     0.005303
    30     0.020914
    31     0.013350
    32     0.007403
    33    -0.000540
    34     0.000228
    35     0.707665
    36     2.177823
    37     1.508343
    38    -0.016342
    39     0.009509
    40    -0.000438
    41    -0.075371
    42     0.043626
    43     0.002310
    44    -1.446606
    45    -1.432464
    46    -1.536332
    47     0.014323
    48    -0.005313
    49     0.005566
    50    -0.000380
    51     0.018892
    52    -0.067901
    53     0.028779
    54     0.007568
    55    -0.001303
    56    -0.033971
    57    -0.053765
    58     0.000113
    59     0.012156
    60     0.014740
    61     0.012615
    62     0.012253
    63     0.000091
    64     0.000653
Sym=    35a
Ene=   -0.147877E-02
Spin= Alpha
Occup= 0.000067
     1     0.003639
     2     0.017389
     3    -0.005103
     4     0.308021
     5    -0.000238
     6    -0.045198
     7     0.000381
     8    -0.001096
     9    -0.083077
    10     0.001400
    11     0.000767
    12     0.325659
    13    -0.001696
    14     0.027942
    15    -0.099631
    16    -0.021479
    17     0.000273
    18     0.000905
    19    -0.000975
    20    -0.707690
    21    -2.178196
    22    -1.507376
    23     0.000028
    24     0.019408
    25    -0.000510
    26    -0.000274
    27     0.086428
    28     0.001309
    29     1.425079
    30     1.453798
    31     1.536151
    32     0.000073
    33    -0.003988
    34    -0.000587
    35     0.000358
    36    -0.019320
    37     0.068377
    38     0.021290
    39    -0.021270
    40    -0.000473
    41    -0.064615
    42     0.003139
    43     0.000541
    44    -0.022733
    45    -0.003622
    46    -0.013327
    47     0.004100
    48     0.000542
    49    -0.000236
    50     0.000381
    51    -0.018960
    52     0.068001
    53    -0.021043
    54    -0.021196
    55     0.000926
    56     0.063519
    57     0.002867
    58    -0.000580
    59    -0.023453
    60    -0.003550
    61    -0.012648
    62    -0.004802
    63    -0.001244
    64    -0.000708
Sym=    36a
Ene=   -0.331616E-04
Spin= Alpha
Occup= 0.000002
     1    -0.000014
     2    -0.000147
     3     0.000835
     4     0.002809
     5    -0.000183
     6    -0.000035
     7    -0.001630
     8     0.000467
     9    -0.002136
    10    -0.012113
    11     0.016138
    12    -0.029064
    13     0.056002
    14     0.015764
    15    -0.014676
    16    -0.001000
    17    -0.014575
    18    -0.059427
    19     0.061449
    20    -0.000025
    21    -0.003799
    22     0.026792
    23    -0.000263
    24    -0.002150
    25     0.008030
    26     0.002213
    27    -0.012459
    28    -0.042635
    29    -0.001465
    30     0.005609
    31    -0.004209
    32    -0.004898
    33    -0.026530
    34     0.035427
    35     0.000159
    36     0.004034
    37    -0.028221
    38     0.002264
    39    -0.001365
    40     0.009997
    41     0.011998
    42    -0.006739
    43    -0.006591
    44    -0.003880
    45    -0.001873
    46     0.003743
    47     0.007135
    48    -0.013716
    49     0.038505
    50    -0.000147
    51     0.000807
    52    -0.004086
    53     0.007335
    54    -0.009795
    55     0.021911
    56    -0.008707
    57     0.010592
    58    -0.049913
    59     0.005046
    60    -0.028455
    61     0.026697
    62     0.008233
    63     0.471992
    64    -0.880327
Sym=    37a
Ene=   -0.920438E-04
Spin= Alpha
Occup= 0.000011
     1     0.001598
     2     0.024881
     3    -0.073859
     4     0.031993
     5     0.005088
     6    -0.047053
     7     0.005429
     8     0.019064
     9    -0.290646
    10     0.030960
    11    -0.017430
    12    -0.042620
    13    -0.111406
    14     1.018985
    15    -0.850411
    16    -0.028122
    17     0.054836
    18     0.355600
    19     0.136997
    20    -0.011061
    21    -0.062723
    22     0.317019
    23     0.000923
    24    -0.166835
    25     0.032398
    26    -0.017003
    27    -0.307966
    28    -0.049217
    29    -0.142662
    30     0.515000
    31    -0.129776
    32     0.023946
    33     0.044647
    34     0.112243
    35     0.006499
    36     0.041927
    37    -0.190739
    38     0.109238
    39    -0.006369
    40     0.064637
    41    -0.035276
    42    -0.414970
    43    -0.122038
    44     0.117878
    45    -0.340803
    46     0.084911
    47     0.379844
    48     0.197399
    49    -0.060585
    50     0.008062
    51     0.036245
    52    -0.191180
    53    -0.131488
    54    -0.022411
    55    -0.167831
    56     0.033919
    57    -0.393515
    58     0.355616
    59     0.077232
    60    -0.327612
    61     0.071746
    62    -0.377521
    63     0.326059
    64     0.177642
Sym=    38a
Ene=   -0.884685E-04
Spin= Alpha
Occup= 0.000010
     1    -0.001434
     2    -0.021917
     3     0.065491
     4    -0.027317
     5     0.038482
     6    -0.026494
     7    -0.006163
     8     0.243713
     9    -0.154032
    10    -0.033538
    11     0.045019
    12    -0.003664
    13     0.113337
    14     0.314576
    15    -0.457843
    16     0.022481
    17    -0.955095
    18    -0.300981
    19    -0.255057
    20    -0.005456
    21    -0.040334
    22     0.183100
    23    -0.047924
    24    -0.084165
    25    -0.072641
    26     0.373311
    27    -0.167497
    28     0.136067
    29    -0.056331
    30     0.254039
    31    -0.083398
    32    -0.413593
    33    -0.055518
    34    -0.216644
    35     0.010591
    36     0.064108
    37    -0.322367
    38     0.138964
    39    -0.083177
    40    -0.039340
    41     0.282189
    42    -0.127156
    43     0.054988
    44    -0.374363
    45     0.011579
    46     0.132209
    47     0.302712
    48    -0.137164
    49    -0.005120
    50    -0.008210
    51    -0.036418
    52     0.191091
    53     0.083801
    54     0.105017
    55     0.180552
    56     0.321288
    57    -0.215013
    58    -0.373731
    59     0.501920
    60    -0.248506
    61    -0.071792
    62    -0.003075
    63    -0.351114
    64    -0.172701
Sym=    39a
Ene=   -0.430606E-03
Spin= Alpha
Occup= 0.000054
     1     0.061276
     2     0.723620
     3    -1.955209
     4    -0.050657
     5    -0.208887
     6    -0.122594
     7     0.086854
     8    -0.926898
     9    -0.542678
    10     0.308762
    11     0.365075
    12     0.213642
    13    -0.298481
    14     0.859881
    15     0.958498
    16     0.867363
    17    -0.102123
    18     0.025794
    19     0.016132
    20    -0.006213
    21    -0.128863
    22     0.146479
    23     0.013308
    24     0.182409
    25     0.034273
    26    -0.028871
    27    -0.301433
    28     0.014089
    29    -0.115256
    30     0.256809
    31    -0.246839
    32    -0.132018
    33     0.007812
    34     0.121769
    35    -0.006037
    36    -0.127837
    37     0.147292
    38     0.165145
    39    -0.079354
    40     0.033201
    41    -0.270666
    42     0.121813
    43     0.015787
    44     0.061376
    45     0.073464
    46    -0.245373
    47    -0.249225
    48     0.105602
    49    -0.051901
    50     0.005824
    51     0.245605
    52    -0.519620
    53     0.159675
    54     0.092536
    55     0.008412
    56    -0.671912
    57    -0.388701
    58     0.058528
    59    -0.250941
    60     0.045145
    61     0.324603
    62    -0.297585
    63    -0.057762
    64    -0.031387
Sym=    40a
Ene=   -0.681569E-05
Spin= Alpha
Occup= 0.000000
     1     0.000085
     2     0.001151
     3    -0.006913
     4    -0.024822
     5     0.001550
     6     0.001766
     7     0.017389
     8     0.004964
     9     0.009763
    10     0.114118
    11    -0.009478
    12     0.008597
    13    -0.475490
    14    -0.016070
    15     0.022890
    16    -0.004634
    17     0.000739
    18     0.122307
    19     0.085575
    20     0.000451
    21     0.000217
    22    -0.000668
    23     0.001580
    24     0.007477
    25    -0.095735
    26     0.000128
    27     0.001009
    28     0.234263
    29     0.035458
    30    -0.015241
    31    -0.029808
    32    -0.000648
    33    -0.602220
    34    -0.039273
    35     0.000144
    36    -0.004493
    37     0.026974
    38     0.009363
    39     0.004660
    40    -0.100575
    41    -0.019786
    42     0.006205
    43     0.246492
    44     0.000939
    45     0.021704
    46    -0.026137
    47     0.000543
    48    -0.409624
    49    -0.597423
    50     0.000270
    51    -0.004213
    52     0.021067
    53     0.001008
    54    -0.002023
    55    -0.126837
    56     0.006486
    57     0.012008
    58     0.338194
    59    -0.005769
    60     0.000555
    61    -0.002238
    62     0.008623
    63     0.172040
    64     0.077585
Sym=    41a
Ene=   -0.240225E-02
Spin= Alpha
Occup= 0.001823
     1     0.011217
     2     0.084296
     3    -0.458232
     4     0.170439
     5     0.042334
     6     0.024976
     7     0.066609
     8     0.230354
     9     0.134669
    10     0.222842
    11     0.049734
    12     0.026559
    13    -0.077203
    14    -0.158224
    15     0.011732
    16     0.132462
    17    -0.179067
    18    -0.253999
    19    -0.146713
    20     0.007217
    21     0.066510
    22    -0.138322
    23    -0.029071
    24    -0.025736
    25     0.002330
    26     0.111782
    27     0.070317
    28     0.035848
    29     0.010112
    30     0.001869
    31    -0.003389
    32    -0.039409
    33     0.004821
    34    -0.016153
    35     0.007133
    36     0.066309
    37    -0.141791
    38    -0.035896
    39    -0.012767
    40     0.005719
    41     0.117637
    42     0.059628
    43     0.031926
    44    -0.025451
    45     0.036557
    46    -0.003294
    47    -0.014412
    48    -0.010682
    49     0.011125
    50     0.003135
    51    -0.160358
    52     0.593897
    53    -0.146216
    54    -0.078813
    55     0.336655
    56     0.567386
    57     0.318648
    58    -0.566187
    59    -0.322553
    60    -0.042077
    61     0.173160
    62    -0.264552
    63     0.387698
    64     0.224971
Sym=    42a
Ene=   -0.239933E-02
Spin= Alpha
Occup= 0.001819
     1     0.011012
     2     0.081539
     3    -0.448977
     4     0.166147
     5    -0.043052
     6     0.025375
     7    -0.066585
     8    -0.233634
     9     0.136410
    10    -0.223048
    11    -0.048123
    12     0.025465
    13     0.079814
    14    -0.166810
    15     0.003106
    16     0.137417
    17     0.179632
    18    -0.253150
    19     0.145826
    20     0.007379
    21     0.067362
    22    -0.136391
    23     0.029253
    24    -0.028613
    25    -0.001550
    26    -0.112549
    27     0.071513
    28    -0.037332
    29     0.010394
    30     0.002448
    31    -0.003230
    32     0.039537
    33     0.004965
    34     0.015921
    35     0.003025
    36    -0.161986
    37     0.599057
    38     0.145015
    39    -0.077586
    40    -0.334380
    41    -0.570467
    42     0.319649
    43     0.561991
    44    -0.323367
    45    -0.042061
    46     0.174559
    47     0.264340
    48     0.385740
    49    -0.224333
    50     0.007309
    51     0.067361
    52    -0.140526
    53     0.038613
    54    -0.011451
    55    -0.005313
    56    -0.119599
    57     0.059362
    58    -0.033212
    59    -0.025118
    60     0.036985
    61    -0.003035
    62     0.014476
    63    -0.010516
    64    -0.011281
Sym=    43a
Ene=   -0.241755E-02
Spin= Alpha
Occup= 0.001794
     1    -0.011623
     2    -0.087418
     3     0.468622
     4    -0.161204
     5    -0.000934
     6     0.053329
     7     0.065826
     8    -0.002903
     9     0.283362
    10     0.220753
    11     0.004822
    12     0.057523
    13    -0.084254
    14    -0.105308
    15     0.266473
    16    -0.148674
    17    -0.009962
    18    -0.000021
    19     0.279626
    20     0.000504
    21     0.184240
    22    -0.633303
    23    -0.010075
    24    -0.159689
    25     0.322850
    26     0.016042
    27     0.667754
    28    -0.541043
    29    -0.095774
    30     0.466374
    31    -0.182947
    32     0.016808
    33     0.001839
    34    -0.433293
    35    -0.007448
    36    -0.068047
    37     0.135179
    38     0.010043
    39    -0.039583
    40    -0.002315
    41    -0.004970
    42     0.136277
    43     0.041065
    44    -0.035957
    45     0.023220
    46     0.003844
    47    -0.024925
    48    -0.017159
    49     0.003736
    50    -0.007338
    51    -0.068294
    52     0.144607
    53    -0.007948
    54    -0.038153
    55     0.004716
    56     0.009884
    57     0.135931
    58     0.033028
    59    -0.032422
    60     0.021533
    61     0.003366
    62     0.024910
    63     0.014277
    64     0.003009
Sym=    44a
Ene=   -0.241885E-02
Spin= Alpha
Occup= 0.001790
     1     0.011969
     2     0.091640
     3    -0.482342
     4     0.165535
     5    -0.001275
     6    -0.053036
     7     0.065982
     8    -0.004425
     9    -0.281788
    10     0.221274
    11     0.006476
    12    -0.059273
    13    -0.084714
    14     0.115347
    15    -0.257521
    16     0.146102
    17    -0.011318
    18     0.000712
    19     0.278593
    20    -0.000851
    21    -0.185521
    22     0.632215
    23    -0.010248
    24     0.160874
    25     0.322752
    26     0.016474
    27    -0.666399
    28    -0.540640
    29     0.097337
    30    -0.467560
    31     0.182225
    32     0.017660
    33    -0.001145
    34    -0.434820
    35     0.007143
    36     0.067273
    37    -0.147118
    38    -0.004969
    39     0.036222
    40     0.004850
    41     0.008771
    42    -0.134749
    43     0.032455
    44     0.032114
    45    -0.021865
    46    -0.003933
    47     0.024782
    48    -0.013830
    49     0.002961
    50     0.007353
    51     0.067742
    52    -0.136984
    53     0.008123
    54     0.038366
    55    -0.002235
    56    -0.004844
    57    -0.135991
    58     0.041011
    59     0.035644
    60    -0.023873
    61    -0.003833
    62    -0.025404
    63     0.017500
    64     0.003689
Sym=    45a
Ene=   -0.243681E-02
Spin= Alpha
Occup= 0.001767
     1    -0.012275
     2    -0.093766
     3     0.488738
     4    -0.152222
     5    -0.049846
     6    -0.028208
     7     0.064647
     8    -0.259057
     9    -0.147684
    10     0.217042
    11    -0.049964
    12    -0.032264
    13    -0.086967
    14     0.180135
    15    -0.021651
    16    -0.161862
    17     0.191185
    18    -0.228802
    19    -0.131859
    20    -0.007471
    21    -0.069186
    22     0.142652
    23     0.029094
    24     0.025685
    25     0.000112
    26    -0.115624
    27    -0.076942
    28     0.036705
    29    -0.010610
    30     0.000043
    31     0.003768
    32     0.041677
    33     0.004866
    34    -0.014167
    35    -0.007516
    36    -0.068949
    37     0.137150
    38     0.038387
    39     0.011607
    40    -0.003177
    41    -0.123674
    42    -0.063753
    43     0.040576
    44     0.028945
    45    -0.040439
    46     0.004072
    47     0.016863
    48    -0.011042
    49     0.012489
    50     0.003795
    51     0.206355
    52    -0.669611
    53     0.131573
    54     0.081558
    55     0.313291
    56    -0.587558
    57    -0.348208
    58    -0.520883
    59     0.330050
    60     0.047771
    61    -0.191930
    62     0.299069
    63     0.361095
    64     0.207925
Sym=    46a
Ene=   -0.243232E-02
Spin= Alpha
Occup= 0.001762
     1    -0.012576
     2    -0.097585
     3     0.500826
     4    -0.157969
     5     0.049262
     6    -0.027505
     7    -0.064896
     8     0.256437
     9    -0.144623
    10    -0.218000
    11     0.051130
    12    -0.034878
    13     0.088392
    14     0.171792
    15    -0.032611
    16    -0.158430
    17    -0.190682
    18    -0.229179
    19     0.131635
    20    -0.007275
    21    -0.068239
    22     0.145972
    23    -0.028964
    24     0.022290
    25    -0.000454
    26     0.115020
    27    -0.075760
    28    -0.036507
    29    -0.010234
    30     0.000131
    31     0.004355
    32    -0.041695
    33     0.004826
    34     0.013983
    35     0.003772
    36     0.205082
    37    -0.664661
    38    -0.132255
    39     0.082682
    40    -0.313443
    41     0.583820
    42    -0.347313
    43     0.521242
    44     0.328422
    45     0.048120
    46    -0.190182
    47    -0.299873
    48     0.364934
    49    -0.210432
    50    -0.007400
    51    -0.068494
    52     0.139196
    53    -0.036341
    54     0.012695
    55     0.003286
    56     0.123071
    57    -0.063736
    58    -0.041143
    59     0.029724
    60    -0.040520
    61     0.004201
    62    -0.016997
    63    -0.011277
    64    -0.012837
Sym=    47a
Ene=   -0.206798E-02
Spin= Alpha
Occup= 0.001221
     1    -0.002666
     2    -0.028025
     3     0.098353
     4    -0.091234
     5    -0.012047
     6    -0.006784
     7    -0.000235
     8    -0.054294
     9    -0.038883
    10    -0.000069
    11     0.291485
    12    -0.384579
    13    -0.000465
    14    -0.143533
    15     0.134564
    16    -0.055690
    17     0.090872
    18    -0.000836
    19     0.004634
    20    -0.004476
    21    -0.099677
    22     0.384334
    23     0.026011
    24     0.102246
    25    -0.002313
    26    -0.134395
    27    -0.218108
    28     0.001649
    29    -0.016042
    30    -0.058737
    31    -0.016792
    32     0.052187
    33     0.000341
    34     0.000750
    35     0.007282
    36     0.091371
    37    -0.329705
    38    -0.079140
    39     0.006259
    40     0.002682
    41     0.210362
    42     0.038084
    43    -0.000849
    44    -0.016278
    45     0.058720
    46     0.008820
    47    -0.052226
    48     0.000196
    49    -0.000782
    50    -0.069020
    51    -0.288970
    52     0.160107
    53     0.110001
    54    -0.073840
    55     0.009156
    56    -0.239867
    57     0.284236
    58    -0.009456
    59     0.583785
    60     0.087537
    61    -0.464361
    62    -0.674388
    63     0.020161
    64    -0.006142
Sym=    48a
Ene=   -0.206739E-02
Spin= Alpha
Occup= 0.001220
     1     0.002665
     2     0.028036
     3    -0.098162
     4     0.091691
     5     0.011801
     6     0.007012
     7     0.000897
     8     0.060390
     9     0.027386
    10     0.001967
    11     0.186626
    12    -0.444768
    13     0.003816
    14    -0.132889
    15     0.142460
    16     0.055212
    17     0.093665
    18    -0.011159
    19     0.000802
    20    -0.007333
    21    -0.091682
    22     0.329950
    23     0.034104
    24     0.071736
    25     0.000168
    26    -0.137975
    27    -0.163152
    28    -0.003305
    29    -0.000758
    30    -0.041699
    31    -0.008919
    32     0.063579
    33     0.000514
    34     0.000760
    35     0.004400
    36     0.099105
    37    -0.383360
    38    -0.101600
    39     0.028693
    40     0.005972
    41     0.255912
    42     0.007305
    43    -0.004766
    44     0.008838
    45     0.065854
    46     0.016657
    47    -0.047340
    48    -0.000799
    49     0.000152
    50     0.069028
    51     0.289440
    52    -0.161843
    53     0.009389
    54    -0.132167
    55    -0.004150
    56    -0.127504
    57     0.349162
    58    -0.002702
    59     0.294253
    60    -0.965124
    61     0.464320
    62     0.090799
    63    -0.009995
    64     0.025404
Sym=    49a
Ene=   -0.206683E-02
Spin= Alpha
Occup= 0.001221
     1    -0.002673
     2    -0.028079
     3     0.098650
     4    -0.091015
     5     0.012052
     6    -0.006756
     7     0.000239
     8     0.054359
     9    -0.038862
    10     0.000243
    11    -0.291350
    12    -0.385004
    13    -0.000748
    14    -0.143649
    15     0.135092
    16    -0.056176
    17    -0.091112
    18    -0.000951
    19    -0.004314
    20    -0.004497
    21    -0.099870
    22     0.384666
    23    -0.026076
    24     0.102561
    25     0.001670
    26     0.134576
    27    -0.218367
    28    -0.000587
    29    -0.016012
    30    -0.058922
    31    -0.016836
    32    -0.052264
    33     0.000302
    34    -0.000676
    35    -0.069055
    36    -0.288873
    37     0.159182
    38    -0.110309
    39    -0.073797
    40    -0.009498
    41     0.240728
    42     0.284157
    43     0.010781
    44     0.584457
    45     0.087080
    46    -0.464127
    47     0.673634
    48     0.025176
    49     0.008013
    50     0.007282
    51     0.091382
    52    -0.329814
    53     0.079247
    54     0.006297
    55    -0.003064
    56    -0.210492
    57     0.038156
    58     0.001880
    59    -0.016343
    60     0.058729
    61     0.008926
    62     0.052216
    63    -0.000050
    64     0.000516
Sym=    50a
Ene=   -0.206567E-02
Spin= Alpha
Occup= 0.001219
     1     0.002665
     2     0.028074
     3    -0.098142
     4     0.091896
     5    -0.011783
     6     0.006903
     7    -0.000937
     8    -0.060460
     9     0.026944
    10    -0.002173
    11    -0.186192
    12    -0.444352
    13    -0.003420
    14    -0.133367
    15     0.143045
    16     0.055484
    17    -0.093953
    18    -0.011622
    19    -0.000442
    20    -0.007352
    21    -0.091762
    22     0.329634
    23    -0.034066
    24     0.071932
    25    -0.000157
    26     0.137877
    27    -0.163117
    28     0.002933
    29    -0.000700
    30    -0.041568
    31    -0.009138
    32    -0.063559
    33     0.000414
    34    -0.001153
    35     0.069049
    36     0.289618
    37    -0.162193
    38    -0.009409
    39    -0.132311
    40     0.003832
    41     0.127875
    42     0.349184
    43     0.003021
    44     0.293893
    45    -0.964830
    46     0.464262
    47    -0.091769
    48    -0.011406
    49    -0.025931
    50     0.004415
    51     0.099233
    52    -0.383242
    53     0.101962
    54     0.028879
    55    -0.005836
    56    -0.256292
    57     0.007233
    58     0.004332
    59     0.008716
    60     0.065973
    61     0.016779
    62     0.047372
    63    -0.000727
    64    -0.000138
Sym=    51a
Ene=   -0.206368E-02
Spin= Alpha
Occup= 0.001218
     1    -0.002674
     2    -0.028147
     3     0.099241
     4    -0.091441
     5     0.000219
     6     0.013709
     7    -0.000676
     8    -0.006286
     9     0.066385
    10    -0.001888
    11    -0.479679
    12    -0.059815
    13    -0.003971
    14    -0.003367
    15    -0.005850
    16    -0.055742
    17    -0.185250
    18     0.001754
    19    -0.007851
    20    -0.069230
    21    -0.289611
    22     0.159554
    23    -0.119589
    24    -0.059515
    25    -0.005780
    26     0.367252
    27     0.067042
    28     0.013537
    29     0.716712
    30    -0.046038
    31    -0.462545
    32     0.584413
    33     0.045429
    34     0.020798
    35    -0.004448
    36    -0.099622
    37     0.384708
    38     0.075894
    39    -0.073794
    40    -0.003855
    41    -0.121924
    42     0.225804
    43     0.003556
    44    -0.087472
    45     0.012499
    46    -0.016731
    47    -0.004638
    48     0.000091
    49     0.000002
    50     0.007303
    51     0.091514
    52    -0.330006
    53     0.045293
    54     0.065440
    55    -0.003211
    56    -0.072297
    57    -0.201153
    58     0.004768
    59     0.079110
    60    -0.036684
    61     0.009033
    62    -0.011301
    63     0.001045
    64     0.000521
Sym=    52a
Ene=   -0.206316E-02
Spin= Alpha
Occup= 0.001218
     1    -0.002666
     2    -0.028122
     3     0.098898
     4    -0.091866
     5    -0.000100
     6     0.013655
     7     0.000711
     8     0.006785
     9     0.066208
    10     0.002038
    11     0.478740
    12    -0.060334
    13     0.003406
    14    -0.003664
    15    -0.006055
    16    -0.055507
    17     0.185519
    18     0.002176
    19     0.008422
    20    -0.069210
    21    -0.289858
    22     0.160827
    23     0.119612
    24    -0.059268
    25     0.004948
    26    -0.367100
    27     0.065942
    28    -0.012458
    29     0.718050
    30    -0.047569
    31    -0.462710
    32    -0.583406
    33     0.044435
    34    -0.018186
    35     0.007322
    36     0.091585
    37    -0.329552
    38    -0.045408
    39     0.065437
    40     0.002853
    41     0.072316
    42    -0.200894
    43    -0.004173
    44     0.079003
    45    -0.036702
    46     0.009141
    47     0.011278
    48     0.001390
    49    -0.000679
    50    -0.004443
    51    -0.099558
    52     0.384228
    53    -0.075998
    54    -0.073803
    55     0.003869
    56     0.122037
    57     0.225815
    58    -0.003116
    59    -0.087360
    60     0.012560
    61    -0.016826
    62     0.004827
    63     0.000123
    64     0.000002
Sym=    53a
Ene=   -0.557252E-03
Spin= Alpha
Occup= 0.000069
     1    -0.071512
     2    -0.848553
     3     2.327105
     4    -0.088588
     5     0.004325
     6    -0.002871
     7     0.250735
     8     0.012818
     9    -0.013283
    10     0.892512
    11    -0.007271
    12     0.004144
    13    -0.877770
    14    -1.149402
    15    -1.153320
    16    -0.886554
    17     0.001303
    18     0.002717
    19    -0.002135
    20     0.002159
    21    -0.009218
    22     0.169237
    23    -0.001814
    24    -0.100477
    25     0.065117
    26    -0.000488
    27    -0.094894
    28     0.097945
    29     0.012113
    30    -0.003150
    31     0.043007
    32    -0.003646
    33     0.005231
    34     0.280033
    35     0.002598
    36    -0.005834
    37     0.170844
    38    -0.089290
    39     0.050707
    40     0.066609
    41    -0.067396
    42     0.037033
    43     0.094105
    44    -0.011590
    45     0.004901
    46     0.047260
    47     0.012098
    48     0.250437
    49    -0.134992
    50     0.002156
    51    -0.002586
    52     0.146234
    53     0.091090
    54     0.053991
    55     0.063340
    56     0.072964
    57     0.040623
    58     0.099696
    59    -0.000937
    60     0.014398
    61     0.053591
    62    -0.018409
    63    -0.242260
    64    -0.139244
Sym=    54a
Ene=   -0.423976E-04
Spin= Alpha
Occup= 0.000002
     1     0.000010
     2     0.003321
     3     0.002391
     4     0.076060
     5    -0.000217
     6    -0.000556
     7    -0.027226
     8    -0.002825
     9     0.004473
    10    -0.203142
    11     0.063554
    12    -0.038140
    13     0.939701
    14    -0.047159
    15     0.078978
    16     0.012895
    17     0.055346
    18     0.352005
    19    -0.387193
    20     0.000734
    21     0.006947
    22    -0.030490
    23     0.006065
    24     0.009703
    25     0.057620
    26    -0.041408
    27     0.031643
    28    -0.232996
    29     0.015102
    30    -0.032921
    31     0.003289
    32     0.040767
    33    -0.091803
    34    -0.175300
    35    -0.001464
    36     0.016600
    37    -0.090985
    38    -0.032638
    39     0.012912
    40     0.422516
    41     0.062459
    42    -0.013823
    43    -0.950928
    44     0.001797
    45     0.025090
    46     0.004060
    47    -0.019720
    48     0.473837
    49    -0.521959
    50    -0.000141
    51     0.006552
    52    -0.025395
    53     0.000163
    54    -0.006976
    55     0.186086
    56    -0.042084
    57     0.038548
    58    -0.476043
    59    -0.036476
    60     0.041643
    61     0.000428
    62     0.023151
    63    -0.091996
    64    -0.055087
Sym=    55a
Ene=   -0.425832E-04
Spin= Alpha
Occup= 0.000002
     1    -0.000143
     2    -0.001485
     3     0.012806
     4     0.057608
     5     0.000928
     6     0.002485
     7    -0.025916
     8     0.014489
     9     0.005649
    10    -0.197364
    11    -0.013518
    12     0.040772
    13     0.926809
    14     0.056202
    15    -0.061754
    16     0.010069
    17    -0.056916
    18    -0.161783
    19     0.510488
    20    -0.002222
    21     0.012464
    22    -0.072922
    23    -0.014281
    24    -0.026913
    25     0.423531
    26     0.040541
    27     0.038361
    28    -0.952484
    29     0.017707
    30     0.027585
    31     0.000575
    32    -0.033956
    33    -0.155152
    34     0.679387
    35     0.000130
    36     0.005987
    37    -0.034037
    38     0.005269
    39     0.002528
    40     0.054982
    41     0.017567
    42    -0.037152
    43    -0.223371
    44    -0.005416
    45    -0.009826
    46     0.011212
    47     0.042304
    48    -0.227247
    49    -0.030655
    50    -0.000494
    51     0.002120
    52    -0.015019
    53    -0.004149
    54     0.007653
    55     0.183091
    56     0.027918
    57    -0.042832
    58    -0.467384
    59     0.049220
    60    -0.026109
    61    -0.010714
    62    -0.013435
    63    -0.111413
    64    -0.013654
Sym=    56a
Ene=   -0.148101E-02
Spin= Alpha
Occup= 0.000068
     1     0.003525
     2     0.016023
     3    -0.001150
     4     0.307978
     5     0.039343
     6     0.022644
     7    -0.000891
     8     0.072743
     9     0.041769
    10    -0.002783
    11    -0.282945
    12    -0.163385
    13     0.000402
    14    -0.069923
    15    -0.006241
    16    -0.022161
    17    -0.063442
    18     0.007768
    19     0.003988
    20     0.000372
    21    -0.019107
    22     0.068629
    23     0.007794
    24     0.028457
    25    -0.000187
    26     0.029501
    27    -0.056855
    28    -0.000841
    29    -0.005089
    30    -0.021573
    31    -0.012749
    32     0.007797
    33     0.000486
    34     0.001915
    35     0.000376
    36    -0.019022
    37     0.068460
    38     0.028597
    39    -0.007498
    40    -0.000848
    41    -0.034411
    42     0.054004
    43    -0.000314
    44    -0.011653
    45    -0.015038
    46    -0.012690
    47     0.012147
    48     0.001535
    49    -0.000384
    50    -0.707683
    51    -2.178184
    52    -1.507575
    53    -0.016505
    54    -0.009633
    55    -0.001310
    56    -0.074885
    57    -0.043039
    58     0.004597
    59     1.446677
    60     1.432489
    61     1.535957
    62     0.014510
    63     0.007072
    64     0.006269
Sym=    57a
Ene=   -0.462983E-03
Spin= Alpha
Occup= 0.000057
     1     0.065570
     2     0.774367
     3    -2.095765
     4    -0.040165
     5     0.204760
     6    -0.123612
     7     0.092860
     8     0.906375
     9    -0.546643
    10     0.331076
    11    -0.359347
    12     0.219925
    13    -0.330987
    14     0.925377
    15     1.033244
    16     0.917052
    17     0.064204
    18    -0.024176
    19     0.006789
    20    -0.006915
    21    -0.130433
    22     0.131047
    23    -0.016451
    24     0.191131
    25     0.022430
    26     0.042910
    27    -0.297245
    28     0.036941
    29    -0.114848
    30     0.256352
    31    -0.247850
    32     0.107584
    33     0.007801
    34     0.105029
    35     0.006826
    36     0.241901
    37    -0.512560
    38    -0.142529
    39     0.081394
    40     0.015322
    41     0.668525
    42    -0.378673
    43     0.056689
    44    -0.266402
    45     0.046751
    46     0.309691
    47     0.287457
    48     0.077549
    49    -0.044024
    50    -0.006834
    51    -0.120249
    52     0.117786
    53    -0.158831
    54    -0.073899
    55     0.025497
    56     0.258038
    57     0.107109
    58     0.029762
    59     0.074193
    60     0.073206
    61    -0.234965
    62     0.241304
    63    -0.098838
    64    -0.061817
Sym=    58a
Ene=   -0.464177E-03
Spin= Alpha
Occup= 0.000058
     1     0.065826
     2     0.777368
     3    -2.105820
     4    -0.035393
     5    -0.001838
     6     0.235794
     7     0.097920
     8    -0.008998
     9     1.045336
    10     0.348398
    11     0.006524
    12    -0.416867
    13    -0.341395
    14     1.057286
    15     0.912398
    16     0.916886
    17    -0.022407
    18    -0.007541
    19    -0.023669
    20     0.006762
    21     0.240449
    22    -0.513731
    23    -0.001195
    24    -0.160535
    25     0.016928
    26     0.006844
    27     0.760430
    28     0.055607
    29     0.184123
    30    -0.400286
    31     0.307657
    32    -0.012823
    33    -0.002405
    34     0.091560
    35    -0.006768
    36    -0.127934
    37     0.127270
    38     0.156958
    39    -0.109579
    40     0.027693
    41    -0.227054
    42     0.182163
    43     0.033094
    44     0.238272
    45    -0.103934
    46    -0.244307
    47    -0.129587
    48     0.101394
    49    -0.051533
    50    -0.006913
    51    -0.120526
    52     0.115939
    53    -0.144886
    54    -0.100535
    55     0.032214
    56     0.223237
    57     0.171184
    58     0.023644
    59     0.255007
    60    -0.106434
    61    -0.235394
    62     0.122560
    63    -0.112681
    64    -0.065117
Sym=    59a
Ene=   -0.926446E-04
Spin= Alpha
Occup= 0.000011
     1     0.002456
     2     0.032456
     3    -0.124023
     4     0.112493
     5    -0.047153
     6    -0.026953
     7     0.003861
     8    -0.272656
     9    -0.156803
    10    -0.001727
    11    -0.006518
    12    -0.001242
    13     0.109634
    14     0.517483
    15    -0.261379
    16    -0.100860
    17     0.800470
    18    -0.411225
    19    -0.219031
    20    -0.003038
    21    -0.026030
    22     0.107092
    23     0.045840
    24    -0.029009
    25    -0.062801
    26    -0.324755
    27    -0.155856
    28     0.107370
    29    -0.067296
    30     0.200296
    31    -0.065931
    32     0.348121
    33    -0.061548
    34    -0.178339
    35    -0.003660
    36    -0.025162
    37     0.102835
    38    -0.007542
    39     0.056645
    40    -0.070017
    41    -0.295657
    42    -0.199706
    43     0.125648
    44     0.396688
    45    -0.252396
    46    -0.062399
    47     0.032120
    48    -0.219278
    49     0.023925
    50     0.010472
    51     0.083294
    52    -0.396437
    53    -0.159770
    54    -0.088939
    55     0.236446
    56    -0.279263
    57    -0.161544
    58    -0.466244
    59    -0.352738
    60    -0.027668
    61     0.162810
    62    -0.323017
    63    -0.438478
    64    -0.229791
Sym=    60a
Ene=   -0.964043E-05
Spin= Alpha
Occup= 0.000000
     1     0.000004
     2    -0.000219
     3    -0.000664
     4    -0.000591
     5     0.000088
     6     0.000789
     7     0.001381
     8     0.001242
     9     0.004312
    10     0.008882
    11     0.001532
    12     0.009899
    13    -0.036233
    14    -0.002607
    15     0.001887
    16    -0.002468
    17    -0.012071
    18    -0.055616
    19     0.081332
    20    -0.000069
    21     0.002066
    22    -0.011452
    23    -0.001019
    24    -0.001055
    25     0.004059
    26     0.005349
    27     0.007122
    28    -0.017218
    29    -0.042872
    30    -0.000279
    31     0.044964
    32    -0.006702
    33     0.770568
    34     0.046326
    35     0.000248
    36    -0.001164
    37     0.005423
    38     0.006654
    39     0.004174
    40    -0.018778
    41    -0.007378
    42    -0.003587
    43     0.058658
    44    -0.001910
    45     0.017112
    46    -0.019840
    47     0.009134
    48    -0.369552
    49    -0.514881
    50    -0.000018
    51    -0.001745
    52     0.010616
    53     0.001694
    54    -0.000201
    55    -0.009526
    56     0.006328
    57     0.002611
    58     0.020488
    59     0.004575
    60    -0.002877
    61    -0.001194
    62     0.003076
    63     0.023507
    64    -0.030595
Sym=    61a
Ene=    0.000000E+00
Spin= Alpha
Occup= 0.000000
     1    -0.000172
     2    -0.021154
     3     0.084275
     4    -3.397547
     5     0.004590
     6     0.000739
     7    -0.002920
     8     0.084451
     9     0.015846
    10    -0.011251
    11     3.626959
    12     0.719116
    13     0.017509
    14    -0.518771
    15    -0.345339
    16     0.344445
    17    -0.523140
    18     0.003978
    19     0.005238
    20     0.010520
    21    -0.256201
    22     1.259615
    23     0.143993
    24     0.076657
    25    -0.000094
    26    -0.835360
    27    -0.683106
    28    -0.005699
    29    -0.163039
    30     0.024584
    31    -0.150323
    32     0.193677
    33    -0.001116
    34     0.006803
    35    -0.000527
    36     0.041998
    37    -0.686271
    38     0.063753
    39     0.075159
    40    -0.003532
    41    -0.123612
    42    -0.578046
    43    -0.000231
    44     0.100556
    45    -0.090320
    46     0.014085
    47     0.072252
    48    -0.000842
    49     0.000285
    50     0.033309
    51    -0.865152
    52     5.235591
    53    -0.151052
    54    -0.141619
    55     0.007048
    56     1.985311
    57     1.461475
    58    -0.010072
    59    -0.123070
    60    -0.324794
    61    -0.484803
    62     0.325845
    63    -0.000744
    64     0.001618
Sym=    62a
Ene=    0.000000E+00
Spin= Alpha
Occup= 0.000000
     1     0.005190
     2     0.221742
     3     0.137048
     4    -2.927181
     5    -0.002852
     6     0.002964
     7    -0.002040
     8    -0.048855
     9     0.048905
    10    -0.008768
    11    -2.036373
    12     1.996974
    13     0.018718
    14     0.368620
    15     0.877583
    16     0.808883
    17     0.298820
    18     0.000429
    19    -0.010151
    20    -0.001408
    21     0.135509
    22    -0.915871
    23    -0.080531
    24    -0.056206
    25     0.000060
    26     0.466977
    27     0.739080
    28    -0.002200
    29     0.163640
    30    -0.387617
    31     0.250917
    32    -0.106134
    33    -0.003041
    34    -0.011716
    35     0.024073
    36    -0.552705
    37     3.574681
    38     0.084042
    39    -0.016012
    40    -0.003649
    41    -1.171740
    42     0.488457
    43    -0.002910
    44    -0.275882
    45    -0.289228
    46    -0.129768
    47     0.061088
    48     0.002917
    49    -0.004692
    50     0.005188
    51    -0.042783
    52     0.247217
    53    -0.036608
    54     0.104621
    55     0.011775
    56     0.123634
    57    -0.656172
    58    -0.020985
    59    -0.154758
    60    -0.156142
    61     0.151084
    62    -0.285681
    63    -0.000689
    64    -0.001843
Sym=    63a
Ene=    0.000000E+00
Spin= Alpha
Occup= 0.000000
     1     0.004518
     2     0.201049
     3     0.062525
     4    -0.357305
     5     0.001717
     6    -0.004803
     7     0.000258
     8     0.027712
     9    -0.087062
    10     0.002465
    11     1.109292
    12    -3.697696
    13    -0.013004
    14     1.263372
    15     0.332484
    16     0.468278
    17    -0.167132
    18    -0.014202
    19     0.007615
    20     0.018736
    21    -0.439598
    22     3.098807
    23     0.043653
    24     0.047596
    25    -0.001016
    26    -0.252590
    27    -1.021261
    28     0.002820
    29    -0.178553
    30    -0.280777
    31    -0.088108
    32     0.056043
    33    -0.002496
    34     0.004871
    35    -0.016154
    36     0.500990
    37    -3.039275
    38    -0.174387
    39    -0.020452
    40    -0.008230
    41     1.784305
    42    -0.326321
    43     0.019342
    44    -0.283761
    45     0.295042
    46     0.429929
    47     0.296678
    48    -0.014439
    49     0.005911
    50    -0.005958
    51     0.222673
    52    -1.224218
    53     0.149737
    54    -0.085348
    55    -0.000181
    56    -1.210950
    57     0.296673
    58     0.001288
    59    -0.345872
    60     0.221333
    61     0.275787
    62    -0.172642
    63    -0.004642
    64     0.003955
Sym=    64a
Ene=    0.000000E+00
Spin= Alpha
Occup= 0.000000
     1     0.002774
     2     0.133105
     3    -0.047773
     4     2.912504
     5     0.003360
     6     0.003445
     7     0.003282
     8     0.056710
     9     0.058256
    10     0.015607
    11     2.322669
    12     2.396775
    13    -0.042135
    14     0.538395
    15     1.156315
    16    -0.058384
    17    -0.349603
    18    -0.008125
    19     0.000254
    20    -0.026472
    21     0.729273
    22    -4.252475
    23     0.091695
    24    -0.189353
    25    -0.008938
    26    -0.529382
    27     2.201866
    28     0.022833
    29     0.482062
    30    -0.244856
    31     0.496544
    32     0.117342
    33     0.000547
    34    -0.002196
    35    -0.017969
    36     0.500297
    37    -2.758085
    38    -0.060688
    39     0.182621
    40    -0.006915
    41     0.961919
    42    -1.408659
    43     0.023102
    44     0.042728
    45     0.080977
    46     0.369440
    47     0.368400
    48    -0.002991
    49     0.004425
    50     0.003329
    51    -0.081731
    52     1.039331
    53     0.009419
    54     0.047189
    55    -0.006480
    56     0.236955
    57    -0.105307
    58     0.017676
    59    -0.087943
    60    -0.073088
    61     0.048715
    62    -0.110501
    63     0.001322
    64    -0.000038
