[Molden Format]
p30-5 set                                                                       
[Atoms] AU
 CL       1    17       -1.0601       -1.8796        0.0000
 O        2     8        0.0000        1.8117        0.0000
 O        3     8        2.2527        2.1824        0.0000
[GTO]
    1 0
s    5 1.00
   10449.827566000000  0.542659537894E-02
    1571.736522100000  0.406263781288E-01
     357.120655230000  0.183597478529E+00
     100.251859350000  0.474389487682E+00
      30.812727554000  0.437351811041E+00
s    3 1.00
      51.923789434000 -0.927541548481E-01
       5.704576097500  0.563808255442E+00
       2.350837680900  0.503670446297E+00
s    1 1.00
       0.446051246720  0.100000000000E+01
s    1 1.00
       0.168488561900  0.100000000000E+01
p    5 1.00
     307.667905690000 -0.887970255889E-02
      72.102015515000 -0.642840717212E-01
      22.532680262000 -0.242887397360E+00
       7.899176544400 -0.483408363699E+00
       2.876726832100 -0.389525638755E+00
p    1 1.00
       0.774593639550  0.100000000000E+01
p    1 1.00
       0.210376996980  0.100000000000E+01
d    1 1.00
       0.650000000000  0.100000000000E+01

    2 0
s    5 1.00
    2266.176778500000 -0.538935039217E-02
     340.870101910000 -0.402347213890E-01
      77.363135167000 -0.180081842055E+00
      21.479644940000 -0.468288576577E+00
       6.658943312400 -0.446926171602E+00
s    1 1.00
       0.809759756680  0.100000000000E+01
s    1 1.00
       0.255307722340  0.100000000000E+01
p    3 1.00
      17.721504317000  0.626302487632E-01
       3.863550544000  0.333311384824E+00
       1.048092088300  0.741486383081E+00
p    1 1.00
       0.276415444110  0.100000000000E+01
d    1 1.00
       1.200000000000  0.100000000000E+01

    3 0
s    5 1.00
    2266.176778500000 -0.538935039217E-02
     340.870101910000 -0.402347213890E-01
      77.363135167000 -0.180081842055E+00
      21.479644940000 -0.468288576577E+00
       6.658943312400 -0.446926171602E+00
s    1 1.00
       0.809759756680  0.100000000000E+01
s    1 1.00
       0.255307722340  0.100000000000E+01
p    3 1.00
      17.721504317000  0.626302487632E-01
       3.863550544000  0.333311384824E+00
       1.048092088300  0.741486383081E+00
p    1 1.00
       0.276415444110  0.100000000000E+01
d    1 1.00
       1.200000000000  0.100000000000E+01

[MO]
Sym=     1a
Ene=   -0.104830E+03
Spin= Alpha
Occup= 2.000000
     1     0.995501
     2     0.022157
     3    -0.024317
     4    -0.001853
     5    -0.000023
     6    -0.000000
     7    -0.000910
     8     0.000022
     9     0.000065
    10     0.000023
    11    -0.000046
    12    -0.000152
    13    -0.000025
    14     0.008906
    15     0.008875
    16     0.008908
    17    -0.000004
    18    -0.000000
    19    -0.000000
    20    -0.000005
    21    -0.000009
    22    -0.000107
    23    -0.000001
    24    -0.000066
    25     0.000000
    26    -0.000227
    27    -0.000056
    28     0.000001
    29     0.000002
    30    -0.000002
    31     0.000033
    32    -0.000001
    33     0.000000
    34     0.000000
    35     0.000009
    36    -0.000051
    37     0.000420
    38     0.000015
    39     0.000056
    40     0.000001
    41    -0.000211
    42    -0.000136
    43     0.000001
    44    -0.000028
    45    -0.000046
    46    -0.000072
    47     0.000021
    48    -0.000000
    49     0.000000
Sym=     2a
Ene=   -0.862252E+01
Spin= Alpha
Occup= 1.999935
     1     0.145558
     2    -0.488419
     3    -0.013528
     4     0.003897
     5     0.779895
     6    -0.379935
     7     0.081053
     8    -0.024258
     9     0.014066
    10    -0.001730
    11     0.015309
    12    -0.005063
    13     0.002627
    14    -0.000096
    15    -0.000353
    16    -0.000116
    17    -0.000013
    18    -0.000011
    19     0.000012
    20     0.000043
    21     0.000054
    22     0.000731
    23     0.000146
    24    -0.000083
    25    -0.000020
    26    -0.000000
    27    -0.000144
    28    -0.000060
    29    -0.000059
    30     0.000041
    31    -0.000039
    32     0.000000
    33    -0.000009
    34    -0.000007
    35    -0.000021
    36    -0.000107
    37    -0.000723
    38     0.000063
    39     0.000134
    40    -0.000115
    41     0.000393
    42     0.000553
    43    -0.000077
    44     0.000040
    45     0.000093
    46     0.000105
    47    -0.000032
    48     0.000004
    49    -0.000001
Sym=     3a
Ene=   -0.207150E+02
Spin= Alpha
Occup= 1.999905
     1    -0.000003
     2     0.000086
     3    -0.000083
     4    -0.000301
     5    -0.000118
     6     0.000046
     7    -0.000002
     8     0.000037
     9     0.000124
    10    -0.000001
    11    -0.000376
    12    -0.000019
    13    -0.000001
    14     0.000134
    15     0.000200
    16     0.000179
    17    -0.000014
    18    -0.000001
    19     0.000000
    20    -0.000205
    21    -0.000638
    22    -0.005143
    23     0.001674
    24     0.000100
    25    -0.000001
    26    -0.001402
    27    -0.000345
    28    -0.000000
    29     0.001755
    30     0.000130
    31     0.000097
    32     0.000290
    33    -0.000000
    34    -0.000000
    35     0.993942
    36    -0.026548
    37     0.017285
    38     0.004359
    39     0.000252
    40    -0.000001
    41    -0.001095
    42    -0.000558
    43    -0.000001
    44     0.004015
    45     0.004335
    46     0.004564
    47    -0.000020
    48     0.000000
    49    -0.000001
Sym=     4a
Ene=   -0.207510E+02
Spin= Alpha
Occup= 1.999903
     1    -0.000084
     2     0.000496
     3    -0.000027
     4    -0.002257
     5     0.000177
     6     0.000231
     7    -0.000033
     8     0.000299
     9     0.000647
    10     0.000006
    11    -0.000362
    12    -0.000923
    13     0.000006
    14     0.000098
    15    -0.000077
    16     0.000184
    17    -0.000263
    18    -0.000001
    19     0.000000
    20     0.993803
    21    -0.027248
    22     0.018806
    23    -0.004159
    24     0.000258
    25    -0.000003
    26     0.001129
    27    -0.001220
    28    -0.000002
    29     0.003679
    30     0.004443
    31     0.003917
    32    -0.000003
    33    -0.000000
    34     0.000001
    35    -0.000218
    36    -0.000571
    37    -0.005595
    38    -0.001674
    39    -0.000279
    40    -0.000002
    41     0.001604
    42     0.000584
    43    -0.000001
    44     0.001770
    45     0.000139
    46     0.000099
    47     0.000207
    48     0.000000
    49     0.000000
Sym=     5a
Ene=   -0.871348E+01
Spin= Alpha
Occup= 1.999893
     1    -0.156638
     2     0.530177
     3     0.009481
     4    -0.006646
     5     0.268014
     6     0.091804
     7     0.803631
     8    -0.007004
     9    -0.005355
    10    -0.022935
    11     0.007289
    12    -0.000794
    13     0.018827
    14    -0.000115
    15     0.000023
    16    -0.000088
    17     0.000083
    18     0.000001
    19     0.000070
    20     0.000061
    21     0.000266
    22     0.000029
    23    -0.000002
    24     0.000122
    25    -0.000103
    26    -0.000226
    27     0.000263
    28    -0.000547
    29     0.000009
    30    -0.000059
    31     0.000079
    32    -0.000053
    33    -0.000061
    34    -0.000016
    35    -0.000013
    36    -0.000155
    37     0.000218
    38     0.000086
    39     0.000002
    40    -0.000773
    41    -0.000034
    42    -0.000119
    43    -0.000498
    44    -0.000013
    45    -0.000012
    46    -0.000030
    47     0.000026
    48     0.000024
    49    -0.000003
Sym=     6a
Ene=   -0.880830E+01
Spin= Alpha
Occup= 1.999878
     1    -0.168750
     2     0.566765
     3     0.009926
     4    -0.006542
     5     0.533605
     6     0.304815
     7    -0.555597
     8    -0.016965
     9    -0.015761
    10     0.015950
    11     0.010965
    12     0.000243
    13    -0.012934
    14    -0.000182
    15    -0.000024
    16    -0.000262
    17     0.000080
    18    -0.000027
    19    -0.000039
    20     0.000072
    21     0.000470
    22    -0.000091
    23    -0.000001
    24     0.000224
    25     0.000073
    26    -0.000056
    27     0.000559
    28     0.000381
    29     0.000024
    30    -0.000117
    31     0.000097
    32    -0.000080
    33     0.000043
    34     0.000010
    35    -0.000019
    36    -0.000116
    37    -0.000234
    38     0.000097
    39    -0.000109
    40     0.000537
    41     0.000213
    42     0.000026
    43     0.000345
    44     0.000021
    45     0.000042
    46     0.000048
    47     0.000017
    48    -0.000017
    49     0.000002
Sym=     7a
Ene=   -0.860643E+01
Spin= Alpha
Occup= 1.999837
     1    -0.142836
     2     0.480525
     3     0.009868
     4    -0.007883
     5    -0.124107
     6    -0.849537
     7    -0.148589
     8     0.008192
     9     0.038524
    10     0.004188
    11     0.001523
    12    -0.006768
    13    -0.003551
    14     0.000149
    15     0.000010
    16     0.000132
    17     0.000083
    18     0.000007
    19    -0.000023
    20    -0.000147
    21    -0.000244
    22     0.000712
    23     0.000048
    24    -0.000358
    25     0.000020
    26    -0.001134
    27    -0.000733
    28     0.000102
    29    -0.000039
    30     0.000124
    31     0.000061
    32     0.000035
    33     0.000012
    34     0.000004
    35     0.000018
    36    -0.000335
    37     0.001727
    38     0.000089
    39     0.000316
    40     0.000149
    41    -0.000842
    42    -0.000545
    43     0.000098
    44    -0.000106
    45    -0.000166
    46    -0.000272
    47     0.000066
    48    -0.000006
    49    -0.000000
Sym=     8a
Ene=   -0.984630E+00
Spin= Alpha
Occup= 1.987376
     1     0.074882
     2    -0.481661
     3     0.657960
     4     0.375653
     5     0.099012
     6    -0.031525
     7    -0.012301
     8     0.180319
     9    -0.055459
    10    -0.023972
    11     0.245554
    12    -0.075122
    13    -0.032495
    14     0.016209
    15     0.016932
    16     0.012020
    17     0.003924
    18    -0.000249
    19    -0.000226
    20    -0.003194
    21    -0.012205
    22    -0.013077
    23     0.008076
    24    -0.028950
    25     0.000074
    26     0.017681
    27    -0.012050
    28     0.000052
    29    -0.002502
    30     0.005891
    31    -0.002503
    32     0.000617
    33     0.000129
    34     0.000230
    35    -0.001805
    36    -0.005159
    37    -0.009113
    38    -0.001318
    39     0.019502
    40     0.001643
    41     0.002510
    42     0.017654
    43     0.001203
    44    -0.001307
    45     0.000459
    46    -0.000484
    47    -0.000225
    48    -0.000084
    49     0.000024
Sym=     9a
Ene=   -0.101874E+01
Spin= Alpha
Occup= 1.984469
     1     0.002817
     2    -0.018727
     3     0.028418
     4     0.022887
     5     0.004247
     6    -0.005027
     7    -0.000076
     8     0.009021
     9    -0.007261
    10    -0.000133
    11     0.014089
    12     0.007675
    13    -0.000163
    14     0.000789
    15    -0.001758
    16     0.004733
    17    -0.004239
    18     0.000215
    19    -0.000047
    20    -0.009457
    21    -0.006127
    22     0.011753
    23    -0.044519
    24     0.185490
    25     0.000712
    26     0.001482
    27     0.114068
    28     0.000418
    29    -0.009810
    30     0.007369
    31     0.004669
    32     0.019755
    33     0.000063
    34     0.000006
    35    -0.201996
    36    -0.440778
    37    -0.328067
    38    -0.186858
    39     0.376186
    40     0.001016
    41    -0.116447
    42     0.249961
    43     0.000674
    44     0.000139
    45    -0.014878
    46    -0.008015
    47    -0.018469
    48    -0.000058
    49    -0.000009
Sym=    10a
Ene=   -0.101223E+01
Spin= Alpha
Occup= 1.983570
     1     0.002285
     2    -0.016138
     3     0.027446
     4     0.019865
     5    -0.003417
     6    -0.013584
     7    -0.000733
     8    -0.005175
     9    -0.019801
    10    -0.002283
    11    -0.004511
    12    -0.016152
    13    -0.005952
    14     0.004945
    15    -0.011480
    16     0.005074
    17    -0.003406
    18     0.002083
    19     0.006876
    20    -0.196528
    21    -0.428394
    22    -0.322179
    23     0.133505
    24    -0.001206
    25     0.402709
    26     0.077318
    27    -0.000082
    28     0.267031
    29    -0.004189
    30    -0.010851
    31    -0.008071
    32    -0.002643
    33     0.020719
    34    -0.000408
    35     0.003682
    36     0.017147
    37     0.041882
    38     0.014739
    39    -0.016193
    40     0.208046
    41    -0.016643
    42    -0.015521
    43     0.118072
    44    -0.003931
    45     0.003372
    46     0.002914
    47     0.000311
    48    -0.022192
    49    -0.003711
Sym=    11a
Ene=   -0.101191E+01
Spin= Alpha
Occup= 1.983538
     1    -0.002177
     2     0.015448
     3    -0.026540
     4    -0.019412
     5     0.003419
     6     0.013739
     7    -0.000295
     8     0.005203
     9     0.020030
    10    -0.001542
    11     0.004493
    12     0.016366
    13    -0.004869
    14    -0.005195
    15     0.011558
    16    -0.004831
    17     0.003527
    18     0.002316
    19     0.006854
    20     0.196278
    21     0.427762
    22     0.321989
    23    -0.133017
    24    -0.000969
    25     0.403220
    26    -0.076886
    27    -0.001436
    28     0.267387
    29     0.004188
    30     0.010837
    31     0.008029
    32     0.002529
    33     0.020745
    34    -0.000424
    35    -0.003692
    36    -0.017141
    37    -0.041990
    38    -0.014432
    39     0.014815
    40     0.208324
    41     0.016876
    42     0.014765
    43     0.118234
    44     0.003884
    45    -0.003325
    46    -0.002904
    47    -0.000195
    48    -0.022218
    49    -0.003717
Sym=    12a
Ene=   -0.971034E+00
Spin= Alpha
Occup= 1.983322
     1     0.002795
     2    -0.018994
     3     0.027048
     4     0.030765
     5     0.003510
     6    -0.004548
     7    -0.000142
     8     0.007268
     9    -0.006805
    10    -0.000247
    11     0.016613
    12     0.014636
    13    -0.000350
    14     0.000067
    15    -0.003738
    16     0.003781
    17    -0.005933
    18     0.000070
    19    -0.000007
    20    -0.014676
    21    -0.037759
    22    -0.084506
    23    -0.014890
    24     0.205765
    25     0.000763
    26    -0.038237
    27     0.121300
    28     0.000450
    29    -0.001068
    30     0.000544
    31    -0.002068
    32     0.023629
    33     0.000067
    34     0.000009
    35     0.194987
    36     0.422828
    37     0.336262
    38     0.047014
    39     0.428921
    40     0.001095
    41     0.014200
    42     0.280790
    43     0.000723
    44     0.009940
    45     0.001862
    46     0.008159
    47    -0.021023
    48    -0.000066
    49    -0.000008
Sym=    13a
Ene=   -0.560677E+00
Spin= Alpha
Occup= 1.976285
     1     0.025607
     2    -0.168962
     3     0.245074
     4     0.119164
     5    -0.201566
     6     0.051839
     7    -0.113917
     8    -0.389970
     9     0.101741
    10    -0.224613
    11    -0.527605
    12     0.133497
    13    -0.300829
    14     0.005303
    15     0.011192
    16     0.004904
    17    -0.003434
    18    -0.002819
    19    -0.001546
    20    -0.006447
    21    -0.012907
    22    -0.030662
    23     0.000863
    24    -0.005570
    25     0.006516
    26    -0.009063
    27    -0.006598
    28     0.004333
    29     0.001729
    30    -0.000328
    31    -0.000600
    32     0.003396
    33     0.001481
    34     0.002134
    35     0.004247
    36     0.013231
    37     0.013613
    38    -0.005834
    39    -0.007637
    40     0.018073
    41    -0.011823
    42    -0.003440
    43     0.012588
    44     0.001794
    45    -0.000070
    46     0.001346
    47    -0.000213
    48    -0.001105
    49     0.000167
Sym=    14a
Ene=   -0.526950E+00
Spin= Alpha
Occup= 1.974889
     1    -0.017248
     2     0.113611
     3    -0.163920
     4    -0.081349
     5     0.099523
     6    -0.025906
     7    -0.223301
     8     0.190971
     9    -0.050447
    10    -0.434046
    11     0.258597
    12    -0.066037
    13    -0.583191
    14    -0.005589
    15    -0.006840
    16    -0.001719
    17     0.002048
    18    -0.000836
    19    -0.004183
    20     0.003987
    21     0.008335
    22     0.017952
    23    -0.001168
    24     0.004587
    25     0.012951
    26     0.003929
    27     0.004121
    28     0.008474
    29    -0.000716
    30    -0.000173
    31     0.000468
    32    -0.001808
    33     0.002917
    34     0.004130
    35    -0.002159
    36    -0.006607
    37    -0.007371
    38     0.003091
    39     0.002223
    40     0.035518
    41     0.006498
    42     0.000474
    43     0.025023
    44    -0.000845
    45     0.000037
    46    -0.000645
    47     0.000136
    48    -0.002170
    49     0.000315
Sym=    15a
Ene=   -0.104653E+01
Spin= Alpha
Occup= 1.951852
     1     0.001149
     2    -0.008100
     3     0.017066
     4     0.007264
     5    -0.011002
     6    -0.013689
     7     0.000048
     8    -0.017704
     9    -0.020650
    10     0.000086
    11    -0.032824
    12    -0.019845
    13     0.000123
    14     0.005424
    15    -0.007877
    16     0.005194
    17    -0.001607
    18    -0.000138
    19     0.000052
    20     0.055456
    21     0.128405
    22    -0.078525
    23     0.484683
    24     0.060037
    25     0.000053
    26     0.224192
    27     0.022050
    28     0.000037
    29     0.044021
    30    -0.011214
    31    -0.010006
    32     0.006097
    33     0.000002
    34    -0.000003
    35     0.041866
    36     0.098457
    37    -0.129183
    38    -0.471400
    39    -0.062866
    40     0.000021
    41    -0.202419
    42    -0.024434
    43     0.000002
    44     0.043579
    45    -0.009254
    46    -0.011479
    47     0.011266
    48    -0.000004
    49     0.000002
Sym=    16a
Ene=   -0.464869E+00
Spin= Alpha
Occup= 1.544655
     1    -0.003441
     2     0.024259
     3    -0.026009
     4    -0.064594
     5     0.046614
     6     0.191112
     7    -0.000467
     8     0.081535
     9     0.333287
    10    -0.000876
    11     0.091742
    12     0.405747
    13    -0.000931
    14    -0.002200
    15     0.019667
    16    -0.005103
    17     0.014781
    18     0.000031
    19    -0.000503
    20    -0.029078
    21    -0.073996
    22    -0.062640
    23     0.104822
    24    -0.412225
    25    -0.001045
    26     0.090266
    27    -0.274505
    28    -0.000715
    29    -0.005084
    30     0.010312
    31    -0.009523
    32     0.002788
    33    -0.000014
    34     0.000025
    35     0.002658
    36     0.010419
    37    -0.021268
    38    -0.061757
    39     0.269726
    40     0.000131
    41    -0.036009
    42     0.237395
    43     0.000296
    44    -0.000348
    45     0.002680
    46     0.001589
    47     0.003471
    48     0.000023
    49     0.000002
Sym=    17a
Ene=   -0.320160E+00
Spin= Alpha
Occup= 1.000000
     1     0.000019
     2    -0.000120
     3     0.000236
     4    -0.000022
     5    -0.000085
     6     0.000008
     7     0.019686
     8    -0.000155
     9     0.000016
    10     0.036859
    11    -0.000146
    12     0.000073
    13     0.049250
    14     0.000375
    15    -0.000033
    16    -0.000289
    17    -0.000081
    18    -0.001528
    19    -0.010693
    20    -0.000003
    21    -0.000003
    22    -0.000095
    23    -0.000044
    24     0.000286
    25    -0.390639
    26    -0.000094
    27     0.000367
    28    -0.312393
    29     0.000011
    30    -0.000014
    31     0.000005
    32    -0.000025
    33     0.010895
    34     0.005722
    35    -0.000004
    36    -0.000031
    37     0.000096
    38     0.000166
    39    -0.001126
    40     0.653561
    41     0.000031
    42    -0.000704
    43     0.427595
    44    -0.000007
    45    -0.000002
    46    -0.000006
    47     0.000014
    48    -0.004205
    49     0.000593
Sym=    18a
Ene=   -0.158725E+00
Spin= Alpha
Occup= 0.454078
     1     0.010036
     2    -0.066228
     3     0.101235
     4     0.076371
     5     0.060498
     6     0.214445
     7    -0.000344
     8     0.111930
     9     0.397966
    10    -0.000705
    11     0.146411
    12     0.506335
    13    -0.000491
    14     0.016318
    15    -0.021036
    16     0.013839
    17    -0.000435
    18    -0.000108
    19    -0.001022
    20    -0.039209
    21    -0.079075
    22    -0.156613
    23    -0.026086
    24     0.533915
    25     0.000845
    26     0.006801
    27     0.354231
    28     0.000190
    29    -0.001315
    30     0.005672
    31    -0.008134
    32     0.005017
    33     0.000016
    34     0.000079
    35     0.001845
    36     0.008012
    37    -0.011977
    38    -0.003899
    39    -0.249595
    40    -0.000268
    41     0.009372
    42    -0.195028
    43    -0.000063
    44     0.004713
    45    -0.000981
    46     0.000244
    47    -0.007799
    48    -0.000028
    49    -0.000004
Sym=    19a
Ene=   -0.424724E-01
Spin= Alpha
Occup= 0.046087
     1     0.000981
     2    -0.006907
     3     0.009366
     4     0.013111
     5    -0.005864
     6     0.007312
     7    -0.000022
     8    -0.010182
     9     0.013763
    10    -0.000093
    11    -0.016701
    12     0.025217
    13     0.000128
    14    -0.000060
    15    -0.001047
    16    -0.002178
    17     0.000131
    18    -0.001763
    19     0.000242
    20     0.123712
    21     0.356960
    22     0.262380
    23     0.730647
    24     0.118063
    25    -0.000014
    26     0.234567
    27     0.058144
    28     0.000025
    29     0.017834
    30    -0.001592
    31    -0.011528
    32    -0.003652
    33    -0.000008
    34     0.000032
    35    -0.116855
    36    -0.318950
    37    -0.284813
    38     0.732013
    39     0.118949
    40     0.000034
    41     0.257546
    42     0.044830
    43    -0.000030
    44    -0.021505
    45     0.013032
    46    -0.005812
    47    -0.009115
    48     0.000012
    49     0.000030
Sym=    20a
Ene=   -0.854815E-02
Spin= Alpha
Occup= 0.013458
     1     0.000711
     2    -0.000961
     3    -0.004782
     4     0.013819
     5    -0.028701
     6    -0.021988
     7     0.061796
     8    -0.096329
     9    -0.077110
    10     0.203263
    11     0.098745
    12     0.112549
    13    -0.173366
    14    -0.253876
    15    -0.548547
    16     0.842485
    17    -0.131300
    18    -0.388434
    19     0.151389
    20     0.008765
    21     0.011875
    22     0.029170
    23     0.003306
    24    -0.190380
    25     0.007093
    26    -0.003889
    27     0.183380
    28     0.003929
    29     0.012912
    30    -0.026274
    31     0.019223
    32    -0.021210
    33     0.001499
    34     0.004679
    35    -0.001304
    36     0.002313
    37    -0.040932
    38     0.005454
    39     0.017224
    40    -0.001046
    41     0.027028
    42    -0.051403
    43     0.002717
    44    -0.001295
    45     0.005552
    46     0.001846
    47     0.004958
    48    -0.002088
    49     0.000275
Sym=    21a
Ene=   -0.751336E-02
Spin= Alpha
Occup= 0.011315
     1     0.002569
     2    -0.013980
     3     0.081483
     4    -0.134775
     5     0.002922
     6    -0.053207
     7     0.005247
     8     0.016121
     9    -0.170020
    10     0.016898
    11    -0.038174
    12     0.124251
    13    -0.012921
    14     0.387321
    15    -0.379010
    16     0.047938
    17     0.743373
    18     0.159639
    19     0.424966
    20    -0.010645
    21    -0.094836
    22     0.251467
    23    -0.060517
    24     0.041687
    25     0.003625
    26     0.168344
    27    -0.021792
    28    -0.029121
    29    -0.008962
    30     0.004713
    31    -0.024651
    32    -0.006089
    33    -0.006363
    34    -0.008295
    35     0.000602
    36     0.011624
    37    -0.176604
    38     0.019056
    39    -0.003830
    40     0.029547
    41     0.085091
    42     0.052460
    43    -0.020850
    44    -0.006106
    45     0.000214
    46    -0.003502
    47    -0.003853
    48     0.007025
    49     0.003572
Sym=    22a
Ene=   -0.110013E-01
Spin= Alpha
Occup= 0.014758
     1    -0.001169
     2     0.007352
     3    -0.008504
     4    -0.010713
     5    -0.004275
     6    -0.004638
     7     0.000171
     8    -0.006756
     9    -0.010226
    10     0.000553
    11    -0.018999
    12    -0.011491
    13    -0.000451
    14     0.003911
    15    -0.013326
    16     0.005270
    17    -0.007502
    18    -0.001396
    19     0.000988
    20     0.005999
    21    -0.008300
    22     0.310037
    23     0.035265
    24     0.142499
    25     0.000399
    26     0.074574
    27     0.064818
    28     0.000151
    29     0.021564
    30    -0.011401
    31    -0.004648
    32    -0.031928
    33    -0.000099
    34     0.000055
    35     0.236560
    36     1.201241
    37    -1.233122
    38     0.134214
    39     0.696798
    40     0.001833
    41     0.035517
    42    -0.787333
    43    -0.002148
    44    -0.104709
    45     0.011596
    46    -0.099374
    47     0.012561
    48    -0.000007
    49     0.000484
Sym=    23a
Ene=   -0.108808E-01
Spin= Alpha
Occup= 0.014455
     1     0.006947
     2    -0.047298
     3     0.085524
     4     0.041159
     5     0.004405
     6     0.042936
     7     0.021398
     8     0.012586
     9     0.107885
    10     0.045785
    11     0.010885
    12     0.075642
    13     0.048628
    14     0.025167
    15     0.012350
    16    -0.025261
    17     0.010225
    18     0.000995
    19     0.008216
    20     0.232450
    21     1.196865
    22    -1.241601
    23    -0.272541
    24     0.073057
    25     0.650753
    26     0.170035
    27    -0.080844
    28    -0.760301
    29    -0.101617
    30    -0.099471
    31     0.005567
    32     0.018117
    33    -0.040615
    34    -0.007821
    35     0.007744
    36     0.005275
    37     0.251126
    38    -0.050922
    39    -0.016523
    40     0.183842
    41    -0.084207
    42     0.030737
    43     0.005815
    44     0.011471
    45    -0.002097
    46    -0.001766
    47     0.002580
    48     0.031368
    49     0.014708
Sym=    24a
Ene=   -0.108589E-01
Spin= Alpha
Occup= 0.014421
     1    -0.006830
     2     0.046311
     3    -0.082958
     4    -0.041277
     5    -0.004675
     6    -0.041873
     7     0.020916
     8    -0.013586
     9    -0.104448
    10     0.044192
    11    -0.009271
    12    -0.077289
    13     0.049988
    14    -0.002070
    15    -0.012876
    16     0.001534
    17    -0.015799
    18     0.025105
    19     0.008614
    20    -0.232715
    21    -1.197833
    22     1.240177
    23     0.273627
    24    -0.078900
    25     0.649766
    26    -0.173018
    27     0.087566
    28    -0.759750
    29     0.101888
    30     0.099725
    31    -0.005160
    32    -0.018259
    33    -0.041096
    34    -0.007493
    35    -0.007735
    36    -0.005531
    37    -0.248860
    38     0.051409
    39     0.015719
    40     0.183651
    41     0.082498
    42    -0.031736
    43     0.005927
    44    -0.011449
    45     0.001938
    46     0.001576
    47    -0.002760
    48     0.031634
    49     0.014689
Sym=    25a
Ene=   -0.108708E-01
Spin= Alpha
Occup= 0.013653
     1     0.000829
     2    -0.002982
     3    -0.011754
     4     0.021530
     5     0.018063
     6     0.007788
     7    -0.000585
     8     0.033690
     9     0.018903
    10    -0.001921
    11     0.037623
    12    -0.004429
    13     0.001648
    14    -0.000961
    15     0.003697
    16     0.009536
    17     0.020933
    18     0.018704
    19    -0.006255
    20     0.009211
    21     0.018076
    22     0.271775
    23     0.063266
    24    -0.136809
    25    -0.000402
    26     0.118105
    27    -0.014928
    28    -0.000301
    29    -0.001081
    30     0.004910
    31     0.003164
    32     0.037481
    33     0.000094
    34    -0.000182
    35     0.243725
    36     1.230522
    37    -1.253771
    38     0.344408
    39    -0.602814
    40    -0.002067
    41    -0.214171
    42     0.736243
    43     0.002420
    44    -0.089247
    45     0.014016
    46    -0.137531
    47    -0.065214
    48    -0.000041
    49     0.000328
Sym=    26a
Ene=   -0.524471E-02
Spin= Alpha
Occup= 0.007043
     1    -0.042167
     2     0.355476
     3    -1.187444
     4     0.799199
     5    -0.172060
     6     0.090421
     7     0.032099
     8    -0.565420
     9     0.288261
    10     0.105457
    11     0.472650
    12    -0.234173
    13    -0.089540
    14    -0.424496
    15     0.349417
    16     0.450437
    17     0.283692
    18     0.330302
    19    -0.088988
    20    -0.005035
    21     0.004288
    22     0.001703
    23    -0.058260
    24     0.179116
    25     0.003540
    26     0.148885
    27    -0.114743
    28     0.000315
    29    -0.010056
    30     0.028572
    31    -0.021859
    32     0.014195
    33     0.001903
    34     0.003107
    35     0.002261
    36     0.030678
    37    -0.138237
    38     0.005948
    39    -0.033299
    40    -0.011139
    41     0.045762
    42     0.123509
    43     0.012074
    44     0.003542
    45    -0.000502
    46     0.000465
    47    -0.004253
    48    -0.000686
    49    -0.000746
Sym=    27a
Ene=   -0.113591E-02
Spin= Alpha
Occup= 0.000134
     1     0.065064
     2    -0.732527
     3     1.912980
     4     0.063879
     5     0.042201
     6     0.311891
     7     0.055211
     8     0.147277
     9     1.064472
    10     0.182984
    11    -0.152117
    12    -1.042092
    13    -0.161088
    14    -0.721455
    15    -0.887095
    16    -0.787152
    17     0.106479
    18    -0.000601
    19    -0.030758
    20    -0.011628
    21    -0.169921
    22     0.411340
    23     0.040413
    24    -0.262757
    25    -0.013058
    26    -0.161362
    27     0.095893
    28     0.035854
    29     0.013865
    30    -0.033038
    31     0.004277
    32    -0.042261
    33     0.005833
    34    -0.007591
    35     0.000049
    36    -0.027357
    37     0.074968
    38     0.008580
    39     0.067925
    40     0.000078
    41    -0.011592
    42    -0.135382
    43    -0.010983
    44    -0.021128
    45     0.019188
    46    -0.050046
    47     0.012877
    48    -0.002588
    49    -0.005068
Sym=    28a
Ene=   -0.167152E-03
Spin= Alpha
Occup= 0.000016
     1    -0.002366
     2     0.053250
     3     0.012138
     4    -0.410640
     5    -0.007352
     6     0.027872
     7     0.000423
     8    -0.017161
     9     0.126072
    10     0.003282
    11    -0.018733
    12    -0.247826
    13    -0.002054
    14     0.174550
    15     0.031509
    16     0.180628
    17    -0.046919
    18    -0.010210
    19     0.004423
    20     0.007986
    21    -0.069489
    22     0.390786
    23     0.002891
    24     0.125778
    25     0.009559
    26    -0.014489
    27    -0.114541
    28    -0.179585
    29    -0.197455
    30     0.129124
    31    -0.098200
    32     0.483296
    33    -0.547861
    34    -0.327812
    35    -0.001779
    36     0.014957
    37    -0.136977
    38     0.009199
    39    -0.015018
    40    -0.073799
    41     0.063640
    42    -0.063097
    43     0.271811
    44    -0.141272
    45     0.037336
    46     0.159521
    47     0.623600
    48    -0.391687
    49    -0.080954
Sym=    29a
Ene=   -0.824305E-03
Spin= Alpha
Occup= 0.000091
     1    -0.064846
     2     0.754795
     3    -1.837762
     4    -0.407968
     5     0.122994
     6     0.023988
     7     0.306099
     8     0.407956
     9     0.083193
    10     1.013758
    11    -0.352633
    12    -0.069871
    13    -0.889454
    14     0.988661
    15     0.863428
    16     0.819686
    17    -0.026331
    18     0.148288
    19    -0.099468
    20    -0.000415
    21     0.004049
    22    -0.035441
    23     0.005638
    24    -0.084613
    25    -0.057890
    26    -0.038474
    27     0.078167
    28     0.170230
    29     0.007450
    30    -0.002939
    31     0.036867
    32    -0.019179
    33     0.025752
    34    -0.035232
    35     0.000489
    36    -0.031370
    37     0.120946
    38    -0.001435
    39     0.033459
    40     0.004820
    41    -0.035211
    42    -0.098905
    43    -0.056218
    44    -0.027654
    45     0.010438
    46    -0.028000
    47     0.002675
    48    -0.021406
    49    -0.025089
Sym=    30a
Ene=   -0.165021E-03
Spin= Alpha
Occup= 0.000008
     1    -0.000358
     2     0.003691
     3    -0.046030
     4     0.105962
     5     0.007702
     6    -0.008718
     7    -0.000707
     8     0.048608
     9    -0.045774
    10    -0.002318
    11    -0.109689
    12     0.144348
    13     0.001931
    14    -0.054779
    15     0.112442
    16    -0.055620
    17    -0.069244
    18    -0.024045
    19     0.006175
    20     0.065091
    21    -0.033168
    22     0.826474
    23    -0.661762
    24    -0.179035
    25    -0.000254
    26     0.917748
    27     0.320891
    28     0.000745
    29    -0.565259
    30    -0.232008
    31    -0.220637
    32    -0.165553
    33     0.000462
    34    -0.000173
    35    -0.004903
    36    -0.110299
    37    -0.520543
    38     0.138148
    39     0.038443
    40     0.000517
    41    -0.081886
    42    -0.062629
    43    -0.000852
    44     0.875846
    45    -0.343821
    46    -0.427545
    47     0.330329
    48     0.001323
    49     0.001338
Sym=    31a
Ene=   -0.171254E-03
Spin= Alpha
Occup= 0.000008
     1    -0.000172
     2     0.008963
     3    -0.019804
     4    -0.010659
     5     0.006071
     6    -0.000960
     7     0.000159
     8     0.031700
     9    -0.009624
    10     0.000547
    11    -0.060193
    12     0.057859
    13    -0.000518
    14    -0.013863
    15     0.076963
    16     0.012601
    17    -0.015418
    18    -0.004475
    19     0.002279
    20    -0.003416
    21    -0.127014
    22    -0.378383
    23    -0.155874
    24     0.009449
    25     0.000086
    26     0.232238
    27     0.007258
    28    -0.000287
    29     0.910736
    30    -0.470264
    31    -0.365605
    32     0.236486
    33    -0.000663
    34    -0.000675
    35     0.070009
    36    -0.038204
    37     0.794292
    38     0.687090
    39     0.108406
    40     0.000312
    41    -0.826012
    42    -0.117066
    43    -0.000105
    44    -0.628418
    45    -0.272571
    46    -0.185651
    47    -0.047546
    48    -0.000897
    49    -0.000166
Sym=    32a
Ene=   -0.308700E-03
Spin= Alpha
Occup= 0.000035
     1     0.036324
     2    -0.564048
     3     1.187460
     4     0.961605
     5     0.187781
     6    -0.057484
     7     0.035046
     8     0.636069
     9    -0.155631
    10     0.118671
    11    -0.649217
    12    -0.115793
    13    -0.111875
    14    -0.940811
    15    -1.199820
    16    -0.728017
    17    -0.173828
    18     0.150626
    19    -0.047854
    20     0.014036
    21    -0.076160
    22     0.428373
    23    -0.066126
    24     0.461110
    25    -0.010093
    26     0.217941
    27    -0.783638
    28     0.061261
    29    -0.106067
    30     0.107203
    31    -0.263762
    32    -0.054186
    33    -0.015414
    34    -0.095322
    35    -0.000749
    36     0.010384
    37    -0.191083
    38     0.022260
    39    -0.058121
    40     0.006820
    41     0.021375
    42     0.323297
    43    -0.017983
    44     0.056488
    45    -0.088923
    46     0.059998
    47    -0.042592
    48     0.140413
    49     0.064062
Sym=    33a
Ene=   -0.371124E-05
Spin= Alpha
Occup= 0.000000
     1    -0.000213
     2     0.009335
     3    -0.011990
     4    -0.042288
     5    -0.002409
     6     0.000940
     7     0.000024
     8    -0.035012
     9     0.010317
    10     0.000102
    11     0.172231
    12    -0.029585
    13    -0.000135
    14     0.048658
    15    -0.016351
    16     0.050328
    17     0.164277
    18     0.017748
    19    -0.003472
    20    -0.014052
    21     0.578898
    22    -4.712457
    23     0.116443
    24     0.010837
    25     0.000077
    26    -3.117150
    27    -0.484296
    28    -0.000406
    29    -0.480137
    30     0.393188
    31     0.447220
    32    -0.164642
    33    -0.000306
    34     0.000052
    35     0.012150
    36    -0.565615
    37     4.669080
    38     0.123671
    39     0.010043
    40    -0.000392
    41    -3.102497
    42    -0.499258
    43     0.000601
    44     0.500147
    45    -0.411456
    46    -0.404981
    47     0.199155
    48    -0.000199
    49    -0.000208
Sym=    34a
Ene=   -0.134887E-02
Spin= Alpha
Occup= 0.001267
     1    -0.000216
     2     0.001181
     3    -0.005908
     4     0.008964
     5     0.000540
     6     0.000643
     7     0.016589
     8     0.001835
     9     0.002091
    10     0.042847
    11    -0.001697
    12    -0.001681
    13     0.009834
    14     0.020618
    15    -0.003039
    16    -0.021975
    17    -0.008055
    18     0.014629
    19     0.081032
    20     0.000019
    21    -0.000088
    22    -0.000789
    23     0.000042
    24    -0.000173
    25     0.186355
    26    -0.000571
    27     0.000350
    28    -0.548064
    29     0.000025
    30    -0.000973
    31     0.000721
    32    -0.000286
    33     0.026508
    34     0.126806
    35     0.000045
    36     0.000119
    37     0.000578
    38     0.000319
    39     0.001978
    40    -0.836806
    41    -0.001052
    42    -0.002134
    43     1.164382
    44    -0.000284
    45    -0.000225
    46     0.000376
    47     0.000185
    48     0.187250
    49    -0.184952
Sym=    35a
Ene=   -0.337793E-02
Spin= Alpha
Occup= 0.002061
     1     0.002069
     2    -0.014222
     3     0.064199
     4    -0.059451
     5    -0.009591
     6     0.001640
     7    -0.000046
     8    -0.004464
     9     0.008395
    10    -0.000130
    11    -0.070212
    12     0.023035
    13     0.000028
    14    -0.016249
    15     0.064580
    16    -0.022724
    17    -0.075372
    18    -0.035709
    19     0.010209
    20     0.008829
    21    -0.082276
    22     0.074992
    23    -0.205471
    24    -0.060652
    25    -0.000356
    26     0.444072
    27     0.107958
    28     0.000730
    29    -0.522306
    30     0.289085
    31     0.127262
    32    -0.096940
    33     0.000150
    34     0.000528
    35     0.011403
    36    -0.071860
    37     0.061086
    38     0.214332
    39     0.046828
    40     0.001021
    41    -0.429075
    42    -0.114773
    43    -0.001370
    44    -0.482397
    45     0.089591
    46     0.273779
    47    -0.157053
    48    -0.000372
    49    -0.000427
Sym=    36a
Ene=   -0.741416E-02
Spin= Alpha
Occup= 0.011653
     1     0.001749
     2    -0.008963
     3     0.053862
     4    -0.092286
     5     0.004038
     6    -0.038403
     7    -0.018684
     8     0.016835
     9    -0.123418
    10    -0.060963
    11    -0.027522
    12     0.093610
    13     0.049778
    14     0.159463
    15    -0.206901
    16     0.090818
    17     0.375240
    18    -0.230553
    19    -0.857494
    20    -0.006104
    21    -0.053180
    22     0.132172
    23    -0.030340
    24     0.021758
    25    -0.005462
    26     0.087288
    27    -0.012582
    28     0.050752
    29    -0.005423
    30     0.002102
    31    -0.013049
    32    -0.003073
    33     0.012478
    34     0.016779
    35     0.000107
    36     0.004315
    37    -0.089053
    38     0.010209
    39    -0.000241
    40    -0.062671
    41     0.042671
    42     0.024774
    43     0.047876
    44    -0.003636
    45     0.000185
    46    -0.002146
    47    -0.001964
    48    -0.013762
    49    -0.007349
Sym=    37a
Ene=   -0.835439E-02
Spin= Alpha
Occup= 0.012399
     1    -0.002046
     2     0.014097
     3    -0.037392
     4     0.007121
     5     0.088739
     6     0.003309
     7     0.049342
     8     0.293269
     9     0.014569
    10     0.162367
    11    -0.264433
    12    -0.054004
    13    -0.138740
    14    -0.378927
    15     0.502263
    16    -0.134479
    17     0.325890
    18    -0.677842
    19     0.187989
    20    -0.007347
    21     0.000136
    22    -0.033206
    23     0.008528
    24     0.186940
    25     0.005770
    26     0.006341
    27    -0.174843
    28     0.006886
    29    -0.009965
    30     0.021706
    31    -0.016458
    32     0.023241
    33     0.001031
    34     0.004682
    35     0.001877
    36     0.004252
    37     0.023628
    38    -0.016414
    39    -0.020820
    40     0.003185
    41    -0.003709
    42     0.042142
    43    -0.002624
    44     0.003171
    45    -0.002718
    46     0.004085
    47    -0.005148
    48    -0.002448
    49     0.000470
Sym=    38a
Ene=   -0.282659E-02
Spin= Alpha
Occup= 0.001920
     1    -0.002140
     2     0.021789
     3    -0.082405
     4     0.069554
     5     0.005842
     6     0.013036
     7    -0.000016
     8     0.011157
     9     0.036769
    10    -0.000030
    11     0.018508
    12     0.009245
    13    -0.000050
    14     0.009069
    15     0.033293
    16     0.008553
    17     0.035822
    18     0.010313
    19    -0.004405
    20     0.002045
    21     0.013854
    22     0.085636
    23     0.020835
    24    -0.140086
    25    -0.000539
    26     0.041598
    27     0.147639
    28     0.000674
    29    -0.021369
    30    -0.015366
    31     0.030110
    32     0.146894
    33     0.000494
    34    -0.000526
    35     0.042908
    36     0.219458
    37    -0.254488
    38    -0.000571
    39     0.007862
    40     0.000068
    41     0.107199
    42    -0.070101
    43    -0.000438
    44     0.156386
    45    -0.909688
    46     0.684669
    47    -0.188064
    48    -0.000534
    49    -0.002646
Sym=    39a
Ene=   -0.285437E-02
Spin= Alpha
Occup= 0.002008
     1     0.001130
     2    -0.012004
     3     0.072196
     4    -0.124647
     5     0.003570
     6     0.001438
     7     0.011754
     8     0.012833
     9     0.010381
    10     0.036838
    11    -0.040626
    12    -0.102016
    13    -0.029432
    14     0.009704
    15    -0.055819
    16     0.012017
    17    -0.033509
    18     0.011135
    19    -0.006558
    20    -0.039216
    21    -0.231389
    22     0.356964
    23    -0.006291
    24     0.194561
    25    -0.024366
    26     0.082295
    27    -0.327236
    28     0.082182
    29    -0.054541
    30    -0.517949
    31     0.608211
    32    -0.057244
    33    -0.450169
    34     0.490182
    35     0.003271
    36     0.032416
    37    -0.151723
    38    -0.006571
    39    -0.030128
    40     0.077396
    41     0.045096
    42     0.171101
    43    -0.035587
    44    -0.016650
    45    -0.005442
    46     0.044131
    47     0.041520
    48     0.136007
    49     0.053830
Sym=    40a
Ene=   -0.285514E-02
Spin= Alpha
Occup= 0.002009
     1    -0.000941
     2     0.010497
     3    -0.066922
     4     0.120446
     5    -0.003707
     6    -0.001045
     7     0.012423
     8    -0.013349
     9    -0.009074
    10     0.038982
    11     0.041242
    12     0.100860
    13    -0.031188
    14     0.002565
    15     0.054863
    16    -0.024175
    17     0.030790
    18     0.000086
    19    -0.005325
    20     0.039178
    21     0.230555
    22    -0.354646
    23     0.006296
    24    -0.195988
    25    -0.025656
    26    -0.082307
    27     0.328108
    28     0.084078
    29     0.053425
    30     0.511803
    31    -0.601544
    32     0.060638
    33    -0.449817
    34     0.499803
    35    -0.003258
    36    -0.032405
    37     0.151244
    38     0.006855
    39     0.029799
    40     0.076905
    41    -0.045060
    42    -0.171421
    43    -0.035965
    44     0.017063
    45     0.005187
    46    -0.044411
    47    -0.042478
    48     0.135600
    49     0.052677
Sym=    41a
Ene=   -0.285560E-02
Spin= Alpha
Occup= 0.001879
     1    -0.000046
     2     0.000287
     3    -0.001606
     4     0.002593
     5     0.000483
     6     0.000499
     7     0.009821
     8     0.001546
     9     0.001559
    10     0.026155
    11    -0.001012
    12    -0.000630
    13    -0.001444
    14     0.008766
    15    -0.000365
    16    -0.009039
    17    -0.002209
    18     0.008796
    19     0.021160
    20     0.000046
    21     0.000561
    22    -0.002264
    23     0.000577
    24    -0.002191
    25     0.037448
    26    -0.001593
    27     0.002515
    28    -0.172603
    29    -0.000153
    30    -0.000821
    31     0.001280
    32     0.000966
    33     0.044988
    34     0.054969
    35    -0.000249
    36    -0.001281
    37     0.002355
    38    -0.000181
    39     0.000723
    40    -0.207277
    41    -0.000689
    42    -0.001983
    43     0.286579
    44     0.000513
    45    -0.001081
    46     0.001029
    47    -0.002567
    48    -0.333457
    49     0.908229
Sym=    42a
Ene=   -0.405155E-02
Spin= Alpha
Occup= 0.005582
     1    -0.058169
     2     0.472521
     3    -1.638852
     4     1.257644
     5    -0.091131
     6     0.083730
     7    -0.015409
     8    -0.304529
     9     0.263050
    10    -0.050501
    11     0.273924
    12    -0.190388
    13     0.042207
    14     0.644288
    15    -0.129267
    16    -0.170806
    17    -0.124781
    18    -0.373576
    19     0.074197
    20    -0.001427
    21     0.028154
    22    -0.162829
    23    -0.004976
    24     0.051513
    25    -0.004981
    26    -0.026849
    27    -0.037490
    28     0.009138
    29     0.002921
    30     0.008407
    31    -0.000569
    32     0.010809
    33    -0.001738
    34    -0.003490
    35     0.003960
    36     0.032280
    37     0.004328
    38     0.015161
    39    -0.040895
    40     0.012468
    41    -0.059089
    42     0.107487
    43    -0.016272
    44     0.010846
    45    -0.006361
    46     0.000743
    47    -0.002788
    48     0.000698
    49     0.001261
Sym=    43a
Ene=   -0.279574E-03
Spin= Alpha
Occup= 0.000030
     1    -0.000249
     2    -0.002225
     3    -0.039863
     4     0.138500
     5    -0.002748
     6    -0.004618
     7     0.005034
     8    -0.012662
     9    -0.022782
    10     0.027067
    11     0.038440
    12     0.100162
    13    -0.055459
    14    -0.037660
    15     0.031327
    16    -0.037202
    17     0.042432
    18    -0.010009
    19    -0.036375
    20     0.001247
    21     0.020459
    22    -0.108140
    23    -0.016548
    24    -0.170202
    25    -0.023281
    26     0.008238
    27     0.294257
    28     0.172766
    29    -0.151251
    30    -0.068413
    31     0.193210
    32     0.531348
    33    -0.067400
    34    -0.353726
    35     0.004292
    36    -0.021833
    37     0.106787
    38     0.003114
    39     0.040803
    40     0.021060
    41    -0.003098
    42    -0.250782
    43    -0.043330
    44     0.077975
    45     0.119872
    46    -0.295472
    47    -0.201288
    48     0.532265
    49     0.245320
Sym=    44a
Ene=   -0.963505E-03
Spin= Alpha
Occup= 0.000106
     1    -0.073547
     2     0.832257
     3    -2.043884
     4    -0.366600
     5     0.214161
     6     0.110936
     7    -0.210649
     8     0.714236
     9     0.385429
    10    -0.697589
    11    -0.639119
    12    -0.396285
    13     0.612109
    14     0.814639
    15     0.848934
    16     1.143244
    17     0.035967
    18     0.080564
    19     0.019827
    20    -0.001213
    21    -0.044828
    22     0.120699
    23     0.004453
    24    -0.109975
    25     0.039464
    26    -0.044092
    27     0.019795
    28    -0.116832
    29    -0.004839
    30     0.008413
    31     0.016648
    32    -0.025099
    33    -0.016247
    34     0.025629
    35     0.000469
    36    -0.049707
    37     0.148741
    38     0.000343
    39     0.058243
    40    -0.004514
    41    -0.034243
    42    -0.133326
    43     0.038971
    44    -0.039328
    45     0.011810
    46    -0.047524
    47     0.000905
    48     0.015631
    49     0.015765
Sym=    45a
Ene=   -0.167683E-03
Spin= Alpha
Occup= 0.000016
     1    -0.001966
     2     0.045307
     3     0.011073
     4    -0.351679
     5    -0.007027
     6     0.023724
     7     0.002049
     8    -0.017363
     9     0.107327
    10     0.004633
    11    -0.012523
    12    -0.209783
    13    -0.004816
    14     0.155348
    15     0.027539
    16     0.149727
    17    -0.040545
    18    -0.005430
    19    -0.000272
    20     0.006796
    21    -0.058912
    22     0.333093
    23     0.004201
    24     0.107793
    25    -0.010293
    26    -0.014863
    27    -0.089957
    28     0.201145
    29    -0.171509
    30     0.111027
    31    -0.080805
    32     0.428713
    33     0.615435
    34     0.368351
    35    -0.001579
    36     0.013702
    37    -0.119686
    38     0.008546
    39    -0.013820
    40     0.082498
    41     0.055415
    42    -0.057911
    43    -0.304584
    44    -0.129870
    45     0.033804
    46     0.145689
    47     0.559921
    48     0.437375
    49     0.092441
Sym=    46a
Ene=   -0.188089E-02
Spin= Alpha
Occup= 0.000089
     1    -0.001573
     2     0.002391
     3     0.038819
     4    -0.100776
     5     0.000699
     6    -0.014766
     7    -0.000215
     8     0.000419
     9    -0.030970
    10    -0.000701
    11    -0.021324
    12    -0.122603
    13     0.000578
    14    -0.011258
    15    -0.066922
    16    -0.000923
    17     0.005877
    18     0.012244
    19    -0.002932
    20     0.712062
    21     2.257206
    22     1.303310
    23     0.112563
    24    -0.029454
    25    -0.000147
    26    -0.101138
    27    -0.028305
    28     0.000048
    29    -1.438379
    30    -1.484064
    31    -1.415674
    32    -0.024699
    33    -0.000337
    34    -0.000579
    35     0.000343
    36     0.009281
    37    -0.304575
    38    -0.141281
    39    -0.014582
    40    -0.000141
    41     0.120697
    42     0.014102
    43     0.000201
    44     0.071632
    45     0.056113
    46     0.065562
    47     0.005898
    48     0.000132
    49    -0.000127
Sym=    47a
Ene=   -0.182901E-02
Spin= Alpha
Occup= 0.000087
     1    -0.000280
     2    -0.000380
     3    -0.016213
     4     0.042191
     5     0.000414
     6     0.001127
     7    -0.000016
     8    -0.005855
     9     0.000329
    10    -0.000043
    11     0.019772
    12     0.002885
    13     0.000013
    14    -0.008352
    15    -0.013952
    16    -0.009325
    17     0.006768
    18     0.004166
    19    -0.001309
    20    -0.000215
    21    -0.011119
    22     0.325083
    23    -0.133484
    24    -0.025522
    25    -0.000038
    26     0.138617
    27     0.026075
    28     0.000079
    29    -0.076329
    30    -0.075122
    31    -0.040931
    32     0.011918
    33    -0.000019
    34    -0.000247
    35    -0.707828
    36    -2.273234
    37    -1.219516
    38     0.102981
    39     0.014076
    40     0.000030
    41    -0.044367
    42    -0.005247
    43    -0.000064
    44     1.427231
    45     1.424526
    46     1.441530
    47    -0.032130
    48     0.000062
    49    -0.000242
Sym=    48a
Ene=   -0.278125E-03
Spin= Alpha
Occup= 0.000030
     1     0.009640
     2    -0.155824
     3     0.285482
     4     0.395597
     5     0.047454
     6    -0.018846
     7     0.001305
     8     0.157660
     9    -0.059761
    10    -0.005816
    11    -0.136890
    12     0.060609
    13     0.036035
    14    -0.284275
    15    -0.297644
    16    -0.242262
    17    -0.008408
    18     0.053898
    19     0.024557
    20     0.005583
    21    -0.002292
    22     0.021065
    23    -0.036238
    24    -0.044986
    25     0.021316
    26     0.069002
    27     0.077109
    28    -0.164285
    29    -0.187319
    30    -0.047470
    31     0.126881
    32     0.527379
    33     0.071677
    34     0.343083
    35     0.004120
    36    -0.019656
    37     0.053686
    38     0.009370
    39     0.025477
    40    -0.020311
    41     0.002982
    42    -0.164512
    43     0.039449
    44     0.099443
    45     0.098711
    46    -0.289260
    47    -0.219856
    48    -0.517938
    49    -0.243019
Sym=    49a
Ene=   -0.107314E-04
Spin= Alpha
Occup= 0.000000
     1    -0.013575
     2     0.270366
     3    -0.000848
     4    -1.971191
     5    -0.069688
     6     0.094380
     7    -0.000871
     8    -0.188395
     9     0.446795
    10    -0.002830
    11    -0.061107
    12    -1.107775
    13     0.002280
    14     0.795966
    15     0.224467
    16     0.782936
    17    -0.248360
    18    -0.070584
    19     0.018618
    20     0.040586
    21    -0.278401
    22     1.406488
    23    -0.062606
    24     0.515109
    25     0.000998
    26    -0.077156
    27    -1.417968
    28     0.001192
    29    -0.290473
    30    -0.040475
    31    -0.438780
    32     0.001674
    33     0.005110
    34     0.001387
    35     0.001743
    36    -0.038681
    37    -0.011557
    38     0.035459
    39    -0.027640
    40     0.001280
    41    -0.088579
    42     0.359168
    43    -0.002743
    44     0.250074
    45    -0.128126
    46    -0.163101
    47    -0.362697
    48     0.007418
    49     0.002958
