[Molden Format]
p30-5 set                                                                       
[Atoms] AU
 AL       1    13        0.0000        0.0000        0.0000
 F        2     9        0.0000        3.0836        0.0000
 F        3     9        2.6705       -1.5418        0.0000
 F        4     9       -2.6705       -1.5418        0.0000
[GTO]
    1 0
s    5 1.00
    5887.572703000000  0.565197896170E-02
     885.612259960000  0.422182534268E-01
     201.136048990000  0.189187196726E+00
      56.284974674000  0.480435911881E+00
      17.229551243000  0.425872684294E+00
s    3 1.00
      29.340249922000  0.885686032394E-01
       3.043963042000 -0.543157066723E+00
       1.128553951800 -0.529385510294E+00
s    1 1.00
       0.142341751600  0.100000000000E+01
s    1 1.00
       0.054400192313  0.100000000000E+01
p    5 1.00
     145.119188090000  0.107263778593E-01
      33.717894833000  0.741036235460E-01
      10.369863083000  0.261296213060E+00
       3.513561603600  0.480201235327E+00
       1.198005027300  0.384382240624E+00
p    1 1.00
       0.265830059130  0.100000000000E+01
p    1 1.00
       0.071003361994  0.100000000000E+01
d    1 1.00
       0.300000000000  0.100000000000E+01

    2 0
s    5 1.00
    2894.832599000000 -0.534932117607E-02
     435.419391200000 -0.399677343716E-01
      98.843328866000 -0.179412617888E+00
      27.485198001000 -0.468324686869E+00
       8.540549817100 -0.447241605328E+00
s    1 1.00
       1.065457803800  0.100000000000E+01
s    1 1.00
       0.332473467480  0.100000000000E+01
p    3 1.00
      22.696633924000 -0.647821482412E-01
       4.987233925700 -0.340357853553E+00
       1.349161395400 -0.734858153660E+00
p    1 1.00
       0.348298819770  0.100000000000E+01
d    1 1.00
       1.400000000000  0.100000000000E+01

    3 0
s    5 1.00
    2894.832599000000 -0.534932117607E-02
     435.419391200000 -0.399677343716E-01
      98.843328866000 -0.179412617888E+00
      27.485198001000 -0.468324686869E+00
       8.540549817100 -0.447241605328E+00
s    1 1.00
       1.065457803800  0.100000000000E+01
s    1 1.00
       0.332473467480  0.100000000000E+01
p    3 1.00
      22.696633924000 -0.647821482412E-01
       4.987233925700 -0.340357853553E+00
       1.349161395400 -0.734858153660E+00
p    1 1.00
       0.348298819770  0.100000000000E+01
d    1 1.00
       1.400000000000  0.100000000000E+01

    4 0
s    5 1.00
    2894.832599000000 -0.534932117607E-02
     435.419391200000 -0.399677343716E-01
      98.843328866000 -0.179412617888E+00
      27.485198001000 -0.468324686869E+00
       8.540549817100 -0.447241605328E+00
s    1 1.00
       1.065457803800  0.100000000000E+01
s    1 1.00
       0.332473467480  0.100000000000E+01
p    3 1.00
      22.696633924000 -0.647821482412E-01
       4.987233925700 -0.340357853553E+00
       1.349161395400 -0.734858153660E+00
p    1 1.00
       0.348298819770  0.100000000000E+01
d    1 1.00
       1.400000000000  0.100000000000E+01

[MO]
Sym=     1a
Ene=   -0.585405E+02
Spin= Alpha
Occup= 2.000000
     1     0.996061
     2    -0.021223
     3    -0.038233
     4     0.006330
     5    -0.000300
     6    -0.000453
     7     0.001152
     8    -0.000012
     9    -0.000018
    10     0.000045
    11     0.000001
    12     0.000002
    13    -0.000009
    14     0.012231
    15     0.012229
    16     0.012366
    17     0.000001
    18     0.000000
    19     0.000000
    20     0.000015
    21    -0.000243
    22     0.000698
    23     0.000000
    24    -0.000145
    25     0.000001
    26     0.000000
    27     0.000039
    28    -0.000002
    29    -0.000136
    30    -0.000043
    31    -0.000141
    32     0.000000
    33     0.000000
    34    -0.000000
    35     0.000015
    36    -0.000242
    37     0.000696
    38    -0.000125
    39     0.000072
    40     0.000001
    41     0.000035
    42    -0.000020
    43    -0.000002
    44    -0.000065
    45    -0.000113
    46    -0.000141
    47    -0.000047
    48    -0.000000
    49     0.000000
    50     0.000015
    51    -0.000241
    52     0.000692
    53     0.000124
    54     0.000072
    55     0.000001
    56    -0.000037
    57    -0.000021
    58    -0.000002
    59    -0.000064
    60    -0.000113
    61    -0.000141
    62     0.000048
    63     0.000000
    64     0.000000
Sym=     2a
Ene=   -0.262935E+02
Spin= Alpha
Occup= 1.999960
     1    -0.000011
     2    -0.000032
     3    -0.001414
     4    -0.000135
     5    -0.000004
     6     0.000003
     7    -0.000029
     8     0.000916
     9     0.000529
    10    -0.000001
    11     0.000590
    12     0.000341
    13     0.000000
    14    -0.000626
    15    -0.000272
    16     0.000289
    17    -0.000355
    18     0.000000
    19     0.000000
    20     0.000006
    21    -0.000068
    22     0.000351
    23    -0.000119
    24    -0.000117
    25    -0.000000
    26    -0.000128
    27    -0.000201
    28    -0.000000
    29    -0.000040
    30    -0.000048
    31    -0.000073
    32     0.000004
    33     0.000000
    34     0.000000
    35     0.000006
    36    -0.000067
    37     0.000350
    38    -0.000160
    39    -0.000045
    40    -0.000000
    41    -0.000237
    42    -0.000011
    43    -0.000000
    44    -0.000043
    45    -0.000045
    46    -0.000073
    47     0.000006
    48     0.000000
    49    -0.000000
    50     0.992689
    51    -0.028837
    52     0.014035
    53     0.001825
    54     0.001049
    55     0.000001
    56     0.000864
    57     0.000502
    58    -0.000000
    59     0.005320
    60     0.005113
    61     0.005009
    62     0.000208
    63    -0.000000
    64     0.000000
Sym=     3a
Ene=   -0.262935E+02
Spin= Alpha
Occup= 1.999960
     1     0.000012
     2     0.000036
     3     0.001414
     4     0.000136
     5    -0.000023
     6     0.000002
     7     0.000036
     8     0.000916
     9    -0.000528
    10     0.000001
    11     0.000591
    12    -0.000340
    13    -0.000000
    14     0.000628
    15     0.000270
    16    -0.000289
    17    -0.000354
    18     0.000000
    19    -0.000000
    20    -0.000007
    21     0.000067
    22    -0.000351
    23    -0.000118
    24     0.000116
    25     0.000000
    26    -0.000128
    27     0.000200
    28     0.000000
    29     0.000040
    30     0.000048
    31     0.000073
    32     0.000004
    33    -0.000000
    34    -0.000000
    35    -0.992688
    36     0.028839
    37    -0.014033
    38     0.001814
    39    -0.001062
    40    -0.000001
    41     0.000871
    42    -0.000493
    43     0.000000
    44    -0.005321
    45    -0.005112
    46    -0.005008
    47     0.000207
    48     0.000000
    49    -0.000000
    50    -0.000006
    51     0.000068
    52    -0.000350
    53    -0.000161
    54     0.000044
    55     0.000000
    56    -0.000237
    57     0.000010
    58     0.000000
    59     0.000043
    60     0.000045
    61     0.000073
    62     0.000006
    63     0.000000
    64     0.000000
Sym=     4a
Ene=   -0.262935E+02
Spin= Alpha
Occup= 1.999960
     1    -0.000013
     2    -0.000041
     3    -0.001415
     4    -0.000135
     5     0.000012
     6     0.000026
     7    -0.000039
     8     0.000000
     9    -0.001057
    10    -0.000001
    11     0.000000
    12    -0.000682
    13     0.000000
    14    -0.000094
    15    -0.000804
    16     0.000289
    17     0.000000
    18     0.000000
    19    -0.000001
    20     0.992688
    21    -0.028839
    22     0.014032
    23    -0.000002
    24    -0.002102
    25     0.000001
    26     0.000001
    27    -0.001000
    28    -0.000000
    29     0.005009
    30     0.005425
    31     0.005008
    32    -0.000000
    33     0.000000
    34    -0.000000
    35     0.000006
    36    -0.000068
    37     0.000350
    38    -0.000042
    39     0.000161
    40    -0.000000
    41    -0.000110
    42     0.000211
    43    -0.000000
    44    -0.000049
    45    -0.000038
    46    -0.000073
    47     0.000002
    48     0.000000
    49    -0.000000
    50     0.000006
    51    -0.000068
    52     0.000351
    53     0.000042
    54     0.000161
    55    -0.000000
    56     0.000110
    57     0.000211
    58    -0.000000
    59    -0.000049
    60    -0.000039
    61    -0.000073
    62    -0.000002
    63    -0.000000
    64    -0.000000
Sym=     5a
Ene=   -0.367675E+01
Spin= Alpha
Occup= 1.999847
     1    -0.134870
     2    -0.495331
     3     0.005519
     4    -0.003420
     5     0.709318
     6     0.435364
     7    -0.244558
     8     0.028341
     9     0.017404
    10    -0.009478
    11    -0.003536
    12    -0.002174
    13     0.001855
    14     0.001311
    15     0.003501
    16     0.002219
    17    -0.002040
    18    -0.000030
    19    -0.000016
    20     0.000266
    21     0.000716
    22    -0.003354
    23    -0.000316
    24     0.001206
    25    -0.000253
    26    -0.000479
    27     0.002239
    28     0.000512
    29    -0.000316
    30     0.001931
    31    -0.000318
    32    -0.000286
    33     0.000000
    34     0.000055
    35     0.000249
    36     0.000656
    37    -0.003084
    38     0.000808
    39    -0.000824
    40    -0.000240
    41     0.001531
    42    -0.001465
    43     0.000503
    44     0.001062
    45     0.000446
    46    -0.000306
    47    -0.001205
    48     0.000050
    49    -0.000024
    50    -0.000549
    51    -0.001284
    52     0.005026
    53     0.001220
    54     0.000702
    55    -0.000343
    56     0.003230
    57     0.001844
    58     0.000562
    59    -0.001481
    60    -0.000437
    61     0.000116
    62    -0.001026
    63    -0.000051
    64    -0.000023
Sym=     6a
Ene=   -0.369741E+01
Spin= Alpha
Occup= 1.999842
     1     0.138822
     2     0.508392
     3    -0.005688
     4     0.003514
     5     0.688448
     6    -0.425672
     7     0.291991
     8     0.027513
     9    -0.017012
    10     0.011317
    11    -0.003439
    12     0.002124
    13    -0.002218
    14    -0.001393
    15    -0.003496
    16    -0.002264
    17    -0.001984
    18    -0.000036
    19     0.000020
    20    -0.000271
    21    -0.000694
    22     0.003297
    23    -0.000273
    24    -0.001139
    25     0.000314
    26    -0.000493
    27    -0.002235
    28    -0.000623
    29     0.000317
    30    -0.001915
    31     0.000318
    32    -0.000276
    33    -0.000001
    34    -0.000065
    35     0.000523
    36     0.001249
    37    -0.004870
    38     0.001189
    39    -0.000660
    40     0.000400
    41     0.003133
    42    -0.001794
    43    -0.000662
    44     0.001420
    45     0.000423
    46    -0.000103
    47    -0.000976
    48    -0.000060
    49     0.000031
    50    -0.000254
    51    -0.000637
    52     0.003012
    53     0.000779
    54     0.000793
    55     0.000304
    56     0.001499
    57     0.001448
    58    -0.000616
    59    -0.001048
    60    -0.000432
    61     0.000304
    62    -0.001187
    63     0.000058
    64     0.000030
Sym=     7a
Ene=   -0.371355E+01
Spin= Alpha
Occup= 1.999836
     1     0.141810
     2     0.518332
     3    -0.005836
     4     0.003591
     5    -0.021902
     6     0.777495
     7     0.354987
     8    -0.000885
     9     0.031082
    10     0.013757
    11     0.000113
    12    -0.003886
    13    -0.002703
    14    -0.004407
    15    -0.000541
    16    -0.002301
    17     0.000076
    18     0.000001
    19    -0.000050
    20     0.000506
    21     0.001203
    22    -0.004660
    23    -0.000000
    24     0.001280
    25     0.000506
    26     0.000018
    27     0.003473
    28    -0.000821
    29    -0.000045
    30     0.001793
    31    -0.000087
    32     0.000009
    33     0.000001
    34    -0.000081
    35    -0.000260
    36    -0.000670
    37     0.003198
    38    -0.001100
    39     0.000316
    40     0.000388
    41    -0.002110
    42     0.000673
    43    -0.000764
    44    -0.001523
    45    -0.000033
    46     0.000314
    47     0.000960
    48    -0.000068
    49     0.000040
    50    -0.000245
    51    -0.000606
    52     0.002933
    53     0.001007
    54     0.000285
    55     0.000389
    56     0.001972
    57     0.000556
    58    -0.000764
    59    -0.001443
    60    -0.000006
    61     0.000302
    62    -0.000892
    63     0.000067
    64     0.000040
Sym=     8a
Ene=   -0.375010E+01
Spin= Alpha
Occup= 1.999786
     1     0.148756
     2     0.539686
     3    -0.006365
     4     0.003806
     5     0.023531
     6     0.053824
     7    -0.840303
     8     0.000946
     9     0.002164
    10    -0.032641
    11    -0.000117
    12    -0.000270
    13     0.006434
    14    -0.002571
    15    -0.002294
    16    -0.002374
    17    -0.000068
    18     0.000004
    19     0.000009
    20    -0.000002
    21     0.000064
    22     0.000120
    23    -0.000009
    24    -0.000178
    25    -0.001034
    26    -0.000018
    27     0.000027
    28     0.001891
    29     0.000182
    30    -0.000471
    31     0.000168
    32    -0.000009
    33    -0.000000
    34     0.000185
    35    -0.000041
    36    -0.000035
    37     0.000529
    38    -0.000279
    39     0.000134
    40    -0.001021
    41    -0.000248
    42     0.000093
    43     0.001886
    44    -0.000460
    45     0.000003
    46     0.000188
    47     0.000417
    48     0.000159
    49    -0.000092
    50    -0.000068
    51    -0.000106
    52     0.000798
    53     0.000348
    54     0.000191
    55    -0.001012
    56     0.000407
    57     0.000201
    58     0.001881
    59    -0.000544
    60    -0.000026
    61     0.000201
    62    -0.000491
    63    -0.000159
    64    -0.000093
Sym=     9a
Ene=   -0.900196E+00
Spin= Alpha
Occup= 1.989137
     1    -0.006575
     2    -0.042520
     3    -0.080394
     4     0.028040
     5     0.010415
     6    -0.032681
     7    -0.000066
     8    -0.032539
     9     0.049556
    10     0.000114
    11     0.033026
    12     0.024964
    13     0.000068
    14     0.024962
    15    -0.032955
    16     0.000342
    17     0.039591
    18     0.000076
    19    -0.000041
    20    -0.000480
    21     0.001092
    22    -0.005300
    23     0.004181
    24    -0.000003
    25     0.000011
    26    -0.014580
    27    -0.006011
    28    -0.000020
    29     0.000956
    30     0.001256
    31     0.000905
    32     0.000795
    33    -0.000000
    34    -0.000000
    35     0.164326
    36     0.347444
    37     0.279866
    38    -0.486197
    39    -0.233327
    40    -0.000926
    41     0.336633
    42     0.177356
    43     0.000678
    44    -0.010069
    45     0.011592
    46     0.004945
    47    -0.000539
    48    -0.000020
    49     0.000014
    50     0.002597
    51     0.004741
    52     0.009130
    53    -0.011723
    54     0.001792
    55     0.000010
    56     0.002512
    57    -0.009549
    58    -0.000017
    59    -0.001573
    60    -0.000874
    61    -0.000183
    62    -0.000765
    63     0.000001
    64     0.000000
Sym=    10a
Ene=   -0.898992E+00
Spin= Alpha
Occup= 1.989095
     1    -0.006285
     2    -0.040752
     3    -0.077710
     4     0.027354
     5    -0.032525
     6     0.008327
     7     0.000025
     8     0.057649
     9     0.001984
    10    -0.000042
    11     0.005644
    12    -0.041490
    13    -0.000054
    14    -0.048284
    15     0.040536
    16     0.000167
    17     0.010352
    18     0.000055
    19     0.000032
    20     0.002596
    21     0.004672
    22     0.009317
    23     0.007415
    24     0.009156
    25    -0.000009
    26    -0.009781
    27     0.002668
    28     0.000007
    29    -0.000505
    30    -0.001981
    31    -0.000212
    32     0.000059
    33     0.000000
    34     0.000001
    35    -0.000536
    36     0.000957
    37    -0.005349
    38    -0.002406
    39    -0.003656
    40    -0.000006
    41     0.002098
    42     0.015807
    43     0.000004
    44     0.000624
    45     0.001627
    46     0.000894
    47    -0.000567
    48     0.000001
    49    -0.000000
    50     0.163504
    51     0.345598
    52     0.277769
    53     0.030017
    54     0.539524
    55     0.000577
    56    -0.007222
    57    -0.381763
    58    -0.000422
    59     0.006904
    60    -0.005223
    61     0.004846
    62    -0.010494
    63    -0.000013
    64    -0.000007
Sym=    11a
Ene=   -0.898557E+00
Spin= Alpha
Occup= 1.989080
     1    -0.006225
     2    -0.040372
     3    -0.077122
     4     0.027210
     5     0.023597
     6     0.023724
     7    -0.000019
     8    -0.027195
     9    -0.050457
    10     0.000001
    11    -0.038906
    12     0.015806
    13    -0.000022
    14     0.010430
    15    -0.018113
    16     0.000133
    17    -0.049785
    18    -0.000000
    19    -0.000024
    20     0.163274
    21     0.345079
    22     0.277221
    23     0.453880
    24    -0.293785
    25     0.000165
    26    -0.328198
    27     0.195828
    28    -0.000120
    29     0.005655
    30    -0.003942
    31     0.004820
    32     0.011357
    33     0.000000
    34     0.000004
    35     0.002599
    36     0.004664
    37     0.009364
    38     0.004221
    39    -0.010996
    40     0.000000
    41     0.007230
    42     0.007186
    43    -0.000004
    44    -0.001663
    45    -0.000831
    46    -0.000219
    47     0.000704
    48     0.000000
    49    -0.000000
    50    -0.000550
    51     0.000922
    52    -0.005357
    53    -0.001929
    54     0.003972
    55    -0.000002
    56     0.012672
    57    -0.009740
    58    -0.000001
    59     0.001806
    60     0.000452
    61     0.000892
    62    -0.000211
    63    -0.000000
    64    -0.000000
Sym=    12a
Ene=   -0.897954E+00
Spin= Alpha
Occup= 1.989061
     1    -0.006115
     2    -0.039723
     3    -0.076196
     4     0.026975
     5    -0.023690
     6     0.023188
     7    -0.000031
     8     0.027355
     9    -0.049714
    10     0.000042
    11     0.039143
    12     0.015698
    13     0.000011
    14     0.010197
    15    -0.017798
    16     0.000063
    17     0.050092
    18     0.000001
    19     0.000017
    20     0.162924
    21     0.344302
    22     0.276384
    23    -0.456425
    24    -0.290658
    25    -0.000244
    26     0.330036
    27     0.193761
    28     0.000179
    29     0.005618
    30    -0.003854
    31     0.004783
    32    -0.011433
    33     0.000001
    34    -0.000006
    35    -0.000575
    36     0.000862
    37    -0.005374
    38     0.001874
    39     0.004059
    40     0.000002
    41    -0.012722
    42    -0.009763
    43    -0.000008
    44     0.001813
    45     0.000456
    46     0.000889
    47     0.000199
    48     0.000000
    49    -0.000000
    50     0.002594
    51     0.004630
    52     0.009425
    53    -0.004166
    54    -0.010978
    55     0.000005
    56    -0.007318
    57     0.007246
    58    -0.000010
    59    -0.001677
    60    -0.000833
    61    -0.000228
    62    -0.000696
    63     0.000000
    64    -0.000000
Sym=    13a
Ene=   -0.897717E+00
Spin= Alpha
Occup= 1.989053
     1     0.006037
     2     0.039260
     3     0.075518
     4    -0.026799
     5     0.007905
     6     0.032004
     7     0.000042
     8    -0.028887
     9    -0.048395
    10    -0.000081
    11     0.033180
    12    -0.026207
    13    -0.000042
    14    -0.027030
    15     0.034588
    16    -0.000018
    17     0.038942
    18     0.000049
    19     0.000026
    20     0.000587
    21    -0.000832
    22     0.005385
    23     0.004510
    24     0.000467
    25    -0.000008
    26    -0.014858
    27     0.006156
    28     0.000015
    29    -0.000944
    30    -0.001336
    31    -0.000886
    32     0.000776
    33    -0.000000
    34     0.000000
    35    -0.002592
    36    -0.004610
    37    -0.009472
    38    -0.011559
    39    -0.001904
    40    -0.000004
    41     0.002625
    42     0.010029
    43     0.000010
    44     0.001565
    45     0.000955
    46     0.000234
    47    -0.000770
    48     0.000000
    49    -0.000000
    50    -0.162733
    51    -0.343878
    52    -0.275887
    53    -0.478911
    54     0.252408
    55     0.000605
    56     0.332195
    57    -0.190652
    58    -0.000443
    59     0.010054
    60    -0.011859
    61    -0.004758
    62    -0.001048
    63    -0.000013
    64    -0.000009
Sym=    14a
Ene=   -0.896360E+00
Spin= Alpha
Occup= 1.989001
     1    -0.005750
     2    -0.037490
     3    -0.072801
     4     0.026109
     5     0.030708
     6     0.010180
     7     0.000035
     8    -0.054766
     9    -0.000586
    10    -0.000071
    11    -0.006633
    12    -0.042231
    13    -0.000077
    14    -0.048477
    15     0.041174
    16    -0.000153
    17    -0.012521
    18    -0.000078
    19     0.000046
    20     0.002593
    21     0.004546
    22     0.009660
    23    -0.007421
    24     0.008971
    25    -0.000011
    26     0.010244
    27     0.002791
    28     0.000010
    29    -0.000558
    30    -0.001998
    31    -0.000264
    32    -0.000105
    33    -0.000000
    34     0.000001
    35     0.161856
    36     0.341901
    37     0.273682
    38    -0.009890
    39     0.542388
    40     0.000838
    41    -0.006474
    42    -0.384312
    43    -0.000612
    44     0.007487
    45    -0.005526
    46     0.004656
    47     0.010356
    48     0.000020
    49    -0.000009
    50    -0.000646
    51     0.000689
    52    -0.005424
    53     0.002967
    54    -0.003697
    55    -0.000010
    56    -0.002108
    57     0.016106
    58     0.000009
    59     0.000694
    60     0.001620
    61     0.000875
    62     0.000604
    63    -0.000001
    64    -0.000000
Sym=    15a
Ene=   -0.920360E+00
Spin= Alpha
Occup= 1.985288
     1    -0.015689
     2    -0.092572
     3    -0.125013
     4     0.024766
     5    -0.000026
     6     0.078896
     7     0.029428
     8     0.000080
     9    -0.107396
    10    -0.050400
    11     0.000112
    12     0.003941
    13    -0.037987
    14     0.039479
    15    -0.051083
    16     0.011757
    17     0.000144
    18     0.000010
    19    -0.048066
    20    -0.125488
    21    -0.255624
    22    -0.152418
    23    -0.001230
    24    -0.327319
    25     0.450106
    26     0.000887
    27     0.211508
    28    -0.328726
    29     0.002343
    30    -0.017654
    31     0.002100
    32    -0.000033
    33    -0.000000
    34     0.012164
    35     0.001680
    36     0.005957
    37    -0.007018
    38     0.005683
    39    -0.009852
    40    -0.005294
    41     0.000801
    42    -0.001478
    43     0.007277
    44     0.000332
    45    -0.000090
    46     0.001111
    47     0.001519
    48     0.000337
    49    -0.000253
    50     0.001684
    51     0.005958
    52    -0.006984
    53    -0.005679
    54    -0.009929
    55    -0.005252
    56    -0.000870
    57    -0.001412
    58     0.007248
    59     0.000321
    60    -0.000094
    61     0.001108
    62    -0.001519
    63    -0.000338
    64    -0.000253
Sym=    16a
Ene=   -0.920287E+00
Spin= Alpha
Occup= 1.985288
     1     0.015695
     2     0.092573
     3     0.124961
     4    -0.024756
     5    -0.068715
     6     0.039043
     7     0.029525
     8     0.093236
     9    -0.053130
    10    -0.050448
    11    -0.002993
    12     0.002672
    13    -0.037980
    14     0.029212
    15    -0.017641
    16    -0.011753
    17    -0.044717
    18    -0.041631
    19     0.023996
    20    -0.001717
    21    -0.005996
    22     0.006830
    23     0.005845
    24    -0.009957
    25    -0.005236
    26     0.000570
    27    -0.001530
    28     0.007253
    29    -0.001135
    30     0.000951
    31    -0.001096
    32    -0.000959
    33    -0.000050
    34     0.000419
    35     0.125489
    36     0.255634
    37     0.152457
    38     0.278638
    39    -0.171492
    40     0.450227
    41    -0.179715
    42     0.111404
    43    -0.328820
    44     0.012469
    45     0.002834
    46    -0.002098
    47    -0.010112
    48     0.010540
    49    -0.006080
    50    -0.001644
    51    -0.005909
    52     0.007163
    53     0.011266
    54     0.000018
    55    -0.005304
    56     0.001711
    57    -0.000259
    58     0.007291
    59     0.001103
    60    -0.001387
    61    -0.001121
    62     0.000537
    63    -0.000387
    64    -0.000166
Sym=    17a
Ene=   -0.920291E+00
Spin= Alpha
Occup= 1.985288
     1     0.015696
     2     0.092591
     3     0.125024
     4    -0.024774
     5    -0.000001
     6    -0.079072
     7     0.029505
     8    -0.000052
     9     0.107341
    10    -0.050452
    11    -0.000076
    12    -0.003934
    13    -0.037977
    14    -0.039487
    15     0.051041
    16    -0.011757
    17    -0.000096
    18     0.000006
    19    -0.048053
    20     0.125480
    21     0.255614
    22     0.152434
    23     0.000817
    24     0.327180
    25     0.450228
    26    -0.000590
    27    -0.211423
    28    -0.328821
    29    -0.002342
    30     0.017648
    31    -0.002099
    32     0.000022
    33    -0.000000
    34     0.012168
    35    -0.001683
    36    -0.005959
    37     0.007006
    38    -0.005683
    39     0.009859
    40    -0.005295
    41    -0.000807
    42     0.001464
    43     0.007293
    44    -0.000330
    45     0.000091
    46    -0.001109
    47    -0.001519
    48     0.000336
    49    -0.000253
    50    -0.001683
    51    -0.005955
    52     0.006987
    53     0.005677
    54     0.009923
    55    -0.005257
    56     0.000857
    57     0.001414
    58     0.007263
    59    -0.000322
    60     0.000093
    61    -0.001108
    62     0.001518
    63    -0.000338
    64    -0.000252
Sym=    18a
Ene=   -0.920343E+00
Spin= Alpha
Occup= 1.985286
     1    -0.015679
     2    -0.092525
     3    -0.124964
     4     0.024752
     5     0.068543
     6    -0.039086
     7     0.029474
     8    -0.093239
     9     0.053265
    10    -0.050398
    11     0.003080
    12    -0.002542
    13    -0.037988
    14    -0.029095
    15     0.017472
    16     0.011753
    17     0.044844
    18    -0.041636
    19     0.024009
    20     0.001711
    21     0.005991
    22    -0.006863
    23    -0.005826
    24     0.009945
    25    -0.005240
    26    -0.000620
    27     0.001516
    28     0.007241
    29     0.001138
    30    -0.000945
    31     0.001099
    32     0.000961
    33    -0.000050
    34     0.000419
    35    -0.125487
    36    -0.255626
    37    -0.152421
    38    -0.279692
    39     0.170055
    40     0.450106
    41     0.180458
    42    -0.110357
    43    -0.328727
    44    -0.012508
    45    -0.002801
    46     0.002099
    47     0.010094
    48     0.010537
    49    -0.006079
    50     0.001653
    51     0.005923
    52    -0.007133
    53    -0.011299
    54    -0.000010
    55    -0.005295
    56    -0.001705
    57     0.000208
    58     0.007276
    59    -0.001108
    60     0.001383
    61     0.001119
    62    -0.000539
    63    -0.000387
    64    -0.000165
Sym=    19a
Ene=   -0.920241E+00
Spin= Alpha
Occup= 1.985285
     1    -0.015695
     2    -0.092590
     3    -0.125017
     4     0.024769
     5    -0.068420
     6    -0.039571
     7    -0.029519
     8     0.092925
     9     0.053782
    10     0.050453
    11    -0.003487
    12    -0.001824
    13     0.037983
    14    -0.028265
    15     0.016683
    16     0.011748
    17    -0.045374
    18    -0.041609
    19    -0.024033
    20     0.001675
    21     0.005948
    22    -0.007028
    23     0.005712
    24     0.009849
    25     0.005276
    26     0.000874
    27     0.001419
    28    -0.007277
    29     0.001154
    30    -0.000910
    31     0.001111
    32    -0.000970
    33    -0.000050
    34    -0.000418
    35     0.001684
    36     0.005956
    37    -0.006976
    38     0.011463
    39     0.000063
    40     0.005235
    41     0.001641
    42    -0.000076
    43    -0.007245
    44    -0.001130
    45     0.001353
    46     0.001108
    47     0.000553
    48    -0.000388
    49     0.000167
    50    -0.125448
    51    -0.255546
    52    -0.152371
    53     0.284318
    54     0.162074
    55    -0.450201
    56    -0.183791
    57    -0.104618
    58     0.328799
    59    -0.012688
    60    -0.002619
    61     0.002101
    62    -0.009973
    63     0.010537
    64     0.006084
Sym=    20a
Ene=   -0.920299E+00
Spin= Alpha
Occup= 1.985283
     1    -0.015680
     2    -0.092530
     3    -0.124971
     4     0.024754
     5    -0.068258
     6    -0.039569
     7     0.029505
     8     0.092914
     9     0.053865
    10    -0.050403
    11    -0.003545
    12    -0.001736
    13    -0.037994
    14    -0.028192
    15     0.016560
    16     0.011748
    17    -0.045453
    18     0.041615
    19     0.024044
    20     0.001672
    21     0.005945
    22    -0.007049
    23     0.005700
    24     0.009842
    25    -0.005280
    26     0.000906
    27     0.001408
    28     0.007267
    29     0.001156
    30    -0.000906
    31     0.001113
    32    -0.000971
    33     0.000050
    34     0.000419
    35     0.001691
    36     0.005967
    37    -0.006953
    38     0.011487
    39     0.000068
    40    -0.005230
    41     0.001634
    42    -0.000111
    43     0.007233
    44    -0.001133
    45     0.001350
    46     0.001106
    47     0.000555
    48     0.000388
    49    -0.000167
    50    -0.125460
    51    -0.255568
    52    -0.152372
    53     0.284967
    54     0.161073
    55     0.450133
    56    -0.184250
    57    -0.103890
    58    -0.328746
    59    -0.012713
    60    -0.002596
    61     0.002101
    62    -0.009960
    63    -0.010535
    64    -0.006084
Sym=    21a
Ene=   -0.153011E-01
Spin= Alpha
Occup= 0.013769
     1    -0.020518
     2    -0.121176
     3    -0.136910
     4     0.004963
     5    -0.111313
     6    -0.064580
     7     0.061092
     8     0.195899
     9     0.113430
    10    -0.123147
    11     0.012272
    12     0.007794
    13    -0.072594
    14    -0.065297
    15     0.029652
    16    -0.011106
    17    -0.097279
    18     0.136977
    19     0.079324
    20    -0.001172
    21    -0.011878
    22    -0.000714
    23    -0.000724
    24    -0.003403
    25     0.008226
    26    -0.030934
    27    -0.026950
    28     0.044221
    29     0.003124
    30    -0.000836
    31    -0.002510
    32     0.001335
    33     0.000526
    34     0.004139
    35    -0.001176
    36    -0.012151
    37    -0.000326
    38    -0.003015
    39     0.001144
    40     0.008216
    41    -0.038804
    42    -0.014091
    43     0.044341
    44     0.001239
    45     0.000804
    46    -0.002432
    47     0.002619
    48     0.003807
    49    -0.001735
    50     0.166373
    51     0.725618
    52    -0.442054
    53    -0.432647
    54    -0.244865
    55    -0.630693
    56    -0.274630
    57    -0.154115
    58    -0.550322
    59    -0.029571
    60    -0.063598
    61     0.003577
    62     0.032835
    63     0.060860
    64     0.034331
Sym=    22a
Ene=   -0.152987E-01
Spin= Alpha
Occup= 0.013767
     1    -0.020591
     2    -0.122075
     3    -0.140402
     4     0.005663
     5    -0.111300
     6    -0.064451
     7    -0.061359
     8     0.195467
     9     0.112950
    10     0.124129
    11     0.012459
    12     0.007657
    13     0.072149
    14    -0.063613
    15     0.031602
    16    -0.010293
    17    -0.096616
    18    -0.136519
    19    -0.078845
    20    -0.001187
    21    -0.011966
    22    -0.000799
    23    -0.000746
    24    -0.003505
    25    -0.008393
    26    -0.031230
    27    -0.026982
    28    -0.044717
    29     0.003129
    30    -0.000830
    31    -0.002505
    32     0.001379
    33    -0.000493
    34    -0.004068
    35    -0.001184
    36    -0.012094
    37    -0.000628
    38    -0.003050
    39     0.001189
    40    -0.008297
    41    -0.038709
    42    -0.013997
    43    -0.044616
    44     0.001284
    45     0.000807
    46    -0.002400
    47     0.002625
    48    -0.003754
    49     0.001706
    50     0.166361
    51     0.725765
    52    -0.443037
    53    -0.431745
    54    -0.246248
    55     0.630830
    56    -0.274389
    57    -0.155685
    58     0.550587
    59    -0.029730
    60    -0.063429
    61     0.003702
    62     0.032846
    63    -0.060665
    64    -0.034524
Sym=    23a
Ene=   -0.152988E-01
Spin= Alpha
Occup= 0.013765
     1     0.020518
     2     0.121235
     3     0.137374
     4    -0.005026
     5    -0.111774
     6     0.063777
     7    -0.061091
     8     0.196752
     9    -0.112200
    10     0.123167
    11     0.013152
    12    -0.005987
    13     0.072560
    14     0.068021
    15    -0.032596
    16     0.010844
    17    -0.095934
    18     0.137388
    19    -0.078873
    20     0.001190
    21     0.012460
    22    -0.000296
    23    -0.000669
    24     0.003481
    25    -0.008233
    26    -0.032224
    27     0.027044
    28    -0.044388
    29    -0.003046
    30     0.000947
    31     0.002619
    32     0.001462
    33     0.000493
    34    -0.004127
    35    -0.166406
    36    -0.725734
    37     0.441932
    38    -0.425103
    39     0.257741
    40     0.630625
    41    -0.267560
    42     0.165829
    43     0.550203
    44     0.031328
    45     0.061896
    46    -0.003553
    47     0.033982
    48     0.059651
    49    -0.036421
    50     0.001169
    51     0.011611
    52     0.001417
    53    -0.003300
    54    -0.001074
    55    -0.008246
    56    -0.038143
    57     0.012804
    58    -0.044153
    59    -0.001087
    60    -0.001276
    61     0.002456
    62     0.002635
    63     0.003860
    64     0.001616
Sym=    24a
Ene=   -0.152965E-01
Spin= Alpha
Occup= 0.013763
     1     0.020608
     2     0.122372
     3     0.141898
     4    -0.005916
     5     0.000089
     6    -0.128578
     7     0.061380
     8    -0.000032
     9     0.225676
    10    -0.124237
    11    -0.000218
    12     0.014440
    13    -0.072050
    14    -0.081329
    15     0.112332
    16     0.009609
    17    -0.000221
    18     0.000008
    19    -0.157649
    20    -0.166404
    21    -0.725978
    22     0.443098
    23    -0.001204
    24    -0.496960
    25    -0.630860
    26    -0.001108
    27    -0.315321
    28    -0.550625
    29     0.079674
    30     0.013541
    31    -0.003708
    32    -0.000173
    33    -0.000180
    34    -0.069803
    35     0.001203
    36     0.012065
    37     0.000831
    38     0.002777
    39    -0.002684
    40     0.008472
    41     0.007792
    42    -0.040706
    43     0.044810
    44     0.000791
    45    -0.003188
    46     0.002616
    47    -0.001515
    48     0.003201
    49    -0.002554
    50     0.001198
    51     0.012143
    52     0.000612
    53    -0.002688
    54    -0.002245
    55     0.008406
    56    -0.007560
    57    -0.040360
    58     0.044735
    59     0.000924
    60    -0.003105
    61     0.002490
    62     0.001261
    63    -0.003308
    64    -0.002463
Sym=    25a
Ene=   -0.152963E-01
Spin= Alpha
Occup= 0.013763
     1     0.020583
     2     0.122090
     3     0.140805
     4    -0.005686
     5    -0.111741
     6     0.063577
     7     0.061346
     8     0.196142
     9    -0.111603
    10    -0.124101
    11     0.013377
    12    -0.005853
    13    -0.072107
    14     0.066732
    15    -0.034794
    16     0.009863
    17    -0.095009
    18    -0.136804
    19     0.078279
    20     0.001208
    21     0.012563
    22    -0.000159
    23    -0.000716
    24     0.003597
    25     0.008431
    26    -0.032648
    27     0.027049
    28     0.044951
    29    -0.003063
    30     0.000949
    31     0.002618
    32     0.001511
    33    -0.000480
    34     0.004059
    35    -0.166408
    36    -0.725978
    37     0.443066
    38    -0.423656
    39     0.259736
    40    -0.630883
    41    -0.266923
    42     0.167942
    43    -0.550682
    44     0.031599
    45     0.061658
    46    -0.003717
    47     0.034019
    48    -0.059393
    49     0.036719
    50     0.001178
    51     0.011584
    52     0.001488
    53    -0.003325
    54    -0.001120
    55     0.008355
    56    -0.038079
    57     0.012528
    58     0.044468
    59    -0.001117
    60    -0.001287
    61     0.002433
    62     0.002614
    63    -0.003807
    64    -0.001585
Sym=    26a
Ene=   -0.152964E-01
Spin= Alpha
Occup= 0.013763
     1     0.020541
     2     0.121508
     3     0.138421
     4    -0.005236
     5     0.000135
     6    -0.128681
     7    -0.061102
     8    -0.000159
     9     0.226328
    10     0.123207
    11    -0.000276
    12     0.014336
    13     0.072576
    14    -0.079855
    15     0.114247
    16     0.010598
    17    -0.000359
    18    -0.000135
    19     0.158531
    20    -0.166412
    21    -0.725826
    22     0.442247
    23    -0.001780
    24    -0.497141
    25     0.630591
    26    -0.001627
    27    -0.314919
    28     0.550106
    29     0.079752
    30     0.013438
    31    -0.003551
    32    -0.000243
    33     0.000277
    34     0.069893
    35     0.001184
    36     0.011981
    37     0.000758
    38     0.002709
    39    -0.002609
    40    -0.008246
    41     0.007794
    42    -0.040593
    43    -0.044228
    44     0.000810
    45    -0.003187
    46     0.002626
    47    -0.001511
    48    -0.003262
    49     0.002564
    50     0.001183
    51     0.012126
    52     0.000403
    53    -0.002628
    54    -0.002194
    55    -0.008223
    56    -0.007555
    57    -0.040414
    58    -0.044286
    59     0.000950
    60    -0.003103
    61     0.002520
    62     0.001247
    63     0.003349
    64     0.002476
Sym=    27a
Ene=   -0.120268E-01
Spin= Alpha
Occup= 0.010009
     1    -0.006150
     2    -0.040343
     3    -0.087338
     4     0.077660
     5     0.037957
     6     0.008231
     7     0.000023
     8    -0.063483
     9     0.013707
    10     0.000112
    11     0.022559
    12    -0.097102
    13    -0.000300
    14    -0.080166
    15     0.068846
    16    -0.019852
    17    -0.049296
    18    -0.000180
    19     0.000117
    20    -0.001482
    21    -0.026759
    22     0.050335
    23     0.002265
    24    -0.006456
    25    -0.000001
    26     0.048656
    27    -0.019721
    28     0.000037
    29     0.000014
    30    -0.003420
    31    -0.004276
    32    -0.004165
    33    -0.000001
    34     0.000006
    35    -0.197080
    36    -0.909475
    37     0.732023
    38     0.026593
    39    -0.777942
    40    -0.001198
    41     0.046164
    42    -0.764386
    43    -0.001114
    44     0.150212
    45    -0.097770
    46     0.141484
    47    -0.000125
    48     0.000003
    49    -0.000441
    50     0.001382
    51     0.017438
    52    -0.022016
    53    -0.010284
    54     0.005237
    55    -0.000005
    56    -0.030888
    57     0.060772
    58     0.000037
    59    -0.000687
    60     0.005236
    61     0.003594
    62     0.003805
    63     0.000006
    64    -0.000022
Sym=    28a
Ene=   -0.194022E-02
Spin= Alpha
Occup= 0.000988
     1    -0.007129
     2    -0.047178
     3    -0.322827
     4     0.155754
     5    -0.047907
     6    -0.033472
     7    -0.000794
     8     0.315662
     9     0.179928
    10     0.002934
    11    -0.054515
    12    -0.045777
    13    -0.001215
    14    -0.068884
    15    -0.068888
    16     0.023281
    17    -0.230294
    18     0.001332
    19     0.001360
    20    -0.001019
    21    -0.013382
    22     0.042167
    23     0.019923
    24    -0.004597
    25    -0.000732
    26     0.069191
    27    -0.025673
    28    -0.001706
    29     0.000391
    30     0.001050
    31    -0.004436
    32    -0.020068
    33     0.000048
    34     0.000462
    35    -0.000254
    36     0.005669
    37    -0.063540
    38    -0.014514
    39     0.006094
    40    -0.000509
    41     0.019933
    42    -0.009894
    43    -0.001120
    44    -0.003968
    45     0.006322
    46    -0.006038
    47     0.016907
    48     0.000231
    49    -0.000163
    50     0.026550
    51    -0.046562
    52     0.531273
    53     0.097201
    54    -0.108587
    55    -0.000073
    56     0.423561
    57    -0.006854
    58     0.000214
    59    -0.964437
    60     0.559116
    61     0.112879
    62    -0.155588
    63     0.000949
    64     0.000631
Sym=    29a
Ene=   -0.194127E-02
Spin= Alpha
Occup= 0.000989
     1     0.007409
     2     0.050168
     3     0.336154
     4    -0.159195
     5     0.004769
     6    -0.058246
     7     0.000794
     8     0.002933
     9     0.363304
    10    -0.002949
    11     0.012432
    12    -0.070024
    13     0.001309
    14    -0.108032
    15     0.237728
    16    -0.025723
    17    -0.114155
    18    -0.000329
    19     0.002313
    20    -0.026573
    21     0.046808
    22    -0.532023
    23     0.142358
    24     0.030945
    25    -0.000120
    26     0.216581
    27     0.365339
    28    -0.000656
    29    -0.301689
    30     0.706912
    31    -0.112394
    32     0.677084
    33    -0.000210
    34     0.000541
    35     0.001036
    36     0.013883
    37    -0.043122
    38     0.014247
    39     0.014681
    40     0.000697
    41     0.057457
    42     0.046321
    43     0.001676
    44    -0.015620
    45     0.014588
    46     0.004648
    47    -0.009939
    48    -0.000398
    49     0.000273
    50     0.000312
    51    -0.005348
    52     0.063291
    53    -0.013007
    54    -0.009607
    55     0.000610
    56     0.017587
    57     0.012447
    58     0.001362
    59     0.008453
    60    -0.010959
    61     0.006123
    62     0.013538
    63     0.000268
    64     0.000245
Sym=    30a
Ene=   -0.194013E-02
Spin= Alpha
Occup= 0.000989
     1     0.007443
     2     0.050339
     3     0.337779
     4    -0.159805
     5    -0.005094
     6    -0.058856
     7     0.000808
     8     0.001540
     9     0.366584
    10    -0.002994
    11    -0.013656
    12    -0.070357
    13     0.001310
    14    -0.108687
    15     0.239691
    16    -0.026204
    17     0.106514
    18     0.000235
    19     0.002363
    20    -0.026361
    21     0.048453
    22    -0.535674
    23    -0.140981
    24     0.031809
    25    -0.000242
    26    -0.212225
    27     0.369221
    28    -0.000814
    29    -0.314970
    30     0.718133
    31    -0.110758
    32    -0.665189
    33    -0.000153
    34    -0.000012
    35     0.000343
    36    -0.004580
    37     0.059330
    38     0.013289
    39    -0.009213
    40     0.000649
    41    -0.013959
    42     0.012539
    43     0.001459
    44     0.007299
    45    -0.010090
    46     0.006448
    47    -0.013175
    48    -0.000327
    49     0.000184
    50     0.001045
    51     0.012916
    52    -0.037883
    53    -0.014168
    54     0.014151
    55     0.000705
    56    -0.053549
    57     0.046593
    58     0.001675
    59    -0.015326
    60     0.013825
    61     0.004418
    62     0.009834
    63     0.000378
    64     0.000301
Sym=    31a
Ene=   -0.194002E-02
Spin= Alpha
Occup= 0.000990
     1    -0.007196
     2    -0.047354
     3    -0.325969
     4     0.157607
     5    -0.053884
     6    -0.025359
     7    -0.000799
     8     0.321339
     9     0.183560
    10     0.002964
    11    -0.068234
    12    -0.023261
    13    -0.001285
    14    -0.236530
    15     0.095075
    16     0.023504
    17    -0.124751
    18     0.001984
    19     0.000708
    20    -0.000238
    21     0.005225
    22    -0.059507
    23    -0.000831
    24    -0.015446
    25    -0.000556
    26     0.005528
    27     0.018954
    28    -0.001252
    29     0.015829
    30    -0.013166
    31    -0.006248
    32     0.001822
    33     0.000092
    34     0.000322
    35    -0.001036
    36    -0.012412
    37     0.035747
    38     0.005196
    39     0.019206
    40    -0.000750
    41     0.014731
    42     0.068594
    43    -0.001717
    44    -0.013807
    45     0.015592
    46    -0.004335
    47    -0.009503
    48     0.000363
    49    -0.000299
    50     0.026314
    51    -0.049388
    52     0.539544
    53    -0.042306
    54     0.137600
    55     0.000274
    56     0.217617
    57     0.368150
    58     0.000763
    59     0.031065
    60    -0.433666
    61     0.110078
    62    -0.852123
    63    -0.000729
    64    -0.000495
Sym=    32a
Ene=   -0.119312E-01
Spin= Alpha
Occup= 0.009874
     1     0.007096
     2     0.045927
     3     0.091788
     4    -0.079377
     5    -0.017331
     6     0.038710
     7     0.000154
     8     0.049111
     9    -0.050256
    10    -0.000379
    11    -0.094577
    12    -0.024065
    13     0.000010
    14    -0.062965
    15     0.074292
    16     0.020590
    17    -0.049154
    18    -0.000070
    19     0.000046
    20    -0.001292
    21    -0.015856
    22     0.019770
    23     0.009726
    24    -0.005703
    25     0.000047
    26     0.064835
    27     0.005120
    28     0.000156
    29    -0.001078
    30    -0.003384
    31    -0.003250
    32    -0.004731
    33    -0.000007
    34    -0.000006
    35     0.199384
    36     0.920197
    37    -0.741163
    38    -0.705768
    39    -0.323475
    40    -0.001323
    41    -0.702225
    42    -0.302572
    43    -0.001256
    44     0.047050
    45    -0.102866
    46    -0.144828
    47     0.115071
    48     0.000463
    49     0.000222
    50     0.001551
    51     0.026555
    52    -0.049158
    53    -0.006957
    54    -0.001487
    55     0.000046
    56    -0.041975
    57     0.029599
    58     0.000160
    59    -0.000673
    60     0.003493
    61     0.004256
    62     0.003736
    63     0.000005
    64     0.000004
Sym=    33a
Ene=   -0.727637E-04
Spin= Alpha
Occup= 0.000013
     1    -0.000094
     2    -0.001276
     3    -0.005243
     4     0.000492
     5    -0.005159
     6    -0.000144
     7    -0.000438
     8     0.055773
     9     0.009904
    10     0.001640
    11    -0.000833
    12    -0.000369
    13     0.000570
    14    -0.022966
    15     0.024578
    16     0.004687
    17    -0.069603
    18     0.184627
    19    -0.026256
    20     0.000022
    21     0.002893
    22    -0.016793
    23     0.005194
    24     0.000028
    25     0.007013
    26     0.022345
    27     0.011539
    28     0.017577
    29     0.002961
    30    -0.003162
    31     0.001020
    32    -0.009620
    33     0.687892
    34    -0.009035
    35    -0.000151
    36     0.010001
    37    -0.049419
    38     0.005167
    39     0.003057
    40    -0.050452
    41     0.040026
    42     0.001872
    43    -0.125000
    44    -0.010367
    45     0.011259
    46     0.007801
    47     0.003163
    48     0.244492
    49     0.314004
    50     0.000100
    51    -0.012972
    52     0.067056
    53     0.001995
    54     0.001169
    55     0.042071
    56     0.039282
    57     0.021826
    58     0.104905
    59     0.005996
    60    -0.005696
    61    -0.009078
    62     0.011071
    63     0.310266
    64    -0.478431
Sym=    34a
Ene=   -0.690318E-03
Spin= Alpha
Occup= 0.000151
     1     0.070450
     2     0.826984
     3     3.420285
     4    -0.562303
     5    -0.008712
     6     0.299138
     7     0.126837
     8     0.061387
     9    -2.059140
    10    -0.462453
    11    -0.007724
    12     0.248464
    13     0.165018
    14    -0.640345
    15    -1.656108
    16    -1.148111
    17    -0.024639
    18    -0.001305
    19     0.040236
    20    -0.011905
    21    -0.362126
    22     1.386311
    23    -0.000826
    24    -0.145724
    25     0.056648
    26    -0.000791
    27    -1.147784
    28     0.113720
    29    -0.204485
    30     0.223018
    31    -0.220122
    32     0.000882
    33     0.000066
    34    -0.030063
    35     0.012655
    36     0.285418
    37    -0.887062
    38     0.172920
    39    -0.040184
    40     0.070982
    41     0.696734
    42    -0.245372
    43     0.153070
    44    -0.134347
    45     0.112329
    46     0.195209
    47     0.121390
    48    -0.036344
    49     0.021188
    50     0.011974
    51     0.263638
    52    -0.805806
    53    -0.166231
    54    -0.034194
    55     0.070538
    56    -0.641586
    57    -0.211311
    58     0.151712
    59    -0.132031
    60     0.110240
    61     0.182146
    62    -0.109141
    63     0.036308
    64     0.020692
Sym=    35a
Ene=   -0.664863E-03
Spin= Alpha
Occup= 0.000145
     1     0.068779
     2     0.807842
     3     3.342078
     4    -0.546814
     5     0.264676
     6    -0.164489
     7     0.104563
     8    -1.823222
     9     1.132073
    10    -0.381205
    11     0.220921
    12    -0.135472
    13     0.135461
    14    -1.394967
    15    -0.841001
    16    -1.129576
    17     0.519419
    18     0.030312
    19    -0.020215
    20     0.012839
    21     0.294455
    22    -0.921758
    23     0.053948
    24     0.174450
    25     0.059468
    26     0.139685
    27     0.753527
    28     0.128419
    29     0.148911
    30    -0.172296
    31     0.203220
    32    -0.067417
    33    -0.000224
    34    -0.035595
    35    -0.012324
    36    -0.379757
    37     1.448118
    38    -0.136301
    39     0.077155
    40     0.046067
    41    -1.042219
    42     0.594995
    43     0.091957
    44     0.122213
    45    -0.104154
    46    -0.233308
    47    -0.224999
    48    -0.022312
    49     0.009926
    50     0.011670
    51     0.268742
    52    -0.835288
    53    -0.112017
    54    -0.129703
    55     0.058516
    56    -0.518016
    57    -0.468448
    58     0.125791
    59    -0.031523
    60     0.010427
    61     0.187258
    62    -0.181092
    63     0.032040
    64     0.013790
Sym=    36a
Ene=   -0.642076E-03
Spin= Alpha
Occup= 0.000141
     1     0.066902
     2     0.786347
     3     3.254269
     4    -0.530068
     5    -0.271996
     6    -0.167557
     7     0.087898
     8     1.869932
     9     1.154824
    10    -0.320390
    11    -0.226549
    12    -0.140132
    13     0.113280
    14    -1.371012
    15    -0.798670
    16    -1.107408
    17    -0.516937
    18    -0.030422
    19    -0.018752
    20     0.012473
    21     0.296426
    22    -0.938954
    23    -0.057423
    24     0.174208
    25     0.050641
    26    -0.151555
    27     0.766044
    28     0.109495
    29     0.151587
    30    -0.174508
    31     0.206474
    32     0.072232
    33    -0.000509
    34    -0.030420
    35     0.011770
    36     0.273223
    37    -0.851455
    38     0.113165
    39    -0.133430
    40     0.050184
    41     0.526826
    42    -0.480309
    43     0.108258
    44    -0.030040
    45     0.007390
    46     0.192436
    47     0.189211
    48    -0.028232
    49     0.011648
    50    -0.012565
    51    -0.390263
    52     1.481115
    53     0.143303
    54     0.081598
    55     0.037600
    56     1.065625
    57     0.614807
    58     0.074234
    59     0.125839
    60    -0.108267
    61    -0.242210
    62     0.231970
    63     0.019911
    64     0.003953
Sym=    37a
Ene=   -0.106670E-04
Spin= Alpha
Occup= 0.000000
     1    -0.001852
     2    -0.117849
     3     0.161478
     4    -0.189299
     5     0.000292
     6    -0.013489
     7     0.005037
     8    -0.001932
     9     0.105389
    10    -0.053414
    11     0.000955
    12     0.002910
    13     0.231234
    14     0.759559
    15     0.853971
    16     0.274306
    17     0.000307
    18     0.008913
    19     0.918167
    20    -0.010614
    21     0.214383
    22    -0.971774
    23     0.000160
    24     0.135796
    25    -0.257002
    26     0.000223
    27     0.675108
    28    -0.684183
    29     0.157713
    30    -0.047810
    31     0.222750
    32    -0.000339
    33    -0.010513
    34     0.197587
    35    -0.008879
    36     0.182152
    37    -0.813337
    38     0.103436
    39    -0.062133
    40     0.068934
    41     0.493237
    42    -0.286178
    43     0.196726
    44     0.009314
    45     0.086031
    46     0.192094
    47     0.078582
    48    -0.181539
    49    -0.089742
    50    -0.008876
    51     0.182455
    52    -0.814509
    53    -0.104278
    54    -0.061533
    55     0.073237
    56    -0.495448
    57    -0.286258
    58     0.207434
    59     0.007692
    60     0.087339
    61     0.192596
    62    -0.078152
    63     0.182557
    64    -0.090672
Sym=    38a
Ene=   -0.102841E-04
Spin= Alpha
Occup= 0.000000
     1    -0.001846
     2    -0.123545
     3     0.186578
     4    -0.201621
     5     0.000255
     6     0.018124
     7     0.006870
     8    -0.079060
     9    -0.232229
    10    -0.058088
    11     0.034935
    12     0.045868
    13     0.220296
    14     1.182214
    15     0.561524
    16     0.264952
    17     0.245719
    18     0.769197
    19    -0.411801
    20    -0.009962
    21     0.160232
    22    -0.671547
    23    -0.031879
    24     0.123155
    25     0.063708
    26    -0.122063
    27     0.446660
    28     0.180193
    29     0.090265
    30     0.017970
    31     0.193986
    32     0.048338
    33    -0.112882
    34    -0.101360
    35    -0.011138
    36     0.215419
    37    -0.967172
    38     0.098083
    39    -0.112187
    40    -0.243026
    41     0.486097
    42    -0.496948
    43    -0.647267
    44     0.064453
    45     0.047724
    46     0.232454
    47     0.134576
    48     0.160914
    49    -0.095186
    50    -0.009026
    51     0.247280
    52    -1.163333
    53    -0.109077
    54    -0.080464
    55     0.075186
    56    -0.690723
    57    -0.472716
    58     0.211359
    59    -0.008741
    60     0.098545
    61     0.231083
    62    -0.156860
    63     0.033369
    64     0.167489
Sym=    39a
Ene=   -0.972126E-05
Spin= Alpha
Occup= 0.000000
     1     0.002114
     2     0.136449
     3    -0.189615
     4     0.218402
     5     0.002617
     6     0.001522
     7    -0.008229
     8    -0.106661
     9    -0.064778
    10     0.062244
    11     0.019123
    12     0.011461
    13    -0.216604
    14    -0.791252
    15    -1.085055
    16    -0.315752
    17     0.280657
    18     0.729212
    19     0.428238
    20     0.010488
    21    -0.241923
    22     1.107578
    23    -0.032661
    24    -0.145277
    25    -0.068980
    26    -0.127748
    27    -0.776644
    28    -0.194195
    29    -0.177164
    30     0.065352
    31    -0.239528
    32     0.052847
    33    -0.111447
    34     0.105500
    35     0.010501
    36    -0.240841
    37     1.100864
    38    -0.141454
    39     0.044336
    40    -0.067366
    41    -0.732418
    42     0.273377
    43    -0.188548
    44     0.041597
    45    -0.154065
    46    -0.238968
    47    -0.091860
    48     0.016317
    49    -0.174322
    50     0.012063
    51    -0.191318
    52     0.818748
    53     0.128860
    54     0.073130
    55     0.234852
    56     0.491502
    57     0.279911
    58     0.626126
    59    -0.031127
    60    -0.093640
    61    -0.229473
    62     0.059560
    63     0.167043
    64     0.071450
Sym=    40a
Ene=   -0.188181E-05
Spin= Alpha
Occup= 0.000000
     1    -0.002847
     2    -0.029369
     3    -0.539150
     4     0.021814
     5     0.006317
     6     0.001311
     7     0.014960
     8    -0.107397
     9    -0.045047
    10    -0.050106
    11     0.018423
    12     0.011695
    13    -0.011282
    14    -0.722698
    15    -0.918797
    16     1.160028
    17     0.207844
    18    -0.030785
    19    -0.029560
    20    -0.000682
    21    -0.147903
    22     0.752234
    23    -0.022063
    24     0.039912
    25     0.021617
    26    -0.088108
    27    -0.391157
    28     0.050671
    29     0.038450
    30     0.082366
    31    -0.186186
    32     0.035298
    33    -0.001957
    34    -0.011656
    35    -0.000486
    36    -0.153525
    37     0.777481
    38     0.021175
    39    -0.038959
    40     0.016240
    41    -0.397220
    42     0.125550
    43     0.037445
    44     0.101893
    45     0.016434
    46    -0.191081
    47    -0.004334
    48    -0.039487
    49    -0.049095
    50    -0.000151
    51    -0.110714
    52     0.536375
    53    -0.035782
    54    -0.020964
    55     0.003380
    56     0.197806
    57     0.113184
    58     0.002987
    59     0.043943
    60     0.069565
    61    -0.174096
    62    -0.023631
    63     0.025036
    64    -0.053507
Sym=    41a
Ene=   -0.201185E-02
Spin= Alpha
Occup= 0.000948
     1     0.002900
     2     0.030333
     3     0.238869
     4    -0.024614
     5     0.006210
     6     0.003481
     7     0.014723
     8    -0.055977
     9    -0.032662
    10    -0.044445
    11     0.000875
    12    -0.000369
    13     0.057395
    14     0.063486
    15     0.082827
    16    -0.128040
    17    -0.024202
    18     0.075220
    19     0.044343
    20     0.000305
    21     0.031410
    22    -0.128026
    23     0.008843
    24     0.007947
    25    -0.011242
    26     0.029473
    27     0.072107
    28    -0.032228
    29     0.007526
    30    -0.004088
    31     0.023051
    32    -0.008663
    33    -0.001527
    34     0.004912
    35     0.000283
    36     0.031945
    37    -0.131281
    38     0.010822
    39     0.003549
    40    -0.010952
    41     0.077434
    42    -0.012087
    43    -0.031332
    44    -0.007362
    45     0.011272
    46     0.023085
    47     0.001720
    48     0.003401
    49    -0.004026
    50     0.024399
    51     0.090112
    52    -0.049676
    53    -0.103626
    54    -0.059678
    55    -0.034545
    56    -0.197305
    57    -0.114857
    58     0.020020
    59     0.138670
    60     0.369743
    61    -0.691494
    62    -0.217600
    63    -0.599153
    64    -0.336614
Sym=    42a
Ene=   -0.201221E-02
Spin= Alpha
Occup= 0.000949
     1     0.002523
     2     0.025934
     3     0.221022
     4    -0.021112
     5     0.006581
     6     0.003776
     7    -0.015094
     8    -0.058690
     9    -0.034541
    10     0.045802
    11     0.001154
    12     0.000155
    13    -0.057687
    14     0.071099
    15     0.090564
    16    -0.124434
    17    -0.023389
    18    -0.075523
    19    -0.044049
    20     0.000220
    21     0.030852
    22    -0.127856
    23     0.008887
    24     0.007112
    25     0.010888
    26     0.029618
    27     0.070993
    28     0.031468
    29     0.007112
    30    -0.003514
    31     0.022803
    32    -0.008751
    33     0.001489
    34    -0.004735
    35     0.000205
    36     0.031349
    37    -0.130668
    38     0.010289
    39     0.004015
    40     0.010782
    41     0.076789
    42    -0.011210
    43     0.031065
    44    -0.007258
    45     0.011258
    46     0.022855
    47     0.001131
    48    -0.003433
    49     0.003841
    50     0.024364
    51     0.090546
    52    -0.052628
    53    -0.103450
    54    -0.059612
    55     0.034276
    56    -0.199003
    57    -0.115609
    58    -0.020612
    59     0.139922
    60     0.368361
    61    -0.690879
    62    -0.218935
    63     0.597161
    64     0.339913
Sym=    43a
Ene=   -0.201196E-02
Spin= Alpha
Occup= 0.000949
     1     0.002905
     2     0.030427
     3     0.239180
     4    -0.024591
     5    -0.006015
     6     0.003816
     7     0.014779
     8     0.056471
     9    -0.031500
    10    -0.044663
    11     0.000643
    12     0.002381
    13     0.057443
    14     0.055874
    15     0.089966
    16    -0.128288
    17     0.019386
    18    -0.077124
    19     0.041602
    20     0.000322
    21     0.032678
    22    -0.134543
    23    -0.008123
    24     0.007475
    25    -0.010438
    26    -0.027031
    27     0.074355
    28    -0.030171
    29     0.008354
    30    -0.004408
    31     0.023205
    32     0.007877
    33     0.001557
    34     0.004559
    35     0.024383
    36     0.090026
    37    -0.049513
    38     0.103635
    39    -0.059548
    40    -0.034427
    41     0.199117
    42    -0.111316
    43     0.020286
    44     0.160289
    45     0.348105
    46    -0.691358
    47     0.230908
    48     0.584522
    49    -0.361463
    50     0.000291
    51     0.030727
    52    -0.124662
    53    -0.011640
    54     0.003898
    55    -0.011656
    56    -0.076681
    57    -0.008860
    58    -0.033317
    59    -0.007958
    60     0.011118
    61     0.022989
    62    -0.001007
    63    -0.003658
    64    -0.003898
Sym=    44a
Ene=   -0.201238E-02
Spin= Alpha
Occup= 0.000949
     1    -0.002542
     2    -0.026211
     3    -0.221996
     4     0.021082
     5    -0.000037
     6     0.007609
     7     0.015223
     8     0.000661
     9    -0.068114
    10    -0.046291
    11     0.000264
    12     0.001242
    13     0.057805
    14    -0.102856
    15    -0.057613
    16     0.124923
    17    -0.001512
    18     0.000343
    19    -0.087811
    20    -0.024365
    21    -0.090496
    22     0.052322
    23     0.000135
    24    -0.119385
    25    -0.034098
    26     0.000641
    27    -0.229923
    28     0.021035
    29    -0.475497
    30    -0.032866
    31     0.690952
    32     0.002605
    33     0.002422
    34     0.686941
    35    -0.000238
    36    -0.030920
    37     0.127981
    38    -0.001730
    39     0.011257
    40    -0.010768
    41    -0.046673
    42     0.061090
    43    -0.031312
    44    -0.005415
    45     0.001996
    46    -0.022857
    47    -0.009758
    48     0.004649
    49    -0.001003
    50    -0.000215
    51    -0.031314
    52     0.130331
    53     0.001669
    54     0.011008
    55    -0.010703
    56     0.047869
    57     0.061038
    58    -0.030993
    59    -0.005562
    60     0.001766
    61    -0.022935
    62     0.009862
    63    -0.004892
    64    -0.000963
Sym=    45a
Ene=   -0.201220E-02
Spin= Alpha
Occup= 0.000949
     1     0.002535
     2     0.026081
     3     0.221599
     4    -0.021192
     5    -0.006457
     6     0.004188
     7    -0.015118
     8     0.059775
     9    -0.033892
    10     0.045908
    11     0.000391
    12     0.003125
    13    -0.057718
    14     0.063482
    15     0.097572
    16    -0.124656
    17     0.018169
    18     0.077182
    19    -0.041144
    20     0.000230
    21     0.032047
    22    -0.134165
    23    -0.008157
    24     0.006578
    25     0.010067
    26    -0.027112
    27     0.072965
    28     0.029347
    29     0.007903
    30    -0.003770
    31     0.022912
    32     0.007945
    33    -0.001530
    34    -0.004367
    35     0.024380
    36     0.090747
    37    -0.053167
    38     0.103531
    39    -0.059599
    40     0.034302
    41     0.201326
    42    -0.112374
    43    -0.020571
    44     0.162284
    45     0.346149
    46    -0.690886
    47     0.232389
    48    -0.581435
    49     0.365975
    50     0.000208
    51     0.030023
    52    -0.123638
    53    -0.011128
    54     0.004368
    55     0.011480
    56    -0.075907
    57    -0.007894
    58     0.033021
    59    -0.007841
    60     0.011074
    61     0.022732
    62    -0.000392
    63     0.003643
    64     0.003726
Sym=    46a
Ene=   -0.201204E-02
Spin= Alpha
Occup= 0.000949
     1     0.002910
     2     0.030539
     3     0.239574
     4    -0.024486
     5    -0.000014
     6    -0.007018
     7     0.014906
     8    -0.000362
     9     0.063867
    10    -0.045133
    11    -0.000386
    12    -0.000626
    13     0.057551
    14     0.096214
    15     0.049133
    16    -0.128566
    17     0.001576
    18     0.000301
    19    -0.087924
    20     0.024366
    21     0.089761
    22    -0.048627
    23    -0.000095
    24     0.119440
    25    -0.034232
    26    -0.000670
    27     0.227423
    28     0.020720
    29     0.475150
    30     0.033280
    31    -0.691515
    32    -0.003143
    33     0.003554
    34     0.687093
    35     0.000336
    36     0.031677
    37    -0.128869
    38     0.002533
    39    -0.011606
    40    -0.010985
    41     0.048112
    42    -0.061616
    43    -0.031773
    44     0.004988
    45    -0.001670
    46     0.023125
    47     0.010289
    48     0.004723
    49    -0.001125
    50     0.000306
    51     0.031996
    52    -0.131063
    53    -0.002417
    54    -0.011280
    55    -0.010948
    56    -0.049122
    57    -0.061335
    58    -0.031505
    59     0.005121
    60    -0.001401
    61     0.023151
    62    -0.010291
    63    -0.005001
    64    -0.001075
Sym=    47a
Ene=   -0.194363E-02
Spin= Alpha
Occup= 0.000989
     1    -0.007197
     2    -0.049040
     3    -0.327430
     4     0.154590
     5     0.052320
     6    -0.022622
     7    -0.000759
     8    -0.307565
     9     0.174227
    10     0.002815
    11     0.066004
    12    -0.024772
    13    -0.001238
    14    -0.242032
    15     0.117019
    16     0.025501
    17     0.101495
    18    -0.001890
    19     0.000880
    20    -0.000488
    21     0.003916
    22    -0.062662
    23     0.003994
    24    -0.017047
    25    -0.000585
    26     0.005512
    27     0.021236
    28    -0.001329
    29     0.016337
    30    -0.013905
    31    -0.006794
    32    -0.005100
    33    -0.000071
    34     0.000345
    35     0.027242
    36    -0.041067
    37     0.517887
    38     0.049200
    39     0.140830
    40     0.000377
    41    -0.189002
    42     0.374148
    43     0.000909
    44     0.100224
    45    -0.511773
    46     0.117828
    47     0.819257
    48     0.001142
    49    -0.000355
    50    -0.000917
    51    -0.012937
    52     0.044969
    53    -0.007465
    54     0.019802
    55    -0.000662
    56    -0.012999
    57     0.075972
    58    -0.001533
    59    -0.014365
    60     0.015651
    61    -0.003779
    62     0.011574
    63    -0.000366
    64    -0.000205
Sym=    48a
Ene=   -0.119904E-01
Spin= Alpha
Occup= 0.009959
     1    -0.006492
     2    -0.042333
     3    -0.088823
     4     0.078360
     5    -0.013741
     6    -0.037665
     7    -0.000114
     8     0.045259
     9     0.049133
    10     0.000304
    11    -0.095035
    12     0.027375
    13    -0.000064
    14     0.066347
    15    -0.077722
    16    -0.020367
    17    -0.049224
    18    -0.000091
    19    -0.000007
    20     0.001347
    21     0.016941
    22    -0.021576
    23     0.009657
    24     0.006053
    25    -0.000044
    26     0.066790
    27    -0.004043
    28    -0.000124
    29     0.001011
    30     0.003532
    31     0.003500
    32    -0.004792
    33    -0.000012
    34     0.000003
    35    -0.001494
    36    -0.026744
    37     0.050364
    38    -0.006531
    39     0.001381
    40    -0.000001
    41    -0.041590
    42    -0.031177
    43    -0.000050
    44     0.000719
    45    -0.004103
    46    -0.004185
    47     0.003621
    48     0.000005
    49    -0.000000
    50    -0.197889
    51    -0.913240
    52     0.735157
    53    -0.693909
    54     0.351155
    55     0.000857
    56    -0.691504
    57     0.328449
    58     0.000804
    59    -0.039820
    60     0.093400
    61     0.142693
    62     0.121122
    63     0.000293
    64    -0.000151
Sym=    49a
Ene=   -0.119841E-01
Spin= Alpha
Occup= 0.009950
     1     0.006585
     2     0.042931
     3     0.089683
     4    -0.078635
     5     0.025527
     6    -0.031198
     7     0.000086
     8    -0.019328
     9     0.064347
    10    -0.000277
    11    -0.070852
    12    -0.068747
    13     0.000129
    14     0.004058
    15     0.007055
    16     0.020321
    17    -0.096580
    18     0.000053
    19     0.000035
    20     0.198068
    21     0.914121
    22    -0.736151
    23    -0.648761
    24    -0.428569
    25    -0.000353
    26    -0.627975
    27    -0.437406
    28    -0.000349
    29     0.029493
    30    -0.083370
    31    -0.142939
    32     0.127909
    33     0.000114
    34     0.000082
    35    -0.001335
    36    -0.016692
    37     0.021003
    38    -0.000499
    39     0.011599
    40    -0.000006
    41     0.036987
    42     0.055822
    43     0.000022
    44    -0.006465
    45     0.002121
    46    -0.003576
    47    -0.000988
    48    -0.000010
    49     0.000014
    50     0.001516
    51     0.026689
    52    -0.049759
    53    -0.004602
    54    -0.005124
    55     0.000061
    56     0.006095
    57    -0.051452
    58     0.000135
    59     0.005506
    60    -0.002300
    61     0.004228
    62    -0.000361
    63     0.000001
    64    -0.000004
Sym=    50a
Ene=   -0.119714E-01
Spin= Alpha
Occup= 0.009931
     1    -0.006684
     2    -0.043522
     3    -0.090025
     4     0.078554
     5     0.025389
     6     0.031998
     7    -0.000058
     8    -0.019349
     9    -0.065354
    10     0.000263
    11    -0.070120
    12     0.069274
    13    -0.000195
    14    -0.004253
    15    -0.007133
    16    -0.019996
    17    -0.095798
    18     0.000060
    19    -0.000126
    20    -0.198415
    21    -0.915670
    22     0.737255
    23    -0.645206
    24     0.433311
    25    -0.000236
    26    -0.624646
    27     0.441865
    28    -0.000210
    29    -0.027551
    30     0.081965
    31     0.143414
    32     0.128999
    33    -0.000067
    34     0.000041
    35    -0.001534
    36    -0.026699
    37     0.049751
    38    -0.004672
    39     0.005503
    40    -0.000067
    41     0.005752
    42     0.051873
    43    -0.000126
    44    -0.005362
    45     0.002439
    46    -0.004370
    47    -0.000100
    48     0.000007
    49     0.000008
    50     0.001344
    51     0.016586
    52    -0.020676
    53    -0.000265
    54    -0.011325
    55     0.000003
    56     0.037029
    57    -0.055019
    58    -0.000006
    59     0.006456
    60    -0.001906
    61     0.003345
    62    -0.001197
    63    -0.000015
    64    -0.000009
Sym=    51a
Ene=   -0.119601E-01
Spin= Alpha
Occup= 0.009915
     1     0.006755
     2     0.043923
     3     0.090002
     4    -0.078577
     5     0.040778
     6    -0.005780
     7     0.000009
     8    -0.066737
     9    -0.015648
    10    -0.000169
    11     0.025161
    12     0.094980
    13     0.000242
    14     0.077338
    15    -0.066322
    16     0.020311
    17    -0.045880
    18    -0.000140
    19    -0.000073
    20     0.001525
    21     0.026680
    22    -0.049921
    23     0.002243
    24     0.006639
    25     0.000000
    26     0.047408
    27     0.021118
    28    -0.000016
    29    -0.000175
    30     0.003209
    31     0.004280
    32    -0.004045
    33    -0.000010
    34    -0.000009
    35    -0.001339
    36    -0.016616
    37     0.021170
    38    -0.009731
    39    -0.005510
    40     0.000029
    41    -0.028995
    42    -0.059184
    43     0.000023
    44     0.000728
    45    -0.005418
    46    -0.003269
    47     0.003422
    48     0.000011
    49     0.000020
    50     0.198646
    51     0.916646
    52    -0.737752
    53     0.056435
    54     0.775001
    55     0.000825
    56     0.074040
    57     0.761708
    58     0.000776
    59    -0.151525
    60     0.096739
    61    -0.143759
    62     0.011119
    63     0.000014
    64     0.000311
Sym=    52a
Ene=   -0.193722E-02
Spin= Alpha
Occup= 0.000989
     1     0.007336
     2     0.047952
     3     0.331417
     4    -0.160806
     5    -0.050647
     6     0.032998
     7     0.000801
     8     0.327454
     9    -0.184026
    10    -0.002963
    11    -0.053959
    12     0.048063
    13     0.001274
    14     0.094836
    15     0.051020
    16    -0.023406
    17    -0.225750
    18     0.001654
    19    -0.001646
    20     0.001146
    21     0.013633
    22    -0.035875
    23     0.018078
    24     0.006460
    25     0.000792
    26     0.062967
    27     0.022540
    28     0.001872
    29    -0.001745
    30     0.000249
    31     0.005278
    32    -0.018480
    33     0.000067
    34    -0.000523
    35    -0.025647
    36     0.053859
    37    -0.548314
    38     0.098008
    39     0.101026
    40     0.000024
    41     0.430173
    42    -0.019230
    43    -0.000424
    44     0.942992
    45    -0.546672
    46    -0.105617
    47    -0.245217
    48     0.001303
    49    -0.001111
    50     0.000083
    51    -0.006414
    52     0.059572
    53    -0.012128
    54    -0.008007
    55     0.000540
    56     0.022109
    57    -0.000388
    58     0.001196
    59     0.005756
    60    -0.008442
    61     0.005642
    62     0.014385
    63     0.000278
    64     0.000122
Sym=    53a
Ene=   -0.875692E-03
Spin= Alpha
Occup= 0.000201
     1     0.074874
     2     0.877087
     3     3.612699
     4    -0.605197
     5     0.008878
     6     0.020277
     7    -0.294639
     8    -0.061082
     9    -0.139779
    10     1.074253
    11     0.007006
    12     0.016289
    13    -0.387143
    14    -1.217651
    15    -1.289460
    16    -1.158347
    17     0.017550
    18    -0.002201
    19    -0.004920
    20     0.004091
    21     0.033609
    22     0.024157
    23     0.001927
    24     0.054392
    25    -0.150740
    26     0.004870
    27    -0.010153
    28    -0.318313
    29     0.008748
    30    -0.013379
    31     0.027899
    32    -0.002333
    33     0.000326
    34     0.084282
    35     0.005481
    36     0.066569
    37    -0.090137
    38     0.062723
    39    -0.031208
    40    -0.151964
    41     0.078064
    42    -0.032253
    43    -0.321773
    44    -0.020860
    45     0.013855
    46     0.047936
    47     0.026732
    48     0.072532
    49    -0.044497
    50     0.006464
    51     0.088959
    52    -0.166937
    53    -0.071181
    54    -0.037955
    55    -0.152867
    56    -0.130559
    57    -0.067785
    58    -0.324235
    59    -0.027403
    60     0.018549
    61     0.061580
    62    -0.039298
    63    -0.074645
    64    -0.042410
Sym=    54a
Ene=   -0.714794E-04
Spin= Alpha
Occup= 0.000012
     1    -0.000029
     2    -0.000590
     3    -0.000542
     4     0.000068
     5    -0.005845
     6    -0.002508
     7     0.000320
     8     0.082195
     9     0.041561
    10    -0.001447
    11    -0.003605
    12    -0.001703
    13    -0.000148
    14    -0.063928
    15     0.071120
    16    -0.000665
    17    -0.138283
    18     0.038401
    19    -0.029905
    20    -0.000006
    21     0.011383
    22    -0.061298
    23     0.012885
    24     0.001179
    25     0.008841
    26     0.052765
    27     0.041479
    28     0.021913
    29     0.010699
    30    -0.010701
    31     0.005798
    32    -0.022392
    33     0.671653
    34    -0.010178
    35    -0.000053
    36     0.013092
    37    -0.068727
    38     0.008082
    39     0.010315
    40    -0.013125
    41     0.066922
    42     0.022684
    43    -0.033957
    44    -0.021308
    45     0.024643
    46     0.004584
    47     0.001317
    48    -0.311803
    49    -0.521481
    50     0.000011
    51    -0.022452
    52     0.120814
    53     0.002215
    54     0.001462
    55     0.005117
    56     0.071467
    57     0.041741
    58     0.013012
    59     0.010270
    60    -0.012585
    61    -0.009046
    62     0.022987
    63    -0.199096
    64     0.360894
Sym=    55a
Ene=   -0.675138E-04
Spin= Alpha
Occup= 0.000013
     1     0.000437
     2     0.005232
     3     0.024056
     4    -0.006400
     5     0.034678
     6     0.014682
     7     0.000267
     8    -0.513491
     9    -0.266233
    10    -0.000977
    11     0.018307
    12     0.004685
    13     0.001505
    14     0.449650
    15    -0.460563
    16    -0.009564
    17     0.900160
    18    -0.147423
    19     0.216527
    20    -0.000071
    21    -0.070925
    22     0.387778
    23    -0.084854
    24    -0.004709
    25    -0.059368
    26    -0.347249
    27    -0.258621
    28    -0.151128
    29    -0.073246
    30     0.068866
    31    -0.028659
    32     0.148041
    33     0.228381
    34     0.049617
    35     0.000068
    36    -0.077727
    37     0.411675
    38    -0.051101
    39    -0.070869
    40     0.058994
    41    -0.419365
    42    -0.167836
    43     0.156478
    44     0.144483
    45    -0.153097
    46    -0.033842
    47     0.004051
    48     0.233433
    49     0.475141
    50     0.000096
    51     0.149436
    52    -0.801517
    53    -0.012567
    54    -0.009673
    55     0.000113
    56    -0.466138
    57    -0.278127
    58    -0.005653
    59    -0.067572
    60     0.073386
    61     0.068855
    62    -0.147443
    63    -0.272225
    64     0.475492
Sym=    56a
Ene=   -0.612794E-04
Spin= Alpha
Occup= 0.000013
     1     0.000465
     2     0.003516
     3    -0.039426
     4    -0.011848
     5    -0.051098
     6    -0.031890
     7     0.002885
     8     0.736889
     9     0.451417
    10    -0.010835
    11    -0.026660
    12    -0.015979
    13     0.006754
    14    -0.785752
    15     0.523391
    16     0.181405
    17    -1.265996
    18     0.277375
    19     0.129630
    20    -0.000157
    21     0.096125
    22    -0.507871
    23     0.118305
    24     0.025434
    25    -0.035430
    26     0.484812
    27     0.368872
    28    -0.089813
    29     0.125107
    30    -0.097775
    31     0.028588
    32    -0.206830
    33    -0.002110
    34     0.029240
    35    -0.000049
    36     0.087796
    37    -0.466680
    38     0.077098
    39     0.092991
    40    -0.038972
    41     0.537113
    42     0.255753
    43    -0.107616
    44    -0.190400
    45     0.216876
    46     0.022962
    47    -0.007059
    48     0.234706
    49     0.303456
    50    -0.000031
    51    -0.236402
    52     1.257340
    53     0.014434
    54     0.009464
    55     0.076941
    56     0.718251
    57     0.420971
    58     0.202946
    59     0.107237
    60    -0.101105
    61    -0.126969
    62     0.211688
    63    -0.134903
    64     0.381081
Sym=    57a
Ene=   -0.106606E-02
Spin= Alpha
Occup= 0.000039
     1    -0.001689
     2     0.018719
     3     0.325020
     4    -0.013654
     5     0.000147
     6     0.016339
     7    -0.000556
     8    -0.001100
     9     0.227024
    10     0.002033
    11     0.000107
    12     0.065949
    13    -0.000725
    14    -0.048306
    15     0.060564
    16    -0.114047
    17     0.000290
    18     0.000400
    19    -0.003963
    20    -0.627167
    21    -1.616332
    22    -1.792903
    23    -0.000009
    24     0.023987
    25     0.000663
    26    -0.000003
    27     0.188838
    28     0.001952
    29     1.514544
    30     1.287082
    31     1.341680
    32    -0.001417
    33     0.000059
    34    -0.000682
    35    -0.001720
    36    -0.009096
    37     0.007943
    38    -0.007624
    39     0.003750
    40    -0.000847
    41    -0.022793
    42     0.002779
    43    -0.002117
    44     0.010363
    45    -0.003561
    46    -0.006442
    47    -0.006664
    48     0.000697
    49    -0.000195
    50    -0.001696
    51    -0.008685
    52     0.006612
    53     0.007477
    54     0.003505
    55    -0.000689
    56     0.021871
    57     0.002015
    58    -0.001676
    59     0.010300
    60    -0.003909
    61    -0.005891
    62     0.006134
    63    -0.000553
    64    -0.000165
Sym=    58a
Ene=   -0.106621E-02
Spin= Alpha
Occup= 0.000039
     1     0.001579
     2    -0.019986
     3    -0.330037
     4     0.014712
     5    -0.014421
     6     0.007813
     7     0.000540
     8    -0.195546
     9     0.114524
    10    -0.001966
    11    -0.057390
    12     0.032424
    13     0.000658
    14    -0.028103
    15     0.020614
    16     0.114899
    17     0.056354
    18     0.002857
    19    -0.002164
    20     0.001718
    21     0.008914
    22    -0.006679
    23     0.000263
    24     0.008515
    25     0.000814
    26     0.007755
    27     0.020466
    28     0.002020
    29     0.004761
    30    -0.011392
    31     0.006316
    32    -0.003415
    33    -0.000079
    34    -0.000677
    35     0.627169
    36     1.616468
    37     1.792174
    38    -0.021345
    39     0.011172
    40    -0.000574
    41    -0.164787
    42     0.091652
    43    -0.001697
    44    -1.351392
    45    -1.450305
    46    -1.341545
    47    -0.118010
    48     0.000276
    49    -0.000665
    50     0.001675
    51     0.008784
    52    -0.008376
    53    -0.006306
    54    -0.004769
    55     0.000622
    56    -0.012698
    57    -0.019152
    58     0.001510
    59    -0.004175
    60    -0.002311
    61     0.005910
    62    -0.010535
    63     0.000401
    64     0.000336
Sym=    59a
Ene=   -0.106654E-02
Spin= Alpha
Occup= 0.000039
     1    -0.001497
     2     0.020984
     3     0.334026
     4    -0.015414
     5    -0.014361
     6    -0.008094
     7    -0.000565
     8    -0.195187
     9    -0.114699
    10     0.002054
    11    -0.057074
    12    -0.032897
    13    -0.000660
    14     0.031002
    15    -0.026871
    16    -0.116048
    17     0.054474
    18     0.002614
    19     0.001999
    20    -0.001696
    21    -0.009187
    22     0.009390
    23     0.000556
    24    -0.008165
    25    -0.000790
    26     0.008738
    27    -0.021751
    28    -0.001951
    29    -0.005228
    30     0.011806
    31    -0.006288
    32    -0.003747
    33     0.000015
    34     0.000651
    35    -0.001674
    36    -0.008448
    37     0.006234
    38    -0.006607
    39     0.004398
    40    -0.000613
    41    -0.012696
    42     0.016914
    43    -0.001471
    44     0.004162
    45     0.002069
    46    -0.005624
    47    -0.009769
    48     0.000404
    49    -0.000324
    50    -0.627172
    51    -1.616523
    52    -1.792133
    53    -0.020765
    54    -0.012118
    55     0.000479
    56    -0.162982
    57    -0.094753
    58     0.001459
    59     1.342103
    60     1.459621
    61     1.341413
    62    -0.112564
    63     0.000266
    64     0.000565
Sym=    60a
Ene=   -0.398132E-05
Spin= Alpha
Occup= 0.000000
     1     0.000186
     2     0.010962
     3    -0.014291
     4     0.016780
     5    -0.035193
     6     0.054655
     7     0.000167
     8     0.547299
     9    -0.862584
    10    -0.000380
    11    -0.057040
    12     0.089744
    13    -0.001415
    14     1.291474
    15    -1.444745
    16    -0.020690
    17    -0.985561
    18    -0.070169
    19     0.045431
    20     0.000390
    21    -0.225608
    22     1.223331
    23     0.098531
    24    -0.033175
    25    -0.010456
    26     0.397680
    27    -0.867759
    28    -0.028356
    29    -0.231191
    30     0.226966
    31    -0.110012
    32    -0.164337
    33     0.006612
    34     0.010259
    35     0.001257
    36     0.199181
    37    -1.112624
    38    -0.032077
    39    -0.084465
    40     0.020402
    41     0.509908
    42    -0.706296
    43     0.054801
    44    -0.007376
    45    -0.006781
    46     0.078333
    47     0.303757
    48    -0.017623
    49     0.007162
    50     0.000866
    51    -0.027348
    52     0.131227
    53     0.105586
    54    -0.155160
    55    -0.008569
    56     0.458020
    57    -0.606027
    58    -0.023487
    59     0.240263
    60    -0.248141
    61    -0.024323
    62    -0.136460
    63    -0.001299
    64    -0.014869
Sym=    61a
Ene=    0.000000E+00
Spin= Alpha
Occup= 0.000000
     1     0.000778
     2     0.043100
     3    -0.062333
     4    -0.017915
     5     0.012174
     6     0.002839
     7     0.021481
     8    -0.252629
     9    -0.059656
    10    -0.198948
    11    -1.157290
    12    -0.334428
    13     0.799710
    14    -0.258625
    15    -0.412667
    16    -0.055780
    17     0.400377
    18     0.014145
    19    -0.022332
    20     0.009463
    21    -0.182310
    22     0.822206
    23     0.110438
    24    -0.050482
    25    -0.123045
    26     0.278624
    27    -0.311867
    28    -0.300547
    29    -0.109480
    30    -0.045521
    31    -0.147296
    32     0.011500
    33    -0.001632
    34    -0.036045
    35     0.016805
    36    -0.329805
    37     1.500518
    38    -0.004498
    39     0.101369
    40    -0.133961
    41    -0.275905
    42     0.411908
    43    -0.330030
    44    -0.127019
    45    -0.180132
    46    -0.235435
    47    -0.041357
    48    -0.021209
    49     0.015003
    50    -0.012644
    51     0.239235
    52    -1.097529
    53     0.047746
    54    -0.001711
    55    -0.128117
    56     0.023249
    57    -0.056312
    58    -0.314239
    59     0.158719
    60     0.149017
    61     0.102722
    62     0.022054
    63     0.025645
    64     0.018225
Sym=    62a
Ene=    0.000000E+00
Spin= Alpha
Occup= 0.000000
     1    -0.001243
     2    -0.069959
     3     0.087361
     4    -0.478964
     5     0.004778
     6     0.012858
     7    -0.017944
     8    -0.108682
     9    -0.262519
    10     0.169758
    11    -0.577492
    12    -1.139978
    13    -0.690998
    14     0.731136
    15     0.002104
    16     0.197881
    17     0.171330
    18     0.031806
    19     0.017348
    20     0.016599
    21    -0.301155
    22     1.365644
    23     0.057634
    24     0.038973
    25     0.107281
    26     0.149517
    27    -0.037621
    28     0.262021
    29    -0.164410
    30    -0.219020
    31    -0.148194
    32     0.000827
    33    -0.004902
    34     0.030499
    35    -0.001217
    36     0.051907
    37    -0.253755
    38     0.101713
    39     0.080422
    40     0.106875
    41     0.384236
    42     0.128151
    43     0.260974
    44    -0.017312
    45     0.009886
    46     0.056889
    47     0.057873
    48     0.023361
    49    -0.020811
    50    -0.015843
    51     0.328071
    52    -1.508848
    53    -0.078550
    54     0.027782
    55     0.120073
    56    -0.482221
    57    -0.100472
    58     0.296532
    59     0.129909
    60     0.166289
    61     0.223584
    62    -0.062727
    63    -0.015378
    64    -0.010234
Sym=    63a
Ene=    0.000000E+00
Spin= Alpha
Occup= 0.000000
     1    -0.000567
     2    -0.035319
     3     0.042178
     4    -1.070881
     5    -0.010065
     6     0.008555
     7     0.013183
     8     0.204614
     9    -0.174184
    10    -0.119985
    11     0.910819
    12    -0.744647
    13     0.477163
    14     0.176136
    15    -0.308094
    16     0.226732
    17    -0.324293
    18    -0.013403
    19    -0.007734
    20     0.022613
    21    -0.392730
    22     1.747949
    23    -0.086153
    24    -0.034528
    25    -0.074443
    26    -0.216012
    27    -0.325259
    28    -0.182276
    29    -0.219556
    30    -0.220679
    31    -0.268428
    32    -0.010876
    33     0.000846
    34    -0.020340
    35    -0.005398
    36     0.154324
    37    -0.754359
    38    -0.009734
    39     0.024782
    40    -0.074404
    41     0.129242
    42    -0.028670
    43    -0.182238
    44     0.061409
    45     0.085199
    46     0.054245
    47     0.031641
    48    -0.017241
    49     0.011142
    50     0.017804
    51    -0.296216
    52     1.304310
    53    -0.023761
    54     0.105069
    55    -0.080020
    56     0.078858
    57     0.341046
    58    -0.197289
    59    -0.163268
    60    -0.176732
    61    -0.211284
    62    -0.015316
    63     0.013437
    64     0.007277
Sym=    64a
Ene=    0.000000E+00
Spin= Alpha
Occup= 0.000000
     1    -0.001782
     2    -0.103558
     3     0.130353
     4    -1.585571
     5     0.005061
     6    -0.009989
     7    -0.004796
     8    -0.101488
     9     0.198985
    10     0.048468
    11    -0.430358
    12     0.846864
    13    -0.204656
    14     0.010773
    15     0.557021
    16     0.417653
    17     0.162583
    18    -0.000732
    19     0.001013
    20    -0.000257
    21     0.081391
    22    -0.436821
    23     0.039941
    24     0.019696
    25     0.033216
    26     0.098568
    27     0.272406
    28     0.081204
    29     0.072698
    30    -0.066802
    31     0.037855
    32     0.006324
    33     0.000669
    34     0.007854
    35     0.023924
    36    -0.392268
    37     1.730762
    38    -0.017842
    39    -0.045869
    40     0.033681
    41    -0.167257
    42    -0.042617
    43     0.082531
    44    -0.274445
    45    -0.226836
    46    -0.240851
    47     0.041335
    48     0.006050
    49    -0.004493
    50     0.012955
    51    -0.177079
    52     0.745580
    53     0.032990
    54    -0.082657
    55     0.033413
    56     0.060021
    57    -0.217748
    58     0.081757
    59    -0.173329
    60    -0.096697
    61    -0.115380
    62    -0.047823
    63    -0.006056
    64    -0.005082
