[Molden Format]
p30-5 set                                                                       
[Atoms] AU
 LI       1     3        0.0000        0.0000        2.6356
 LI       2     3        0.0000        0.0000       -2.6356
[GTO]
    1 0
s    5 1.00
     266.277855160000  0.635428653465E-02
      40.069783447000  0.467348893628E-01
       9.055994438900  0.198387923560E+00
       2.450300905100  0.475753833454E+00
       0.722095718550  0.427014289368E+00
s    1 1.00
       0.052810884721  0.100000000000E+01
s    1 1.00
       0.020960948798  0.100000000000E+01
p    2 1.00
       1.450000000000  0.224912327222E+00
       0.300000000000  0.869730577039E+00
p    1 1.00
       0.082000000000  0.100000000000E+01
 
    2 0
s    5 1.00
     266.277855160000  0.635428653465E-02
      40.069783447000  0.467348893628E-01
       9.055994438900  0.198387923560E+00
       2.450300905100  0.475753833454E+00
       0.722095718550  0.427014289368E+00
s    1 1.00
       0.052810884721  0.100000000000E+01
s    1 1.00
       0.020960948798  0.100000000000E+01
p    2 1.00
       1.450000000000  0.224912327222E+00
       0.300000000000  0.869730577039E+00
p    1 1.00
       0.082000000000  0.100000000000E+01
 
[MO]
Sym=     1a
Ene=   -0.245698E+01
Spin= Alpha
Occup= 1.999360
     1     0.996558
     2     0.022196
     3    -0.011697
     4    -0.000010
     5     0.000005
     6     0.004546
     7     0.000004
     8     0.000001
     9    -0.004080
    10     0.000265
    11    -0.006348
    12     0.002835
    13     0.000001
    14    -0.000013
    15    -0.000304
    16     0.000013
    17    -0.000002
    18    -0.002618
Sym=     2a
Ene=   -0.245699E+01
Spin= Alpha
Occup= 1.999359
     1     0.000245
     2    -0.006346
     3     0.002836
     4    -0.000010
     5     0.000005
     6     0.000326
     7     0.000005
     8    -0.000003
     9     0.002608
    10     0.996560
    11     0.022199
    12    -0.011724
    13    -0.000000
    14    -0.000013
    15    -0.004544
    16     0.000013
    17    -0.000002
    18     0.004072
Sym=     3a
Ene=   -0.185260E+00
Spin= Alpha
Occup= 1.823624
     1     0.168250
     2    -0.427886
     3    -0.139868
     4    -0.000008
     5     0.000006
     6     0.031098
     7     0.000003
     8    -0.000013
     9     0.072911
    10     0.168227
    11    -0.427801
    12    -0.139968
    13    -0.000004
    14     0.000012
    15    -0.031120
    16     0.000009
    17    -0.000002
    18    -0.072848
Sym=     4a
Ene=   -0.766918E-02
Spin= Alpha
Occup= 0.051164
     1    -0.000003
     2     0.000042
     3     0.000006
     4    -0.011588
     5     0.051320
     6     0.000003
     7    -0.129526
     8     0.573750
     9    -0.000001
    10     0.000016
    11    -0.000013
    12    -0.000049
    13    -0.011593
    14     0.051363
    15    -0.000001
    16    -0.129520
    17     0.573730
    18     0.000023
Sym=     5a
Ene=   -0.881002E-05
Spin= Alpha
Occup= 0.000002
     1     0.000721
     2     0.290131
     3    -0.761153
     4     0.000006
     5     0.000040
     6     0.122978
     7     0.000025
     8    -0.000095
     9    -0.827056
    10     0.167678
    11    -2.066890
    12     2.221613
    13     0.000006
    14    -0.000002
    15    -0.094873
    16    -0.000043
    17     0.000094
    18    -0.072116
Sym=     6a
Ene=   -0.144059E-07
Spin= Alpha
Occup= 0.000000
     1     0.009974
     2    -0.762355
     3    -1.197166
     4     0.009837
     5     0.002923
     6    -0.172338
     7    -0.053955
     8    -0.016008
     9     1.771187
    10    -0.010347
    11     0.766714
    12     1.193668
    13    -0.009791
    14    -0.002917
    15    -0.171064
    16     0.053944
    17     0.015998
    18     1.768805
Sym=     7a
Ene=   -0.588367E-02
Spin= Alpha
Occup= 0.036621
     1     0.042924
     2    -0.350369
     3     0.572569
     4     0.000010
     5     0.000001
     6     0.117789
     7    -0.000018
     8     0.000009
     9     0.388282
    10     0.058852
    11    -0.450963
    12     0.583070
    13     0.000006
    14    -0.000007
    15    -0.120187
    16    -0.000011
    17     0.000022
    18    -0.407919
Sym=     8a
Ene=   -0.625312E-03
Spin= Alpha
Occup= 0.000210
     1    -0.000008
     2    -0.000105
     3    -0.000095
     4    -0.000517
     5     0.000177
     6    -0.000009
     7     0.026174
     8    -0.016995
     9     0.000121
    10    -0.000012
    11     0.000173
    12     0.000014
    13    -0.989178
    14     0.685019
    15    -0.000484
    16     0.508630
    17    -0.353246
    18     0.000398
Sym=     9a
Ene=   -0.626819E-03
Spin= Alpha
Occup= 0.000211
     1     0.000005
     2    -0.000117
     3     0.000048
     4    -0.380152
     5     1.141715
     6    -0.000282
     7     0.195803
     8    -0.588190
     9     0.000213
    10    -0.000006
    11     0.000100
    12    -0.000004
    13    -0.000106
    14     0.000334
    15    -0.000011
    16     0.009671
    17    -0.028875
    18     0.000042
Sym=    10a
Ene=   -0.203961E-05
Spin= Alpha
Occup= 0.000011
     1     0.000018
     2    -0.000572
     3    -0.000289
     4     0.047963
     5    -0.166114
     6    -0.000041
     7    -0.266171
     8     0.922147
     9     0.000680
    10     0.000009
    11     0.000146
    12     0.000634
    13    -0.047927
    14     0.166039
    15    -0.000104
    16     0.266161
    17    -0.922104
    18     0.000860
Sym=    11a
Ene=   -0.187768E-07
Spin= Alpha
Occup= 0.000000
     1    -0.000615
     2     0.045024
     3     0.069932
     4     0.167352
     5     0.048296
     6     0.010079
     7    -0.921292
     8    -0.265895
     9    -0.103932
    10     0.000605
    11    -0.045057
    12    -0.069901
    13    -0.168027
    14    -0.048488
    15     0.010085
    16     0.921661
    17     0.265998
    18    -0.103914
Sym=    12a
Ene=   -0.625968E-03
Spin= Alpha
Occup= 0.000210
     1     0.000173
     2    -0.001259
     3     0.000195
     4     1.141484
     5     0.380098
     6    -0.004215
     7    -0.586982
     8    -0.195513
     9     0.002992
    10     0.000119
    11     0.000820
    12     0.000495
    13     0.000574
    14     0.000177
    15     0.000045
    16    -0.030144
    17    -0.009965
    18     0.000398
Sym=    13a
Ene=   -0.771731E-02
Spin= Alpha
Occup= 0.051484
     1     0.000034
     2    -0.000271
     3     0.000069
     4     0.051374
     5     0.011590
     6     0.000018
     7     0.573728
     8     0.129517
     9     0.000031
    10    -0.000047
    11     0.000232
    12    -0.000024
    13     0.051389
    14     0.011595
    15     0.000013
    16     0.573710
    17     0.129526
    18     0.000027
Sym=    14a
Ene=   -0.650408E-03
Spin= Alpha
Occup= 0.000218
     1    -0.032562
     2    -0.241460
     3    -0.171116
     4     0.000017
     5    -0.000009
     6     0.007990
     7    -0.000037
     8     0.000001
     9     0.138975
    10    -0.049310
    11     0.384676
    12    -0.045985
    13     0.000438
    14    -0.000180
    15    -1.238264
    16    -0.000200
    17     0.000102
    18     0.894803
Sym=    15a
Ene=   -0.631803E-05
Spin= Alpha
Occup= 0.000001
     1    -0.167544
     2     2.071788
     3    -2.227100
     4    -0.000026
     5    -0.000021
     6    -0.092565
     7     0.000099
     8     0.000166
     9    -0.086320
    10     0.001143
    11    -0.315449
    12     0.783518
    13    -0.000002
    14     0.000004
    15     0.123519
    16    -0.000076
    17    -0.000140
    18    -0.833252
Sym=    16a
Ene=   -0.592813E-02
Spin= Alpha
Occup= 0.037095
     1     0.211036
     2    -1.337892
     3     0.167097
     4     0.000003
     5    -0.000006
     6     0.035818
     7    -0.000130
     8     0.000011
     9     0.272237
    10    -0.207042
    11     1.306243
    12    -0.122122
    13    -0.000019
    14     0.000017
    15     0.026721
    16    -0.000110
    17    -0.000008
    18     0.242242
Sym=    17a
Ene=   -0.625924E-03
Spin= Alpha
Occup= 0.000210
     1     0.000003
     2     0.000105
     3    -0.000011
     4     0.000463
     5     0.000379
     6     0.000008
     7    -0.018725
     8    -0.025420
     9    -0.000053
    10     0.000012
    11    -0.000048
    12    -0.000019
    13     0.684704
    14     0.989313
    15     0.000116
    16    -0.351522
    17    -0.509370
    18    -0.000140
Sym=    18a
Ene=   -0.649843E-03
Spin= Alpha
Occup= 0.000218
     1     0.049223
     2    -0.383660
     3     0.046616
     4    -0.003804
     5    -0.001556
     6    -1.238311
     7     0.001970
     8     0.000815
     9     0.894491
    10     0.032440
    11     0.242781
    12     0.168567
    13     0.000011
    14     0.000005
    15     0.008180
    16     0.000083
    17     0.000034
    18     0.137732
