[Molden Format]
p30-5 set                                                                       
[Atoms] AU
 MG       1    12        0.0000        0.0000        1.6325
 O        2     8        0.0000        0.0000       -1.6325
[GTO]
    1 0
s    5 1.00
    4953.833919600000 -0.573034825338E-02
     745.180441540000 -0.427698711217E-01
     169.216049720000 -0.191096515460E+00
      47.300672019000 -0.482411503269E+00
      14.461336973000 -0.422007266852E+00
s    3 1.00
      24.768174789000  0.871156057208E-01
       2.494094534900 -0.546373693218E+00
       0.878075845330 -0.529320757859E+00
s    1 1.00
       0.087212782497  0.100000000000E+01
s    1 1.00
       0.033599293780  0.100000000000E+01
p    5 1.00
      98.053010494000 -0.144805646010E-01
      22.586932277000 -0.954957507867E-01
       6.839150984200 -0.307876726509E+00
       2.233284381800 -0.499362928859E+00
       0.716065993870 -0.315034762129E+00
p    1 1.00
       0.189147961950  0.100000000000E+01
p    1 1.00
       0.053768755187  0.100000000000E+01
d    1 1.00
       0.101000000000  0.100000000000E+01

    2 0
s    5 1.00
    2266.176778500000 -0.538935039217E-02
     340.870101910000 -0.402347213890E-01
      77.363135167000 -0.180081842055E+00
      21.479644940000 -0.468288576577E+00
       6.658943312400 -0.446926171602E+00
s    1 1.00
       0.809759756680  0.100000000000E+01
s    1 1.00
       0.255307722340  0.100000000000E+01
p    3 1.00
      17.721504317000  0.626302487632E-01
       3.863550544000  0.333311384824E+00
       1.048092088300  0.741486383081E+00
p    1 1.00
       0.276415444110  0.100000000000E+01
d    1 1.00
       1.200000000000  0.100000000000E+01

[MO]
Sym=     1a
Ene=   -0.490630E+02
Spin= Alpha
Occup= 2.000000
     1     0.997746
     2     0.010244
     3     0.008576
     4     0.004085
     5     0.000254
     6     0.000185
     7    -0.000175
     8     0.000001
     9     0.000001
    10    -0.001170
    11    -0.000003
    12    -0.000003
    13     0.000123
    14    -0.004514
    15    -0.004514
    16    -0.003827
    17     0.000000
    18     0.000000
    19     0.000000
    20     0.000011
    21     0.000283
    22    -0.001294
    23    -0.000002
    24    -0.000001
    25    -0.000079
    26    -0.000003
    27    -0.000002
    28    -0.001117
    29     0.000050
    30     0.000050
    31    -0.000269
    32    -0.000000
    33     0.000000
    34     0.000000
Sym=     2a
Ene=   -0.205253E+02
Spin= Alpha
Occup= 1.999958
     1    -0.000063
     2     0.000471
     3    -0.002960
     4     0.000482
     5    -0.000162
     6    -0.000115
     7     0.000539
     8    -0.000036
     9    -0.000027
    10     0.002277
    11    -0.000072
    12    -0.000054
    13     0.001483
    14     0.000731
    15     0.000736
    16    -0.002157
    17    -0.000009
    18     0.000065
    19     0.000049
    20     0.993073
    21    -0.029629
    22     0.019615
    23    -0.000518
    24    -0.000387
    25    -0.000465
    26    -0.000202
    27    -0.000151
    28     0.002505
    29     0.003647
    30     0.003604
    31     0.004076
    32     0.000086
    33    -0.000178
    34    -0.000133
Sym=     3a
Ene=   -0.260079E+01
Spin= Alpha
Occup= 1.999923
     1    -0.114123
     2     0.434122
     3    -0.015881
     4    -0.000549
     5    -0.092594
     6    -0.073359
     7     0.896151
     8    -0.000292
     9    -0.000193
    10    -0.002926
    11     0.000075
    12     0.000064
    13    -0.001775
    14     0.004427
    15     0.004431
    16     0.001223
    17    -0.000008
    18     0.000413
    19     0.000316
    20     0.000529
    21     0.003444
    22     0.000271
    23    -0.001171
    24    -0.000880
    25     0.004977
    26    -0.001120
    27    -0.000842
    28    -0.000242
    29     0.000020
    30     0.000034
    31     0.000754
    32    -0.000027
    33     0.000068
    34     0.000054
Sym=     4a
Ene=   -0.274404E+01
Spin= Alpha
Occup= 1.999892
     1     0.143340
     2    -0.545525
     3     0.010224
     4     0.001476
     5    -0.753861
     6     0.326126
     7     0.200437
     8     0.005015
     9    -0.002207
    10     0.000964
    11     0.001401
    12    -0.000680
    13    -0.000625
    14    -0.002682
    15    -0.002718
    16    -0.003997
    17     0.000006
    18     0.001173
    19    -0.000447
    20     0.000137
    21     0.000774
    22     0.000796
    23    -0.000319
    24     0.000214
    25     0.001853
    26    -0.000493
    27     0.000152
    28     0.000253
    29    -0.000184
    30    -0.000180
    31     0.001099
    32    -0.000024
    33     0.000661
    34    -0.000281
Sym=     5a
Ene=   -0.274402E+01
Spin= Alpha
Occup= 1.999892
     1    -0.143316
     2     0.545414
     3    -0.010307
     4    -0.001485
     5    -0.068037
     6     0.820751
     7    -0.191447
     8     0.000467
     9    -0.005486
    10    -0.001017
    11     0.000190
    12    -0.001550
    13     0.000612
    14     0.002741
    15     0.002717
    16     0.003994
    17    -0.000019
    18     0.000059
    19    -0.001253
    20    -0.000128
    21    -0.000730
    22    -0.000782
    23    -0.000141
    24     0.000341
    25    -0.001781
    26    -0.000026
    27     0.000493
    28    -0.000232
    29     0.000189
    30     0.000170
    31    -0.001084
    32     0.000021
    33     0.000056
    34    -0.000718
Sym=     6a
Ene=   -0.270205E+01
Spin= Alpha
Occup= 1.999868
     1    -0.136031
     2     0.519320
     3    -0.008060
     4    -0.001025
     5    -0.643162
     6    -0.458177
     7    -0.342504
     8     0.004998
     9     0.003583
    10     0.000747
    11     0.001443
    12     0.001036
    13     0.000712
    14     0.001981
    15     0.001978
    16     0.003611
    17     0.000009
    18     0.000603
    19     0.000417
    20    -0.000590
    21    -0.001579
    22    -0.001010
    23     0.001006
    24     0.000763
    25    -0.003147
    26     0.000915
    27     0.000697
    28    -0.000852
    29     0.000264
    30     0.000248
    31    -0.001314
    32     0.000031
    33     0.000545
    34     0.000388
Sym=     7a
Ene=   -0.680827E+00
Spin= Alpha
Occup= 1.990186
     1    -0.007490
     2     0.050119
     3     0.089938
     4    -0.038907
     5     0.026319
     6     0.019648
     7    -0.021322
     8     0.035017
     9     0.026141
    10    -0.024210
    11     0.042506
    12     0.031736
    13     0.029823
    14     0.003613
    15     0.003064
    16    -0.034714
    17     0.001080
    18    -0.039858
    19    -0.029757
    20    -0.175162
    21    -0.377301
    22    -0.260607
    23     0.294217
    24     0.219655
    25     0.327762
    26     0.224052
    27     0.167271
    28     0.252344
    29    -0.009064
    30    -0.009448
    31    -0.001890
    32     0.000752
    33     0.007398
    34     0.005524
Sym=     8a
Ene=   -0.714226E+00
Spin= Alpha
Occup= 1.988503
     1    -0.014058
     2     0.082043
     3     0.081951
     4    -0.006076
     5    -0.010673
     6     0.039529
     7    -0.067495
     8    -0.014622
     9     0.057292
    10    -0.033412
    11    -0.018030
    12     0.063754
    13    -0.003808
    14    -0.012850
    15    -0.009931
    16    -0.009354
    17    -0.000077
    18     0.016792
    19    -0.062455
    20     0.156444
    21     0.319096
    22     0.255238
    23    -0.123340
    24     0.442528
    25     0.193880
    26    -0.094963
    27     0.336881
    28     0.160157
    29    -0.000338
    30     0.001852
    31     0.015149
    32     0.000298
    33    -0.002372
    34     0.011799
Sym=     9a
Ene=   -0.714005E+00
Spin= Alpha
Occup= 1.988499
     1    -0.014025
     2     0.081847
     3     0.081706
     4    -0.006013
     5     0.034923
     6    -0.021453
     7    -0.067361
     8     0.050839
     9    -0.030273
    10    -0.033328
    11     0.056084
    12    -0.035377
    13    -0.003851
    14    -0.010186
    15    -0.012568
    16    -0.009288
    17    -0.000979
    18    -0.055184
    19     0.033820
    20     0.156425
    21     0.319083
    22     0.255166
    23     0.389787
    24    -0.243819
    25     0.193136
    26     0.296433
    27    -0.186636
    28     0.159566
    29     0.001829
    30    -0.000293
    31     0.015125
    32    -0.000436
    33     0.010648
    34    -0.005621
Sym=    10a
Ene=   -0.286424E+00
Spin= Alpha
Occup= 1.401212
     1    -0.040579
     2     0.257983
     3     0.518842
     4     0.140525
     5    -0.029554
     6    -0.022135
     7     0.015193
     8    -0.043881
     9    -0.032869
    10     0.105832
    11    -0.058533
    12    -0.043839
    13     0.192560
    14    -0.000183
    15    -0.000732
    16    -0.009060
    17     0.001080
    18     0.028808
    19     0.021575
    20    -0.035672
    21    -0.084894
    22    -0.055450
    23    -0.265806
    24    -0.199085
    25     0.294718
    26    -0.197009
    27    -0.147556
    28     0.222288
    29    -0.006597
    30    -0.005738
    31     0.008384
    32    -0.001691
    33    -0.004790
    34    -0.003587
Sym=    11a
Ene=   -0.146821E+00
Spin= Alpha
Occup= 0.598690
     1    -0.025792
     2     0.172963
     3     0.522857
     4     0.176811
     5    -0.002689
     6    -0.002015
     7     0.133795
     8    -0.023607
     9    -0.017685
    10     0.176489
    11    -0.043850
    12    -0.032842
    13     0.210711
    14     0.009830
    15     0.008167
    16     0.021590
    17     0.003271
    18    -0.002595
    19    -0.001944
    20     0.005649
    21     0.032389
    22    -0.058346
    23     0.253989
    24     0.190236
    25    -0.368467
    26     0.164665
    27     0.123333
    28    -0.262162
    29     0.006152
    30     0.004401
    31    -0.005350
    32     0.003450
    33    -0.000330
    34    -0.000247
Sym=    12a
Ene=   -0.114623E-02
Spin= Alpha
Occup= 0.000604
     1     0.003543
     2    -0.031280
     3    -0.252232
     4    -0.048168
     5     0.000477
     6    -0.002669
     7     0.007358
     8     0.000361
     9     0.003668
    10     0.165586
    11    -0.097377
    12     0.034564
    13    -0.017625
    14     0.132417
    15     0.064126
    16     0.017258
    17    -0.059786
    18     0.076020
    19    -0.032474
    20    -0.057684
    21    -0.280366
    22     0.282237
    23    -0.076932
    24     0.117786
    25    -0.140412
    26     0.132596
    27    -0.141868
    28     0.270621
    29     0.600939
    30    -0.101611
    31    -0.328729
    32    -0.606021
    33     0.471559
    34    -0.148080
Sym=    13a
Ene=   -0.114589E-02
Spin= Alpha
Occup= 0.000603
     1     0.003532
     2    -0.031216
     3    -0.252281
     4    -0.047887
     5    -0.002477
     6     0.001343
     7     0.007291
     8     0.003410
     9    -0.000233
    10     0.165532
    11     0.005672
    12    -0.103284
    13    -0.017554
    14     0.041364
    15     0.154900
    16     0.017188
    17    -0.028780
    18    -0.009590
    19     0.081880
    20    -0.057678
    21    -0.280366
    22     0.282313
    23     0.091001
    24    -0.106829
    25    -0.140565
    26    -0.098263
    27     0.166745
    28     0.270730
    29    -0.330285
    30     0.828361
    31    -0.327584
    32    -0.288370
    33    -0.008987
    34     0.496392
Sym=    14a
Ene=   -0.971439E-02
Spin= Alpha
Occup= 0.009109
     1    -0.006978
     2     0.048914
     3     0.103345
     4    -0.102176
     5     0.039285
     6     0.029338
     7    -0.011284
     8     0.043062
     9     0.032165
    10    -0.005228
    11     0.087491
    12     0.065340
    13     0.083413
    14     0.032715
    15     0.032793
    16    -0.068860
    17    -0.000119
    18    -0.063294
    19    -0.047274
    20     0.217783
    21     1.016247
    22    -0.747667
    23    -0.471555
    24    -0.352074
    25    -0.470013
    26     0.407047
    27     0.303916
    28     0.469364
    29    -0.061167
    30    -0.101435
    31    -0.057553
    32     0.078354
    33     0.124563
    34     0.093004
Sym=    15a
Ene=   -0.112093E-07
Spin= Alpha
Occup= 0.000000
     1    -0.001064
     2     0.019488
     3     0.059626
     4     0.419748
     5    -0.007160
     6    -0.002683
     7    -0.009691
     8    -0.202198
     9    -0.111367
    10    -0.212923
    11     0.595969
    12     0.364644
    13    -0.173284
    14     0.021667
    15    -0.580015
    16     0.413242
    17     0.556767
    18     0.319036
    19     0.106251
    20    -0.004362
    21     0.152127
    22    -0.791889
    23     0.004844
    24     0.011658
    25     0.010937
    26     0.020699
    27    -0.040299
    28    -0.107457
    29     0.057805
    30     0.123706
    31    -0.008120
    32    -0.083996
    33     0.015239
    34     0.025604
Sym=    16a
Ene=   -0.361292E-03
Spin= Alpha
Occup= 0.000108
     1     0.045357
     2    -0.368328
     3    -1.306223
     4    -0.613253
     5     0.025450
     6    -0.292965
     7     0.055665
     8     0.080420
     9    -1.106306
    10     0.607281
    11     0.000526
    12     0.492632
    13    -0.088554
    14     0.755364
    15     0.752831
    16     0.525302
    17    -0.007415
    18    -0.033794
    19    -0.042341
    20    -0.006442
    21    -0.205107
    22     0.736444
    23    -0.031780
    24    -0.168421
    25    -0.009753
    26    -0.008698
    27     0.352236
    28     0.498776
    29    -0.068397
    30    -0.114169
    31     0.028737
    32     0.077220
    33     0.032016
    34     0.041876
Sym=    17a
Ene=   -0.197445E-07
Spin= Alpha
Occup= 0.000000
     1    -0.001099
     2     0.023185
     3     0.159469
     4     0.282176
     5     0.008028
     6     0.003766
     7    -0.007958
     8     0.132074
     9     0.000619
    10    -0.219389
    11    -0.176631
    12     0.063659
    13    -0.168417
    14     0.370301
    15    -0.880516
    16     0.315472
    17    -0.159349
    18    -0.664398
    19    -0.118226
    20    -0.006204
    21     0.141578
    22    -0.750064
    23     0.080420
    24    -0.022116
    25     0.040027
    26    -0.369003
    27    -0.049081
    28    -0.142953
    29     0.104930
    30     0.185353
    31    -0.079818
    32     0.029435
    33    -0.123453
    34    -0.008630
Sym=    18a
Ene=   -0.951713E-07
Spin= Alpha
Occup= 0.000000
     1    -0.000430
     2     0.012330
     3     1.108350
     4    -1.064739
     5    -0.000321
     6    -0.000372
     7    -0.004087
     8    -0.083016
     9    -0.060771
    10    -0.491804
    11     0.449191
    12     0.333441
    13    -0.609930
    14     0.270327
    15     0.474488
    16     0.325166
    17    -0.198503
    18    -0.218379
    19    -0.170222
    20    -0.021985
    21     0.348900
    22    -1.651759
    23     0.126109
    24     0.097832
    25     0.183352
    26    -0.351579
    27    -0.269339
    28    -0.635607
    29     0.361191
    30     0.345250
    31    -0.026929
    32     0.016911
    33    -0.105409
    34    -0.084047
Sym=    19a
Ene=   -0.139161E-04
Spin= Alpha
Occup= 0.000001
     1     0.000463
     2    -0.035116
     3    -0.830032
     4     0.235105
     5     0.001262
     6     0.001048
     7    -0.005087
     8    -0.014485
     9    -0.010478
    10     0.565658
    11     0.377727
    12     0.282712
    13     0.042316
    14     0.021446
    15     0.139091
    16    -0.008070
    17    -0.234861
    18    -0.294033
    19    -0.220127
    20    -0.007643
    21    -0.192249
    22     0.696988
    23     0.433654
    24     0.324726
    25    -0.500739
    26    -0.704637
    27    -0.527694
    28     0.910921
    29    -0.278697
    30    -0.202191
    31     0.424386
    32    -0.150269
    33     0.011937
    34     0.008942
Sym=    20a
Ene=   -0.444710E-11
Spin= Alpha
Occup= 0.000000
     1    -0.001104
     2     0.025129
     3    -0.363924
     4     1.148502
     5     0.004768
     6    -0.009561
     7    -0.002792
     8     0.085654
     9    -0.181958
    10    -0.050609
    11    -0.164762
    12     0.410395
    13    -0.224132
    14    -0.702488
    15    -0.051132
    16     0.008050
    17     0.059372
    18    -0.399611
    19     0.579900
    20    -0.005897
    21     0.111161
    22    -0.546117
    23     0.024744
    24    -0.053229
    25    -0.018529
    26    -0.180892
    27     0.257442
    28     0.049098
    29     0.032259
    30     0.227351
    31    -0.067664
    32     0.124338
    33     0.138048
    34    -0.206691
Sym=    21a
Ene=   -0.846640E-04
Spin= Alpha
Occup= 0.000098
     1     0.002371
     2    -0.038891
     3    -0.335661
     4    -0.394428
     5    -0.016186
     6    -0.012302
     7    -0.020024
     8     0.058986
     9     0.043562
    10     0.329466
    11    -0.284492
    12    -0.212918
    13    -0.303452
    14     0.384358
    15     0.237224
    16     0.093156
    17     0.293104
    18     0.114092
    19     0.085328
    20     0.003538
    21     0.033329
    22    -0.004226
    23     0.297798
    24     0.222987
    25    -0.495163
    26    -0.197175
    27    -0.147520
    28     0.768527
    29     0.290622
    30     0.098225
    31    -0.247492
    32     0.377641
    33    -0.075126
    34    -0.056660
Sym=    22a
Ene=   -0.111836E-01
Spin= Alpha
Occup= 0.010897
     1    -0.016816
     2     0.101982
     3     0.048321
     4    -0.056069
     5     0.062996
     6    -0.036433
     7    -0.106073
     8     0.109440
     9    -0.060455
    10    -0.077326
    11     0.114333
    12    -0.062222
    13    -0.100769
    14     0.007316
    15    -0.011825
    16     0.014963
    17    -0.018037
    18    -0.112461
    19     0.070539
    20    -0.200980
    21    -0.945056
    22     0.722333
    23    -0.579295
    24     0.369628
    25    -0.320979
    26     0.459330
    27    -0.293248
    28     0.276293
    29    -0.012211
    30     0.060663
    31     0.083470
    32     0.095463
    33    -0.081439
    34     0.041303
Sym=    23a
Ene=   -0.111824E-01
Spin= Alpha
Occup= 0.010894
     1    -0.016851
     2     0.102209
     3     0.048571
     4    -0.056271
     5    -0.017069
     6     0.070708
     7    -0.106243
     8    -0.026915
     9     0.122087
    10    -0.077503
    11    -0.027252
    12     0.127143
    13    -0.100691
    14    -0.018762
    15     0.014287
    16     0.014822
    17    -0.009140
    18     0.035758
    19    -0.127754
    20    -0.201024
    21    -0.945264
    22     0.722513
    23     0.190270
    24    -0.659776
    25    -0.322082
    26    -0.151038
    27     0.523212
    28     0.277299
    29     0.099751
    30    -0.050993
    31     0.083213
    32     0.057232
    33     0.016639
    34    -0.090083
Sym=    24a
Ene=   -0.127901E-02
Spin= Alpha
Occup= 0.000705
     1    -0.001075
     2     0.013390
     3     0.200679
     4    -0.049674
     5     0.030007
     6     0.022431
     7     0.008175
     8     0.091889
     9     0.068688
    10    -0.108222
    11     0.057372
    12     0.042813
    13     0.085686
    14    -0.013606
    15    -0.029547
    16    -0.073112
    17     0.030920
    18    -0.150808
    19    -0.112618
    20    -0.080840
    21    -0.312307
    22     0.060605
    23     0.107717
    24     0.080350
    25     0.173789
    26    -0.241155
    27    -0.179985
    28    -0.286867
    29     0.203942
    30    -0.013545
    31     0.107049
    32     0.423033
    33     0.657793
    34     0.491198
Sym=    25a
Ene=   -0.431295E-03
Spin= Alpha
Occup= 0.000132
     1     0.044678
     2    -0.365436
     3    -1.353812
     4    -0.545417
     5     0.237843
     6     0.169758
     7     0.124788
     8     0.856904
     9     0.610495
    10     0.874283
    11    -0.332744
    12    -0.236003
    13    -0.173960
    14     0.757766
    15     0.753802
    16     0.487959
    17     0.010294
    18    -0.017801
    19    -0.013790
    20    -0.006563
    21    -0.217633
    22     0.823557
    23    -0.048663
    24    -0.040214
    25     0.052118
    26    -0.101844
    27    -0.066774
    28     0.507353
    29    -0.056679
    30    -0.071679
    31     0.006766
    32     0.029346
    33    -0.119200
    34    -0.088837
Sym=    26a
Ene=   -0.130484E-07
Spin= Alpha
Occup= 0.000000
     1    -0.001504
     2     0.030004
     3     0.163495
     4     0.394143
     5     0.005928
     6     0.009516
     7    -0.011678
     8     0.028804
     9     0.148928
    10    -0.276748
    11     0.067230
    12    -0.187658
    13    -0.139725
    14    -0.695744
    15    -0.037887
    16     0.432600
    17     0.368894
    18    -0.365090
    19    -0.770145
    20    -0.005617
    21     0.157253
    22    -0.856027
    23     0.005942
    24     0.095368
    25     0.044960
    26    -0.197952
    27    -0.434788
    28    -0.162488
    29     0.173745
    30     0.135211
    31    -0.105883
    32    -0.027558
    33    -0.071809
    34    -0.114037
Sym=    27a
Ene=   -0.360629E-03
Spin= Alpha
Occup= 0.000108
     1     0.045373
     2    -0.368729
     3    -1.312713
     4    -0.612615
     5    -0.268597
     6     0.117790
     7     0.059083
     8    -1.019603
     9     0.428864
    10     0.624849
    11     0.465209
    12    -0.154985
    13    -0.094418
    14     0.752453
    15     0.759463
    16     0.522754
    17    -0.004064
    18    -0.049881
    19    -0.020063
    20    -0.006452
    21    -0.207562
    22     0.748180
    23    -0.171413
    24     0.019251
    25    -0.008051
    26     0.333430
    27    -0.116770
    28     0.503905
    29    -0.074659
    30    -0.108289
    31     0.027969
    32     0.078960
    33     0.045438
    34     0.015497
Sym=    28a
Ene=   -0.246743E-03
Spin= Alpha
Occup= 0.000077
     1     0.036276
     2    -0.253353
     3    -0.116661
     4    -0.409332
     5     0.022582
     6     0.018416
     7    -0.289029
     8     0.116850
     9     0.093099
    10    -1.658389
    11    -0.128132
    12    -0.098243
    13     0.668090
    14     0.373695
    15     0.379046
    16     0.818750
    17    -0.010938
    18     0.035527
    19     0.026850
    20     0.001975
    21     0.275931
    22    -1.278943
    23     0.079186
    24     0.060003
    25    -0.019603
    26    -0.062965
    27    -0.048832
    28    -0.576463
    29     0.056899
    30     0.083303
    31     0.093094
    32    -0.051956
    33     0.014081
    34     0.010491
Sym=    29a
Ene=   -0.101236E-02
Spin= Alpha
Occup= 0.000041
     1     0.004460
     2    -0.013603
     3     0.340619
     4     0.018241
     5    -0.003773
     6    -0.002822
     7     0.032169
     8    -0.016819
     9    -0.012584
    10    -0.229942
    11    -0.011654
    12    -0.008689
    13    -0.037608
    14    -0.104528
    15    -0.115640
    16     0.126945
    17     0.021929
    18     0.025255
    19     0.018880
    20    -0.708571
    21    -2.170237
    22    -1.538715
    23    -0.050843
    24    -0.038018
    25     0.061016
    26     0.074915
    27     0.056009
    28    -0.219350
    29     1.459555
    30     1.455424
    31     1.496104
    32     0.008335
    33    -0.056576
    34    -0.042373
Sym=    30a
Ene=   -0.204318E-10
Spin= Alpha
Occup= 0.000000
     1    -0.000777
     2     0.023331
     3     0.540100
     4    -0.240431
     5    -0.005156
     6    -0.001555
     7    -0.015951
     8    -0.077808
     9    -0.001257
    10    -0.413892
    11     0.138267
    12    -0.053277
    13    -0.271156
    14    -0.524459
    15    -0.330415
    16     1.183633
    17    -0.505732
    18     0.329595
    19     0.076043
    20    -0.009831
    21     0.273536
    22    -1.564038
    23    -0.023993
    24    -0.017640
    25    -0.024137
    26     0.163051
    27     0.072636
    28    -0.134784
    29     0.396713
    30     0.118582
    31    -0.158932
    32     0.242935
    33    -0.083992
    34     0.079306
Sym=    31a
Ene=    0.000000E+00
Spin= Alpha
Occup= 0.000000
     1    -0.000655
     2     0.012499
     3    -0.615556
     4     1.134886
     5    -0.007031
     6     0.007368
     7     0.006268
     8    -0.155972
     9     0.180885
    10     0.164938
    11     0.557582
    12    -0.687231
    13     0.045354
    14    -0.055286
    15    -0.231531
    16    -0.609638
    17    -0.183549
    18    -0.047905
    19     0.111336
    20     0.000794
    21    -0.072780
    22     0.442375
    23     0.100225
    24    -0.152543
    25    -0.016920
    26    -0.269974
    27     0.399559
    28     0.142959
    29    -0.107775
    30     0.172700
    31    -0.115870
    32     0.140328
    33     0.232747
    34    -0.352331
Sym=    32a
Ene=    0.000000E+00
Spin= Alpha
Occup= 0.000000
     1     0.000267
     2     0.002766
     3    -0.164777
     4     0.621576
     5     0.002868
     6    -0.005374
     7     0.000932
     8     0.018381
     9     0.029418
    10     0.025249
    11     0.095930
    12    -0.420363
    13    -0.577967
    14    -0.214237
    15    -0.048871
    16     0.148292
    17     0.076573
    18    -0.210761
    19     0.367160
    20    -0.010585
    21     0.194068
    22    -0.901384
    23     0.097484
    24    -0.180918
    25    -0.028582
    26    -0.233337
    27     0.479165
    28     0.045738
    29     0.378855
    30    -0.353223
    31     0.318584
    32    -0.225545
    33    -0.229576
    34     0.483580
Sym=    33a
Ene=    0.000000E+00
Spin= Alpha
Occup= 0.000000
     1     0.001574
     2    -0.022748
     3     1.055647
     4    -1.711863
     5    -0.000397
     6     0.001779
     7    -0.010593
     8     0.022728
     9     0.072295
    10    -0.289177
    11    -0.056039
    12    -0.354539
    13    -0.556004
    14     0.191660
    15     0.160445
    16     1.300869
    17     0.156198
    18    -0.124657
    19     0.268976
    20    -0.010400
    21     0.295488
    22    -1.578760
    23     0.048210
    24    -0.085629
    25     0.001857
    26    -0.115055
    27     0.311617
    28    -0.222663
    29    -0.248168
    30     0.170308
    31     0.460953
    32    -0.136521
    33     0.317229
    34    -0.195923
Sym=    34a
Ene=    0.000000E+00
Spin= Alpha
Occup= 0.000000
     1     0.000330
     2     0.005841
     3    -0.321959
     4     1.043961
     5    -0.005406
     6     0.002566
     7     0.002496
     8     0.026658
     9     0.025429
    10     0.058805
    11    -0.415470
    12     0.113624
    13    -0.817703
    14    -0.135207
    15    -0.302130
    16     0.148890
    17    -0.141383
    18     0.499940
    19    -0.379167
    20    -0.015318
    21     0.268583
    22    -1.242860
    23    -0.171895
    24     0.137483
    25    -0.051321
    26     0.538065
    27    -0.368930
    28     0.099754
    29    -0.137052
    30     0.219948
    31     0.409744
    32    -0.011970
    33     0.200500
    34    -0.015896
