[Molden Format]
p30-5 set                                                                       
[Atoms] AU
 CA       1    20        0.0000        0.0000       -1.6984
 O        2     8        0.0000        0.0000        1.6984
[GTO]
    1 0
s    6 1.00
   35138.713928999998  0.180479325772E-02
    5276.411134800000  0.138204344333E-01
    1200.469258900000  0.683474707386E-01
     338.718105420000  0.235857640075E+00
     109.853859220000  0.472631385247E+00
      37.608880299000  0.351692498575E+00
s    3 1.00
      73.107977555000 -0.102531311079E+00
       8.240770568800  0.609202407151E+00
       3.295981299300  0.464398802507E+00
s    3 1.00
       5.234180091400 -0.205301572010E+00
       0.841872205150  0.677915479198E+00
       0.365102940290  0.441009016342E+00
s    1 1.00
       0.051222402884  0.100000000000E+01
s    1 1.00
       0.019825111408  0.100000000000E+01
p    5 1.00
     413.113138930000  0.988446570905E-02
      96.935786224000  0.716288395041E-01
      30.372154659000  0.266899547729E+00
      10.684776830000  0.507697430817E+00
       3.882125835000  0.333840977912E+00
p    3 1.00
       1.799301629500  0.316604443154E+00
       0.691890565300  0.562979576248E+00
       0.263640240960  0.236757670930E+00
p    1 1.00
       0.074979000000  0.100000000000E+01
d    3 1.00
       5.497909387900  0.116004757206E+00
       1.317712803200  0.409686110613E+00
       0.321886826490  0.711310748747E+00
d    1 1.00
       0.070528614919  0.100000000000E+01

    2 0
s    5 1.00
    2266.176778500000 -0.538935039217E-02
     340.870101910000 -0.402347213890E-01
      77.363135167000 -0.180081842055E+00
      21.479644940000 -0.468288576577E+00
       6.658943312400 -0.446926171602E+00
s    1 1.00
       0.809759756680  0.100000000000E+01
s    1 1.00
       0.255307722340  0.100000000000E+01
p    3 1.00
      17.721504317000  0.626302487632E-01
       3.863550544000  0.333311384824E+00
       1.048092088300  0.741486383081E+00
p    1 1.00
       0.276415444110  0.100000000000E+01
d    1 1.00
       1.200000000000  0.100000000000E+01

[MO]
Sym=     1a
Ene=   -0.149133E+03
Spin= Alpha
Occup= 2.000000
     1     1.002566
     2    -0.008530
     3    -0.007062
     4    -0.006956
     5    -0.000175
     6    -0.000584
     7    -0.001291
     8     0.011732
     9     0.000015
    10     0.000033
    11     0.000038
    12     0.000002
    13     0.000004
    14    -0.000003
    15     0.003445
    16     0.003448
    17     0.003574
    18     0.000002
    19    -0.000001
    20    -0.000001
    21     0.002050
    22     0.002050
    23     0.002027
    24    -0.000000
    25    -0.000000
    26    -0.000000
    27     0.000010
    28     0.000032
    29     0.000003
    30    -0.000000
    31    -0.000000
    32     0.000105
    33    -0.000000
    34    -0.000000
    35     0.000106
    36    -0.000019
    37    -0.000019
    38    -0.000117
    39     0.000000
    40    -0.000000
    41    -0.000000
Sym=     2a
Ene=   -0.150027E+02
Spin= Alpha
Occup= 2.000000
     1    -0.207417
     2     0.716409
     3     0.009401
     4     0.001638
     5    -0.000400
     6     0.296400
     7     0.631174
     8     0.225062
     9    -0.007778
    10    -0.016505
    11    -0.009115
    12    -0.000899
    13    -0.001911
    14    -0.000452
    15    -0.001805
    16    -0.001831
    17    -0.000182
    18    -0.000018
    19     0.000326
    20     0.000697
    21    -0.000193
    22    -0.000185
    23    -0.000079
    24     0.000005
    25     0.000081
    26     0.000176
    27    -0.000006
    28     0.000200
    29    -0.000843
    30    -0.000002
    31     0.000006
    32     0.000081
    33    -0.000020
    34    -0.000035
    35     0.000800
    36     0.000261
    37     0.000261
    38    -0.000302
    39     0.000000
    40     0.000083
    41     0.000176
Sym=     3a
Ene=   -0.149859E+02
Spin= Alpha
Occup= 2.000000
     1    -0.206422
     2     0.709734
     3     0.017647
     4     0.001023
     5    -0.000390
     6    -0.303189
     7    -0.657971
     8     0.124562
     9     0.007241
    10     0.015531
    11    -0.004884
    12     0.000919
    13     0.001994
    14    -0.000294
    15    -0.001565
    16    -0.001637
    17    -0.000859
    18    -0.000050
    19    -0.000320
    20    -0.000689
    21    -0.000012
    22    -0.000004
    23     0.000044
    24     0.000006
    25    -0.000076
    26    -0.000163
    27    -0.000008
    28     0.000123
    29    -0.000575
    30     0.000006
    31     0.000019
    32    -0.000014
    33     0.000031
    34     0.000071
    35     0.000507
    36     0.000170
    37     0.000169
    38    -0.000180
    39    -0.000000
    40    -0.000083
    41    -0.000181
Sym=     4a
Ene=   -0.134713E+02
Spin= Alpha
Occup= 2.000000
     1     0.001098
     2    -0.003869
     3     0.000096
     4     0.000002
     5     0.000002
     6     0.911672
     7    -0.423939
     8    -0.000318
     9    -0.015555
    10     0.007154
    11    -0.000001
    12    -0.002722
    13     0.001265
    14     0.000000
    15     0.000013
    16     0.000010
    17     0.000004
    18     0.000000
    19     0.000801
    20    -0.000371
    21    -0.000003
    22    -0.000002
    23    -0.000002
    24    -0.000001
    25     0.000190
    26    -0.000088
    27    -0.000000
    28    -0.000002
    29    -0.000002
    30    -0.000035
    31     0.000016
    32     0.000002
    33    -0.000139
    34     0.000065
    35     0.000002
    36    -0.000001
    37    -0.000000
    38     0.000001
    39    -0.000001
    40     0.000241
    41    -0.000112
Sym=     5a
Ene=   -0.136956E+02
Spin= Alpha
Occup= 1.999999
     1     0.063078
     2    -0.260108
     3     0.006363
     4     0.006578
     5     0.000119
     6    -0.028890
     7    -0.060714
     8     0.972091
     9    -0.000171
    10    -0.000407
    11    -0.015714
    12     0.000081
    13     0.000177
    14    -0.001479
    15    -0.000074
    16    -0.000092
    17     0.004713
    18    -0.000012
    19    -0.000016
    20    -0.000023
    21    -0.002102
    22    -0.002096
    23    -0.001531
    24     0.000005
    25    -0.000005
    26    -0.000003
    27    -0.000041
    28     0.000854
    29    -0.003925
    30    -0.000009
    31     0.000008
    32    -0.000072
    33     0.000001
    34     0.000026
    35     0.003500
    36     0.000808
    37     0.000807
    38    -0.000751
    39    -0.000000
    40    -0.000006
    41    -0.000013
Sym=     6a
Ene=   -0.203616E+02
Spin= Alpha
Occup= 1.999950
     1     0.000002
     2     0.000033
     3    -0.000798
     4    -0.003820
     5     0.000509
     6    -0.000012
     7    -0.000017
     8     0.000339
     9     0.000024
    10     0.000031
    11    -0.002093
    12    -0.000009
    13     0.000009
    14    -0.001957
    15     0.000222
    16     0.000225
    17     0.000560
    18     0.000002
    19    -0.000015
    20     0.000003
    21     0.001215
    22     0.001218
    23    -0.000707
    24     0.000002
    25    -0.000010
    26     0.000009
    27     0.993294
    28    -0.028961
    29     0.018460
    30    -0.000053
    31     0.000010
    32     0.001575
    33    -0.000040
    34     0.000006
    35    -0.000556
    36     0.003807
    37     0.003804
    38     0.003818
    39    -0.000001
    40     0.000002
    41    -0.000000
Sym=     7a
Ene=   -0.210303E+01
Spin= Alpha
Occup= 1.999728
     1    -0.107377
     2     0.422068
     3    -1.034502
     4    -0.035637
     5     0.000896
     6    -0.003622
     7    -0.008205
     8    -0.036444
     9     0.004358
    10     0.009524
    11     0.160177
    12     0.000148
    13     0.000236
    14     0.006559
    15    -0.011594
    16    -0.007886
    17    -0.003751
    18     0.002573
    19     0.000104
    20     0.000072
    21     0.009703
    22     0.009311
    23     0.006971
    24    -0.000275
    25     0.000086
    26     0.000116
    27    -0.001993
    28    -0.005679
    29     0.002819
    30     0.000412
    31     0.000638
    32     0.007394
    33     0.000309
    34     0.000464
    35    -0.002270
    36    -0.000467
    37    -0.000459
    38    -0.001503
    39     0.000007
    40    -0.000021
    41    -0.000042
Sym=     8a
Ene=   -0.124430E+01
Spin= Alpha
Occup= 1.996616
     1    -0.000068
     2     0.000272
     3    -0.000835
     4     0.000204
     5    -0.000005
     6    -0.292593
     7     0.134091
     8     0.001421
     9     0.955461
    10    -0.437496
    11    -0.004600
    12     0.011176
    13    -0.005057
    14    -0.000043
    15    -0.000143
    16    -0.000000
    17     0.000244
    18    -0.000028
    19    -0.018563
    20     0.008547
    21    -0.000061
    22    -0.000062
    23    -0.000020
    24     0.000004
    25    -0.002882
    26     0.001375
    27    -0.000042
    28    -0.000061
    29     0.000042
    30     0.010060
    31    -0.004447
    32     0.000214
    33     0.002929
    34    -0.001207
    35     0.000082
    36     0.000021
    37     0.000003
    38    -0.000043
    39     0.000011
    40    -0.002166
    41     0.000988
Sym=     9a
Ene=   -0.125866E+01
Spin= Alpha
Occup= 1.996030
     1     0.014185
     2    -0.055670
     3     0.176291
     4    -0.052179
     5     0.002567
     6    -0.079921
     7    -0.172042
     8    -0.249698
     9     0.270154
    10     0.581172
    11     0.820376
    12     0.002384
    13     0.005033
    14     0.014354
    15     0.015900
    16     0.014828
    17    -0.054083
    18    -0.000766
    19    -0.006123
    20    -0.013243
    21     0.013159
    22     0.013090
    23     0.008587
    24    -0.000058
    25    -0.001415
    26    -0.003123
    27     0.005847
    28     0.007288
    29    -0.010634
    30     0.000636
    31     0.001032
    32    -0.014827
    33    -0.000989
    34    -0.002413
    35     0.004192
    36    -0.002061
    37    -0.002077
    38     0.007010
    39    -0.000013
    40    -0.000536
    41    -0.001133
Sym=    10a
Ene=   -0.125175E+01
Spin= Alpha
Occup= 1.995714
     1    -0.009707
     2     0.037906
     3    -0.120437
     4     0.039367
     5    -0.001798
     6    -0.103655
     7    -0.228705
     8     0.194571
     9     0.344599
    10     0.759572
    11    -0.630344
    12     0.003707
    13     0.008101
    14    -0.011068
    15    -0.011335
    16    -0.010842
    17     0.039985
    18     0.000333
    19    -0.007250
    20    -0.016074
    21    -0.010076
    22    -0.010027
    23    -0.006497
    24     0.000041
    25    -0.001310
    26    -0.002969
    27    -0.005935
    28    -0.008340
    29     0.005718
    30     0.002597
    31     0.005567
    32     0.013698
    33     0.000262
    34     0.000444
    35    -0.001173
    36     0.001599
    37     0.001590
    38    -0.005538
    39    -0.000001
    40    -0.000738
    41    -0.001631
Sym=    11a
Ene=   -0.510823E+00
Spin= Alpha
Occup= 1.989082
     1     0.008020
     2    -0.021630
     3     0.117718
     4    -0.196464
     5     0.043131
     6    -0.002426
     7    -0.003925
     8    -0.002665
     9     0.008534
    10     0.013817
    11     0.020105
    12    -0.012118
    13    -0.019933
    14     0.125390
    15     0.098453
    16     0.099023
    17    -0.155344
    18     0.000330
    19    -0.011387
    20    -0.017485
    21     0.020978
    22     0.021060
    23     0.079320
    24     0.000043
    25    -0.011583
    26    -0.018650
    27     0.167939
    28     0.359711
    29     0.259510
    30    -0.041469
    31    -0.067157
    32     0.469826
    33    -0.033659
    34    -0.054696
    35     0.369460
    36     0.009876
    37     0.009911
    38    -0.002570
    39     0.000035
    40     0.001040
    41     0.001656
Sym=    12a
Ene=   -0.476222E+00
Spin= Alpha
Occup= 1.981150
     1    -0.007652
     2     0.024900
     3    -0.108225
     4     0.100067
     5    -0.011757
     6     0.010497
     7     0.024492
     8     0.024367
     9    -0.037362
    10    -0.087155
    11    -0.086403
    12     0.056799
    13     0.132104
    14     0.005096
    15    -0.043704
    16    -0.041408
    17     0.081587
    18     0.001471
    19     0.057255
    20     0.134087
    21    -0.017813
    22    -0.014465
    23    -0.008805
    24     0.002028
    25     0.054960
    26     0.128135
    27     0.133530
    28     0.274219
    29     0.208167
    30     0.182507
    31     0.424579
    32    -0.117628
    33     0.146646
    34     0.340964
    35    -0.093220
    36     0.001748
    37     0.003143
    38     0.009686
    39     0.000858
    40    -0.005581
    41    -0.012991
Sym=    13a
Ene=   -0.473922E+00
Spin= Alpha
Occup= 1.980101
     1     0.011475
     2    -0.036646
     3     0.162594
     4    -0.165383
     5     0.023975
     6     0.027113
     7     0.002404
     8    -0.031893
     9    -0.095147
    10    -0.008476
    11     0.114527
    12     0.126991
    13     0.012528
    14     0.028070
    15     0.076107
    16     0.078505
    17    -0.143296
    18     0.000110
    19     0.143446
    20     0.010158
    21     0.024053
    22     0.027805
    23     0.027389
    24    -0.000353
    25     0.127204
    26     0.010963
    27    -0.127306
    28    -0.258117
    29    -0.200320
    30     0.417484
    31     0.036337
    32     0.245737
    33     0.334453
    34     0.029118
    35     0.193069
    36    -0.001284
    37     0.000378
    38    -0.013130
    39    -0.000179
    40    -0.013385
    41    -0.001123
Sym=    14a
Ene=   -0.462637E+00
Spin= Alpha
Occup= 1.979143
     1    -0.010526
     2     0.033669
     3    -0.149086
     4     0.151398
     5    -0.021062
     6     0.018590
     7    -0.021302
     8     0.029841
     9    -0.065213
    10     0.074767
    11    -0.106781
    12     0.086770
    13    -0.101056
    14    -0.021735
    15    -0.069422
    16    -0.069572
    17     0.129081
    18    -0.001434
    19     0.100644
    20    -0.111756
    21    -0.024005
    22    -0.023438
    23    -0.023362
    24    -0.002343
    25     0.088088
    26    -0.100379
    27     0.124192
    28     0.252302
    29     0.194108
    30     0.287905
    31    -0.328064
    32    -0.216577
    33     0.230523
    34    -0.262603
    35    -0.170184
    36     0.000673
    37     0.000924
    38     0.012040
    39    -0.001062
    40    -0.009186
    41     0.010406
Sym=    15a
Ene=   -0.147176E-01
Spin= Alpha
Occup= 0.020857
     1    -0.013914
     2     0.035752
     3    -0.218917
     4     0.504280
     5    -0.046182
     6     0.017600
     7    -0.021685
     8     0.006309
     9    -0.066129
    10     0.081106
    11    -0.043828
    12     0.169356
    13    -0.205295
    14     0.069147
    15    -0.153063
    16    -0.161287
    17     0.250209
    18    -0.011172
    19     0.194025
    20    -0.193930
    21    -0.102998
    22    -0.099296
    23    -0.024347
    24    -0.012741
    25     0.167551
    26    -0.199902
    27    -0.142889
    28    -0.632181
    29     0.356306
    30    -0.440929
    31     0.505909
    32     0.319949
    33     0.174751
    34    -0.205980
    35    -0.148039
    36     0.005266
    37    -0.014158
    38     0.041184
    39     0.088378
    40     0.050633
    41    -0.057812
Sym=    16a
Ene=   -0.144529E-01
Spin= Alpha
Occup= 0.019899
     1     0.014820
     2    -0.038167
     3     0.236090
     4    -0.530006
     5     0.051079
     6     0.026577
     7     0.003575
     8    -0.005171
     9    -0.099616
    10    -0.013115
    11     0.041832
    12     0.251021
    13     0.031316
    14    -0.054843
    15     0.161520
    16     0.180986
    17    -0.280254
    18     0.006018
    19     0.259069
    20     0.000420
    21     0.095192
    22     0.115782
    23     0.034329
    24    -0.002582
    25     0.245043
    26     0.028442
    27     0.147760
    28     0.654386
    29    -0.371710
    30    -0.646979
    31    -0.058385
    32    -0.364018
    33     0.269370
    34     0.028492
    35     0.174588
    36     0.071409
    37    -0.074949
    38    -0.033329
    39     0.014484
    40     0.088408
    41     0.007774
Sym=    17a
Ene=   -0.138664E-01
Spin= Alpha
Occup= 0.018850
     1    -0.011892
     2     0.030940
     3    -0.173855
     4     0.403284
     5    -0.031178
     6     0.014123
     7     0.032486
     8     0.017397
     9    -0.052158
    10    -0.120058
    11    -0.078541
    12     0.123310
    13     0.284347
    14     0.123906
    15    -0.107835
    16    -0.094757
    17     0.126404
    18     0.008765
    19     0.057674
    20     0.143439
    21    -0.093449
    22    -0.073847
    23     0.012635
    24     0.011863
    25     0.119497
    26     0.275995
    27    -0.152396
    28    -0.685370
    29     0.419670
    30    -0.287483
    31    -0.670029
    32     0.182416
    33     0.135829
    34     0.314968
    35    -0.095641
    36     0.052498
    37    -0.076969
    38     0.067036
    39    -0.078755
    40     0.019841
    41     0.046116
Sym=    18a
Ene=   -0.100768E-01
Spin= Alpha
Occup= 0.010918
     1    -0.008174
     2     0.016135
     3    -0.100225
     4     0.329408
     5    -0.088282
     6     0.003392
     7     0.005917
     8    -0.021357
     9    -0.012173
    10    -0.021184
    11     0.057527
    12     0.020493
    13     0.036037
    14    -0.316144
    15    -0.151565
    16    -0.168374
    17     0.179595
    18    -0.010918
    19    -0.001871
    20    -0.012994
    21    -0.031717
    22    -0.030974
    23    -0.186131
    24     0.000458
    25     0.021375
    26     0.036968
    27     0.199826
    28     0.917582
    29    -0.633217
    30    -0.071037
    31    -0.113942
    32     0.740621
    33     0.048263
    34     0.079663
    35    -0.601125
    36    -0.144813
    37    -0.140219
    38     0.124573
    39     0.004802
    40    -0.029131
    41    -0.046546
Sym=    19a
Ene=   -0.545745E-02
Spin= Alpha
Occup= 0.004286
     1     0.001393
     2    -0.007838
     3     0.066880
     4     0.024259
     5    -0.005327
     6     0.009280
     7     0.020157
     8     0.001160
     9    -0.031880
    10    -0.069244
    11    -0.003924
    12     0.049841
    13     0.108472
    14    -0.019268
    15    -0.482960
    16     0.430979
    17    -0.069095
    18     0.619273
    19    -0.263712
    20    -0.575158
    21     0.060398
    22    -0.078058
    23     0.014809
    24    -0.094145
    25     0.076077
    26     0.165601
    27     0.001565
    28     0.001345
    29     0.016131
    30    -0.018344
    31    -0.038741
    32    -0.009490
    33     0.070240
    34     0.151579
    35    -0.016941
    36     0.008358
    37    -0.007608
    38     0.000912
    39    -0.009209
    40    -0.008027
    41    -0.018284
Sym=    20a
Ene=   -0.517841E-02
Spin= Alpha
Occup= 0.003970
     1    -0.006489
     2     0.028684
     3    -0.160472
     4    -0.146814
     5    -0.016679
     6     0.012148
     7     0.025993
     8     0.025319
     9    -0.041854
    10    -0.089587
    11    -0.092986
    12     0.068603
    13     0.147623
    14    -0.031803
    15     0.558387
    16    -0.126950
    17    -0.235159
    18    -0.474442
    19    -0.324785
    20    -0.689138
    21    -0.009407
    22     0.103520
    23     0.066508
    24     0.077514
    25     0.095897
    26     0.205455
    27    -0.001675
    28    -0.052939
    29     0.178808
    30    -0.024067
    31    -0.052147
    32     0.024010
    33     0.085033
    34     0.180346
    35    -0.194981
    36    -0.018649
    37    -0.033940
    38     0.028833
    39    -0.008610
    40    -0.010718
    41    -0.022742
Sym=    21a
Ene=   -0.419602E-02
Spin= Alpha
Occup= 0.003384
     1     0.000075
     2    -0.000245
     3     0.000764
     4     0.000355
     5     0.000447
     6     0.000115
     7    -0.000257
     8    -0.000349
     9    -0.000320
    10     0.000860
    11     0.001280
    12    -0.000631
    13    -0.001010
    14     0.001261
    15    -0.688531
    16     0.683769
    17     0.005438
    18    -0.670497
    19    -0.011998
    20     0.010001
    21     0.108823
    22    -0.109120
    23    -0.001177
    24     0.106359
    25     0.000913
    26    -0.002134
    27     0.000007
    28     0.000823
    29    -0.003042
    30     0.001893
    31    -0.000080
    32    -0.000118
    33     0.001440
    34    -0.002138
    35     0.003174
    36     0.002118
    37    -0.001581
    38    -0.000307
    39     0.001909
    40    -0.000437
    41     0.000350
Sym=    22a
Ene=   -0.615193E-03
Spin= Alpha
Occup= 0.000272
     1    -0.034242
     2     0.228240
     3    -1.859177
     4    -1.755422
     5    -0.007051
     6    -0.002682
     7    -0.005992
     8    -0.015719
     9     0.009306
    10     0.020737
    11     0.056684
    12    -0.015263
    13    -0.033122
    14    -0.260042
    15     1.455835
    16     1.624281
    17     0.632990
    18     0.110974
    19     0.065062
    20     0.155072
    21     0.460568
    22     0.422242
    23     0.569511
    24    -0.025008
    25    -0.027069
    26    -0.062323
    27    -0.000132
    28    -0.015767
    29     0.126171
    30     0.014292
    31     0.030551
    32     0.014670
    33    -0.022900
    34    -0.051910
    35    -0.048428
    36    -0.006155
    37     0.001751
    38     0.009741
    39     0.004205
    40     0.000110
    41     0.002851
Sym=    23a
Ene=   -0.121678E-02
Spin= Alpha
Occup= 0.000050
     1     0.004268
     2    -0.013330
     3     0.078394
     4     0.047335
     5    -0.027017
     6    -0.000153
     7    -0.000312
     8    -0.008964
     9     0.000585
    10     0.001155
    11     0.051116
    12    -0.003537
    13    -0.004035
    14     0.045329
    15     0.017928
    16     0.021335
    17    -0.052405
    18     0.002076
    19     0.002639
    20     0.006672
    21    -0.031151
    22    -0.032472
    23     0.039724
    24    -0.000992
    25    -0.003388
    26    -0.003669
    27    -0.734008
    28    -2.396847
    29    -0.988944
    30    -0.005050
    31    -0.002162
    32     0.024110
    33     0.006730
    34     0.002208
    35    -0.013404
    36     1.422700
    37     1.425730
    38     1.467227
    39     0.004110
    40    -0.004840
    41    -0.011228
Sym=    24a
Ene=   -0.206958E-04
Spin= Alpha
Occup= 0.000001
     1    -0.009428
     2     0.075214
     3    -0.982883
     4     0.349603
     5     0.088723
     6     0.003735
     7     0.008017
     8    -0.160292
     9    -0.013233
    10    -0.028339
    11     0.603000
    12     0.028037
    13     0.059809
    14     0.209851
    15     0.353579
    16     0.243779
    17     1.473069
    18    -0.071573
    19    -0.055630
    20    -0.122149
    21    -0.179181
    22    -0.156762
    23    -0.151386
    24     0.014038
    25     0.025156
    26     0.054819
    27    -0.020366
    28     0.333377
    29    -1.472926
    30    -0.018437
    31    -0.035897
    32    -0.396226
    33     0.019842
    34     0.039552
    35     1.304761
    36     0.361597
    37     0.342812
    38    -0.081557
    39    -0.008934
    40     0.008601
    41     0.008021
Sym=    25a
Ene=   -0.486274E-05
Spin= Alpha
Occup= 0.000000
     1     0.000184
     2    -0.001486
     3     0.011989
     4     0.018235
     5     0.000008
     6     0.045033
     7    -0.020921
     8     0.000031
     9    -0.157265
    10     0.073055
    11    -0.000010
    12     0.290720
    13    -0.135203
    14     0.005211
    15    -0.004187
    16    -0.017805
    17    -0.004105
    18     0.011908
    19    -0.871888
    20     0.405241
    21    -0.008519
    22    -0.000206
    23    -0.004315
    24    -0.007154
    25     0.291018
    26    -0.135349
    27     0.000125
    28     0.001637
    29    -0.005222
    30    -0.179855
    31     0.082659
    32    -0.002177
    33     0.292295
    34    -0.134721
    35     0.003764
    36     0.011771
    37    -0.013751
    38     0.001266
    39     0.017691
    40    -0.073052
    41     0.035380
Sym=    26a
Ene=   -0.738470E-06
Spin= Alpha
Occup= 0.000000
     1    -0.000397
     2    -0.107665
     3     1.123817
     4     2.547877
     5    -0.305232
     6     0.028065
     7     0.060611
     8    -0.035646
     9    -0.101558
    10    -0.219348
    11     0.128308
    12     0.301644
    13     0.650030
    14    -0.463100
    15    -0.986125
    16    -0.987737
    17    -1.213024
    18    -0.002435
    19     0.057838
    20     0.125368
    21    -0.534576
    22    -0.562170
    23    -0.310275
    24    -0.016008
    25    -0.119425
    26    -0.268455
    27    -0.001847
    28    -0.049192
    29     0.149003
    30     0.057798
    31     0.124461
    32    -0.076575
    33    -0.119504
    34    -0.250577
    35    -0.054139
    36    -0.004082
    37     0.059466
    38    -0.037456
    39     0.032883
    40    -0.029796
    41    -0.048975
Sym=    27a
Ene=   -0.710614E-06
Spin= Alpha
Occup= 0.000000
     1    -0.002180
     2    -0.117079
     3     1.223033
     4     2.981088
     5    -0.314237
     6    -0.025840
     7    -0.054827
     8    -0.042783
     9     0.093564
    10     0.198515
    11     0.155177
    12    -0.280091
    13    -0.595411
    14    -0.492009
    15    -1.101107
    16    -1.118351
    17    -1.348312
    18    -0.012857
    19    -0.043434
    20    -0.090787
    21    -0.672417
    22    -0.669001
    23    -0.389902
    24     0.002732
    25     0.108372
    26     0.224916
    27    -0.002404
    28    -0.040676
    29     0.104827
    30    -0.062382
    31    -0.134341
    32    -0.100715
    33     0.115687
    34     0.251294
    35    -0.020416
    36     0.048407
    37     0.007137
    38    -0.018104
    39    -0.026222
    40     0.006868
    41     0.023728
Sym=    28a
Ene=   -0.166411E-07
Spin= Alpha
Occup= 0.000000
     1     0.061834
     2     0.268359
     3    -2.458278
     4   -12.378353
     5    -1.544652
     6     0.000229
     7    -0.000098
     8     0.003269
     9    -0.000734
    10     0.000540
    11    -0.016884
    12    -0.000802
    13    -0.008374
    14    -0.334187
    15     3.613823
    16     3.597210
    17     3.600427
    18    -0.011112
    19    -0.006516
    20    -0.014794
    21     4.576174
    22     4.569918
    23     4.441504
    24    -0.003805
    25     0.002900
    26     0.003320
    27     0.003062
    28    -0.048671
    29     0.477542
    30    -0.005856
    31    -0.013210
    32     0.095792
    33     0.006870
    34     0.020031
    35    -0.209763
    36     0.016381
    37     0.022408
    38    -0.140442
    39     0.001136
    40    -0.009897
    41    -0.011746
Sym=    29a
Ene=    0.000000E+00
Spin= Alpha
Occup= 0.000000
     1    -0.000542
     2    -0.006096
     3     0.072765
     4     0.897837
     5    -0.998873
     6    -0.013885
     7     0.005455
     8     0.002130
     9     0.052288
    10    -0.018328
    11     0.000484
    12    -0.254056
    13    -0.096990
    14     0.407453
    15    -0.057814
    16    -0.124782
    17    -0.037922
    18     0.006119
    19    -0.033629
    20     0.027361
    21    -0.141387
    22     0.303096
    23     0.273312
    24    -0.045621
    25    -0.208652
    26    -0.508683
    27    -0.008002
    28     0.148990
    29    -0.719491
    30    -0.181135
    31    -0.281353
    32    -0.089491
    33     0.378587
    34     0.569522
    35     0.182690
    36    -0.192507
    37     0.140815
    38     0.309721
    39     0.428769
    40    -0.052192
    41     0.308137
Sym=    30a
Ene=    0.000000E+00
Spin= Alpha
Occup= 0.000000
     1    -0.000586
     2    -0.005255
     3     0.112110
     4     0.260032
     5    -0.332437
     6     0.041292
     7    -0.020038
     8     0.002599
     9    -0.150524
    10     0.073319
    11    -0.007675
    12     0.476001
    13    -0.246333
    14    -0.131757
    15    -0.063431
    16    -0.175524
    17    -0.061080
    18     0.029180
    19     0.120980
    20    -0.043676
    21    -0.132936
    22     0.740153
    23    -0.456093
    24    -0.135344
    25    -0.238814
    26    -0.006018
    27     0.002738
    28    -0.085558
    29     0.440236
    30     0.171166
    31    -0.066020
    32    -0.010036
    33    -0.238348
    34     0.165067
    35     0.053669
    36     0.401800
    37    -0.404587
    38    -0.104163
    39    -0.019680
    40     0.174702
    41    -0.032126
Sym=    31a
Ene=    0.000000E+00
Spin= Alpha
Occup= 0.000000
     1    -0.000290
     2    -0.005558
     3    -0.066405
     4     0.533648
     5    -0.127693
     6     0.031172
     7    -0.014269
     8    -0.001105
     9    -0.111622
    10     0.051649
    11    -0.004357
    12     0.358134
    13    -0.167752
    14     0.745518
    15    -0.000846
    16     0.028583
    17     0.035301
    18    -0.028153
    19     0.079704
    20    -0.038625
    21    -0.304442
    22    -0.446558
    23     0.773808
    24     0.162911
    25     0.026887
    26     0.035179
    27    -0.019075
    28     0.327006
    29    -1.637244
    30     0.140734
    31    -0.071906
    32     0.096796
    33    -0.325258
    34     0.124167
    35    -0.092386
    36     0.539922
    37     0.178202
    38    -0.104366
    39     0.246151
    40    -0.505539
    41     0.065118
Sym=    32a
Ene=    0.000000E+00
Spin= Alpha
Occup= 0.000000
     1     0.000048
     2    -0.000365
     3    -0.045541
     4    -0.480738
     5     0.913456
     6     0.007130
     7    -0.002063
     8    -0.000997
     9    -0.021633
    10     0.011986
    11    -0.003099
    12    -0.143725
    13    -0.195263
    14    -0.045201
    15     0.062031
    16     0.001738
    17     0.019834
    18    -0.009759
    19    -0.000358
    20    -0.044861
    21    -0.324694
    22     0.013544
    23    -0.164995
    24     0.060038
    25    -0.552107
    26    -0.309968
    27     0.000388
    28    -0.011524
    29     0.067689
    30    -0.332845
    31    -0.235289
    32     0.055663
    33     0.649444
    34     0.451748
    35    -0.107265
    36    -0.058914
    37     0.352808
    38    -0.301328
    39    -0.139481
    40    -0.151507
    41    -0.436547
Sym=    33a
Ene=    0.000000E+00
Spin= Alpha
Occup= 0.000000
     1     0.000765
     2     0.008943
     3    -0.074535
     4    -0.177300
     5    -0.596706
     6    -0.016811
     7     0.008261
     8    -0.002741
     9     0.065480
    10    -0.032861
    11     0.004356
    12    -0.370677
    13     0.233259
    14    -0.366101
    15     0.152509
    16     0.068745
    17     0.042350
    18    -0.003371
    19    -0.053867
    20     0.022988
    21    -0.184227
    22     0.319267
    23     0.100038
    24    -0.006995
    25    -0.315991
    26     0.261155
    27     0.012982
    28    -0.159911
    29     0.753750
    30    -0.297503
    31     0.259719
    32     0.038416
    33     0.580048
    34    -0.462604
    35    -0.088293
    36     0.155302
    37    -0.308105
    38    -0.224188
    39    -0.254962
    40    -0.392494
    41     0.190508
Sym=    34a
Ene=    0.000000E+00
Spin= Alpha
Occup= 0.000000
     1     0.001433
     2     0.017049
     3    -0.136266
     4    -1.456659
     5     1.021829
     6    -0.005054
     7     0.004247
     8    -0.004863
     9     0.018086
    10    -0.014528
    11     0.014298
    12    -0.001997
    13     0.001234
    14    -0.966877
    15     0.251167
    16     0.176498
    17     0.065376
    18     0.004170
    19    -0.029229
    20    -0.020974
    21    -0.200573
    22     0.137868
    23    -0.432302
    24    -0.178484
    25     0.205173
    26    -0.028071
    27     0.025205
    28    -0.379289
    29     1.847356
    30     0.100398
    31    -0.104110
    32    -0.000753
    33    -0.197098
    34     0.118453
    35    -0.139429
    36    -0.193261
    37    -0.393226
    38    -0.194339
    39     0.573520
    40    -0.159541
    41    -0.084983
Sym=    35a
Ene=    0.000000E+00
Spin= Alpha
Occup= 0.000000
     1    -0.000787
     2    -0.008704
     3     0.107815
     4     0.460726
     5    -0.488886
     6    -0.032536
     7     0.014933
     8     0.003588
     9     0.118740
    10    -0.052641
    11    -0.018179
    12    -0.381259
    13     0.119072
    14     0.005976
    15    -0.208417
    16    -0.080940
    17    -0.049146
    18     0.030080
    19    -0.091216
    20     0.033338
    21     0.630725
    22    -0.029580
    23    -0.474155
    24    -0.126178
    25     0.082216
    26    -0.093657
    27     0.001183
    28    -0.053389
    29     0.282663
    30    -0.090425
    31    -0.037179
    32     0.048209
    33     0.207378
    34     0.017608
    35    -0.002258
    36     0.475856
    37    -0.069354
    38    -0.454495
    39     0.280258
    40    -0.061235
    41    -0.257390
Sym=    36a
Ene=    0.000000E+00
Spin= Alpha
Occup= 0.000000
     1    -0.000084
     2     0.000011
     3     0.053173
     4     0.357091
     5    -0.820200
     6    -0.001770
     7     0.002492
     8     0.000822
     9     0.005442
    10    -0.005541
    11     0.003342
    12     0.098544
    13    -0.073571
    14    -0.172008
    15    -0.007188
    16    -0.061475
    17    -0.038278
    18    -0.055803
    19    -0.022789
    20    -0.033546
    21     0.056722
    22     0.405094
    23    -0.184722
    24     0.385348
    25     0.454959
    26    -0.141385
    27     0.007841
    28    -0.109126
    29     0.540923
    30     0.175645
    31    -0.096501
    32    -0.104368
    33    -0.449325
    34     0.183453
    35     0.141866
    36    -0.309873
    37     0.007290
    38     0.054123
    39    -0.166698
    40    -0.333617
    41    -0.479362
Sym=    37a
Ene=    0.000000E+00
Spin= Alpha
Occup= 0.000000
     1    -0.000440
     2    -0.006145
     3     0.007236
     4     0.543306
     5    -0.365836
     6    -0.007074
     7     0.003579
     8     0.000874
     9     0.024204
    10    -0.014484
    11    -0.007890
    12    -0.009709
    13     0.151970
    14     0.455920
    15     0.005084
    16    -0.099135
    17    -0.000718
    18     0.092992
    19    -0.014939
    20     0.011013
    21    -0.435449
    22     0.249524
    23     0.321979
    24    -0.567128
    25     0.227498
    26     0.383064
    27    -0.011135
    28     0.180328
    29    -0.895954
    30     0.055213
    31     0.151511
    32     0.053555
    33    -0.164987
    34    -0.413033
    35    -0.025827
    36    -0.096163
    37     0.582685
    38    -0.134179
    39     0.116974
    40     0.045138
    41    -0.191750
Sym=    38a
Ene=    0.000000E+00
Spin= Alpha
Occup= 0.000000
     1    -0.000207
     2    -0.001467
     3     0.055996
     4    -0.324615
     5     0.336484
     6     0.005713
     7    -0.003574
     8     0.001145
     9    -0.020805
    10     0.008910
    11    -0.010332
    12     0.065784
    13     0.098576
    14    -0.345124
    15    -0.042486
    16    -0.077172
    17    -0.021032
    18    -0.068370
    19     0.029470
    20     0.029111
    21     0.147565
    22     0.395648
    23    -0.645012
    24     0.473177
    25     0.022959
    26     0.278664
    27     0.006279
    28    -0.163263
    29     0.816749
    30    -0.016485
    31     0.131431
    32     0.078466
    33    -0.036397
    34    -0.303515
    35    -0.094567
    36    -0.213336
    37     0.417467
    38    -0.423225
    39     0.173305
    40    -0.058617
    41     0.426352
Sym=    39a
Ene=    0.000000E+00
Spin= Alpha
Occup= 0.000000
     1    -0.000667
     2    -0.008108
     3     0.067481
     4     0.007788
     5     0.890074
     6    -0.033477
     7     0.014719
     8     0.002893
     9     0.121386
    10    -0.053534
    11    -0.004585
    12    -0.305207
    13     0.148047
    14     0.376639
    15    -0.067222
    16    -0.137012
    17    -0.031547
    18     0.020756
    19    -0.086099
    20     0.054007
    21    -0.362324
    22     0.195674
    23    -0.113126
    24    -0.067772
    25     0.377259
    26    -0.209387
    27    -0.014822
    28     0.177118
    29    -0.831208
    30     0.044782
    31     0.046055
    32    -0.027448
    33    -0.120029
    34     0.003603
    35     0.072234
    36     0.294761
    37    -0.143323
    38     0.280204
    39    -0.201102
    40    -0.292184
    41     0.166906
Sym=    40a
Ene=    0.000000E+00
Spin= Alpha
Occup= 0.000000
     1     0.000450
     2     0.003693
     3    -0.103389
     4    -0.043529
     5    -0.044292
     6    -0.028720
     7     0.013337
     8    -0.002513
     9     0.100983
    10    -0.047638
    11    -0.000580
    12    -0.226700
    13     0.122843
    14     0.225269
    15     0.144938
    16     0.047739
    17     0.064540
    18    -0.076542
    19    -0.067601
    20     0.046168
    21    -0.520732
    22     0.079706
    23     0.538265
    24     0.458646
    25     0.191777
    26    -0.109608
    27    -0.005601
    28     0.117403
    29    -0.610782
    30     0.057579
    31     0.002343
    32     0.114263
    33    -0.025285
    34    -0.012120
    35    -0.157766
    36     0.385743
    37    -0.015071
    38    -0.173254
    39     0.081852
    40     0.541687
    41    -0.110113
Sym=    41a
Ene=    0.000000E+00
Spin= Alpha
Occup= 0.000000
     1    -0.000578
     2    -0.006396
     3     0.079647
     4     0.420210
     5     0.042848
     6    -0.000025
     7     0.000713
     8     0.002557
     9     0.002472
    10    -0.004095
    11     0.004028
    12    -0.119784
    13     0.158283
    14     0.385275
    15    -0.090782
    16    -0.092800
    17    -0.051294
    18    -0.038745
    19    -0.008556
    20    -0.011279
    21    -0.067385
    22     0.011569
    23     0.107284
    24     0.262582
    25    -0.334667
    26     0.515064
    27    -0.010859
    28     0.167288
    29    -0.782967
    30    -0.147056
    31     0.239293
    32    -0.137474
    33     0.361335
    34    -0.567259
    35     0.212736
    36    -0.020887
    37    -0.198340
    38     0.542788
    39     0.359179
    40    -0.049514
    41    -0.330692
