[Molden Format]
p30-5 set                                                                       
[Atoms] AU
 N        1     7        0.0000        0.0000       -0.5463
 H        2     1       -0.8836       -1.5305        0.1821
 H        3     1       -0.8836        1.5305        0.1821
 H        4     1        1.7672        0.0000        0.1821
[GTO]
    1 0
s    5 1.00
    1712.841585300000 -0.544779958049E-02
     257.648126770000 -0.406271746324E-01
      58.458245853000 -0.181119622506E+00
      16.198367905000 -0.468439755632E+00
       5.005260080900 -0.446168462892E+00
s    1 1.00
       0.587318565710  0.100000000000E+01
s    1 1.00
       0.187645922530  0.100000000000E+01
p    3 1.00
      13.571470233000 -0.588481169695E-01
       2.925737287400 -0.320246247625E+00
       0.799277507540 -0.753282265204E+00
p    1 1.00
       0.219543480340  0.100000000000E+01
d    1 1.00
       1.000000000000  0.100000000000E+01
 
    2 0
s    3 1.00
      13.010701000000  0.334854848130E-01
       1.962257200000  0.234721870881E+00
       0.444537960000  0.813770285260E+00
s    1 1.00
       0.121949620000  0.100000000000E+01
p    1 1.00
       0.800000000000  0.100000000000E+01
 
    3 0
s    3 1.00
      13.010701000000  0.334854848130E-01
       1.962257200000  0.234721870881E+00
       0.444537960000  0.813770285260E+00
s    1 1.00
       0.121949620000  0.100000000000E+01
p    1 1.00
       0.800000000000  0.100000000000E+01
 
    4 0
s    3 1.00
      13.010701000000  0.334854848130E-01
       1.962257200000  0.234721870881E+00
       0.444537960000  0.813770285260E+00
s    1 1.00
       0.121949620000  0.100000000000E+01
p    1 1.00
       0.800000000000  0.100000000000E+01
 
[MO]
Sym=     1a
Ene=   -0.155416E+02
Spin= Alpha
Occup= 1.999913
     1     0.994264
     2    -0.028024
     3     0.018207
     4     0.000002
     5     0.000003
     6     0.006440
     7     0.000006
     8     0.000003
     9    -0.002933
    10     0.000307
    11     0.000307
    12     0.001310
    13     0.000005
    14     0.000003
    15    -0.000001
    16     0.004020
    17    -0.002282
    18     0.001203
    19     0.002086
    20    -0.001099
    21     0.004022
    22    -0.002284
    23     0.001207
    24    -0.002093
    25    -0.001098
    26     0.004016
    27    -0.002286
    28    -0.002412
    29    -0.000004
    30    -0.001098
Sym=     2a
Ene=   -0.544568E+00
Spin= Alpha
Occup= 1.989685
     1    -0.162613
     2    -0.352982
     3    -0.335045
     4    -0.000037
     5     0.000131
     6    -0.471981
     7     0.000001
     8    -0.000062
     9     0.421133
    10    -0.018120
    11    -0.018118
    12     0.005217
    13     0.000001
    14     0.000006
    15     0.000005
    16     0.010873
    17     0.031536
    18     0.001130
    19     0.001929
    20     0.017112
    21     0.010679
    22     0.031465
    23     0.001105
    24    -0.001925
    25     0.017127
    26     0.010815
    27     0.031532
    28    -0.002229
    29    -0.000004
    30     0.017110
Sym=     3a
Ene=   -0.773502E+00
Spin= Alpha
Occup= 1.979949
     1    -0.109118
     2    -0.218079
     3    -0.027532
     4    -0.185149
     5    -0.321322
     6     0.166462
     7     0.081542
     8     0.141231
     9    -0.098867
    10    -0.001468
    11    -0.013026
    12    -0.010058
    13    -0.011599
    14     0.010144
    15     0.017572
    16    -0.438450
    17    -0.133976
    18    -0.016786
    19    -0.029018
    20     0.007824
    21     0.032145
    22     0.032844
    23     0.007745
    24     0.011250
    25    -0.007185
    26     0.031686
    27     0.032514
    28     0.005890
    29     0.012332
    30    -0.007130
Sym=     4a
Ene=   -0.773379E+00
Spin= Alpha
Occup= 1.979920
     1    -0.109058
     2    -0.217969
     3    -0.027294
     4    -0.185524
     5     0.321104
     6     0.166664
     7     0.081554
     8    -0.141224
     9    -0.099013
    10    -0.001444
    11    -0.013029
    12    -0.010054
    13     0.011572
    14     0.010150
    15    -0.017561
    16     0.031752
    17     0.032706
    18     0.007734
    19    -0.011277
    20    -0.007161
    21    -0.438403
    22    -0.134125
    23    -0.016764
    24     0.029056
    25     0.007817
    26     0.031975
    27     0.032697
    28     0.005888
    29    -0.012332
    30    -0.007171
Sym=     5a
Ene=   -0.773267E+00
Spin= Alpha
Occup= 1.979916
     1     0.109007
     2     0.217856
     3     0.027366
     4    -0.371005
     5    -0.000203
     6    -0.166368
     7     0.163133
     8     0.000076
     9     0.098821
    10     0.018820
    11    -0.004352
    12     0.010046
    13    -0.000010
    14     0.020301
    15     0.000014
    16    -0.032251
    17    -0.032689
    18     0.013596
    19    -0.001086
    20     0.007169
    21    -0.031923
    22    -0.032673
    23     0.013627
    24     0.001077
    25     0.007162
    26     0.438446
    27     0.134121
    28    -0.033538
    29     0.000011
    30    -0.007834
Sym=     6a
Ene=   -0.297710E-02
Spin= Alpha
Occup= 0.002548
     1    -0.017021
     2     0.051969
     3    -1.085149
     4     0.119093
     5    -0.000406
     6     0.076125
     7    -0.542609
     8    -0.000041
     9    -0.490748
    10     0.128588
    11    -0.111754
    12    -0.024842
    13     0.000499
    14     0.095105
    15    -0.000214
    16     0.249638
    17     0.226622
    18     0.096766
    19     0.035934
    20     0.038383
    21     0.247344
    22     0.230611
    23     0.094268
    24    -0.036984
    25     0.038640
    26     1.397843
    27    -0.704412
    28    -0.489180
    29     0.001106
    30    -0.154418
Sym=     7a
Ene=   -0.217703E-03
Spin= Alpha
Occup= 0.000127
     1     0.036055
     2     0.602139
     3    -0.448481
     4     0.414037
     5    -0.709349
     6    -0.352470
     7     0.257282
     8    -0.464496
     9    -0.200039
    10     0.216747
    11     0.390904
    12     0.059763
    13    -0.095008
    14    -0.064452
    15     0.119355
    16    -0.133656
    17     0.107367
    18    -0.098127
    19     0.008014
    20     0.137447
    21    -0.059824
    22    -0.139192
    23    -0.621537
    24     1.038710
    25     0.506383
    26    -0.099584
    27     0.102426
    28     0.027445
    29     0.069274
    30     0.114301
Sym=     8a
Ene=   -0.154656E-02
Spin= Alpha
Occup= 0.001112
     1     0.002975
     2     0.003103
     3     0.122988
     4     0.202672
     5    -0.092768
     6    -0.013344
     7    -0.063230
     8    -0.023110
     9     0.062556
    10    -0.213797
    11     0.221089
    12    -0.000864
    13    -0.157510
    14     0.064648
    15    -0.029093
    16    -0.151836
    17     0.068197
    18     0.743248
    19    -0.512185
    20     0.007733
    21    -0.253878
    22     0.332813
    23    -0.077418
    24    -0.000090
    25     0.075433
    26     0.186107
    27    -0.379978
    28    -0.011914
    29     0.087258
    30    -0.088781
Sym=     9a
Ene=   -0.614903E-03
Spin= Alpha
Occup= 0.000365
     1    -0.000074
     2    -0.000508
     3    -0.001526
     4     0.005749
     5    -0.188835
     6     0.000149
     7     0.011800
     8    -0.099998
     9    -0.000370
    10     0.001048
    11    -0.003585
    12     0.002043
    13    -0.219931
    14    -0.024187
    15     1.049826
    16     0.532841
    17    -0.666997
    18     0.166647
    19     0.225532
    20     0.190771
    21    -0.539669
    22     0.690210
    23    -0.162703
    24     0.233804
    25    -0.200583
    26     0.009543
    27    -0.022816
    28    -0.006653
    29    -0.054441
    30     0.007579
Sym=    10a
Ene=   -0.509998E-07
Spin= Alpha
Occup= 0.000000
     1     0.002489
     2    -0.107980
     3     0.891110
     4    -0.053129
     5    -0.083445
     6    -0.016197
     7     0.557262
     8    -1.501487
     9     0.267779
    10     0.303253
    11    -0.330370
    12    -0.016138
    13    -0.451355
    14     0.109668
    15    -0.473002
    16    -0.140184
    17    -1.223708
    18    -0.367164
    19    -0.085690
    20    -0.111621
    21     0.243350
    22     1.124382
    23     0.451350
    24    -0.042232
    25    -0.098939
    26    -0.412447
    27    -0.645618
    28     0.337374
    29     0.641122
    30     0.157750
Sym=    11a
Ene=   -0.217257E-03
Spin= Alpha
Occup= 0.000127
     1    -0.035939
     2    -0.601251
     3     0.443993
     4     0.820960
     5    -0.003319
     6     0.352192
     7     0.529611
     8     0.009540
     9     0.200415
    10    -0.418945
    11    -0.189386
    12    -0.059362
    13    -0.038631
    14    -0.135451
    15    -0.004394
    16     0.128486
    17    -0.098829
    18    -0.055734
    19     0.081634
    20    -0.137815
    21     0.100698
    22    -0.105048
    23    -0.046030
    24    -0.058166
    25    -0.115179
    26     0.058730
    27     0.142275
    28    -1.209937
    29     0.020593
    30    -0.508276
Sym=    12a
Ene=   -0.153235E-02
Spin= Alpha
Occup= 0.001099
     1    -0.001694
     2    -0.017606
     3     0.036066
     4     0.195965
     5     0.105674
     6     0.005488
     7    -0.049472
     8    -0.024607
     9    -0.023372
    10    -0.235340
    11     0.216158
    12     0.008063
    13     0.168332
    14     0.053921
    15     0.046616
    16    -0.217975
    17     0.335756
    18    -0.076851
    19     0.014850
    20     0.087858
    21     0.006871
    22    -0.005987
    23     0.794327
    24     0.417795
    25     0.072649
    26     0.239938
    27    -0.370442
    28    -0.031741
    29    -0.090556
    30    -0.087837
Sym=    13a
Ene=   -0.219982E-03
Spin= Alpha
Occup= 0.000131
     1     0.037455
     2     0.611011
     3    -0.463668
     4     0.406321
     5     0.708522
     6    -0.353736
     7     0.279860
     8     0.474022
     9    -0.207031
    10     0.256197
    11     0.344628
    12     0.060792
    13     0.091972
    14    -0.064976
    15    -0.117036
    16    -0.036930
    17    -0.126939
    18    -0.608677
    19    -1.032023
    20     0.495635
    21    -0.114331
    22     0.097232
    23    -0.079958
    24    -0.000337
    25     0.130502
    26    -0.124921
    27     0.103646
    28     0.040651
    29    -0.070645
    30     0.134022
Sym=    14a
Ene=   -0.616785E-03
Spin= Alpha
Occup= 0.000366
     1    -0.000089
     2    -0.000589
     3     0.004752
     4     0.189185
     5     0.005688
     6    -0.000706
     7     0.103153
     8    -0.000250
     9     0.001078
    10    -0.183627
    11     0.182365
    12     0.002189
    13     0.012667
    14    -1.051328
    15    -0.025259
    16    -0.321816
    17     0.401984
    18    -0.042543
    19    -0.174168
    20    -0.116994
    21    -0.291546
    22     0.374440
    23    -0.034483
    24     0.158430
    25    -0.111632
    26     0.613966
    27    -0.782538
    28    -0.323007
    29    -0.001797
    30     0.227908
Sym=    15a
Ene=   -0.822523E-08
Spin= Alpha
Occup= 0.000000
     1     0.007231
     2    -0.257391
     3     2.005768
     4     0.008530
     5     0.003104
     6    -0.018674
     7    -1.996546
     8    -0.225527
     9     0.604681
    10    -0.204141
    11     0.093153
    12    -0.040929
    13     0.041761
    14    -0.531601
    15    -0.056056
    16    -0.595163
    17    -1.547500
    18     0.018987
    19    -0.665738
    20     0.099645
    21    -0.461997
    22    -1.224961
    23     0.109091
    24     0.582485
    25     0.039448
    26     0.397131
    27     1.104531
    28    -0.341303
    29     0.034475
    30    -0.301545
Sym=    16a
Ene=   -0.154550E-02
Spin= Alpha
Occup= 0.001110
     1     0.001550
     2     0.016555
     3    -0.034638
     4     0.007420
     5     0.223579
     6    -0.005262
     7    -0.010214
     8    -0.048484
     9     0.021990
    10     0.010077
    11     0.007227
    12    -0.007003
    13     0.310844
    14    -0.012818
    15     0.071248
    16    -0.236425
    17     0.366466
    18     0.055638
    19    -0.069644
    20     0.088330
    21     0.212676
    22    -0.338847
    23    -0.053805
    24    -0.058717
    25    -0.084219
    26     0.003481
    27     0.005990
    28     0.031181
    29     0.895430
    30    -0.076321
Sym=    17a
Ene=   -0.139051E-01
Spin= Alpha
Occup= 0.015289
     1     0.156407
     2     0.622756
     3    -0.045605
     4     0.377308
     5    -0.652429
     6    -0.310998
     7    -0.035303
     8     0.064151
     9     0.006162
    10    -0.027703
    11     0.057557
    12    -0.027560
    13    -0.085546
    14    -0.052255
    15     0.090127
    16     0.004288
    17     0.030273
    18     0.009059
    19    -0.014867
    20    -0.002726
    21    -0.924816
    22    -0.140910
    23     0.002834
    24    -0.003734
    25    -0.023828
    26     0.001744
    27     0.031926
    28     0.008515
    29    -0.015191
    30    -0.002445
Sym=    18a
Ene=   -0.295638E-02
Spin= Alpha
Occup= 0.002524
     1    -0.016809
     2     0.052848
     3    -1.087419
     4    -0.040020
     5    -0.112503
     6     0.076177
     7     0.278073
     8     0.465788
     9    -0.490114
    10    -0.075635
    11     0.091567
    12    -0.024623
    13     0.105127
    14    -0.037204
    15    -0.086873
    16     1.390871
    17    -0.695978
    18     0.321846
    19     0.377548
    20    -0.155053
    21     0.233963
    22     0.266390
    23    -0.021989
    24    -0.103049
    25     0.042956
    26     0.261445
    27     0.191636
    28    -0.082442
    29    -0.058291
    30     0.034655
Sym=    19a
Ene=   -0.814479E-02
Spin= Alpha
Occup= 0.009311
     1     0.206253
     2     1.070796
     3    -1.117118
     4     0.000280
     5    -0.000159
     6     0.833041
     7     0.000337
     8    -0.000248
     9     0.798150
    10    -0.159009
    11    -0.158783
    12     0.123085
    13    -0.000028
    14     0.000134
    15    -0.000079
    16     0.028899
    17     0.095068
    18     0.004319
    19     0.006867
    20     0.000038
    21     0.029257
    22     0.094702
    23     0.004113
    24    -0.007167
    25    -0.000073
    26     0.029169
    27     0.094330
    28    -0.008243
    29     0.000046
    30    -0.000069
Sym=    20a
Ene=   -0.405919E-08
Spin= Alpha
Occup= 0.000000
     1     0.013463
     2    -0.466013
     3     3.599011
     4    -0.005011
     5    -0.004941
     6    -0.029272
     7     0.947432
     8     0.800321
     9     1.088755
    10    -0.029256
    11    -0.185322
    12    -0.073069
    13    -0.092057
    14     0.251863
    15     0.209114
    16    -0.022502
    17    -0.034070
    18    -0.114904
    19    -0.008612
    20    -0.255371
    21    -0.468869
    22    -1.173995
    23    -0.448023
    24     0.275698
    25    -0.071219
    26    -0.695351
    27    -1.772485
    28     0.666857
    29    -0.157994
    30     0.016502
Sym=    21a
Ene=   -0.138990E-01
Spin= Alpha
Occup= 0.015282
     1    -0.156339
     2    -0.622231
     3     0.044985
     4     0.754100
     5     0.000171
     6     0.310522
     7    -0.071965
     8     0.000334
     9    -0.006808
    10    -0.100619
    11     0.071018
    12     0.027499
    13     0.000550
    14    -0.104573
    15    -0.000144
    16    -0.000625
    17    -0.033815
    18     0.017732
    19    -0.000309
    20     0.002509
    21    -0.001779
    22    -0.031728
    23     0.017359
    24     0.000226
    25     0.002501
    26     0.924220
    27     0.141862
    28     0.005152
    29     0.000014
    30     0.023484
Sym=    22a
Ene=   -0.299053E-02
Spin= Alpha
Occup= 0.002560
     1    -0.016839
     2     0.052029
     3    -1.082352
     4    -0.059124
     5     0.099737
     6     0.075679
     7     0.271263
     8    -0.474154
     9    -0.489471
    10    -0.052235
    11     0.068259
    12    -0.024590
    13    -0.121912
    14    -0.047795
    15     0.083601
    16     0.241512
    17     0.233060
    18    -0.013973
    19     0.099725
    20     0.038174
    21     1.394974
    22    -0.701843
    23     0.242269
    24    -0.424808
    25    -0.152187
    26     0.246228
    27     0.228200
    28    -0.078873
    29     0.063296
    30     0.038499
Sym=    23a
Ene=   -0.138978E-01
Spin= Alpha
Occup= 0.015276
     1     0.156455
     2     0.622939
     3    -0.044824
     4     0.376424
     5     0.653003
     6    -0.310866
     7    -0.037256
     8    -0.063389
     9     0.006649
    10    -0.028159
    11     0.057981
    12    -0.027510
    13     0.086190
    14    -0.052285
    15    -0.090391
    16    -0.925550
    17    -0.141556
    18     0.002347
    19     0.003818
    20    -0.023132
    21     0.002239
    22     0.031641
    23     0.008597
    24     0.014904
    25    -0.002298
    26     0.002123
    27     0.032173
    28     0.008721
    29     0.015163
    30    -0.002617
Sym=    24a
Ene=   -0.441714E-03
Spin= Alpha
Occup= 0.000245
     1    -0.039907
     2     0.002361
     3    -1.197478
     4    -0.002451
     5    -0.002605
     6    -0.163867
     7    -0.003235
     8    -0.002882
     9    -0.293510
    10    -0.482091
    11    -0.487420
    12     1.142002
    13    -0.002933
    14     0.001328
    15    -0.002207
    16     0.368639
    17     0.190340
    18     0.005339
    19     0.006053
    20    -0.331844
    21     0.369142
    22     0.191293
    23     0.003878
    24    -0.004063
    25    -0.327307
    26     0.366725
    27     0.195360
    28    -0.003082
    29     0.002612
    30    -0.329372
Sym=    25a
Ene=   -0.166607E-02
Spin= Alpha
Occup= 0.000087
     1     0.841168
     2     3.103796
     3     0.167579
     4    -0.001208
     5    -0.001719
     6     0.085130
     7    -0.000926
     8    -0.001265
     9    -0.262624
    10    -1.780308
    11    -1.783720
    12    -1.612076
    13    -0.003016
    14    -0.000253
    15    -0.000266
    16     0.354325
    17    -0.038081
    18     0.116320
    19     0.202149
    20    -0.083109
    21     0.352625
    22    -0.037105
    23     0.116943
    24    -0.198275
    25    -0.080956
    26     0.352536
    27    -0.036788
    28    -0.230230
    29     0.001587
    30    -0.080488
Sym=    26a
Ene=   -0.141325E-02
Spin= Alpha
Occup= 0.001017
     1    -0.016230
     2    -0.180315
     3     0.395376
     4    -0.109056
     5     0.018473
     6     0.059668
     7     0.072385
     8    -0.009602
     9    -0.276740
    10    -0.178380
    11    -0.023255
    12     0.075453
    13     0.030385
    14     0.139615
    15     0.006305
    16     0.133988
    17    -0.184143
    18    -0.048700
    19     0.077898
    20     0.001021
    21     0.183281
    22    -0.248411
    23    -0.060810
    24    -0.092836
    25    -0.017654
    26    -0.011679
    27    -0.007387
    28    -0.373890
    29     0.074084
    30     0.888262
Sym=    27a
Ene=   -0.139657E-02
Spin= Alpha
Occup= 0.001004
     1    -0.015768
     2    -0.177086
     3     0.393915
     4     0.041299
     5    -0.106760
     6     0.059073
     7    -0.029607
     8     0.065718
     9    -0.278673
    10    -0.046889
    11    -0.152408
    12     0.073056
    13     0.064163
    14    -0.072504
    15     0.116082
    16     0.184211
    17    -0.254652
    18     0.111206
    19    -0.008894
    20    -0.014435
    21    -0.016446
    22     0.001873
    23     0.115529
    24    -0.362239
    25     0.891337
    26     0.144106
    27    -0.192675
    28    -0.045598
    29    -0.085539
    30    -0.001116
Sym=    28a
Ene=   -0.140478E-02
Spin= Alpha
Occup= 0.001009
     1    -0.016054
     2    -0.178553
     3     0.394564
     4     0.057764
     5     0.093625
     6     0.059059
     7    -0.035146
     8    -0.059417
     9    -0.280090
    10    -0.062902
    11    -0.138174
    12     0.075198
    13    -0.083541
    14    -0.068574
    15    -0.120790
    16    -0.008388
    17    -0.003331
    18     0.199425
    19     0.318727
    20     0.890680
    21     0.158504
    22    -0.217093
    23     0.101861
    24     0.006625
    25    -0.004684
    26     0.164455
    27    -0.226484
    28    -0.045622
    29     0.094830
    30    -0.007953
Sym=    29a
Ene=   -0.550542E-04
Spin= Alpha
Occup= 0.000028
     1    -0.000022
     2    -0.001156
     3     0.011083
     4    -0.104108
     5     0.059768
     6    -0.000516
     7     0.495972
     8    -0.285566
     9     0.003286
    10     0.900760
    11    -0.899625
    12    -0.000444
    13     0.590688
    14    -0.001699
    15    -0.000568
    16     0.000521
    17    -0.002926
    18     0.433939
    19    -0.251678
    20    -0.002309
    21     0.576420
    22     0.153679
    23     0.367168
    24    -0.124845
    25    -0.361306
    26    -0.583244
    27    -0.158786
    28     0.296100
    29    -0.248130
    30     0.364681
Sym=    30a
Ene=   -0.184130E-06
Spin= Alpha
Occup= 0.000000
     1     0.003392
     2    -0.097455
     3     0.697046
     4     0.071558
     5     0.131399
     6     0.002866
     7     0.160901
     8    -1.558787
     9     0.213322
    10    -0.428168
    11     0.362839
    12    -0.016641
    13     0.946204
    14     0.101894
    15    -0.313832
    16    -0.866124
    17    -1.053711
    18    -0.482823
    19    -0.441524
    20     0.441761
    21     0.570265
    22     0.902089
    23    -0.050915
    24    -0.536030
    25    -0.360579
    26     0.076624
    27    -0.416016
    28     0.011188
    29    -0.115099
    30    -0.164401
