p30-5 set                                                                       
ENERGY    PNOF5    /home/ion/p30-10/Pnof5/def2-svp.bas                                             
Number of atoms                            I                6
Charge                                     I                1
Multiplicity                               I                2
Number of electrons                        I               19
Number of alpha electrons                  I               10
Number of beta electrons                   I                9
Number of basis functions                  I               50
Number of independent functions            I               46
Number of contracted shells                I               24
Highest angular momentum                   I                2
Largest degree of contraction              I                5
Number of primitive shells                 I               44
Virial Ratio                               R      0.000000000000000E+00
Atomic numbers                             I   N=           6
           8           8           1           1           1           1
Nuclear charges                            R   N=           6
  8.00000000E+00  8.00000000E+00  1.00000000E+00  1.00000000E+00  1.00000000E+00
  1.00000000E+00
Current cartesian coordinates              R   N=          18
  3.34368258E+00  0.00000000E+00  1.30600248E-01 -3.34368258E+00  0.00000000E+00
 -1.30600456E-01  3.58806030E+00  1.46479653E+00 -9.65974276E-01  3.58806030E+00
 -1.46479653E+00 -9.65974276E-01 -3.58806021E+00  1.46479653E+00  9.65975957E-01
 -3.58806021E+00 -1.46479653E+00  9.65975957E-01
Total Energy                               R     -1.516758131265307E+02
Shell types                                I   N=          24
           0           0           0           1           1           2
           0           0           0           1           1           2
           0           0           1           0           0           1
           0           0           1           0           0           1
Number of primitives per shell             I   N=          24
           5           1           1           3           1           1
           5           1           1           3           1           1
           3           1           1           3           1           1
           3           1           1           3           1           1
Shell to atom map                          I   N=          24
           1           1           1           1           1           1
           2           2           2           2           2           2
           3           3           3           4           4           4
           5           5           5           6           6           6
Coordinates of each shell                  R   N=          72
  3.34368258E+00  0.00000000E+00  1.30600248E-01  3.34368258E+00  0.00000000E+00
  1.30600248E-01  3.34368258E+00  0.00000000E+00  1.30600248E-01  3.34368258E+00
  0.00000000E+00  1.30600248E-01  3.34368258E+00  0.00000000E+00  1.30600248E-01
  3.34368258E+00  0.00000000E+00  1.30600248E-01 -3.34368258E+00  0.00000000E+00
 -1.30600456E-01 -3.34368258E+00  0.00000000E+00 -1.30600456E-01 -3.34368258E+00
  0.00000000E+00 -1.30600456E-01 -3.34368258E+00  0.00000000E+00 -1.30600456E-01
 -3.34368258E+00  0.00000000E+00 -1.30600456E-01 -3.34368258E+00  0.00000000E+00
 -1.30600456E-01  3.58806030E+00  1.46479653E+00 -9.65974276E-01  3.58806030E+00
  1.46479653E+00 -9.65974276E-01  3.58806030E+00  1.46479653E+00 -9.65974276E-01
  3.58806030E+00 -1.46479653E+00 -9.65974276E-01  3.58806030E+00 -1.46479653E+00
 -9.65974276E-01  3.58806030E+00 -1.46479653E+00 -9.65974276E-01 -3.58806021E+00
  1.46479653E+00  9.65975957E-01 -3.58806021E+00  1.46479653E+00  9.65975957E-01
 -3.58806021E+00  1.46479653E+00  9.65975957E-01 -3.58806021E+00 -1.46479653E+00
  9.65975957E-01 -3.58806021E+00 -1.46479653E+00  9.65975957E-01 -3.58806021E+00
 -1.46479653E+00  9.65975957E-01
Primitive exponents                        R   N=          44
  2.26617678E+03  3.40870102E+02  7.73631352E+01  2.14796449E+01  6.65894331E+00
  8.09759757E-01  2.55307722E-01  1.77215043E+01  3.86355054E+00  1.04809209E+00
  2.76415444E-01  1.20000000E+00  2.26617678E+03  3.40870102E+02  7.73631352E+01
  2.14796449E+01  6.65894331E+00  8.09759757E-01  2.55307722E-01  1.77215043E+01
  3.86355054E+00  1.04809209E+00  2.76415444E-01  1.20000000E+00  1.30107010E+01
  1.96225720E+00  4.44537960E-01  1.21949620E-01  8.00000000E-01  1.30107010E+01
  1.96225720E+00  4.44537960E-01  1.21949620E-01  8.00000000E-01  1.30107010E+01
  1.96225720E+00  4.44537960E-01  1.21949620E-01  8.00000000E-01  1.30107010E+01
  1.96225720E+00  4.44537960E-01  1.21949620E-01  8.00000000E-01
Contraction coefficients                   R   N=          44
 -5.38935039E-03 -4.02347214E-02 -1.80081842E-01 -4.68288577E-01 -4.46926172E-01
  1.00000000E+00  1.00000000E+00  6.26302488E-02  3.33311385E-01  7.41486383E-01
  1.00000000E+00  1.00000000E+00 -5.38935039E-03 -4.02347214E-02 -1.80081842E-01
 -4.68288577E-01 -4.46926172E-01  1.00000000E+00  1.00000000E+00  6.26302488E-02
  3.33311385E-01  7.41486383E-01  1.00000000E+00  1.00000000E+00  3.34854848E-02
  2.34721871E-01  8.13770285E-01  1.00000000E+00  1.00000000E+00  3.34854848E-02
  2.34721871E-01  8.13770285E-01  1.00000000E+00  1.00000000E+00  3.34854848E-02
  2.34721871E-01  8.13770285E-01  1.00000000E+00  1.00000000E+00  3.34854848E-02
  2.34721871E-01  8.13770285E-01  1.00000000E+00  1.00000000E+00
Alpha Orbital Energies                     R   N=          46
 -2.11148570E+01 -2.06979589E+01 -1.33445617E+00 -8.72716534E-01 -8.29733716E-01
 -1.37199474E+00 -1.37189671E+00 -9.97513317E-01 -9.97448205E-01 -5.57833625E-01
 -1.86764077E-02 -1.86749092E-02 -1.93360227E-02 -2.39330969E-03 -9.02828759E-03
 -4.21766576E-04 -8.67507104E-04 -3.04967247E-06 -1.21262066E-06 -2.55287310E-03
 -1.19823806E-03 -1.38491616E-03 -1.93367169E-02 -5.94436822E-04 -4.57026971E-05
 -7.17555562E-03 -4.08398266E-06 -6.13397423E-06 -1.20898189E-03 -2.55236536E-03
 -2.39849955E-03 -1.07088283E-03 -8.64373230E-04 -9.26013867E-03 -5.44818364E-04
  1.82810397E-09 -2.55394292E-06 -1.14521412E-03 -1.15164028E-03 -1.07659074E-03
 -1.38341427E-03 -6.44023302E-04 -5.81778186E-04 -4.09070128E-04 -1.04656516E-03
 -9.83008305E-04
Alpha MO coefficients                      R   N=        2300
  9.92896889E-01 -2.89280480E-02  1.22247659E-02 -8.61484788E-04 -7.23754483E-07
  4.06043489E-03 -2.55325315E-04  7.82963333E-06  1.29877046E-03  4.44695370E-03
  3.16983142E-03  3.43541498E-03  1.00343284E-06  2.67959960E-04 -9.62553018E-07
 -1.08485720E-06 -2.09071171E-05  5.09762516E-05 -2.71686870E-05 -1.89681313E-06
  4.27379013E-07 -1.03502947E-05 -2.86450001E-06 -1.02541389E-05 -1.36317454E-06
 -1.02260304E-05 -1.39509702E-05  1.30385821E-06 -2.58464157E-06 -4.33293961E-06
  2.42302515E-03 -1.40204251E-03 -2.62931930E-04 -1.50428709E-03  1.18745945E-03
  2.42932515E-03 -1.39709407E-03 -2.61776663E-04  1.50788515E-03  1.18776985E-03
  8.92150330E-06 -9.78722964E-06  1.72694395E-06 -1.39480733E-06  9.78443708E-07
  3.45461525E-06 -1.46028717E-05  1.48788257E-06 -6.11681762E-07  1.99543822E-06
 -3.56029879E-06 -1.81243877E-05  1.19428754E-05 -7.11565734E-06 -9.77606304E-07
 -2.83531184E-06 -5.47363784E-05  3.42033066E-06  3.52521916E-06 -6.62821788E-06
 -8.34777612E-06 -1.05290143E-05 -7.18441296E-07  3.61925076E-08 -3.40253092E-06
  9.93318358E-01 -2.84850105E-02  1.42240117E-02  7.27377647E-04 -2.27762765E-06
 -5.08828408E-03  4.29557916E-04  1.08216927E-06 -2.38983265E-03  4.14559634E-03
  3.30451857E-03  3.50392875E-03 -5.29609349E-07  1.45965815E-04  1.66608283E-06
 -1.23128799E-05  3.96556440E-05  3.24670547E-07 -1.03017495E-06 -4.65316579E-07
 -1.00540314E-05  4.49804913E-05  2.00662664E-06  4.60576321E-07  2.47039293E-07
  2.18173719E-03 -1.49096019E-03  2.46822006E-04 -1.46667700E-03 -1.21711214E-03
  2.18562254E-03 -1.49435512E-03  2.48635777E-04  1.46663147E-03 -1.21228910E-03
  2.32947061E-01  5.22001931E-01  3.46991307E-01 -8.97426105E-02 -4.86863636E-05
  4.24460927E-01 -5.32685133E-02 -1.78882913E-05  2.56896459E-01  1.62431485E-02
  1.96495698E-02 -1.77821890E-03  1.62800362E-06  4.89870565E-03  1.09916632E-07
 -1.65957065E-04 -4.08916496E-04 -1.16136690E-03 -1.67070032E-03 -4.19049091E-06
 -2.57667692E-04  2.69407846E-04  2.40126545E-06 -1.36576750E-04 -6.28736896E-06
 -9.91507946E-05 -8.41328331E-05  8.83119942E-07  2.30505846E-05 -3.58262361E-06
 -3.91263045E-02 -1.71984652E-02 -2.59872075E-03  9.25290317E-03  1.13967945E-02
 -3.90649140E-02 -1.71947659E-02 -2.60172195E-03 -9.24131064E-03  1.14058119E-02
 -6.81420101E-04  1.78493921E-03 -2.49567227E-04 -1.20016964E-04 -1.65436099E-04
 -6.83501165E-04  1.78457932E-03 -2.53040516E-04  1.16496698E-04 -1.65671018E-04
  1.26883595E-03  3.81875731E-03  1.08256642E-02  6.81363575E-03 -3.15110339E-06
  1.65349871E-03  1.88439738E-02 -1.90691872E-06 -2.88270011E-04  3.50356001E-04
  8.15760705E-04  5.59084447E-04 -1.39444507E-06 -5.79809660E-04  3.14426975E-06
 -1.71623185E-01 -3.57841682E-01 -3.28794837E-01 -4.72581067E-01 -3.36360560E-05
  1.63975839E-01 -3.79496490E-01 -5.64567589E-06  1.22837392E-01 -6.47992048E-03
 -7.37234597E-03  1.28576610E-03 -1.80505046E-06 -1.30757832E-02  2.01553923E-06
  3.26066919E-03 -1.65569850E-02 -9.50094292E-04  9.20108798E-04 -6.66736259E-04
  3.26035837E-03 -1.65614895E-02 -9.50081401E-04 -9.24334147E-04 -6.69761170E-04
  2.82456982E-02  1.89337666E-02 -1.80681401E-02 -2.28924083E-03  5.98252539E-03
  2.82929603E-02  1.89609727E-02 -1.80660420E-02  2.29268849E-03  5.97432470E-03
 -8.60056816E-04 -3.24982705E-03 -2.97925221E-03 -5.78413560E-03 -2.09209396E-07
 -1.86411503E-03 -1.20803792E-02  2.62911271E-06 -1.07850086E-04 -4.12823290E-04
 -6.52642499E-04 -5.29494958E-04  3.08667402E-06  3.27356525E-04 -3.19847943E-07
 -1.61586300E-01 -3.48400793E-01 -2.84853830E-01  4.00576588E-01 -3.19164190E-05
  3.38472344E-01  3.15540578E-01 -1.45997171E-05  2.64529908E-01 -1.26474652E-02
 -1.02991007E-02  5.91046419E-03 -2.55184103E-08  9.55178478E-03  1.21672767E-06
 -1.16135843E-03  7.25551843E-03  4.50603493E-04 -3.91001341E-04  1.31548089E-04
 -1.15502710E-03  7.25646511E-03  4.54614739E-04  3.98577938E-04  1.33271994E-04
  1.60341245E-02  2.60179742E-02  1.71750562E-02 -1.08410346E-03  1.35737989E-02
  1.60689811E-02  2.60372002E-02  1.71747503E-02  1.09317706E-03  1.35695077E-02
  1.17229702E-01  2.46933905E-01  3.44488307E-02  6.73938761E-02  3.93712265E-01
 -3.07076098E-01  2.90662847E-02  1.59066661E-01 -1.31983281E-01 -2.54210355E-03
  4.54543158E-03  1.45961503E-02  4.30979562E-03 -4.74270842E-03 -1.87449130E-02
 -1.02473484E-04 -1.00745054E-04 -4.32455858E-04 -7.76259006E-04 -1.74553254E-04
  2.06938213E-04 -1.04366189E-03 -2.37237765E-04 -1.17594712E-04  3.55802262E-05
  2.27840081E-05  2.22326104E-05  1.09145848E-05 -3.91551180E-05 -2.11261325E-05
  4.03766339E-01  1.53890762E-02 -6.47370363E-03 -5.27315038E-02  3.11270050E-02
 -3.38810611E-02 -4.07745682E-03  3.16573134E-03  1.34240522E-02 -1.48942258E-02
  7.34626567E-05  4.53822601E-04  3.03147971E-05 -9.36777973E-05  1.46892032E-06
  6.27373523E-04 -1.06503848E-03 -9.82435466E-06 -1.29713491E-05  4.52827542E-05
 -1.17186498E-01 -2.46831098E-01 -3.44022351E-02 -6.73955949E-02  3.93757912E-01
  3.07090619E-01 -2.90706151E-02  1.59085169E-01  1.31999251E-01  2.54367620E-03
 -4.53954636E-03 -1.45960281E-02  4.31050496E-03  4.74138106E-03 -1.87467812E-02
  1.01181104E-04  9.58372316E-05  4.37485373E-04  7.73048988E-04 -1.75402079E-04
 -2.06746912E-04  1.04619241E-03 -2.43597041E-04  1.23217483E-04 -4.03402791E-05
 -1.92334935E-05 -2.46918824E-05  1.64711918E-05  3.81326942E-05 -2.18393027E-05
  3.39201651E-02  4.07747957E-03 -3.16503909E-03  1.34247786E-02  1.49031550E-02
 -4.03778916E-01 -1.53922366E-02  6.47365106E-03 -5.27315047E-02 -3.11292865E-02
 -6.26845125E-04  1.06991540E-03  8.13017970E-06 -1.39068045E-05 -4.61667469E-05
 -8.21896251E-05 -4.56948355E-04 -3.07713150E-05 -9.41079982E-05 -3.98376146E-06
  7.59158975E-05  4.65444863E-05  2.44653216E-03  7.56406444E-04  3.25986029E-04
 -3.93996122E-04  2.22379007E-03  5.28195822E-04 -2.13468453E-04 -1.83153707E-05
  1.36753499E-05 -1.50550783E-05  3.44431165E-05 -8.30714682E-05 -4.68164371E-05
  9.82611792E-02  2.00570178E-01 -4.06136690E-03 -6.50810506E-02 -3.49054180E-01
  2.93436589E-01 -3.53483607E-02 -1.58686250E-01  1.59981840E-01 -1.94314216E-03
  5.69424586E-03  1.44226836E-02  3.06986917E-03 -3.45209295E-03 -1.84545998E-02
  1.15347845E-03 -5.06708408E-03 -4.56420762E-05  2.04977031E-04 -1.93523893E-04
  2.10929426E-04 -1.07672449E-03 -1.64243495E-04 -1.95247140E-06 -8.75066408E-05
 -3.37449651E-02 -2.97181979E-02 -3.69600276E-03 -1.31125007E-02  1.46256204E-02
  4.28829335E-01  9.03674356E-02  7.90447796E-03  4.22389863E-02 -2.34424696E-02
  7.38889504E-05  4.28347273E-05  2.42171937E-03  7.56268028E-04 -3.21861035E-04
 -3.91494322E-04  2.21995284E-03 -5.27591365E-04 -2.03048993E-04 -1.01046050E-05
  1.82685364E-05 -1.41247686E-05 -3.42468651E-05 -8.21752435E-05  4.69277196E-05
  9.82324552E-02  2.00506997E-01 -4.11494556E-03 -6.50902540E-02  3.49052913E-01
  2.93477047E-01 -3.53546026E-02  1.58693379E-01  1.60019765E-01 -1.94034137E-03
  5.68892276E-03  1.44206936E-02 -3.07081652E-03 -3.45408067E-03  1.84530875E-02
  2.17486517E-04 -1.07306725E-03 -1.60551760E-04 -8.94133730E-07 -8.80905838E-05
  1.16343023E-03 -5.05960867E-03 -4.67198600E-05 -1.94364974E-04 -1.93771180E-04
  4.28834780E-01  9.03592563E-02  7.90299664E-03 -4.22420708E-02 -2.34431519E-02
 -3.37403955E-02 -2.97112886E-02 -3.69490020E-03  1.31150334E-02  1.46318526E-02
  2.01580203E-03  5.94452785E-03 -2.34650111E-04 -7.04923343E-01 -3.33503177E-06
 -1.53162726E-01 -3.93965924E-01 -1.83755799E-06 -8.50236113E-02 -7.51787621E-03
  3.29522615E-04  7.93738724E-03  1.37756618E-06  1.92108309E-02  1.24156163E-06
 -1.34914749E-03 -3.30633539E-03 -1.31568785E-03 -1.95304566E-02  2.19757858E-06
 -8.50189989E-04 -1.39856528E-02  4.19320319E-06 -5.90673550E-04 -1.33913186E-04
 -3.22212243E-04 -4.08858277E-04 -3.06492459E-06 -5.26613706E-04  1.55351081E-06
  6.70300086E-04 -1.62726526E-03 -2.08431402E-02 -1.05659389E-05 -4.57983683E-03
  6.61554651E-04 -1.62600010E-03 -2.08394623E-02  3.60868583E-06 -4.57953624E-03
  2.08433067E-04  7.97726920E-04 -1.08370483E-03 -7.92422689E-05 -1.34267316E-04
  2.14445946E-04  8.05508684E-04 -1.08489753E-03  8.35055063E-05 -1.36838942E-04
 -4.17321135E-05  9.77608845E-05  1.20492323E-04  3.20602540E-04 -7.56704161E-05
 -2.28005132E-04  1.32904605E-03 -4.86005624E-04 -1.47537879E-04  4.00801392E-05
  1.13124972E-05  2.10223136E-05 -2.04165712E-05 -6.21495094E-05  1.92392530E-05
 -1.44718627E-01 -5.30815408E-01 -4.25366733E-02  1.02572872E-01 -6.21114863E-01
 -4.84920843E-01 -1.02057446E-03 -5.61466037E-02 -3.94866391E-04  6.07356411E-02
 -2.50028053E-02 -1.31203007E-02  2.02754195E-02  1.72947012E-02 -1.00073263E-01
  3.48362586E-04 -3.81233812E-04 -1.29890812E-04 -1.14198249E-04 -1.18104580E-04
  1.29722141E-03 -2.66013308E-03 -1.13247095E-04  6.97044410E-05 -1.05522231E-04
  9.24110064E-01  1.03219103E-01  9.08353248E-03 -4.72093715E-02 -6.33858235E-03
 -1.51166606E-02 -3.13917286E-02 -1.63386111E-03  1.05298372E-02  8.31813450E-03
 -4.05812137E-05  1.00241559E-04  8.29191830E-05  3.26574351E-04  7.31150660E-05
 -2.23946339E-04  1.32048899E-03  4.88327843E-04 -1.38618510E-04  4.32159136E-05
  2.13508569E-05  3.03712724E-05  2.08603510E-05 -6.05681224E-05 -2.12672210E-05
 -1.44747371E-01 -5.31015900E-01 -4.21998682E-02  1.02529254E-01  6.21199552E-01
 -4.84939594E-01 -9.59758812E-04  5.59452874E-02 -2.95714052E-04  6.08078017E-02
 -2.50535325E-02 -1.31887821E-02 -2.02313078E-02  1.71613591E-02  1.00160590E-01
  1.29425359E-03 -2.64287722E-03 -1.11374079E-04 -7.39809076E-05 -1.04539610E-04
  3.50863350E-04 -3.69111086E-04 -1.20863398E-04  1.13006511E-04 -1.19458242E-04
 -1.51574346E-02 -3.13094999E-02 -1.67027916E-03 -1.05632593E-02  8.34492193E-03
  9.23982388E-01  1.03065533E-01  9.06014934E-03  4.72095090E-02 -6.39206705E-03
  1.73157495E-01  6.86742833E-01 -4.29470034E-02  1.03603338E-01 -6.53741914E-01
 -4.62093088E-01  3.00083890E-03 -2.20788414E-03 -1.14191429E-02 -8.09266792E-02
  1.70678989E-02 -1.18322144E-02 -2.34963047E-02 -1.87160920E-02  1.05475749E-01
  3.82994325E-05 -1.05953486E-03  3.82214031E-03  7.79667260E-04 -1.26190552E-04
 -1.62405971E-04  5.79088572E-03 -6.94324815E-04  2.80904018E-04 -2.53041472E-04
  3.51591800E-05  4.98700833E-05  8.38897453E-06  3.70086707E-04 -8.35384643E-06
  1.33561517E-02  1.04755905E-02 -3.47744665E-03  1.13781507E-02  1.59354505E-02
 -1.01456212E+00  1.24326962E-03  1.79664289E-02 -1.42037763E-01 -8.35734081E-02
 -1.12619153E-03  5.31335996E-04  1.66032150E-04 -4.76296556E-06 -3.97893279E-05
  1.90562851E-04 -2.67816351E-03  1.06176597E-04 -3.36174325E-04  1.41411155E-04
  1.23570207E-02 -1.12996647E-01  1.06457839E+00  9.12996464E-04  1.59668558E-02
 -2.46478358E-02  1.63007997E-01  5.83463517E-01 -7.14585789E-01  1.66839340E-01
 -2.12890941E-01 -3.19724977E-02 -6.80970705E-02  5.58457370E-02  2.90609230E-01
  1.05738810E-03  9.56502093E-03 -1.05167152E-02  1.20124256E-02 -5.09415630E-04
 -1.37654248E-03 -3.32036974E-02 -1.05486538E-03  6.31559206E-03  9.11548892E-04
  1.80023128E-03  2.65129544E-03 -2.22555370E-04 -2.97782819E-03 -3.27011110E-04
 -1.16139521E+00  3.42377909E-01  7.48043013E-02  5.19240909E-01 -3.38257773E-01
 -3.00381913E-01 -1.26997917E-01 -8.80572040E-03 -1.30783496E-01  4.10283199E-02
  4.10743799E-03 -1.46041147E-02  6.11029984E-03  3.76544790E-03  8.80001329E-04
 -3.05199812E-03  6.48940363E-03  6.30195818E-03 -3.44961236E-03  2.43410905E-03
 -2.20410466E-04  1.89966256E-03 -1.07107531E-02  8.35395637E-03 -1.06117127E-06
  8.12917013E-04 -4.79710533E-03 -3.68190107E-06 -7.70944632E-05 -1.14246453E-03
 -8.59574453E-04 -4.95405128E-04 -4.34421029E-06 -4.49215920E-04  4.90970508E-07
  2.11746187E-01  1.03133771E+00 -9.67416783E-01 -5.86149327E-01  4.45700732E-05
 -5.57929035E-01  6.38525225E-01 -2.24815319E-05  5.25095809E-01 -1.31737657E-02
 -1.82582956E-01 -6.64934563E-02  3.69246127E-05  1.53943876E-01  3.24229556E-05
 -2.94714700E-03  9.28293557E-03  4.85534169E-04 -6.79305798E-04  1.19170359E-04
 -2.94722906E-03  9.26975813E-03  4.83446700E-04  6.72019174E-04  1.18408120E-04
  7.40842875E-02  7.07463947E-02  3.68251221E-03 -2.22622445E-02 -5.33674511E-03
  7.40749509E-02  7.08079477E-02  3.62778233E-03  2.22762186E-02 -5.39856289E-03
 -5.59498160E-04 -2.12002300E-02  1.14963475E-01 -7.14931289E-03  1.85565511E-05
 -1.93782758E-03  1.98601587E-02 -2.81098220E-05 -4.26962232E-02 -6.87285058E-03
 -4.12486034E-03  3.17776865E-03 -3.66076704E-06  3.16579744E-04  4.59726250E-06
 -4.91293095E-02  1.49986335E-01 -1.24415443E+00 -1.39656492E-01 -2.99210644E-03
  2.01767104E-01  5.67053037E-02  7.44506371E-03 -5.00581488E-01  6.11673693E-01
 -4.83659787E-01  4.97321090E-01 -4.61850650E-04 -6.54852645E-01 -1.98850028E-04
 -1.09260289E-02 -5.30727738E-02  2.65470068E-03  2.22432711E-02 -4.48487900E-03
 -1.09198464E-02 -5.32214027E-02  2.66955326E-03 -2.22342902E-02 -4.47072093E-03
  3.87019608E-01  2.29175720E-01  2.65979119E-01  1.79189502E-01 -1.33213682E-01
  3.89624459E-01  2.38970551E-01  2.65547088E-01 -1.80740952E-01 -1.33460065E-01
  9.62555250E-04  7.05601879E-03 -7.30612149E-03 -6.36636273E-01 -4.80195160E-07
 -1.37258644E-01  9.14030440E-01  7.21646832E-06  1.85978865E-01  2.44008933E-01
  8.89866152E-03 -2.47236316E-01  1.63468763E-04 -6.75028445E-01  4.50384173E-05
 -1.31468877E-03 -1.91531732E-02  5.94385886E-02 -1.98377537E-02  1.08358506E-05
  1.97236178E-03  4.68716956E-02 -9.24340107E-06  1.74620442E-02 -4.01940889E-03
 -3.23726565E-03 -2.72964195E-03 -8.82189956E-06  4.97636228E-03 -2.13151683E-05
 -1.98972227E-02  1.42104182E-02 -2.37500816E-01  5.42151239E-03 -5.19111207E-02
 -1.99035749E-02  1.42274377E-02 -2.37548487E-01 -5.43257138E-03 -5.19019250E-02
 -1.20276679E-02 -9.00806412E-03 -1.27018218E-02  6.93290541E-03  7.03897011E-04
 -1.20546018E-02 -8.98457811E-03 -1.27485358E-02 -6.95278041E-03  6.61633782E-04
  8.14153989E-05 -1.75282808E-03  7.19865176E-03  2.49022321E-03 -5.31568127E-05
 -2.27233954E-03 -1.17663354E-02 -1.69664832E-05  2.75951938E-03 -7.37878906E-04
 -1.46152910E-03 -4.37306531E-04  4.27406733E-04  3.27035810E-03  6.37714980E-04
 -3.75385877E-02  2.47696546E-01 -7.59953585E-02 -1.20875057E-01 -1.61346989E-01
  5.43569463E-01  6.04534523E-02 -3.04998546E-01 -2.61467868E-01  1.22812507E-01
  8.95729623E-01  1.07799472E-01  3.97667443E-02  3.89443956E-04 -1.88434232E-01
  3.65994858E-03 -9.56031278E-03  6.18441470E-03  1.31281335E-03  4.00536099E-05
 -2.47936848E-03  8.80525638E-03  5.65304467E-03 -2.70664394E-04 -2.43776536E-04
 -3.14013135E-04  1.93109714E-01 -1.26932182E-01  2.57411642E-01  5.78244381E-01
 -2.36070458E-01 -4.81427909E-01 -2.17894927E-01 -7.50411664E-01  9.70195317E-01
  4.07524245E-02 -4.04413410E-01  7.99038930E-01 -1.07884739E-01 -7.82690551E-04
  5.03609404E-01  8.94228888E-02 -3.33679142E-02 -4.45669204E-01 -3.99715113E-01
 -6.03449641E-01 -2.91579778E-01  4.34826555E-02 -2.53794237E-02  1.81190578E-02
 -5.75965703E-04  9.37631286E-03 -4.20138515E-02  8.43478213E-03  8.27618782E-05
  6.40053112E-04 -2.21777759E-02 -5.25760178E-04 -1.20318977E-02  7.90539091E-03
  6.95465932E-03  3.46008219E-03 -6.20782308E-06 -3.68026589E-03 -2.98691683E-04
 -2.24511920E-01  1.32003332E-01 -1.72803347E-01 -5.54989712E-01  6.33521954E-01
 -2.37113358E-01  6.23784508E-02 -9.84897584E-02  5.36247162E-01  6.27964184E-01
  8.82820051E-03  4.89179997E-03  8.81436991E-03 -2.58002362E-03  3.00927330E-03
  7.49281035E-03  6.92098574E-03  8.85473573E-03  2.68756521E-03  3.24689717E-03
 -3.83477340E-04 -9.97631379E-04 -1.71648765E-02  4.59149675E-03  8.41108588E-05
 -2.60886126E-03 -2.21240027E-02  3.08956554E-03  1.39771595E-02  1.12435455E-03
 -2.64317533E-04 -1.16190870E-03 -2.79145327E-04  8.19605377E-04  8.54493793E-05
 -2.13971170E-02  5.08237801E-02 -9.32208503E-01  1.28189061E-02 -6.28286828E-02
 -7.03755679E-02  1.42749077E-01 -4.97713650E-01 -6.61825877E-01 -4.27190171E-02
  1.08114692E-01  3.07245654E-02 -3.82041944E-02 -7.58631655E-03  2.06105635E-01
 -2.93254499E-03  2.28243448E-02  3.87469344E-03 -4.10626263E-03  1.01993888E-03
  1.03846382E-03  1.28178996E-02  3.94946032E-03  4.44069667E-03  2.88135733E-03
  1.37192394E+00 -6.75282972E-01  1.04728718E-01 -5.11945613E-01 -3.16989327E-01
  3.10201853E-01  1.72492980E-01  1.09179984E-03  1.12900352E-01  2.73017574E-02
  1.39827957E-04 -1.62598782E-03  1.79096524E-02 -3.23244338E-03 -2.53074187E-04
  9.05176942E-04  1.09524690E-02 -3.42658194E-03 -9.45197302E-03 -1.13784524E-03
 -2.80555794E-04  5.49161684E-04  2.07050926E-04 -4.31353173E-04  1.06790786E-04
  1.73201131E-02  1.96319785E-01 -3.88394782E-01 -2.45956018E-02  1.42575666E-01
  1.10900609E-01  3.28759829E-02  1.16383747E-01  1.09603323E-01  4.45093820E-02
  2.55193561E-01 -1.62629227E-01 -4.39714191E-03  6.52211853E-02  7.79912661E-02
  8.08094220E-04 -1.27650924E-02 -1.88599693E-03  2.79958263E-03  3.21715904E-05
 -1.75489829E-03 -1.21532615E-02 -1.66770033E-03 -4.40222308E-03 -2.46497030E-03
 -2.18661029E-01  3.91681881E-01 -6.43938389E-02  1.70674616E-02  1.87373950E-01
  1.04300901E-01 -6.25759814E-02  3.41357742E-02 -5.73795391E-01 -7.30836144E-01
  1.19397637E-04 -1.23580244E-03  1.40567738E-02  1.99573539E-01 -5.36601178E-04
  4.23541828E-02 -5.34023590E-01 -3.24211006E-03 -1.23448008E-01  1.24834470E-01
 -3.76784282E-03 -1.21020203E-01 -4.49756111E-01 -3.00445451E-01 -1.00297072E-01
  8.75925725E-04  1.21931144E-02 -3.90960494E-02  1.08614500E-02 -1.10048945E-04
 -1.15937224E-03 -2.43550787E-02 -9.89806927E-04 -1.16208289E-02  2.22409578E-03
  1.61712414E-03  1.25873145E-03 -8.11527169E-06 -2.20178170E-03 -8.77346790E-05
  1.93486569E-03 -7.46904893E-03  9.83162816E-02  3.34416582E-03  2.18591675E-02
 -4.69398574E-03 -4.73119904E-03  6.62438631E-01 -6.76433263E-03  1.45148040E-01
  7.27744121E-03  8.25908767E-03  5.69235161E-03 -5.36892314E-03 -1.59190483E-03
  6.56188853E-03  7.68396767E-03  5.49456179E-03  4.74169452E-03 -7.63305932E-04
  1.73194221E-01  6.86943825E-01 -4.31705956E-02  1.03597811E-01  6.53729428E-01
 -4.62090004E-01  3.00168286E-03  2.14765092E-03 -1.14285546E-02 -8.09549993E-02
  1.71136404E-02 -1.18666655E-02  2.35067567E-02 -1.87151287E-02 -1.05514912E-01
  3.96106072E-05 -1.05615219E-03  3.82525200E-03  7.79225239E-04  1.29433638E-04
 -1.64253832E-04  5.79460159E-03  6.91590438E-04  2.78372495E-04 -2.56808978E-04
  2.82793008E-05  4.80881659E-05 -8.34786952E-06  3.70910506E-04  5.73343095E-06
 -1.01449540E+00  1.28116570E-03  1.79634598E-02  1.42046835E-01 -8.35687052E-02
  1.33353850E-02  1.04733769E-02 -3.47940763E-03 -1.14275102E-02  1.59765238E-02
  1.93959994E-04 -2.67742802E-03  1.05583879E-04  3.31681951E-04  1.43850940E-04
 -1.12655273E-03  5.27942952E-04  1.64292171E-04  6.92592735E-06 -4.14402421E-05
  5.37465924E-05  3.93231003E-04 -5.75421829E-04 -2.93459254E-04 -6.80908068E-04
  1.39154602E-04  1.05994946E-03 -1.20578937E-02 -9.33182488E-05 -9.19705327E-05
  8.55596897E-05  1.66836745E-05  3.17756778E-04 -2.14725771E-04  1.77896301E-03
 -6.64963895E-03  1.48036797E-02 -1.44332717E-01  1.27097403E-02  1.14450680E-01
  2.73994986E-02  1.98343590E-02  5.31826527E-02 -5.04381370E-02  6.43875242E-04
 -5.68524077E-02  1.38005030E-01  5.91108536E-01  9.78171859E-02  8.31064051E-01
  5.10786961E-03  7.46096055E-04 -9.12600232E-04 -2.88401687E-03  4.29540256E-03
 -4.71154846E-03 -1.40225171E-03 -5.02015047E-05 -2.70360651E-03 -4.39675947E-03
 -4.39817743E-01  5.91839565E-01 -3.30059462E-01  2.30397852E-01 -7.10784705E-02
  5.25267732E-01 -5.38217396E-01  2.57054543E-01  1.86161983E-01  1.37049843E-02
 -4.34697517E-06  3.06536766E-04 -2.03065773E-03  1.53984251E-04  8.05219934E-04
  5.95902906E-05 -4.64377811E-04  7.10686596E-03  7.51940638E-04  1.81325190E-04
  8.09709181E-05 -9.95207754E-05  1.16826621E-03  2.91496983E-05 -1.97628330E-03
  6.03346897E-04 -5.91804300E-03  1.92194450E-02  1.41616240E-03  5.93029480E-01
 -6.82066138E-03 -3.20603014E-03 -2.00099851E+00  1.34202107E-02 -3.97959993E-03
 -1.73294206E-02  4.55441476E-03  1.25304720E-01 -2.73103365E-03 -4.55522670E-01
  1.05276908E-03 -1.67600851E-02  1.71467398E-03  2.46241725E-03 -2.85018762E-03
 -6.67038664E-04  1.86944651E-02 -1.71758179E-03  3.33816954E-03  3.03073659E-03
  7.26917510E-01  8.40249466E-01  2.92242040E-02  8.47991186E-02 -2.13948965E-01
 -7.31788333E-01 -8.48836090E-01 -2.28522329E-02  8.49345684E-02  1.88751410E-01
  2.95675433E-01  1.37009403E+00 -1.06088138E+00 -1.37706304E-01 -5.47679583E-05
  6.69013446E-01  1.47038622E-01  8.56380329E-05 -7.14794602E-01 -2.59601646E-01
 -2.94948729E-01 -1.21043193E-02  4.21095196E-07 -6.17954678E-02 -4.93813638E-05
 -3.43872253E-04 -3.59293896E-03  7.12435635E-03 -4.49097524E-03 -2.97670560E-06
  2.67507030E-04  1.68571084E-02  2.84835823E-06  2.95224410E-03 -2.37057363E-04
 -1.30764957E-04  2.74939005E-04 -3.13676048E-07  1.59216035E-03 -5.13406429E-06
  2.94145605E-02  5.46823311E-02 -7.35399795E-03 -3.14909674E-02  3.61494499E-02
  2.94597086E-02  5.46815256E-02 -7.37877821E-03  3.14819747E-02  3.61906154E-02
 -4.69219546E-04 -6.96581258E-04 -7.78596917E-04  6.00566756E-04  1.82749459E-04
 -4.71989073E-04 -6.94969092E-04 -7.87703724E-04 -6.08438351E-04  1.75528492E-04
  2.80262410E-05 -8.95336560E-04  5.14663965E-03  6.28836975E-04  3.20179057E-04
 -7.87449629E-04 -2.67008890E-03 -1.37594727E-03 -4.37887999E-04 -4.44530550E-04
 -4.41866378E-04  7.48522648E-05 -9.42275648E-04  7.21862348E-04 -1.71521029E-03
 -1.14849015E-02  7.96727003E-02 -5.36198895E-02 -3.65809860E-02  5.64032754E-01
  1.64507783E-01  2.13639976E-02  9.05094172E-01 -9.32739295E-02  4.16724814E-02
  2.72446902E-01  2.98384857E-02 -1.25922736E-01  1.71986876E-03  6.02722664E-01
 -9.83582361E-03  2.93071625E-02  2.95325262E-04 -8.37428188E-04 -4.96649197E-04
  9.45591027E-03 -3.24987950E-02  2.82446088E-03 -2.94101081E-03 -5.42721497E-05
 -3.84336451E-01 -1.09986041E+00 -2.00511602E-01  9.65274002E-01  8.70590105E-01
  3.26249290E-01  1.03324376E+00  9.66943284E-02  6.74681663E-01 -4.03041676E-01
 -3.77632358E-05  2.60218588E-04 -3.18457664E-04 -9.51413383E-07 -7.50155979E-01
 -4.82531431E-04  4.57781561E-05  9.11439856E-01  1.77346622E-05  1.81847221E-04
  3.35417830E-04  5.17887616E-04 -3.24759939E-02  3.26553572E-05  1.45169076E-01
 -4.04976629E-06  8.47389088E-05 -4.09627862E-04  3.45778032E-06 -5.57525318E-04
  3.44882421E-05  1.27001293E-05  4.27343589E-03 -1.78951551E-04  6.27097043E-05
  5.27190155E-05  1.35114392E-06  5.22265149E-05  7.92926505E-06 -1.04572508E-03
 -3.07391535E-01 -1.29335862E-02 -4.96394831E-02 -6.78291274E-01  2.25602973E-01
  3.06876789E-01  1.32412913E-02  5.00472056E-02 -6.79614228E-01 -2.26381199E-01
  4.63877072E-03 -1.61311976E-02 -1.80300256E-04  1.61908888E-03  4.97083765E-04
 -4.49537829E-03  1.63838599E-02  2.00311159E-04  1.71221337E-03 -4.46096719E-04
 -9.72956973E-05 -5.62221736E-03  3.47595928E-02 -5.26872800E-03  2.50421200E-04
  3.90018863E-04  1.33128768E-02  3.21999545E-03 -1.41975446E-02 -1.22203435E-03
 -8.17978223E-04  5.83645071E-04 -2.01209332E-04 -5.54505603E-05 -1.11524469E-04
  1.82151639E-02  1.99169652E-01 -3.81785411E-01 -1.63780945E-02 -1.41038259E-01
  1.12785364E-01 -5.45041092E-02 -1.13580132E-01  1.00459352E-01  2.71361880E-02
  2.64035901E-01 -1.54695268E-01  3.28522833E-02  8.07494059E-02 -7.22431837E-02
 -2.10855167E-03 -2.02955261E-02 -1.01994114E-03  6.91062153E-03 -3.10510417E-03
  4.18310271E-04 -2.12578365E-02 -1.22072737E-03 -5.40993585E-03 -7.37410662E-04
  8.53066377E-02 -5.27947930E-02  2.22256065E-01  5.80519230E-01 -6.87082715E-01
 -2.28692119E-01  3.95709495E-01 -5.09495795E-02 -1.90033467E-02  1.89849102E-01
 -3.87750261E-04 -9.89002963E-04 -1.72351797E-02  4.60412917E-03 -8.74615894E-05
 -2.61381134E-03 -2.21485205E-02 -3.07857622E-03  1.39991430E-02  1.12569969E-03
 -2.63599505E-04 -1.15778578E-03  2.76637248E-04  8.19408891E-04 -9.06564742E-05
 -2.14686532E-02  5.01844515E-02 -9.31040447E-01  1.27546650E-02  6.33029940E-02
 -7.07618582E-02  1.42936583E-01  4.97006829E-01 -6.61353128E-01 -4.25455218E-02
  1.07837089E-01  3.05729020E-02  3.81921740E-02 -8.11055564E-03 -2.06007304E-01
  1.02483364E-03  1.28571368E-02  3.94964534E-03 -4.44255734E-03  2.88522128E-03
 -2.94278198E-03  2.28954843E-02  3.87865986E-03  4.11789710E-03  1.02019655E-03
  3.10168178E-01  1.72605983E-01  8.79542004E-04 -1.13108546E-01  2.74663459E-02
  1.37183688E+00 -6.76179139E-01  1.04631168E-01  5.12298937E-01 -3.17169134E-01
  1.22459432E-02 -1.13678055E-01  1.06472565E+00  8.60583735E-04 -1.55817378E-02
 -2.43673596E-02  1.62879756E-01 -5.83937284E-01 -7.14061433E-01  1.66895402E-01
 -2.13433196E-01 -3.16214747E-02  6.81349507E-02  5.57537789E-02 -2.90728845E-01
  1.05116138E-03  9.54203487E-03 -1.04905302E-02  1.19977452E-02  4.79914040E-04
 -1.37553049E-03 -3.31649347E-02  1.12504621E-03  6.30844840E-03  9.12014571E-04
  1.79358948E-03  2.63815502E-03  2.25910853E-04 -2.98122156E-03  3.39847982E-04
 -2.99856685E-01 -1.27113465E-01 -8.75157545E-03  1.30171077E-01  4.07148360E-02
 -1.16113859E+00  3.42182526E-01  7.48330140E-02 -5.18232887E-01 -3.38263257E-01
 -3.05565129E-03  6.42250816E-03  6.27113986E-03  3.44721070E-03  2.40637507E-03
  4.12119977E-03 -1.45428324E-02  6.10460950E-03 -3.73900638E-03  8.98712006E-04
  1.53455569E-02  1.19419545E-01 -1.36174290E-02  5.04912458E-03 -1.69853500E-01
 -2.66543826E-02  8.37600503E-02 -1.34804838E-01 -3.80313985E-01 -6.51293961E-02
  4.22680191E-01 -2.22658272E-01 -2.15479331E-02  4.44333110E-02  9.40483758E-02
  3.37726083E-04  3.79511225E-03 -1.39617616E-03  4.17772006E-03  5.61699655E-04
 -2.81422724E-04 -1.40599029E-02  1.48377471E-03  6.37333372E-03 -6.48528496E-05
  1.55974930E-03  2.95256002E-03  1.60247700E-04 -2.05264787E-03  6.28409633E-04
 -1.13991729E-01 -6.62593565E-02 -1.47281656E-01  5.41368468E-01  6.72799273E-01
 -4.19796041E-01  3.12731666E-01  6.88274194E-02 -9.56088873E-02 -2.99716617E-01
 -4.89359840E-03  3.36214614E-03  4.31083028E-03  4.32270360E-03  2.26040842E-03
  6.48097029E-04 -8.26912348E-03  4.28811742E-03 -3.70077859E-03  4.02497460E-04
 -2.86209034E-04 -1.05714788E-02  7.19394033E-02 -1.61091149E-02  9.02256662E-06
  4.89618740E-04  4.06414853E-02  5.18988421E-07 -3.18528083E-02 -2.26216903E-03
  1.52169167E-04  3.18793260E-03  5.37380687E-06 -9.69412631E-04 -3.27239143E-06
  5.86798381E-02  2.78848666E-01  5.46986587E-02 -7.90685312E-04 -6.33303091E-04
 -2.35457977E-02 -4.16957350E-02  1.28312054E-03  4.36709448E-01 -9.38827678E-01
  4.16866716E-01  5.27232791E-01 -8.57366689E-04 -4.17609643E-01 -7.74198356E-04
 -2.89074669E-03 -4.50498451E-02 -5.53603586E-03  1.50146010E-02 -4.99275766E-03
 -2.87931054E-03 -4.50794498E-02 -5.54129903E-03 -1.50068429E-02 -4.96846228E-03
 -6.09772391E-01  3.26500949E-01 -6.51683261E-02  2.14867437E-01  2.38716182E-02
 -6.10032378E-01  3.29196502E-01 -6.57875815E-02 -2.15219390E-01  2.40421384E-02
  3.74963308E-04 -7.15403412E-03  4.11415928E-02 -2.06665925E-02  4.70715785E-06
 -2.91313585E-03  1.44399078E-02 -6.92620498E-06 -4.09579835E-03  1.83963835E-03
  1.03134726E-03  4.51901693E-04  8.42471280E-07  5.03684390E-04 -4.95530576E-06
  2.18916256E-01  1.06504753E+00 -9.97275570E-01  7.38487463E-01  7.40330013E-05
 -2.97612817E-01 -7.59104713E-01 -5.47749744E-05  2.40016275E-01  8.79478287E-02
 -1.83279891E-01 -1.56411348E-01  5.10408743E-05 -8.52339420E-02  1.05481737E-05
  1.13034808E-02 -3.50373739E-02 -1.72666151E-03  3.45581719E-03 -2.19663849E-03
  1.12880486E-02 -3.50193557E-02 -1.72415949E-03 -3.45319839E-03 -2.19489016E-03
  9.60804875E-02  4.72830871E-02  5.67423978E-03 -2.35101474E-02 -5.17897389E-03
  9.61112027E-02  4.72517997E-02  5.72335844E-03  2.35661666E-02 -5.17587246E-03
  7.12443213E-02  2.29442271E-01 -4.74331607E-01 -6.41022847E-02 -3.76491725E-04
  2.36966655E-01 -7.27469435E-02  3.76693478E-04  4.40112050E-01  6.28994747E-01
 -1.82311011E-01 -1.00178954E+00 -1.79167154E-04  4.12552998E-01  2.05726388E-04
 -6.13074582E-04 -1.03914110E-02  8.28213174E-03 -1.39291738E-02  6.60466069E-05
 -4.67650279E-04  4.64833426E-02 -1.80393779E-04 -1.37036884E-02  3.33645559E-04
 -5.53750879E-03 -1.08084276E-02  3.12466914E-06  9.39954039E-03 -3.37320732E-05
  6.56446846E-01 -2.32181422E-01 -1.19400670E-02 -5.14448691E-01 -1.42793514E-02
  6.56220978E-01 -2.31094188E-01 -1.19508809E-02  5.14402518E-01 -1.50549478E-02
  6.81892893E-03  4.38969046E-03 -1.58416583E-02 -1.17206961E-02 -3.64745334E-03
  6.73323827E-03  4.15004430E-03 -1.58678705E-02  1.17139536E-02 -3.66278063E-03
  7.91063135E-03 -2.50777881E-01  1.45212419E+00  3.03935958E-03  1.94455646E-03
 -2.53196599E-03  7.92573798E-02  1.62553982E-01 -5.44251066E-01 -1.69341774E-01
 -1.25336850E-01  4.01048635E-02 -1.14747537E-02 -3.69061673E-02 -4.48538102E-02
  8.58379725E-03 -4.42421660E-01  2.76858409E+00 -2.61662393E-02  4.72246658E-04
  7.94782812E-03 -2.14884325E-01  2.30211156E-02  1.24272410E+00 -3.90416071E-01
 -9.95014365E-02  2.08696666E-01 -1.78042141E-03 -1.49980380E-01  8.79600365E-03
 -2.34210619E-01 -6.99796214E-01  5.39578131E-02  3.05514029E-01 -3.76640332E-02
 -1.63523873E-01 -3.83148988E-01  4.28989426E-05 -2.20394290E-01  5.63273638E-02
 -6.17977487E-01 -9.22938367E-01 -3.34287624E-02  6.38595445E-01  7.19589322E-02
 -5.97805473E-01 -9.00819635E-01 -3.08614769E-02 -6.26487829E-01  5.75028461E-02
  3.55988888E-04 -3.90332167E-04  1.10218930E-02  5.43805999E-01 -1.36591564E-04
  1.15215721E-01 -2.44911129E-01  2.29540581E-04 -5.67108828E-02  1.98185277E-01
  1.01484075E-02 -2.12985946E-01 -2.54829251E-05 -5.27894451E-01  6.84975973E-06
 -2.94442488E-04 -1.24937627E-02  9.93253057E-02  8.02907811E-03 -1.17514630E-04
  3.55658717E-03 -4.16050190E-02  9.41427359E-04  5.24313334E-02 -1.39947262E-02
  4.48766368E-03  1.84544988E-02 -6.10130911E-05 -1.67399806E-02  2.76093171E-04
 -1.73872444E-02  1.30265065E-02 -5.63801351E-01  3.49632669E-03 -1.30668816E-01
 -1.72244633E-02  1.30860323E-02 -5.63691077E-01 -3.75067622E-03 -1.30668089E-01
 -2.90731369E-02 -3.73110341E-02  1.22084072E-02  3.41976507E-02  8.10570981E-03
 -2.84163828E-02 -3.61738658E-02  1.23016108E-02 -3.39304046E-02  7.72152111E-03
 -1.20235700E-03 -1.99593971E-02  8.33826797E-02 -9.80885129E-03 -8.29781683E-05
 -2.73110912E-03  1.06902872E-02 -1.37128743E-03 -2.32606024E-02 -4.25299922E-04
 -2.67956612E-03  2.16660210E-04  4.33403545E-05  1.93359268E-03  8.78163341E-06
  2.84721056E-03 -3.68207208E-03  6.99452305E-02  4.33651815E-02  2.52553790E-02
  3.07576147E-04 -4.44993335E-01  1.00905997E-02 -5.80201803E-02 -9.20839497E-02
  1.60370183E-02  6.23625451E-02  1.44578184E-01  6.71748857E-02  3.94077966E-02
 -1.90664703E-03 -3.96939486E-02  3.47361582E-03  1.23747926E-02 -2.96589937E-03
 -2.38614809E-03 -4.13488270E-02  3.61961788E-03 -1.30773688E-02 -3.91670446E-03
 -1.03142744E-01  6.32584688E-02  9.49354673E-01 -1.73627975E-02  2.89846335E-01
 -3.48337887E-02 -2.35013817E-02  7.32619727E-02 -5.53373205E-03  1.05249659E-03
 -1.19673629E-03 -2.06811220E-02  8.86189699E-02 -1.06725321E-02  4.89948201E-05
 -2.60302505E-03  1.31147011E-02  6.35720457E-04 -2.55859852E-02 -6.54911553E-04
 -2.79276492E-03  3.21157339E-04 -2.45359486E-06  1.87632538E-03  1.48839806E-05
  6.27205543E-03  3.47078942E-02 -4.78255891E-03  3.92087746E-02  2.66221016E-03
  2.20522654E-02 -4.46852500E-01  1.28626009E-02 -3.72251092E-02 -8.47111801E-02
  6.71342120E-02  3.08016750E-02 -1.47881726E-01  8.10944747E-02 -2.33835671E-02
 -2.21066265E-03 -4.47374262E-02  3.29584070E-03  1.38821914E-02 -3.97742270E-03
 -2.31934119E-03 -4.29153283E-02  3.20151979E-03 -1.34963681E-02 -3.53042656E-03
 -8.01280363E-02  5.50344930E-02  6.12306967E-02  9.15166003E-03  3.81887563E-02
 -8.31810532E-02  4.99315375E-02  9.74837255E-01 -9.53016464E-02  1.51299798E-01
 -1.55399202E-02 -1.20628654E-01  1.52969974E-02 -5.07498800E-03 -1.69514588E-01
  2.68186886E-02 -8.36445130E-02 -1.33120410E-01  3.79822729E-01  6.46288371E-02
 -4.23062454E-01  2.23836159E-01 -2.16195407E-02 -4.48850660E-02  9.41750274E-02
 -3.36509626E-04 -3.77587124E-03  1.33310461E-03 -4.17523663E-03  5.97831937E-04
  2.78381487E-04  1.40444103E-02  1.37615165E-03 -6.38546628E-03  6.74814707E-05
 -1.55148275E-03 -2.94507835E-03  1.59670032E-04  2.03768239E-03  6.07605772E-04
  4.17828276E-01 -3.12363623E-01 -6.84854465E-02 -9.59385399E-02  2.98305195E-01
  1.14521096E-01  6.56592996E-02  1.46955609E-01  5.41687762E-01 -6.71738460E-01
 -6.14219103E-04  8.32835440E-03 -4.26891775E-03 -3.70376289E-03 -3.99766373E-04
  4.84994732E-03 -3.36623730E-03 -4.30648727E-03  4.32327570E-03 -2.26404643E-03
 -1.22369689E-04  1.22250935E-03 -1.40779773E-02 -1.99841763E-01 -5.35994489E-04
 -4.24036657E-02  5.34413252E-01 -3.23298119E-03  1.23557958E-01 -1.24845254E-01
  3.75178669E-03  1.21045466E-01 -4.49724215E-01  3.00418830E-01 -1.00296938E-01
 -8.80254280E-04 -1.22029319E-02  3.91251524E-02 -1.08707223E-02 -9.50447153E-05
  1.16907645E-03  2.43787745E-02 -9.91585247E-04  1.16343418E-02 -2.23222429E-03
 -1.60941606E-03 -1.25017771E-03 -1.36236243E-05  2.20638193E-03 -1.04695355E-04
  4.70670001E-03  4.73453632E-03 -6.62383305E-01 -6.80682938E-03 -1.45147362E-01
 -1.91778040E-03  7.47465375E-03 -9.85763545E-02  3.34354287E-03 -2.18970547E-02
 -6.56653393E-03 -7.70530545E-03 -5.48701123E-03  4.74753384E-03  7.85878625E-04
 -7.30928040E-03 -8.23200193E-03 -5.72524006E-03 -5.38304355E-03  1.56846668E-03
  3.38308780E-04  2.74746280E-03 -4.97266288E-03 -1.64010660E-03  1.06361085E-04
  8.86762266E-04  6.25011872E-03  1.86781583E-03 -4.91470090E-05 -5.15298047E-04
  5.94621393E-04  4.59211182E-05 -5.23116925E-05 -1.32589706E-03 -2.66616852E-04
 -4.33940910E-02  9.40401559E-02 -9.32603893E-01  8.35682559E-02 -1.88799252E-02
  1.77225602E-01  1.25200873E-01 -2.53016172E-03 -3.32712304E-01  7.42508896E-03
 -3.61448543E-01  8.83818249E-01 -9.22082058E-02  6.42767560E-01 -1.27143764E-01
  6.98907223E-04 -1.69310706E-03 -2.94891409E-03 -3.88590463E-04 -9.56063705E-04
  2.19690237E-03 -1.34680309E-03 -3.08357825E-03  1.25399725E-03  3.88459855E-04
  3.51999243E-01  8.13256999E-02 -1.88840660E-01  1.06017358E-01 -1.70951659E-01
  2.07581800E-01  2.60580034E-01 -2.79046033E-01 -1.69859846E-01 -1.85536200E-01
 -2.79467673E-06 -1.11327602E-05  4.59352081E-05 -5.28131611E-06  7.14541827E-04
 -4.21729082E-06  6.88270684E-06  8.69501996E-03 -6.72464629E-06  1.02755703E-06
  2.74813734E-06 -1.22426590E-06 -4.49850526E-04 -4.77134865E-08 -1.51278202E-03
  2.42429028E-05  4.01737374E-04 -5.89189779E-04  8.27623979E-05 -1.59856243E-01
  3.30169740E-04  5.26153851E-06  7.67942105E-03 -8.34020285E-04 -4.64677030E-04
  1.10261332E-03 -2.11591003E-04  8.51345890E-01  9.85042489E-04 -5.75205104E-01
 -5.44723867E-03  5.25659687E-03  8.42773811E-05  1.82954255E-03 -3.42860398E-03
  5.47197894E-03 -5.32958329E-03 -8.13008674E-05  1.81785854E-03  3.41834639E-03
  5.08272592E-01 -6.34144253E-01 -2.53965277E-01 -2.46241351E-01 -7.63955738E-02
 -5.08101349E-01  6.34398131E-01  2.53497109E-01 -2.45780659E-01  7.83362851E-02
  4.26892698E-08  1.20321187E-04 -2.00671949E-04  1.24226474E-05  1.13819876E-01
 -1.10947822E-04 -2.07184589E-05  9.47922422E-01  1.74372369E-04  1.93426606E-04
  1.22019458E-04 -1.41738110E-04  2.43571304E-01  7.70675178E-05 -1.13864714E+00
 -2.61596224E-06  3.34868049E-06 -2.87371497E-05 -4.89276278E-06 -2.28021730E-03
  7.46349363E-06  1.26250696E-05 -3.53629295E-03 -1.49572644E-05  5.54859291E-06
 -2.95880202E-06  1.36368998E-05 -2.06219878E-04  1.32056266E-05 -3.93942168E-03
 -1.02675475E+00  3.81263679E-01  6.15305170E-02  4.81241734E-01 -2.47246139E-01
  1.02707652E+00 -3.81401322E-01 -6.14884597E-02  4.81068714E-01  2.46995438E-01
  1.06260799E-02 -2.17997199E-02  1.70150146E-04 -9.20520856E-04 -3.16515698E-03
 -1.06156185E-02  2.18191739E-02 -1.81598598E-04 -9.23989650E-04  3.16378383E-03
  3.14559286E-04  3.07904950E-03 -1.64656415E-02  2.39619332E-03 -3.76492174E-06
  3.92890353E-04 -4.26112415E-03 -9.52164766E-06  9.86894261E-03  3.97631656E-04
 -6.77137441E-04 -2.48463043E-03  1.50579328E-07 -4.35566275E-04  3.48410334E-06
  7.11418880E-01  2.31326431E+00  7.87024100E-01 -8.03653479E-03 -1.03929542E-04
  6.53180721E-02  7.54337318E-02  6.20529179E-04 -3.75107504E-01 -1.36977824E+00
 -1.55488084E+00 -1.43741291E+00 -1.29880466E-04  2.99585265E-02  1.46757755E-04
  3.14815620E-03  8.40172226E-03 -1.15159444E-03 -5.01466680E-03  5.60813551E-04
  3.14653225E-03  8.36690467E-03 -1.14483646E-03  5.00573847E-03  5.51189212E-04
  3.64083561E-01 -1.46807127E-01  1.18742527E-02 -1.22705063E-01 -5.65637834E-02
  3.64650241E-01 -1.46345998E-01  1.19337315E-02  1.22848429E-01 -5.67364568E-02
  7.00421114E-01  2.26855882E+00  8.27784884E-01  1.11197334E-02 -3.58912403E-05
 -6.17789725E-02 -7.44459032E-02 -1.40256129E-04  3.40603195E-01 -1.40880309E+00
 -1.48117732E+00 -1.44281588E+00 -7.97473741E-06  1.12152698E-02  4.02287652E-06
  2.11149460E-04  1.65158616E-03 -1.17942382E-03  4.44565340E-03 -7.80718164E-06
  4.80535816E-04 -1.32147402E-02  2.60745410E-05 -2.19998301E-03 -7.40854697E-05
  2.53019072E-04  7.85830541E-04  2.62480686E-06 -2.76994410E-03  8.16204251E-06
  3.09650735E-01 -9.80498246E-02 -1.00004877E-02 -9.29350683E-02  5.27426092E-02
  3.09411295E-01 -9.78916886E-02 -9.94912085E-03  9.29947245E-02  5.24657427E-02
  1.58426760E-03 -2.17380902E-03  4.55982327E-03  6.63157163E-04  8.87699991E-04
  1.60640525E-03 -2.15845818E-03  4.56775039E-03 -6.61638759E-04  8.96892878E-04
Total SCF Density                          R   N=        1275
  2.13566192E+00  3.05207515E-01  8.09265136E-01  2.00008661E-01  3.86898367E-01
  2.53608471E-01 -1.31382586E-02 -3.02758726E-02 -5.20677338E-02  5.31789394E-01
 -1.48389426E-07  9.87961267E-06 -1.85895902E-06  3.86855568E-06  6.27259350E-01
  6.08076522E-02  1.35011463E-01  2.49429502E-01 -5.18065391E-02 -3.10315250E-06
  7.65070459E-01 -1.22643229E-02 -2.82169388E-02 -3.25384038E-02  2.94938428E-01
  6.08109194E-07 -1.97723729E-02  1.66187776E-01  1.67839405E-05  5.69137990E-06
 -3.58420945E-06  1.43123091E-06  2.48491360E-01  9.76785479E-07 -4.11838336E-07
  1.01428743E-01  5.94343762E-02  1.33394482E-01  1.61097966E-01 -2.10333915E-02
 -1.31598460E-06  3.89406031E-01 -9.68184297E-03  2.99771273E-06  2.11837795E-01
  1.44132569E-02  1.07939351E-02  1.26972119E-02  1.58637645E-03 -2.66620075E-07
  1.83871204E-02  8.49703872E-04 -5.05947269E-07  1.08912650E-02  1.42695562E-03
  1.72004687E-02  2.32857851E-02  1.50233083E-02 -2.29290594E-03  2.99739307E-06
  9.98558717E-03 -1.87841761E-03  2.06896918E-06  8.78590632E-03  8.45094058E-04
  1.68112463E-03  1.26622571E-02  1.17847111E-02  8.96713444E-04 -1.35230238E-03
 -1.51823655E-06 -2.03724396E-02 -1.25073762E-03 -6.22503675E-07 -9.13256686E-03
 -2.92711945E-04  2.65648788E-04  1.34883636E-03  2.98990970E-06  2.25079809E-06
  1.83446400E-06 -1.52515540E-06  7.18307292E-03  1.60391666E-06 -4.92521964E-07
  2.65429438E-03  7.81601064E-07  2.36358421E-08  6.52870064E-08  5.08136926E-08
  4.03412291E-04  4.75439846E-04 -1.86413733E-04  3.15509977E-03 -1.56258293E-02
 -1.07520056E-06  7.08718681E-03 -8.71837062E-03 -5.46376364E-07  3.47290032E-03
  1.31037222E-04  1.55104436E-04 -1.10776458E-04  2.48043159E-07  9.06776521E-04
 -3.25591258E-06 -3.40102861E-06 -2.76718057E-06 -5.82516032E-07 -3.13032711E-02
 -1.61745559E-06 -3.45927562E-07 -1.15549647E-02  3.18632154E-07 -2.73409850E-07
  1.28143787E-07  1.99558928E-07 -4.25894407E-04  9.78837888E-09  2.16916079E-03
 -2.63985138E-04 -5.69812900E-04 -1.84273485E-03  7.43232728E-04 -9.30492325E-07
  6.27191195E-05 -1.25081650E-03  6.32799280E-06  1.33046475E-04  1.74756359E-06
 -8.77511015E-05 -6.35107562E-05 -1.92239076E-06  3.57365250E-05 -7.66946343E-06
  2.12366140E+00 -5.39685755E-04 -1.06447428E-03 -3.70582798E-03  2.03310509E-03
  4.48191143E-07  7.40759768E-05 -1.90475767E-03 -2.00435074E-06  1.88432090E-04
  5.20289188E-05 -1.33033952E-04 -7.23924337E-05 -1.10726874E-06  5.90623565E-05
 -1.64203244E-06  2.62029355E-01  6.84408010E-01 -9.59326082E-04 -2.13325684E-03
 -6.58127550E-03 -1.12647141E-04  6.23348561E-06 -2.81322924E-04 -4.89468301E-03
  1.61921593E-06  7.88796603E-06 -4.64288413E-05 -2.19386943E-04 -9.57227495E-05
 -7.62379952E-07  1.59081128E-04 -2.12168570E-06  2.27896161E-01  4.13040918E-01
  3.95939221E-01 -3.12829228E-03 -8.87472330E-03 -1.41208373E-02  2.49972432E-03
  9.17037008E-08 -4.66907985E-04 -2.00744896E-02  2.88198033E-06  1.41074447E-03
 -5.33510777E-04 -1.36780704E-03 -1.13359541E-03  3.71290895E-06  4.58544865E-04
 -3.19485893E-06  8.57861902E-03  6.74828499E-03  8.19117100E-02  7.88649192E-01
 -6.94070313E-06 -6.39171822E-06 -2.12565088E-05 -7.78946775E-07 -7.16956037E-04
 -2.66787755E-06 -3.69601417E-06 -8.32306099E-04  4.89458601E-06  5.54790950E-06
  3.10641372E-06  7.74723639E-07 -4.96861726E-05  6.50994138E-07  7.71117749E-05
 -3.09818667E-06  5.20511225E-08  7.43165671E-06 -1.81590522E-07  4.95944686E-01
 -1.02367584E-04 -9.58231831E-04  4.16499526E-03 -9.20459255E-05  1.36987548E-06
 -1.50188448E-03  9.54407506E-04  1.51096211E-06 -5.69958323E-04 -1.85764164E-04
 -1.60461025E-04 -1.83595050E-04  1.75196800E-06 -8.62160247E-05  9.36679404E-07
 -5.98593119E-02 -1.16064466E-01 -2.97231476E-01  3.90971481E-02 -6.76068204E-06
  6.33986171E-01 -1.87186144E-03 -5.47069394E-03 -1.08882930E-02  7.93810482E-04
  4.01689102E-06  1.26941089E-03 -1.68798701E-02  4.06694034E-06  2.12737761E-03
 -4.52210481E-04 -1.05758368E-03 -9.38189198E-04  2.96105440E-06  3.91027358E-04
 -2.63346543E-06  1.50742562E-02  2.24212395E-02  7.06836878E-02  6.11316482E-01
  1.98581659E-06  4.66995493E-02  4.98080436E-01 -3.73670547E-06  4.58553817E-06
 -5.44567580E-06 -2.48664313E-06 -5.66140560E-04 -1.67799998E-06 -2.46519261E-06
 -4.91347771E-04  2.22962275E-06  2.53646169E-06  1.58710284E-06  5.43509990E-07
 -2.40137267E-05  3.10277831E-07  4.51934910E-05  1.30182280E-06 -1.36101735E-06
 -6.47905494E-06 -1.10990962E-05  2.20580536E-01  7.77078957E-06 -6.59072955E-06
  1.00808648E-01 -2.30072728E-04 -9.93188087E-04  2.58873333E-03 -5.18617154E-04
  4.81238667E-06 -6.98253648E-04 -2.50279944E-05  2.77297983E-06 -2.81210532E-04
 -1.46939258E-04 -1.45730537E-04 -1.59673416E-04  1.39270198E-06 -3.61478957E-05
  4.36121474E-07 -6.83575127E-02 -1.38086862E-01 -2.36389448E-01  5.31823146E-02
  1.87995736E-06  4.01724637E-01  5.17913380E-02  4.53874576E-06  2.75026309E-01
  1.52876367E-05  5.44322055E-05 -7.02301959E-05  1.50528017E-04 -3.73491540E-06
 -1.53507348E-06  1.00434581E-04 -1.52862921E-06 -1.18099083E-06  8.92797155E-06
  6.33968256E-06  7.16406672E-06 -1.08386481E-07 -2.61289830E-06  1.16558901E-07
  1.35123210E-02  1.08558731E-02  1.08103943E-02 -2.73894251E-03  3.79997288E-06
 -1.40766550E-02 -3.28488547E-03  2.00421281E-06 -9.48832539E-03  1.18276556E-03
 -5.70460190E-05 -6.95006081E-05 -1.32629242E-04  3.01864603E-04  2.80847711E-06
 -5.38310889E-05  1.46190333E-04  1.14019116E-06 -3.43729897E-05  1.04682172E-06
 -2.24640624E-06  2.11634201E-06 -1.64574376E-08 -7.21836799E-06 -1.79772271E-07
  1.41219398E-02  1.42951364E-02  1.30716295E-02 -3.03429585E-03 -3.60365501E-06
 -1.20134296E-03 -1.52136432E-03 -1.28821969E-06 -4.72293414E-03  4.12264845E-05
  1.40368102E-03 -5.92324609E-05 -8.76364353E-05  6.51252026E-05  3.19325229E-04
 -1.82423670E-06 -7.52521802E-05  1.98028221E-04 -6.74273936E-07 -4.73905029E-05
 -8.44100150E-06 -8.98324966E-06 -5.38613487E-06  8.59955712E-09 -1.23199412E-05
  7.66597587E-08  9.87899831E-03  4.63166771E-03 -3.07307670E-03 -8.03251012E-04
 -3.34068434E-06  2.19972919E-02  1.32142469E-03  1.24329553E-06  1.18788173E-02
 -4.51595785E-04  5.18636949E-04  1.68051317E-03  1.70926472E-06 -1.88908054E-06
  3.98962285E-07  1.23434574E-06  2.50938929E-05  4.58710302E-06  7.35511805E-07
  1.37309698E-05  2.10343133E-06  4.13300642E-08 -4.37221737E-08 -1.89863249E-07
  6.59298530E-07  2.46226594E-09 -1.73806057E-06 -3.03862984E-07  1.62411731E-06
  2.22258888E-06  1.96908543E-06 -4.69487591E-03 -2.29043011E-06  1.31174377E-06
 -1.89945740E-03 -9.85361015E-08  1.57948517E-07  7.13515611E-07 -1.94419900E-06
  3.86445975E-04 -6.04580077E-05 -1.51488516E-04 -4.32959935E-04  8.16909777E-05
 -7.44001372E-07  7.69219723E-05 -5.66490888E-04 -1.68097118E-07  9.74083764E-05
 -1.55375919E-05 -3.65409388E-05 -3.41024194E-05  7.57847051E-08  1.16090585E-05
 -4.87649544E-08  3.51527626E-04  1.03419894E-04  2.66345658E-03  1.97797369E-02
 -2.96083034E-06 -2.56315684E-03  1.75703026E-02 -1.52719168E-06  4.52573525E-05
 -1.14846455E-08 -2.40319973E-04 -9.99282771E-05 -8.77630188E-07  1.11302553E-03
 -1.01831496E-05 -3.32841377E-06 -3.34802281E-06 -3.30152966E-07 -5.72573042E-05
 -3.63971945E-06 -3.16589762E-07 -5.40256309E-05 -1.80448203E-06  1.37005748E-07
  2.68824640E-08  7.53310362E-08 -2.88801873E-06  2.43323555E-08  6.19738200E-06
  8.04463214E-07 -6.02535451E-06 -2.34665674E-06 -1.29982501E-06  2.77081274E-02
  1.01909930E-06 -1.00763688E-06  1.14670383E-02  2.66663625E-06  3.96728716E-07
 -9.61675133E-08 -1.63013347E-06 -3.12919583E-04 -1.73571892E-06  2.15957201E-03
  7.01179143E-02  1.30659378E-01 -3.32412197E-03  5.44732132E-02  3.31845250E-01
 -2.51477455E-01  2.49770419E-02  1.37171081E-01 -1.15233814E-01 -2.20485876E-03
  1.78383273E-03  1.10128012E-02  3.42290404E-03 -3.64430158E-03 -1.48297472E-02
 -5.55048768E-04 -9.72893065E-04 -1.80677670E-03 -4.58461356E-03 -7.87273160E-04
  1.22765703E-03 -4.17068491E-03 -5.04155366E-04  5.35941337E-04  1.95191134E-05
 -2.32704745E-06  3.40021199E-05  1.53955344E-05 -1.53038604E-04 -4.89476403E-05
  3.45916897E-01 -8.10481560E-03 -1.20574986E-02 -1.15528299E-02  5.41308857E-03
  1.51615094E-02 -2.12299017E-02  2.39911192E-03  6.58885505E-03 -1.20770671E-02
 -6.94725166E-04 -6.73845637E-04  3.49759242E-04  1.39706110E-04 -2.99675066E-04
 -6.12131027E-04  2.17853907E-03  4.15886953E-03  6.96841909E-03  2.20001817E-02
  2.72609447E-03 -4.01334854E-03  1.77689732E-02  1.23323099E-03 -2.23794712E-03
  4.13498673E-05  6.24830698E-05 -1.01815742E-04 -2.22956682E-05  6.49032631E-04
  1.43919846E-04  1.31333211E-02  2.10477839E-03 -2.51737593E-03 -4.36294219E-03
 -1.92185756E-03  1.48988110E-02 -7.29689343E-03  2.91622658E-03  7.87040152E-03
 -2.94723559E-03  1.19221845E-03  1.37235074E-04 -1.68481027E-04 -2.88628039E-04
  1.04680668E-04 -4.89223353E-04  3.76533257E-04  1.68806963E-04  3.55493654E-04
  3.74233474E-04  1.69862083E-03 -7.58933487E-05 -1.06940062E-04  1.30486757E-03
 -3.13641550E-05 -6.64886663E-05  5.96817985E-06  1.29585173E-05  8.09092150E-06
  4.19025166E-07  4.56793965E-05 -4.04261031E-06 -5.61417296E-03 -8.60364695E-06
  9.28383003E-04 -1.37093301E-02 -2.14036089E-02  2.90291280E-03 -1.02105773E-02
 -2.94664557E-02  4.69280769E-02 -4.57984790E-03 -1.20516925E-02  2.13136713E-02
  5.35452327E-04 -1.72248209E-04 -1.97300554E-03 -3.12836793E-04  6.91842877E-04
  1.35108969E-03 -1.33827268E-04 -2.61752171E-04 -3.64157057E-04 -1.09564609E-03
 -1.28736912E-04  1.21511768E-04 -8.76012244E-04 -4.58875454E-05  1.20698735E-04
 -9.03797165E-06 -6.84683226E-06  4.87364213E-06  3.31549627E-07 -3.76237881E-05
 -7.11021312E-06 -4.52057208E-02 -1.58973123E-03  5.99913944E-04  6.99573991E-03
  1.12910183E-02  1.93268589E-02  8.46150488E-03  3.25882241E-03  3.48827536E-02
  1.05335386E-03  1.38560184E-03  1.41089122E-02  2.07354221E-03  2.94922467E-04
  7.03592081E-04  3.67699139E-04  4.12998391E-04 -1.54635704E-04 -1.60298542E-03
  1.25549008E-04  2.58560562E-04  3.36563004E-04  7.78496376E-04  5.81664755E-05
 -2.82086630E-04  6.62767099E-04  1.39552629E-05 -1.98419751E-04  7.78764709E-06
  6.23338276E-06 -6.56802725E-06  8.84808658E-07  2.59083478E-05  3.54639606E-06
  2.68488744E-02  4.65400726E-04 -5.07084622E-04 -2.88639665E-03  3.24079773E-03
  7.01332611E-02  1.30661476E-01 -3.32820044E-03  5.44761563E-02 -3.31848905E-01
 -2.51465975E-01  2.49796995E-02 -1.37166294E-01 -1.15225279E-01 -2.20551348E-03
  1.78406188E-03  1.10129533E-02 -3.42425504E-03 -3.64323995E-03  1.48330465E-02
 -5.50803286E-04 -9.71874288E-04 -1.81462865E-03 -4.57717436E-03  7.99676964E-04
  1.23365292E-03 -4.16856738E-03  5.13322486E-04  5.35326109E-04  2.34434166E-05
 -5.57821874E-06  3.63230814E-05 -1.97293071E-05 -1.51972333E-04  5.05803585E-05
 -5.06582154E-02 -3.16265656E-03  3.22648923E-03 -8.61581439E-03 -1.52653812E-02
  3.45929533E-01 -8.09439343E-03 -1.20578439E-02 -1.15485240E-02  5.41181047E-03
 -1.51608298E-02 -2.12288767E-02  2.39866697E-03 -6.58956066E-03 -1.20778312E-02
 -6.94125317E-04 -6.75428969E-04  3.50278698E-04 -1.39555414E-04 -2.99560733E-04
  6.11589225E-04  2.19138795E-03  4.16337781E-03  6.97118652E-03  2.20050126E-02
 -2.71621697E-03 -4.01230904E-03  1.77724361E-02 -1.23004256E-03 -2.23789330E-03
  4.15751877E-05  6.24857175E-05 -1.01584009E-04  2.21619250E-05  6.49167067E-04
 -1.43312519E-04 -3.16321555E-03  8.98683197E-04  2.60524564E-04 -2.61412445E-04
 -8.52221881E-04  1.31323402E-02  2.10478507E-03 -2.51554437E-03 -4.36432838E-03
 -1.92212109E-03  1.48969193E-02  7.29826440E-03  2.91291814E-03  7.86863620E-03
  2.94749274E-03  1.19035086E-03  1.37366081E-04 -1.68921209E-04 -2.88374056E-04
 -1.05265542E-04 -4.89622831E-04 -3.76873228E-04  1.69871223E-04  3.50544029E-04
  3.72054300E-04  1.70234626E-03  7.78367513E-05 -1.07063555E-04  1.30765349E-03
  3.19371832E-05 -6.58015105E-05  5.82285105E-06  1.29025596E-05  7.96444878E-06
 -2.64615583E-07  4.57579310E-05  4.15259551E-06  3.22787567E-03  2.60539279E-04
  4.72049443E-04 -1.92959662E-04  5.17961210E-04 -5.61445879E-03 -8.44008894E-06
  9.29182958E-04  1.37181470E-02  2.14068016E-02 -2.90035683E-03  1.02132238E-02
 -2.94722518E-02 -4.69175282E-02  4.58096545E-03 -1.20518551E-02 -2.13065565E-02
 -5.35399052E-04  1.72050543E-04  1.97341202E-03 -3.13299931E-04 -6.91967070E-04
  1.35244409E-03  1.33338879E-04  2.63062854E-04  3.62159117E-04  1.10503643E-03
 -1.18952689E-04 -1.13227170E-04  8.83348488E-04 -4.12005990E-05 -1.15796624E-04
  9.22382332E-06  6.55778431E-06 -4.37140021E-06 -4.99666898E-07  3.79203323E-05
 -6.46723415E-06  8.61244028E-03  2.60570568E-04  1.92748228E-04 -3.29869943E-03
 -8.82915719E-04  4.52079085E-02  1.58969712E-03 -5.99538074E-04  6.99687415E-03
  1.12947746E-02  1.93345518E-02  8.46083753E-03  3.25865857E-03 -3.48805779E-02
  1.05252531E-03  1.38531899E-03 -1.41067695E-02  2.07370517E-03  2.94600609E-04
  7.05666217E-04  3.66642323E-04 -4.13121786E-04 -1.54350727E-04  1.60320282E-03
  1.27638107E-04  2.60105093E-04  3.37113752E-04  7.82930228E-04 -5.88474961E-05
 -2.81722580E-04  6.65855153E-04 -1.39898406E-05 -1.98657039E-04  8.20419122E-06
  5.92052945E-06 -6.28826629E-06 -9.78947617E-07  2.61375678E-05 -3.75585145E-06
 -1.52636529E-02 -8.51082895E-04  5.17867316E-04  8.83457981E-04 -1.85346762E-03
  2.68520013E-02  4.65187815E-04 -5.07444875E-04  2.88585534E-03  3.24298465E-03
 -3.85620475E-05 -2.35585031E-04  1.93705522E-03  8.76456817E-04 -7.14507699E-04
 -1.31451062E-03  2.38083881E-03 -6.48212148E-04 -6.81817788E-04 -2.01449752E-05
  1.76539762E-05  2.32495592E-05 -3.70718210E-05 -9.25757919E-05  6.22088503E-05
  6.41951141E-02  1.18319338E-01 -3.56765348E-02 -6.28029167E-02  3.09048446E-01
  2.40979872E-01 -3.86221550E-02  1.43314269E-01  1.38722264E-01 -1.09422761E-03
  3.18400955E-03  1.12532419E-02 -2.51008526E-03 -2.75678700E-03  1.54055969E-02
  3.18959961E-04 -1.19701358E-03 -1.54148745E-04 -2.66738106E-05 -1.28706755E-04
  1.72427675E-03 -4.89003550E-03 -6.16819777E-05 -1.01329247E-04 -1.59003452E-04
  3.87515561E-01  6.74257289E-04  1.51357286E-03  1.77966619E-03 -9.25231872E-04
  1.07950178E-03  1.69868703E-03 -1.65720369E-04  3.24148872E-04  9.52531545E-04
  4.69596781E-05  6.51948795E-05 -2.39937293E-05  5.27834883E-06  2.23853830E-05
 -4.38263557E-05 -5.99246085E-03 -7.11875863E-03 -2.79744633E-02 -4.83684988E-03
  8.16724367E-02  5.80483812E-02 -2.30382664E-03  3.83426182E-02  3.85640801E-02
 -1.09093845E-03 -3.37989408E-04  2.04866239E-03 -6.72584419E-04 -3.66461425E-04
  4.08093440E-03  4.03303821E-04 -2.40719917E-04 -7.98960736E-05  8.66486604E-06
  8.76374392E-05 -7.83467287E-04 -1.21691278E-03 -1.77315234E-05 -1.93981876E-04
 -1.06039367E-04  8.04643439E-02  2.15298780E-02 -1.85246344E-04 -5.24613770E-04
 -5.50025013E-04  3.73437840E-04  2.21655786E-05 -1.92517648E-04 -6.19029913E-04
  7.42560851E-07 -6.93788437E-05 -2.69577712E-05 -6.40053214E-05 -4.33801826E-05
 -4.39454037E-07  1.07750478E-05 -5.51616224E-07  1.95539035E-03  2.65352853E-03
  1.81224155E-03  3.02393900E-02  7.87119704E-03  8.02644293E-03  2.38397429E-02
  3.51423282E-03  5.81196740E-03 -2.18436899E-04  1.31332680E-06  2.48934722E-04
 -8.24517564E-05  7.62393092E-04  4.23021262E-04 -1.38231881E-04  8.47398523E-04
  7.92898365E-05 -3.60527740E-05  2.63086430E-05 -1.49562441E-04  7.52019793E-04
  8.29437050E-05  2.88876303E-05  2.08785709E-05  6.87638178E-03  1.73684507E-03
  2.18717345E-03 -8.72961780E-05 -1.75767938E-04 -3.49599295E-04 -4.51149368E-05
 -6.23597470E-05  1.84155683E-07 -2.21894576E-04 -5.26418098E-06 -4.57506089E-05
 -6.30543419E-06 -1.02343268E-05  8.97488107E-07  1.48354215E-06  7.59747937E-06
  1.20656081E-06 -1.24396653E-02 -1.92611499E-02  3.70092967E-03  8.25888933E-03
 -1.97166304E-02 -3.28282644E-02  4.77130572E-03 -8.80246456E-03 -1.79775553E-02
  1.88778428E-04 -4.77589896E-04 -1.55311427E-03  1.81765786E-04  3.99406494E-04
 -1.09247818E-03 -1.42265108E-04  2.50936084E-04  1.33020083E-05  1.43898769E-05
  2.53087501E-06 -1.02266639E-04  4.93848214E-04  4.38417273E-06  5.74534642E-06
  1.73567707E-05 -3.73329961E-02 -6.32728411E-03 -5.46798988E-04  4.75486730E-03
 -7.29704360E-05 -1.92080465E-04 -8.99284934E-05  3.99897627E-05 -9.29721605E-06
 -1.72324742E-04 -5.70392515E-05  1.95914978E-05 -9.92343582E-05 -1.20422762E-05
 -1.49159701E-05 -5.73472276E-06  2.91904051E-06 -1.02316211E-06 -1.96897862E-06
 -1.05590430E-02 -1.73260853E-02 -1.07726787E-02  6.34037136E-03 -2.59998890E-02
  5.98969230E-03  4.47202126E-03 -1.15423015E-02  6.12995540E-03 -4.26131014E-04
 -5.73031284E-04 -7.30163157E-05  2.33016793E-04  1.25899784E-04 -1.43162959E-03
  3.95220901E-05 -1.04180053E-04  9.40319867E-06  5.50548722E-06 -9.30336700E-06
  2.33646887E-06  2.06872723E-04  1.36979397E-07  1.12176636E-05 -2.09980658E-06
 -2.11327353E-02 -3.65744493E-03 -1.96507886E-04  1.50813881E-03  2.60415667E-03
 -4.62616451E-05 -2.29274763E-04  1.95922594E-03  8.74320491E-04  7.10998133E-04
 -1.32505482E-03  2.38349967E-03  6.46159897E-04 -6.95329534E-04 -2.78243155E-05
  1.36072273E-05  2.28954836E-05  3.71766359E-05 -9.34016489E-05 -6.15710715E-05
  6.42019194E-02  1.18317354E-01 -3.56700729E-02 -6.28127789E-02 -3.09050199E-01
  2.40983159E-01 -3.86292038E-02 -1.43311936E-01  1.38720208E-01 -1.09647441E-03
  3.18617206E-03  1.12538677E-02  2.50905241E-03 -2.76085805E-03 -1.54058659E-02
  1.71529128E-03 -4.89712586E-03 -6.12356693E-05  1.10260102E-04 -1.58979692E-04
  3.20177699E-04 -1.20127435E-03 -1.57165258E-04  2.43648691E-05 -1.27964936E-04
 -5.39610870E-02 -2.96478931E-02 -4.15449280E-03 -9.30522539E-03  1.48669013E-02
  3.87506697E-01  6.66794718E-04  1.51801236E-03  1.78670023E-03 -9.29457462E-04
 -1.07821729E-03  1.69168152E-03 -1.66459410E-04 -3.23503650E-04  9.46715945E-04
  4.48074227E-05  6.41998781E-05 -2.39072537E-05 -5.02840247E-06  2.22171391E-05
  4.40215886E-05 -6.00425729E-03 -7.12484057E-03 -2.79993414E-02 -4.84793692E-03
 -8.16819828E-02  5.80743598E-02 -2.31146510E-03 -3.83420563E-02  3.85749438E-02
 -1.09235789E-03 -3.36392275E-04  2.05366398E-03  6.71997260E-04 -3.63092741E-04
 -4.08153682E-03 -7.82371043E-04 -1.21918123E-03 -1.82412832E-05  1.95971620E-04
 -1.05865330E-04  4.04282524E-04 -2.42953215E-04 -8.05198330E-05 -9.29450015E-06
  8.76771229E-05 -2.96459515E-02 -9.22469889E-03 -8.42028145E-04  1.08780823E-04
  4.57482819E-03  8.04718129E-02  2.15426128E-02 -1.87594479E-04 -5.28873485E-04
 -5.51573372E-04  3.74760402E-04 -2.35413299E-05 -1.94611978E-04 -6.18115433E-04
 -1.15861483E-06 -7.10166353E-05 -2.72281520E-05 -6.42573379E-05 -4.34301518E-05
  7.28684802E-07  1.07170389E-05  3.71734855E-07  1.95943437E-03  2.65296285E-03
  1.81656130E-03  3.02376240E-02 -7.87255607E-03  8.02654185E-03  2.38359279E-02
 -3.51597518E-03  5.81190278E-03 -2.18693414E-04  6.29693531E-07  2.48627099E-04
  8.30813537E-05  7.60693382E-04 -4.21910708E-04 -1.51043132E-04  7.51572062E-04
  8.28890496E-05 -2.81431766E-05  2.05193452E-05 -1.37524184E-04  8.47451616E-04
  7.94385550E-05  3.63457482E-05  2.64741012E-05 -4.15280163E-03 -8.42547863E-04
  1.19856511E-03  1.01976994E-04  7.25212139E-04  6.87654459E-03  1.73495304E-03
  2.19075639E-03  8.20801604E-05  1.72922059E-04  3.48982762E-04  4.28340694E-05
 -6.15439909E-05 -4.84746958E-06  2.20840710E-04 -5.03631941E-06  4.25503124E-05
  5.67980719E-06  9.82383029E-06 -8.78405066E-07  1.50058534E-06 -7.59659175E-06
  1.20035814E-06  1.24373064E-02  1.92565604E-02 -3.70441621E-03 -8.25421406E-03
 -1.97112004E-02  3.28327043E-02 -4.76954380E-03 -8.80274414E-03  1.79821572E-02
 -1.89350470E-04  4.78723758E-04  1.55137689E-03  1.81778932E-04 -3.99525161E-04
 -1.09178738E-03  1.02507061E-04 -4.94372779E-04 -4.28659561E-06  6.43730328E-06
 -1.73983539E-05  1.42609802E-04 -2.51036134E-04 -1.36645955E-05  1.45179752E-05
 -2.64514992E-06  9.30601727E-03 -1.05311738E-04 -1.02039787E-04 -2.46423392E-03
  5.68818647E-04  3.73304720E-02  6.32479024E-03  5.50936291E-04  4.75354631E-03
 -7.08720663E-05 -1.92145472E-04 -9.11641277E-05  4.18971394E-05  6.52488811E-06
 -1.72939168E-04 -5.62321418E-05 -2.06208076E-05 -9.89827523E-05 -1.13862175E-05
 -1.45847122E-05 -5.65169906E-06 -2.81116802E-06 -9.97515167E-07  2.16815045E-06
 -1.05458166E-02 -1.73183724E-02 -1.07686517E-02  6.34355240E-03  2.60012108E-02
  5.99231568E-03  4.47127243E-03  1.15429504E-02  6.13122528E-03 -4.26422397E-04
 -5.71054433E-04 -7.45657274E-05 -2.32939471E-04  1.26986269E-04  1.43254334E-03
  1.97665807E-06  2.07136820E-04  2.01098596E-07 -1.15383905E-05 -2.27402337E-06
  4.23424906E-05 -1.04009793E-04  9.69650963E-06 -4.77218722E-06 -9.16632248E-06
  1.48683622E-02  4.57625658E-03  7.26438026E-04 -5.68523767E-04 -1.13746633E-03
 -2.11331511E-02 -3.65753382E-03 -1.90632408E-04 -1.50953045E-03  2.60321564E-03
Natural orbital occupancies                R   N=          46
  9.99980056E-01  9.99978584E-01  9.97407151E-01  9.95992309E-01  9.95761363E-01
  9.91411142E-01  9.91405161E-01  9.89515170E-01  9.89512380E-01  5.00000000E-01
  8.83611620E-03  8.83454453E-03  7.27862996E-03  6.72154837E-04  3.74117980E-03
  9.97095660E-05  2.14146631E-04  6.04917767E-08  1.60808175E-08  9.05291033E-04
  3.78127791E-04  3.60715048E-04  7.27852878E-03  1.40062674E-04  1.33336417E-05
  2.19369173E-03  1.06673471E-07  8.30179350E-08  3.81619579E-04  9.05295263E-04
  6.74979296E-04  2.78297323E-04  2.08113257E-04  3.75917042E-03  1.08056207E-04
  1.95433962E-08  2.42892811E-08  3.64593604E-04  3.66862122E-04  2.80515163E-04
  3.59876899E-04  1.49281373E-04  1.35477846E-04  7.69539577E-05  2.12290381E-05
  1.98208313E-05
Dipole Moment                              R   N=           3
  3.32336027E+00  2.01349129E-05 -1.51538023E-01
