[Molden Format]
p30-5 set                                                                       
[Atoms] AU
 O        1     8        0.0000        0.0000        0.7278
 H        2     1       -1.5365        0.0000       -0.3639
 H        3     1        1.5365        0.0000       -0.3639
[GTO]
    1 0
s    5 1.00
    2266.176778500000 -0.538935039217E-02
     340.870101910000 -0.402347213890E-01
      77.363135167000 -0.180081842055E+00
      21.479644940000 -0.468288576577E+00
       6.658943312400 -0.446926171602E+00
s    1 1.00
       0.809759756680  0.100000000000E+01
s    1 1.00
       0.255307722340  0.100000000000E+01
p    3 1.00
      17.721504317000  0.626302487632E-01
       3.863550544000  0.333311384824E+00
       1.048092088300  0.741486383081E+00
p    1 1.00
       0.276415444110  0.100000000000E+01
d    1 1.00
       1.200000000000  0.100000000000E+01
 
    2 0
s    3 1.00
      13.010701000000  0.334854848130E-01
       1.962257200000  0.234721870881E+00
       0.444537960000  0.813770285260E+00
s    1 1.00
       0.121949620000  0.100000000000E+01
p    1 1.00
       0.800000000000  0.100000000000E+01
 
    3 0
s    3 1.00
      13.010701000000  0.334854848130E-01
       1.962257200000  0.234721870881E+00
       0.444537960000  0.813770285260E+00
s    1 1.00
       0.121949620000  0.100000000000E+01
p    1 1.00
       0.800000000000  0.100000000000E+01
 
[MO]
Sym=     1a
Ene=   -0.211204E+02
Spin= Alpha
Occup= 1.999960
     1     0.992973
     2    -0.028649
     3     0.012478
     4     0.000006
     5     0.000002
     6     0.003962
     7    -0.000001
     8     0.000001
     9     0.001170
    10     0.003213
    11     0.004487
    12     0.003498
    13    -0.000002
    14     0.000003
    15    -0.000002
    16     0.002243
    17    -0.001409
    18     0.001457
    19    -0.000000
    20     0.001108
    21     0.002255
    22    -0.001401
    23    -0.001459
    24    -0.000002
    25     0.001107
Sym=     2a
Ene=   -0.133700E+01
Spin= Alpha
Occup= 1.994653
     1     0.231491
     2     0.519335
     3     0.341611
     4    -0.000181
     5     0.000047
     6     0.437914
     7    -0.000074
     8     0.000038
     9     0.268492
    10     0.019448
    11     0.017116
    12    -0.002868
    13    -0.000002
    14     0.000010
    15    -0.000008
    16    -0.035669
    17    -0.018020
    18    -0.007842
    19     0.000009
    20     0.011836
    21    -0.035843
    22    -0.018048
    23     0.007862
    24     0.000003
    25     0.011831
Sym=     3a
Ene=   -0.136643E+01
Spin= Alpha
Occup= 1.982134
     1    -0.118019
     2    -0.249580
     3    -0.049350
     4    -0.391106
     5     0.000031
     6     0.315258
     7    -0.159930
     8     0.000016
     9     0.145956
    10    -0.004914
    11     0.003365
    12    -0.015167
    13    -0.000006
    14     0.018285
    15    -0.000003
    16     0.040861
    17     0.004562
    18    -0.010858
    19     0.000018
    20     0.015640
    21    -0.393390
    22    -0.017490
    23     0.053155
    24     0.000003
    25    -0.029194
Sym=     4a
Ene=   -0.136612E+01
Spin= Alpha
Occup= 1.982078
     1     0.117893
     2     0.249247
     3     0.049230
     4    -0.391212
     5    -0.000021
     6    -0.315340
     7    -0.159986
     8    -0.000018
     9    -0.146035
    10     0.004891
    11    -0.003383
    12     0.015165
    13     0.000004
    14     0.018281
    15     0.000003
    16     0.393435
    17     0.017475
    18     0.053160
    19     0.000002
    20     0.029197
    21    -0.040979
    22    -0.004556
    23    -0.010857
    24    -0.000003
    25    -0.015673
Sym=     5a
Ene=   -0.560099E+00
Spin= Alpha
Occup= 1.000000
     1     0.000010
     2     0.000012
     3     0.000044
     4    -0.000008
     5    -0.719885
     6     0.000060
     7     0.000032
     8    -0.406820
     9     0.000041
    10    -0.000023
    11    -0.000007
    12     0.000021
    13     0.000012
    14     0.000002
    15     0.020411
    16    -0.000001
    17     0.000018
    18     0.000020
    19    -0.020186
    20    -0.000023
    21    -0.000037
    22    -0.000033
    23    -0.000003
    24    -0.020161
    25    -0.000004
Sym=     6a
Ene=   -0.972541E-03
Spin= Alpha
Occup= 0.000523
     1    -0.021682
     2    -0.179481
     3     0.179787
     4    -0.129499
     5    -0.056548
     6     0.054144
     7    -0.157747
     8     0.138633
     9     0.317209
    10    -0.325932
    11     0.015881
    12     0.161218
    13     0.107123
    14     0.103449
    15     0.072487
    16     0.052603
    17     0.005007
    18     0.560767
    19    -0.160114
    20    -0.704314
    21     0.386050
    22    -0.345620
    23    -0.136094
    24    -0.032297
    25     0.238554
Sym=     7a
Ene=   -0.916853E-03
Spin= Alpha
Occup= 0.000486
     1     0.020492
     2     0.174959
     3    -0.176608
     4    -0.136149
     5     0.009054
     6    -0.054799
     7    -0.178239
     8    -0.018617
     9    -0.326723
    10     0.328292
    11    -0.020038
    12    -0.151294
    13     0.009701
    14     0.104943
    15    -0.007115
    16    -0.408257
    17     0.354896
    18    -0.138832
    19     0.006254
    20    -0.255583
    21    -0.043005
    22    -0.010972
    23     0.572963
    24     0.014954
    25     0.736417
Sym=     8a
Ene=   -0.402962E-03
Spin= Alpha
Occup= 0.000153
     1    -0.000002
     2    -0.000663
     3     0.001736
     4    -0.082560
     5    -0.000810
     6     0.000509
     7    -0.933403
     8     0.001441
     9    -0.001081
    10    -0.001311
    11    -0.000058
    12     0.000419
    13     0.000236
    14     1.139023
    15    -0.000940
    16    -0.979152
    17     0.374667
    18    -0.480495
    19    -0.000680
    20    -0.200499
    21     0.978543
    22    -0.375613
    23    -0.480817
    24    -0.000745
    25     0.202121
Sym=     9a
Ene=   -0.796825E-06
Spin= Alpha
Occup= 0.000000
     1     0.040639
     2    -0.335195
     3     0.691129
     4    -0.001120
     5    -0.001597
     6     0.474530
     7     0.002048
     8     0.001004
     9    -0.435686
    10    -0.673036
    11    -0.359323
    12    -0.226568
    13     0.002109
    14    -0.000022
    15     0.002092
    16    -0.203439
    17     0.100995
    18     0.516877
    19     0.003347
    20     0.677028
    21    -0.209044
    22     0.109252
    23    -0.521873
    24    -0.000630
    25     0.674977
Sym=    10a
Ene=   -0.199574E-01
Spin= Alpha
Occup= 0.015270
     1     0.171491
     2     0.674408
     3    -0.065117
     4    -0.648779
     5     0.000104
     6    -0.461990
     7    -0.003337
     8    -0.000071
     9     0.013360
    10     0.013459
    11    -0.082064
    12    -0.006092
    13    -0.000029
    14     0.104270
    15     0.000119
    16    -0.977003
    17    -0.004713
    18    -0.140962
    19    -0.000048
    20    -0.074226
    21     0.020798
    22     0.010944
    23     0.008820
    24    -0.000105
    25     0.014874
Sym=    11a
Ene=   -0.210757E-03
Spin= Alpha
Occup= 0.000097
     1    -0.000142
     2    -0.000783
     3     0.000187
     4    -0.000608
     5     0.403444
     6     0.000395
     7     0.002816
     8    -0.218253
     9     0.000926
    10    -0.000198
    11     0.000817
    12    -0.000622
    13     0.597679
    14    -0.000297
    15    -0.401027
    16     0.002544
    17    -0.001192
    18     0.000043
    19     0.061597
    20     0.000712
    21    -0.000980
    22     0.000090
    23    -0.002633
    24    -0.832765
    25    -0.002181
Sym=    12a
Ene=   -0.898224E-03
Spin= Alpha
Occup= 0.000442
     1     0.002519
     2     0.006929
     3     0.001887
     4     0.001855
     5    -0.640300
     6     0.006368
     7    -0.002560
     8     0.904668
     9    -0.001077
    10     0.006075
    11     0.015217
    12    -0.036860
    13    -0.000947
    14    -0.001724
    15    -0.742024
    16     0.006235
    17    -0.009183
    18     0.008499
    19    -0.234517
    20     0.000291
    21     0.005176
    22    -0.002587
    23    -0.008181
    24    -0.236927
    25    -0.002923
Sym=    13a
Ene=   -0.208273E-08
Spin= Alpha
Occup= 0.000000
     1    -0.012905
     2     0.482732
     3    -2.806619
     4    -0.006066
     5     0.000235
     6     0.005126
     7    -0.609603
     8    -0.001396
     9     1.080351
    10     0.113315
    11     0.378894
    12    -0.075869
    13     0.000663
    14     0.153407
    15     0.000593
    16     0.256003
    17     0.518293
    18     0.402785
    19     0.002349
    20    -0.155986
    21     0.508867
    22     1.654751
    23    -0.741958
    24     0.000817
    25     0.223038
Sym=    14a
Ene=   -0.209981E-03
Spin= Alpha
Occup= 0.000096
     1     0.000610
     2     0.004887
     3    -0.004102
     4    -0.004034
     5    -0.401708
     6    -0.002946
     7     0.007851
     8     0.215179
     9    -0.000113
    10    -0.000755
    11     0.001405
    12     0.001851
    13     0.597301
    14     0.000185
    15     0.399792
    16     0.004282
    17     0.000068
    18    -0.011131
    19     0.835238
    20     0.002474
    21    -0.002461
    22     0.000012
    23     0.000611
    24    -0.061389
    25    -0.000915
Sym=    15a
Ene=   -0.239764E-02
Spin= Alpha
Occup= 0.001361
     1    -0.010524
     2     0.132071
     3    -1.005550
     4    -0.014669
     5    -0.000231
     6     0.009422
     7    -0.595656
     8     0.000247
     9     0.667443
    10     0.231229
    11    -0.175402
    12     0.032245
    13    -0.003241
    14    -0.298039
    15     0.000089
    16     0.241221
    17     0.123964
    18     0.130065
    19     0.002913
    20    -0.057406
    21     1.120151
    22    -0.355487
    23    -0.522645
    24    -0.002861
    25     0.332106
Sym=    16a
Ene=   -0.130991E-03
Spin= Alpha
Occup= 0.000049
     1    -0.001394
     2     0.294204
     3    -1.706542
     4     0.000412
     5    -0.000462
     6    -0.003901
     7    -0.000855
     8     0.002573
     9     0.726632
    10    -0.986994
    11     0.815586
    12     0.282834
    13    -0.002185
    14    -0.000330
    15    -0.002872
    16     0.929023
    17     0.101358
    18     0.181830
    19    -0.004533
    20     0.506155
    21     0.927833
    22     0.105864
    23    -0.182856
    24    -0.001411
    25     0.504831
Sym=    17a
Ene=   -0.950659E-09
Spin= Alpha
Occup= 0.000000
     1     0.004809
     2    -0.179934
     3     1.047406
     4    -0.016391
     5     0.001204
     6    -0.002037
     7    -1.626357
     8    -0.002081
     9    -0.401081
    10    -0.040735
    11    -0.140401
    12     0.026270
    13    -0.000250
    14     0.409318
    15     0.000276
    16    -0.474222
    17    -1.932520
    18    -0.668941
    19     0.001073
    20    -0.517967
    21     0.192207
    22     1.118497
    23    -0.244172
    24     0.000725
    25     0.487926
Sym=    18a
Ene=   -0.240764E-02
Spin= Alpha
Occup= 0.001366
     1    -0.009615
     2     0.138285
     3    -1.013085
     4     0.013119
     5    -0.000643
     6     0.007914
     7     0.597620
     8     0.000361
     9     0.665184
    10     0.237353
    11    -0.175479
    12     0.027485
    13     0.000260
    14     0.297870
    15    -0.000341
    16     1.118031
    17    -0.350158
    18     0.516657
    19     0.000511
    20     0.334882
    21     0.240007
    22     0.125057
    23    -0.126050
    24     0.000584
    25    -0.054630
Sym=    19a
Ene=   -0.129909E-02
Spin= Alpha
Occup= 0.000682
     1    -0.000971
     2    -0.005737
     3     0.001329
     4     0.001051
     5     0.204182
     6     0.001252
     7     0.002824
     8    -0.543301
     9     0.010957
    10    -0.009565
    11    -0.000977
    12     0.008113
    13     0.452646
    14    -0.003158
    15    -0.318087
    16     0.009884
    17    -0.005476
    18     0.004813
    19     0.107995
    20     0.002839
    21     0.006815
    22    -0.004263
    23    -0.015509
    24     0.701549
    25    -0.012744
Sym=    20a
Ene=   -0.724104E-02
Spin= Alpha
Occup= 0.004432
     1     0.293714
     2     1.365164
     3    -1.054333
     4    -0.000153
     5     0.000083
     6     0.682392
     7     0.000180
     8    -0.000016
     9    -0.738848
    10    -0.288834
    11    -0.268986
    12     0.001840
    13     0.000209
    14    -0.000190
    15     0.000225
    16     0.026866
    17     0.055501
    18     0.027508
    19    -0.000210
    20     0.033786
    21     0.026694
    22     0.055874
    23    -0.027747
    24     0.000011
    25     0.033425
Sym=    21a
Ene=   -0.993026E-03
Spin= Alpha
Occup= 0.000040
     1    -0.701718
     2    -2.281255
     3    -0.826069
     4     0.000326
     5    -0.000625
     6     0.071618
     7     0.000863
     8     0.000561
     9    -0.350653
    10     1.493166
    11     1.395973
    12     1.438687
    13     0.000475
    14    -0.000148
    15     0.000592
    16    -0.301279
    17     0.100784
    18    -0.109272
    19     0.000654
    20    -0.038943
    21    -0.302969
    22     0.101984
    23     0.108818
    24    -0.000087
    25    -0.041087
Sym=    22a
Ene=   -0.127555E-02
Spin= Alpha
Occup= 0.000666
     1    -0.005712
     2    -0.045331
     3     0.048306
     4    -0.031331
     5     0.200290
     6     0.011383
     7    -0.030636
     8    -0.531350
     9     0.072669
    10    -0.081446
    11     0.000764
    12     0.048610
    13    -0.440380
    14     0.025510
    15    -0.309918
    16     0.011519
    17     0.003262
    18     0.129984
    19     0.681615
    20    -0.165685
    21     0.084166
    22    -0.082520
    23    -0.029908
    24     0.108159
    25     0.053252
Sym=    23a
Ene=   -0.199380E-01
Spin= Alpha
Occup= 0.015240
     1     0.171670
     2     0.675565
     3    -0.066919
     4     0.648995
     5     0.000024
     6    -0.461996
     7     0.002936
     8     0.000103
     9     0.013530
    10     0.014045
    11    -0.082273
    12    -0.006500
    13     0.000266
    14    -0.104535
    15     0.000171
    16     0.021145
    17     0.010877
    18    -0.009212
    19    -0.000426
    20     0.015449
    21    -0.976624
    22    -0.004070
    23     0.141116
    24     0.000115
    25    -0.074171
Sym=    24a
Ene=   -0.667783E-03
Spin= Alpha
Occup= 0.000271
     1    -0.069066
     2    -0.167352
     3     0.012965
     4     0.002669
     5    -0.020485
     6    -0.223377
     7    -0.002727
     8     0.032779
     9    -0.160759
    10    -0.008013
    11    -0.572766
    12     1.113810
    13     0.001562
    14    -0.000254
    15    -0.020625
    16    -0.364903
    17     0.256638
    18    -0.419181
    19    -0.014587
    20     0.097157
    21    -0.367476
    22     0.268734
    23     0.415185
    24    -0.010878
    25     0.087971
Sym=    25a
Ene=   -0.552992E-05
Spin= Alpha
Occup= 0.000000
     1    -0.000166
     2     0.001052
     3    -0.003089
     4    -0.747505
     5     0.000206
     6    -0.001718
     7     0.945803
     8     0.002316
     9     0.000870
    10     0.001503
    11     0.000674
    12     0.002085
    13    -0.004642
    14     0.140327
    15    -0.002341
    16     0.341075
    17     0.060031
    18    -0.633877
    19    -0.007371
    20    -0.227143
    21    -0.342573
    22    -0.057220
    23    -0.629718
    24     0.000023
    25     0.224082
