[Molden Format]
p30-5 set                                                                       
[Atoms] AU
 AL       1    13        0.0000        0.0000        0.0000
 F        2     9        0.0000        3.0836        0.0000
 F        3     9        2.6705       -1.5418        0.0000
 F        4     9       -2.6705       -1.5418        0.0000
[GTO]
    1 0
s    5 1.00
    5887.572703000000  0.565197896170E-02
     885.612259960000  0.422182534268E-01
     201.136048990000  0.189187196726E+00
      56.284974674000  0.480435911881E+00
      17.229551243000  0.425872684294E+00
s    3 1.00
      29.340249922000  0.885686032394E-01
       3.043963042000 -0.543157066723E+00
       1.128553951800 -0.529385510294E+00
s    1 1.00
       0.142341751600  0.100000000000E+01
s    1 1.00
       0.054400192313  0.100000000000E+01
p    5 1.00
     145.119188090000  0.107263778593E-01
      33.717894833000  0.741036235460E-01
      10.369863083000  0.261296213060E+00
       3.513561603600  0.480201235327E+00
       1.198005027300  0.384382240624E+00
p    1 1.00
       0.265830059130  0.100000000000E+01
p    1 1.00
       0.071003361994  0.100000000000E+01
d    1 1.00
       0.300000000000  0.100000000000E+01

    2 0
s    5 1.00
    2894.832599000000 -0.534932117607E-02
     435.419391200000 -0.399677343716E-01
      98.843328866000 -0.179412617888E+00
      27.485198001000 -0.468324686869E+00
       8.540549817100 -0.447241605328E+00
s    1 1.00
       1.065457803800  0.100000000000E+01
s    1 1.00
       0.332473467480  0.100000000000E+01
p    3 1.00
      22.696633924000 -0.647821482412E-01
       4.987233925700 -0.340357853553E+00
       1.349161395400 -0.734858153660E+00
p    1 1.00
       0.348298819770  0.100000000000E+01
d    1 1.00
       1.400000000000  0.100000000000E+01

    3 0
s    5 1.00
    2894.832599000000 -0.534932117607E-02
     435.419391200000 -0.399677343716E-01
      98.843328866000 -0.179412617888E+00
      27.485198001000 -0.468324686869E+00
       8.540549817100 -0.447241605328E+00
s    1 1.00
       1.065457803800  0.100000000000E+01
s    1 1.00
       0.332473467480  0.100000000000E+01
p    3 1.00
      22.696633924000 -0.647821482412E-01
       4.987233925700 -0.340357853553E+00
       1.349161395400 -0.734858153660E+00
p    1 1.00
       0.348298819770  0.100000000000E+01
d    1 1.00
       1.400000000000  0.100000000000E+01

    4 0
s    5 1.00
    2894.832599000000 -0.534932117607E-02
     435.419391200000 -0.399677343716E-01
      98.843328866000 -0.179412617888E+00
      27.485198001000 -0.468324686869E+00
       8.540549817100 -0.447241605328E+00
s    1 1.00
       1.065457803800  0.100000000000E+01
s    1 1.00
       0.332473467480  0.100000000000E+01
p    3 1.00
      22.696633924000 -0.647821482412E-01
       4.987233925700 -0.340357853553E+00
       1.349161395400 -0.734858153660E+00
p    1 1.00
       0.348298819770  0.100000000000E+01
d    1 1.00
       1.400000000000  0.100000000000E+01

[MO]
Sym=     1a
Ene=   -0.585424E+02
Spin= Alpha
Occup= 2.000000
     1     0.995891
     2    -0.021843
     3    -0.038246
     4     0.006330
     5    -0.000139
     6     0.000157
     7    -0.002013
     8    -0.000006
     9     0.000006
    10    -0.000077
    11     0.000001
    12    -0.000001
    13     0.000016
    14     0.012233
    15     0.012233
    16     0.012371
    17     0.000001
    18    -0.000000
    19    -0.000000
    20     0.000010
    21    -0.000244
    22     0.000694
    23    -0.000000
    24    -0.000160
    25    -0.000004
    26     0.000000
    27     0.000053
    28     0.000005
    29    -0.000137
    30    -0.000041
    31    -0.000141
    32     0.000000
    33    -0.000000
    34     0.000000
    35     0.000010
    36    -0.000244
    37     0.000696
    38    -0.000139
    39     0.000080
    40    -0.000004
    41     0.000044
    42    -0.000025
    43     0.000005
    44    -0.000066
    45    -0.000113
    46    -0.000141
    47    -0.000047
    48     0.000000
    49    -0.000000
    50     0.000011
    51    -0.000237
    52     0.000699
    53     0.000139
    54     0.000080
    55    -0.000004
    56    -0.000046
    57    -0.000027
    58     0.000005
    59    -0.000065
    60    -0.000113
    61    -0.000141
    62     0.000048
    63    -0.000000
    64    -0.000000
Sym=     2a
Ene=   -0.262892E+02
Spin= Alpha
Occup= 1.999980
     1    -0.000053
     2    -0.000285
     3     0.001026
     4     0.000227
     5    -0.000360
     6    -0.000214
     7    -0.000028
     8    -0.000663
     9    -0.000383
    10    -0.000001
    11    -0.000608
    12    -0.000351
    13     0.000000
    14     0.000552
    15     0.000319
    16    -0.000260
    17     0.000233
    18    -0.000000
    19    -0.000000
    20    -0.000004
    21     0.000083
    22    -0.000368
    23     0.000111
    24     0.000119
    25     0.000000
    26     0.000149
    27     0.000220
    28    -0.000000
    29     0.000043
    30     0.000044
    31     0.000076
    32    -0.000008
    33    -0.000000
    34     0.000000
    35    -0.000004
    36     0.000083
    37    -0.000368
    38     0.000159
    39     0.000037
    40     0.000000
    41     0.000265
    42     0.000019
    43    -0.000000
    44     0.000038
    45     0.000049
    46     0.000076
    47    -0.000005
    48     0.000000
    49    -0.000000
    50    -0.992933
    51     0.028341
    52    -0.014333
    53    -0.000929
    54    -0.000537
    55    -0.000004
    56    -0.001465
    57    -0.000845
    58     0.000003
    59    -0.005314
    60    -0.005071
    61    -0.004969
    62    -0.000243
    63     0.000000
    64     0.000000
Sym=     3a
Ene=   -0.262884E+02
Spin= Alpha
Occup= 1.999979
     1    -0.000015
     2    -0.000064
     3     0.001398
     4     0.000124
     5     0.000146
     6    -0.000077
     7    -0.000027
     8     0.000899
     9    -0.000518
    10    -0.000001
    11     0.000572
    12    -0.000329
    13     0.000000
    14     0.000617
    15     0.000280
    16    -0.000276
    17    -0.000334
    18    -0.000000
    19     0.000000
    20    -0.000007
    21     0.000068
    22    -0.000360
    23    -0.000100
    24     0.000096
    25    -0.000000
    26    -0.000140
    27     0.000219
    28    -0.000000
    29     0.000041
    30     0.000047
    31     0.000074
    32     0.000006
    33     0.000000
    34     0.000000
    35    -0.993175
    36     0.027816
    37    -0.014823
    38     0.001958
    39    -0.001138
    40     0.000001
    41     0.000781
    42    -0.000446
    43    -0.000000
    44    -0.005299
    45    -0.005084
    46    -0.004979
    47     0.000213
    48     0.000000
    49     0.000000
    50    -0.000005
    51     0.000068
    52    -0.000360
    53    -0.000133
    54     0.000038
    55    -0.000000
    56    -0.000260
    57     0.000012
    58    -0.000000
    59     0.000042
    60     0.000047
    61     0.000073
    62     0.000007
    63    -0.000000
    64    -0.000000
Sym=     4a
Ene=   -0.262884E+02
Spin= Alpha
Occup= 1.999979
     1     0.000016
     2     0.000067
     3    -0.001398
     4    -0.000124
     5    -0.000002
     6    -0.000174
     7     0.000024
     8    -0.000000
     9    -0.001038
    10     0.000001
    11    -0.000000
    12    -0.000659
    13    -0.000000
    14    -0.000114
    15    -0.000783
    16     0.000276
    17    -0.000000
    18    -0.000000
    19     0.000000
    20     0.993175
    21    -0.027816
    22     0.014824
    23     0.000000
    24    -0.002265
    25    -0.000001
    26    -0.000000
    27    -0.000899
    28     0.000000
    29     0.004978
    30     0.005405
    31     0.004979
    32    -0.000000
    33    -0.000000
    34    -0.000000
    35     0.000007
    36    -0.000068
    37     0.000360
    38    -0.000033
    39     0.000135
    40     0.000000
    41    -0.000120
    42     0.000231
    43     0.000000
    44    -0.000049
    45    -0.000038
    46    -0.000074
    47     0.000000
    48    -0.000000
    49     0.000000
    50     0.000005
    51    -0.000068
    52     0.000360
    53     0.000033
    54     0.000134
    55     0.000000
    56     0.000119
    57     0.000231
    58     0.000000
    59    -0.000050
    60    -0.000038
    61    -0.000073
    62    -0.000001
    63     0.000000
    64     0.000000
Sym=     5a
Ene=   -0.368748E+01
Spin= Alpha
Occup= 1.999911
     1     0.136783
     2     0.501600
     3    -0.004973
     4     0.003338
     5    -0.026067
     6     0.810212
     7    -0.301105
     8    -0.001040
     9     0.031615
    10    -0.011547
    11     0.000128
    12    -0.004012
    13     0.002338
    14    -0.004237
    15    -0.000665
    16    -0.002335
    17     0.000090
    18    -0.000007
    19     0.000031
    20     0.000429
    21     0.000846
    22    -0.004926
    23     0.000003
    24     0.000602
    25    -0.000615
    26     0.000019
    27     0.004000
    28     0.000819
    29    -0.000077
    30     0.001893
    31    -0.000121
    32     0.000011
    33    -0.000000
    34     0.000064
    35    -0.000180
    36    -0.000352
    37     0.003409
    38    -0.000285
    39    -0.000097
    40    -0.000508
    41    -0.002717
    42     0.000958
    43     0.000758
    44    -0.001533
    45    -0.000025
    46     0.000316
    47     0.000957
    48     0.000055
    49    -0.000032
    50    -0.000038
    51     0.000016
    52     0.003351
    53     0.000143
    54    -0.000073
    55    -0.000541
    56     0.002597
    57     0.000790
    58     0.000780
    59    -0.001435
    60     0.000004
    61     0.000304
    62    -0.000889
    63    -0.000052
    64    -0.000030
Sym=     6a
Ene=   -0.369842E+01
Spin= Alpha
Occup= 1.999910
     1     0.138851
     2     0.508493
     3    -0.005045
     4     0.003347
     5    -0.708666
     6    -0.410923
     7    -0.265253
     8    -0.027620
     9    -0.016019
    10    -0.010175
    11     0.003513
    12     0.002038
    13     0.002061
    14    -0.001561
    15    -0.003361
    16    -0.002345
    17     0.001780
    18    -0.000032
    19    -0.000019
    20    -0.000178
    21    -0.000315
    22     0.003274
    23     0.000208
    24    -0.000133
    25    -0.000450
    26     0.000566
    27    -0.002751
    28     0.000671
    29     0.000315
    30    -0.001831
    31     0.000317
    32     0.000282
    33     0.000000
    34     0.000056
    35    -0.000173
    36    -0.000310
    37     0.003255
    38    -0.000004
    39     0.000219
    40    -0.000451
    41    -0.002089
    42     0.001877
    43     0.000671
    44    -0.001077
    45    -0.000431
    46     0.000316
    47     0.001209
    48     0.000049
    49    -0.000028
    50     0.000306
    51     0.000452
    52    -0.005321
    53    -0.000444
    54    -0.000257
    55    -0.000564
    56    -0.003591
    57    -0.002073
    58     0.000736
    59     0.001416
    60     0.000411
    61    -0.000119
    62     0.001002
    63    -0.000047
    64    -0.000027
Sym=     7a
Ene=   -0.369703E+01
Spin= Alpha
Occup= 1.999909
     1    -0.138650
     2    -0.507611
     3     0.005040
     4    -0.003379
     5    -0.688790
     6     0.392231
     7     0.337506
     8    -0.026873
     9     0.015320
    10     0.012945
    11     0.003418
    12    -0.001938
    13    -0.002622
    14     0.001598
    15     0.003344
    16     0.002359
    17     0.001753
    18    -0.000025
    19     0.000022
    20     0.000167
    21     0.000311
    22    -0.003179
    23     0.000204
    24     0.000140
    25     0.000574
    26     0.000543
    27     0.002666
    28    -0.000854
    29    -0.000305
    30     0.001771
    31    -0.000305
    32     0.000275
    33     0.000000
    34    -0.000072
    35    -0.000415
    36    -0.000828
    37     0.004812
    38    -0.000522
    39     0.000278
    40     0.000691
    41    -0.003371
    42     0.001970
    43    -0.000922
    44    -0.001357
    45    -0.000407
    46     0.000112
    47     0.000951
    48    -0.000062
    49     0.000036
    50     0.000033
    51    -0.000010
    52    -0.003495
    53    -0.000011
    54    -0.000157
    55     0.000604
    56    -0.002101
    57    -0.001893
    58    -0.000873
    59     0.001075
    60     0.000408
    61    -0.000312
    62     0.001192
    63     0.000059
    64     0.000033
Sym=     8a
Ene=   -0.376073E+01
Spin= Alpha
Occup= 1.999872
     1    -0.151297
     2    -0.545429
     3     0.005656
     4    -0.003674
     5    -0.043724
     6    -0.003082
     7    -0.838231
     8    -0.001702
     9    -0.000115
    10    -0.032197
    11     0.000222
    12     0.000017
    13     0.006562
    14     0.002501
    15     0.002492
    16     0.002490
    17     0.000113
    18    -0.000014
    19    -0.000010
    20    -0.000016
    21    -0.000107
    22    -0.000543
    23     0.000001
    24    -0.000188
    25    -0.001587
    26     0.000042
    27     0.000553
    28     0.002243
    29    -0.000193
    30     0.000610
    31    -0.000179
    32     0.000017
    33    -0.000000
    34     0.000174
    35    -0.000032
    36    -0.000139
    37    -0.000314
    38    -0.000179
    39     0.000105
    40    -0.001595
    41     0.000327
    42    -0.000162
    43     0.002248
    44     0.000343
    45    -0.000018
    46    -0.000168
    47    -0.000341
    48     0.000151
    49    -0.000087
    50    -0.000060
    51    -0.000198
    52    -0.000941
    53     0.000182
    54     0.000104
    55    -0.001653
    56    -0.000713
    57    -0.000433
    58     0.002285
    59     0.000498
    60     0.000033
    61    -0.000196
    62     0.000480
    63    -0.000141
    64    -0.000082
Sym=     9a
Ene=   -0.885924E+00
Spin= Alpha
Occup= 1.992694
     1    -0.006713
     2    -0.043503
     3    -0.081703
     4     0.027702
     5     0.011211
     6    -0.032959
     7     0.000043
     8    -0.033810
     9     0.050209
    10    -0.000009
    11     0.032360
    12     0.025064
    13     0.000012
    14     0.024118
    15    -0.032385
    16     0.000620
    17     0.040265
    18     0.000007
    19    -0.000008
    20    -0.000507
    21     0.001077
    22    -0.005532
    23     0.004076
    24     0.000041
    25    -0.000001
    26    -0.014386
    27    -0.005857
    28     0.000005
    29     0.000969
    30     0.001229
    31     0.000919
    32     0.000811
    33     0.000000
    34    -0.000000
    35     0.160300
    36     0.341264
    37     0.275532
    38    -0.491125
    39    -0.232873
    40    -0.000043
    41     0.340170
    42     0.177431
    43     0.000031
    44    -0.010069
    45     0.011749
    46     0.005094
    47    -0.000326
    48    -0.000001
    49     0.000000
    50     0.002696
    51     0.004880
    52     0.009079
    53    -0.011867
    54     0.001678
    55    -0.000002
    56     0.002499
    57    -0.009367
    58     0.000004
    59    -0.001575
    60    -0.000853
    61    -0.000157
    62    -0.000791
    63     0.000000
    64     0.000000
Sym=    10a
Ene=   -0.885122E+00
Spin= Alpha
Occup= 1.992663
     1    -0.006357
     2    -0.041333
     3    -0.078430
     4     0.026896
     5     0.023298
     6     0.024549
     7     0.000001
     8    -0.026992
     9    -0.051984
    10     0.000010
    11    -0.038597
    12     0.015232
    13     0.000027
    14     0.011194
    15    -0.019140
    16     0.000388
    17    -0.049335
    18     0.000001
    19     0.000029
    20     0.159560
    21     0.339529
    22     0.273393
    23     0.455232
    24    -0.298719
    25    -0.000233
    26    -0.329522
    27     0.199135
    28     0.000170
    29     0.005945
    30    -0.004061
    31     0.004974
    32     0.011307
    33    -0.000000
    34    -0.000006
    35     0.002720
    36     0.004860
    37     0.009301
    38     0.004425
    39    -0.011231
    40     0.000002
    41     0.007078
    42     0.007189
    43    -0.000000
    44    -0.001646
    45    -0.000809
    46    -0.000199
    47     0.000717
    48    -0.000000
    49     0.000000
    50    -0.000572
    51     0.000913
    52    -0.005564
    53    -0.001846
    54     0.003700
    55    -0.000000
    56     0.012361
    57    -0.009504
    58     0.000003
    59     0.001806
    60     0.000435
    61     0.000901
    62    -0.000246
    63     0.000001
    64     0.000000
Sym=    11a
Ene=   -0.884911E+00
Spin= Alpha
Occup= 1.992660
     1    -0.006375
     2    -0.041451
     3    -0.078637
     4     0.026936
     5    -0.023327
     6     0.024591
     7     0.000034
     8     0.027059
     9    -0.052025
    10     0.000002
    11     0.038588
    12     0.015206
    13     0.000019
    14     0.011182
    15    -0.019180
    16     0.000410
    17     0.049312
    18    -0.000003
    19     0.000021
    20     0.159505
    21     0.339418
    22     0.273351
    23    -0.455159
    24    -0.298958
    25    -0.000150
    26     0.329467
    27     0.199295
    28     0.000109
    29     0.005945
    30    -0.004077
    31     0.004978
    32    -0.011310
    33    -0.000000
    34    -0.000004
    35    -0.000578
    36     0.000907
    37    -0.005578
    38     0.001909
    39     0.003828
    40     0.000001
    41    -0.012416
    42    -0.009628
    43     0.000003
    44     0.001797
    45     0.000440
    46     0.000907
    47     0.000240
    48    -0.000000
    49     0.000000
    50     0.002689
    51     0.004794
    52     0.009283
    53    -0.004373
    54    -0.011051
    55     0.000002
    56    -0.007077
    57     0.007046
    58    -0.000000
    59    -0.001665
    60    -0.000808
    61    -0.000189
    62    -0.000730
    63     0.000000
    64     0.000000
Sym=    12a
Ene=   -0.884205E+00
Spin= Alpha
Occup= 1.992628
     1    -0.006014
     2    -0.039246
     3    -0.075307
     4     0.026115
     5     0.031697
     6     0.009051
     7    -0.000012
     8    -0.056658
     9     0.000985
    10     0.000034
    11    -0.006706
    12    -0.041480
    13     0.000045
    14    -0.048626
    15     0.040970
    16     0.000171
    17    -0.010871
    18     0.000046
    19    -0.000025
    20     0.002710
    21     0.004766
    22     0.009506
    23    -0.007509
    24     0.009300
    25     0.000005
    26     0.010043
    27     0.002627
    28    -0.000004
    29    -0.000515
    30    -0.001984
    31    -0.000231
    32    -0.000090
    33     0.000000
    34    -0.000000
    35     0.158773
    36     0.337695
    37     0.271194
    38    -0.018449
    39     0.545173
    40    -0.000471
    41    -0.000906
    42    -0.386376
    43     0.000344
    44     0.007297
    45    -0.005218
    46     0.004856
    47     0.010567
    48    -0.000011
    49     0.000005
    50    -0.000642
    51     0.000744
    52    -0.005606
    53     0.002641
    54    -0.003471
    55     0.000004
    56    -0.002056
    57     0.015631
    58    -0.000002
    59     0.000638
    60     0.001643
    61     0.000887
    62     0.000587
    63     0.000001
    64     0.000000
Sym=    13a
Ene=   -0.881321E+00
Spin= Alpha
Occup= 1.992552
     1    -0.006528
     2    -0.042179
     3    -0.078925
     4     0.026832
     5    -0.033717
     6     0.007248
     7     0.000045
     8     0.058647
     9     0.002751
    10    -0.000012
    11     0.005989
    12    -0.040813
    13     0.000006
    14    -0.048768
    15     0.040395
    16     0.000596
    17     0.009619
    18    -0.000001
    19     0.000002
    20     0.002736
    21     0.004872
    22     0.009438
    23     0.007710
    24     0.009517
    25    -0.000002
    26    -0.009969
    27     0.002376
    28     0.000002
    29    -0.000485
    30    -0.001973
    31    -0.000207
    32     0.000074
    33    -0.000000
    34     0.000000
    35    -0.000590
    36     0.000822
    37    -0.005212
    38    -0.002391
    39    -0.003665
    40    -0.000004
    41     0.002022
    42     0.015695
    43     0.000006
    44     0.000580
    45     0.001620
    46     0.000882
    47    -0.000569
    48    -0.000000
    49     0.000000
    50     0.159727
    51     0.337195
    52     0.271758
    53     0.034583
    54     0.545104
    55     0.000005
    56    -0.010355
    57    -0.385780
    58    -0.000003
    59     0.007132
    60    -0.005731
    61     0.005362
    62    -0.010438
    63    -0.000002
    64    -0.000001
Sym=    14a
Ene=   -0.881306E+00
Spin= Alpha
Occup= 1.992548
     1     0.006478
     2     0.041871
     3     0.078472
     4    -0.026720
     5     0.010325
     6     0.032758
     7    -0.000009
     8    -0.031337
     9    -0.049291
    10    -0.000040
    11     0.032359
    12    -0.025706
    13    -0.000047
    14    -0.025508
    15     0.033840
    16    -0.000558
    17     0.039688
    18     0.000043
    19     0.000027
    20     0.000602
    21    -0.000793
    22     0.005218
    23     0.004394
    24     0.000289
    25    -0.000003
    26    -0.014619
    27     0.006105
    28     0.000003
    29    -0.000931
    30    -0.001274
    31    -0.000881
    32     0.000801
    33     0.000000
    34     0.000001
    35    -0.002732
    36    -0.004851
    37    -0.009476
    38    -0.012068
    39    -0.001939
    40    -0.000006
    41     0.002932
    42     0.009868
    43     0.000007
    44     0.001545
    45     0.000922
    46     0.000211
    47    -0.000781
    48     0.000000
    49    -0.000000
    50    -0.159651
    51    -0.337012
    52    -0.271493
    53    -0.488588
    54     0.244361
    55     0.000512
    56     0.338794
    57    -0.185148
    58    -0.000375
    59     0.010331
    60    -0.011766
    61    -0.005344
    62    -0.001262
    63    -0.000010
    64    -0.000006
Sym=    15a
Ene=   -0.928028E+00
Spin= Alpha
Occup= 1.990148
     1    -0.015109
     2    -0.089723
     3    -0.121239
     4     0.023650
     5    -0.065476
     6    -0.037840
     7    -0.028517
     8     0.090529
     9     0.052298
    10     0.050388
    11    -0.003009
    12    -0.001707
    13     0.037575
    14    -0.027522
    15     0.016921
    16     0.011775
    17    -0.044515
    18    -0.041623
    19    -0.024038
    20     0.001664
    21     0.005868
    22    -0.007206
    23     0.005542
    24     0.009712
    25     0.005117
    26     0.000923
    27     0.001587
    28    -0.007036
    29     0.001156
    30    -0.000894
    31     0.001114
    32    -0.000955
    33    -0.000042
    34    -0.000423
    35     0.001664
    36     0.005866
    37    -0.007194
    38     0.011200
    39    -0.000044
    40     0.005098
    41     0.001826
    42    -0.000016
    43    -0.007023
    44    -0.001099
    45     0.001357
    46     0.001114
    47     0.000548
    48    -0.000388
    49     0.000176
    50    -0.128879
    51    -0.265417
    52    -0.161326
    53     0.275780
    54     0.158872
    55    -0.450060
    56    -0.179514
    57    -0.103391
    58     0.329247
    59    -0.012315
    60    -0.002499
    61     0.000988
    62    -0.009800
    63     0.011013
    64     0.006358
Sym=    16a
Ene=   -0.927842E+00
Spin= Alpha
Occup= 1.990139
     1    -0.015153
     2    -0.089941
     3    -0.121495
     4     0.023723
     5    -0.065676
     6    -0.037978
     7     0.028770
     8     0.090606
     9     0.052383
    10    -0.050396
    11    -0.003045
    12    -0.001675
    13    -0.037537
    14    -0.027472
    15     0.016924
    16     0.011780
    17    -0.044589
    18     0.041590
    19     0.024021
    20     0.001666
    21     0.005876
    22    -0.007216
    23     0.005544
    24     0.009718
    25    -0.005113
    26     0.000939
    27     0.001578
    28     0.007041
    29     0.001158
    30    -0.000893
    31     0.001116
    32    -0.000957
    33     0.000042
    34     0.000423
    35     0.001670
    36     0.005878
    37    -0.007187
    38     0.011218
    39    -0.000041
    40    -0.005090
    41     0.001822
    42    -0.000027
    43     0.007025
    44    -0.001102
    45     0.001357
    46     0.001114
    47     0.000549
    48     0.000388
    49    -0.000176
    50    -0.128783
    51    -0.265191
    52    -0.161123
    53     0.276491
    54     0.158682
    55     0.449798
    56    -0.180003
    57    -0.103238
    58    -0.329051
    59    -0.012334
    60    -0.002489
    61     0.000998
    62    -0.009800
    63    -0.011002
    64    -0.006350
Sym=    17a
Ene=   -0.924527E+00
Spin= Alpha
Occup= 1.990040
     1     0.015240
     2     0.090385
     3     0.122463
     4    -0.024147
     5     0.000007
     6    -0.076499
     7     0.028451
     8    -0.000059
     9     0.105479
    10    -0.049877
    11     0.000009
    12    -0.003612
    13    -0.037385
    14    -0.039281
    15     0.050409
    16    -0.011805
    17     0.000042
    18    -0.000021
    19    -0.047636
    20     0.128119
    21     0.262311
    22     0.158803
    23    -0.000113
    24     0.320915
    25     0.450315
    26     0.000075
    27    -0.208108
    28    -0.329353
    29    -0.002199
    30     0.017747
    31    -0.001723
    32    -0.000003
    33     0.000000
    34     0.012404
    35    -0.001683
    36    -0.005918
    37     0.007177
    38    -0.005653
    39     0.009579
    40    -0.005213
    41    -0.000893
    42     0.001707
    43     0.007120
    44    -0.000338
    45     0.000076
    46    -0.001114
    47    -0.001517
    48     0.000338
    49    -0.000244
    50    -0.001653
    51    -0.005844
    52     0.007167
    53     0.005643
    54     0.009511
    55    -0.005322
    56     0.000844
    57     0.001749
    58     0.007205
    59    -0.000314
    60     0.000075
    61    -0.001125
    62     0.001530
    63    -0.000330
    64    -0.000239
Sym=    18a
Ene=   -0.924588E+00
Spin= Alpha
Occup= 1.990039
     1     0.015242
     2     0.090391
     3     0.122458
     4    -0.024147
     5    -0.066397
     6     0.037980
     7     0.028429
     8     0.091516
     9    -0.052408
    10    -0.049879
    11    -0.002821
    12     0.002325
    13    -0.037383
    14     0.028587
    15    -0.017470
    16    -0.011805
    17    -0.044430
    18    -0.041275
    19     0.023776
    20    -0.001707
    21    -0.005945
    22     0.007062
    23     0.005559
    24    -0.009752
    25    -0.005179
    26     0.000842
    27    -0.001697
    28     0.007097
    29    -0.001153
    30     0.000928
    31    -0.001106
    32    -0.000958
    33    -0.000042
    34     0.000416
    35     0.128141
    36     0.262361
    37     0.158847
    38     0.274424
    39    -0.166354
    40     0.450292
    41    -0.177714
    42     0.108305
    43    -0.329335
    44     0.012625
    45     0.002922
    46    -0.001722
    47    -0.010062
    48     0.010741
    49    -0.006204
    50    -0.001626
    51    -0.005810
    52     0.007283
    53     0.010959
    54     0.000164
    55    -0.005341
    56     0.001964
    57    -0.000334
    58     0.007214
    59     0.001109
    60    -0.001384
    61    -0.001134
    62     0.000560
    63    -0.000372
    64    -0.000166
Sym=    19a
Ene=   -0.924452E+00
Spin= Alpha
Occup= 1.990036
     1    -0.015282
     2    -0.090585
     3    -0.122682
     4     0.024211
     5    -0.000024
     6     0.076743
     7     0.028611
     8     0.000056
     9    -0.105571
    10    -0.049880
    11    -0.000017
    12     0.003623
    13    -0.037349
    14     0.039341
    15    -0.050428
    16     0.011812
    17    -0.000052
    18    -0.000024
    19    -0.047593
    20    -0.128057
    21    -0.262177
    22    -0.158669
    23     0.000197
    24    -0.321354
    25     0.450049
    26    -0.000136
    27     0.208402
    28    -0.329163
    29     0.002205
    30    -0.017760
    31     0.001729
    32     0.000005
    33     0.000000
    34     0.012396
    35     0.001686
    36     0.005927
    37    -0.007177
    38     0.005660
    39    -0.009591
    40    -0.005205
    41     0.000889
    42    -0.001705
    43     0.007123
    44     0.000337
    45    -0.000076
    46     0.001115
    47     0.001518
    48     0.000338
    49    -0.000244
    50     0.001656
    51     0.005852
    52    -0.007168
    53    -0.005647
    54    -0.009518
    55    -0.005316
    56    -0.000836
    57    -0.001752
    58     0.007207
    59     0.000314
    60    -0.000075
    61     0.001126
    62    -0.001532
    63    -0.000330
    64    -0.000239
Sym=    20a
Ene=   -0.924338E+00
Spin= Alpha
Occup= 1.990033
     1    -0.015283
     2    -0.090588
     3    -0.122685
     4     0.024213
     5     0.066621
     6    -0.038100
     7     0.028604
     8    -0.091613
     9     0.052433
    10    -0.049887
    11     0.002813
    12    -0.002367
    13    -0.037351
    14    -0.028626
    15     0.017549
    16     0.011809
    17     0.044443
    18    -0.041244
    19     0.023754
    20     0.001712
    21     0.005956
    22    -0.007054
    23    -0.005570
    24     0.009770
    25    -0.005173
    26    -0.000833
    27     0.001695
    28     0.007102
    29     0.001153
    30    -0.000931
    31     0.001106
    32     0.000958
    33    -0.000042
    34     0.000415
    35    -0.128021
    36    -0.262103
    37    -0.158617
    38    -0.274622
    39     0.166979
    40     0.450072
    41     0.177834
    42    -0.108743
    43    -0.329178
    44    -0.012623
    45    -0.002928
    46     0.001729
    47     0.010077
    48     0.010734
    49    -0.006200
    50     0.001629
    51     0.005819
    52    -0.007286
    53    -0.010966
    54    -0.000165
    55    -0.005338
    56    -0.001959
    57     0.000352
    58     0.007220
    59    -0.001109
    60     0.001386
    61     0.001135
    62    -0.000560
    63    -0.000372
    64    -0.000166
Sym=    21a
Ene=   -0.119872E-01
Spin= Alpha
Occup= 0.009347
     1     0.019740
     2     0.114845
     3     0.103971
     4    -0.002148
     5    -0.106857
     6     0.061365
     7    -0.059320
     8     0.172918
     9    -0.100957
    10     0.118938
    11     0.014116
    12    -0.006478
    13     0.065080
    14     0.062584
    15    -0.041032
    16     0.020232
    17    -0.096100
    18     0.135582
    19    -0.077159
    20     0.001057
    21     0.008657
    22     0.012932
    23     0.000338
    24     0.001649
    25    -0.006159
    26    -0.026475
    27     0.018626
    28    -0.039287
    29    -0.004592
    30     0.000808
    31     0.001936
    32     0.001177
    33    -0.000331
    34    -0.004646
    35    -0.175539
    36    -0.767163
    37     0.478630
    38    -0.423301
    39     0.256255
    40     0.630966
    41    -0.283875
    42     0.174638
    43     0.556171
    44     0.044925
    45     0.082237
    46    -0.005805
    47     0.041510
    48     0.081152
    49    -0.049382
    50     0.000955
    51     0.008391
    52     0.010979
    53    -0.001028
    54    -0.001631
    55    -0.006320
    56    -0.029684
    57     0.010053
    58    -0.038919
    59    -0.000130
    60    -0.001666
    61     0.000478
    62     0.005557
    63     0.003176
    64     0.002195
Sym=    22a
Ene=   -0.119857E-01
Spin= Alpha
Occup= 0.009344
     1     0.019715
     2     0.114596
     3     0.102860
     4    -0.001859
     5     0.000259
     6    -0.123256
     7    -0.059286
     8    -0.001544
     9     0.200404
    10     0.118822
    11     0.000213
    12     0.015342
    13     0.065152
    14    -0.087178
    15     0.109247
    16     0.020394
    17     0.001436
    18     0.000395
    19     0.156035
    20    -0.175591
    21    -0.767404
    22     0.478746
    23     0.000148
    24    -0.494829
    25     0.630947
    26    -0.000144
    27    -0.333233
    28     0.556149
    29     0.104127
    30     0.023096
    31    -0.005787
    32     0.000109
    33    -0.000069
    34     0.095025
    35     0.001061
    36     0.008373
    37     0.013467
    38     0.001611
    39    -0.000663
    40    -0.006190
    41     0.003372
    42    -0.031467
    43    -0.039120
    44     0.000115
    45    -0.004093
    46     0.001944
    47    -0.002271
    48    -0.004141
    49     0.002119
    50     0.000952
    51     0.008579
    52     0.010809
    53    -0.001908
    54    -0.000031
    55    -0.006329
    56    -0.005474
    57    -0.031320
    58    -0.039096
    59     0.003068
    60    -0.004767
    61     0.000490
    62     0.003510
    63     0.003481
    64     0.001622
Sym=    23a
Ene=   -0.119845E-01
Spin= Alpha
Occup= 0.009342
     1     0.019583
     2     0.113167
     3     0.097312
     4    -0.000601
     5    -0.106860
     6     0.061382
     7     0.058997
     8     0.173501
     9    -0.101148
    10    -0.117688
    11     0.013919
    12    -0.006503
    13    -0.065703
    14     0.064918
    15    -0.038379
    16     0.021422
    17    -0.096296
    18    -0.136087
    19     0.077597
    20     0.001037
    21     0.008485
    22     0.012992
    23     0.000317
    24     0.001446
    25     0.005941
    26    -0.026448
    27     0.018327
    28     0.038743
    29    -0.004635
    30     0.000828
    31     0.001894
    32     0.001186
    33     0.000338
    34     0.004713
    35    -0.175665
    36    -0.767668
    37     0.478563
    38    -0.423082
    39     0.255416
    40    -0.631314
    41    -0.283359
    42     0.173707
    43    -0.556434
    44     0.045000
    45     0.082487
    46    -0.005874
    47     0.041488
    48    -0.081376
    49     0.049368
    50     0.000934
    51     0.008189
    52     0.011240
    53    -0.000836
    54    -0.001500
    55     0.006124
    56    -0.029297
    57     0.010405
    58     0.038481
    59    -0.000194
    60    -0.001653
    61     0.000433
    62     0.005568
    63    -0.003227
    64    -0.002238
Sym=    24a
Ene=   -0.119832E-01
Spin= Alpha
Occup= 0.009341
     1     0.019561
     2     0.112937
     3     0.096290
     4    -0.000328
     5     0.000243
     6    -0.123270
     7     0.058978
     8    -0.001421
     9     0.201012
    10    -0.117607
    11     0.000175
    12     0.015177
    13    -0.065807
    14    -0.084684
    15     0.111778
    16     0.021595
    17     0.001359
    18    -0.000297
    19    -0.156685
    20    -0.175653
    21    -0.767625
    22     0.478482
    23     0.000028
    24    -0.494268
    25    -0.631322
    26    -0.000257
    27    -0.332355
    28    -0.556419
    29     0.104251
    30     0.023207
    31    -0.005884
    32     0.000088
    33     0.000042
    34    -0.095143
    35     0.001038
    36     0.008210
    37     0.013493
    38     0.001415
    39    -0.000569
    40     0.005956
    41     0.003086
    42    -0.031353
    43     0.038587
    44     0.000141
    45    -0.004136
    46     0.001907
    47    -0.002294
    48     0.004196
    49    -0.002136
    50     0.000932
    51     0.008391
    52     0.010986
    53    -0.001698
    54     0.000059
    55     0.006155
    56    -0.005055
    57    -0.031173
    58     0.038695
    59     0.003051
    60    -0.004799
    61     0.000451
    62     0.003474
    63    -0.003544
    64    -0.001666
Sym=    25a
Ene=   -0.120075E-01
Spin= Alpha
Occup= 0.009327
     1    -0.020051
     2    -0.117442
     3    -0.122952
     4     0.010926
     5    -0.109924
     6    -0.063653
     7     0.059263
     8     0.196737
     9     0.114229
    10    -0.118587
    11     0.010025
    12     0.005865
    13    -0.067043
    14    -0.070172
    15     0.041893
    16    -0.013883
    17    -0.112726
    18     0.133097
    19     0.077043
    20    -0.001038
    21    -0.007338
    22    -0.017743
    23     0.000748
    24    -0.001539
    25     0.006245
    26    -0.022542
    27    -0.015712
    28     0.039869
    29     0.005199
    30    -0.001016
    31    -0.001643
    32     0.000526
    33    -0.000298
    34     0.004638
    35    -0.001043
    36    -0.007537
    37    -0.017235
    38    -0.000875
    39     0.001482
    40     0.006234
    41    -0.025184
    42    -0.011715
    43     0.039968
    44     0.001031
    45     0.003024
    46    -0.001627
    47     0.003315
    48     0.003832
    49    -0.002665
    50     0.176817
    51     0.765266
    52    -0.451110
    53    -0.422789
    54    -0.242800
    55    -0.630155
    56    -0.263704
    57    -0.151176
    58    -0.555593
    59    -0.066971
    60    -0.088559
    61     0.025700
    62     0.021283
    63     0.091183
    64     0.052326
Sym=    26a
Ene=   -0.120032E-01
Spin= Alpha
Occup= 0.009320
     1    -0.019898
     2    -0.115815
     3    -0.116605
     4     0.009475
     5    -0.109881
     6    -0.063573
     7    -0.058796
     8     0.196812
     9     0.114161
    10     0.116793
    11     0.009997
    12     0.005758
    13     0.067972
    14    -0.072638
    15     0.039519
    16    -0.015073
    17    -0.112412
    18    -0.133785
    19    -0.077349
    20    -0.001022
    21    -0.007262
    22    -0.017577
    23     0.000718
    24    -0.001375
    25    -0.005996
    26    -0.022709
    27    -0.015558
    28    -0.039293
    29     0.005217
    30    -0.001032
    31    -0.001635
    32     0.000559
    33     0.000301
    34    -0.004708
    35    -0.001024
    36    -0.007402
    37    -0.017158
    38    -0.000728
    39     0.001364
    40    -0.005960
    41    -0.025023
    42    -0.011815
    43    -0.039312
    44     0.001041
    45     0.003031
    46    -0.001600
    47     0.003334
    48    -0.003905
    49     0.002706
    50     0.176927
    51     0.765797
    52    -0.451428
    53    -0.421849
    54    -0.243090
    55     0.630572
    56    -0.262800
    57    -0.151405
    58     0.555946
    59    -0.067198
    60    -0.088720
    61     0.025925
    62     0.021455
    63    -0.091279
    64    -0.052574
Sym=    27a
Ene=   -0.942771E-02
Spin= Alpha
Occup= 0.006769
     1    -0.006614
     2    -0.040981
     3    -0.068630
     4     0.063545
     5    -0.018259
     6    -0.036377
     7     0.000082
     8     0.053488
     9     0.046632
    10    -0.000414
    11    -0.079964
    12     0.028852
    13     0.000291
    14     0.018095
    15    -0.041754
    16    -0.023749
    17    -0.038112
    18    -0.000096
    19    -0.000127
    20     0.000622
    21     0.014423
    22    -0.033722
    23     0.005331
    24     0.002165
    25     0.000071
    26     0.051618
    27     0.002563
    28     0.000134
    29     0.001765
    30     0.002305
    31     0.003797
    32    -0.003748
    33    -0.000003
    34    -0.000031
    35    -0.001113
    36    -0.023820
    37     0.052647
    38    -0.001890
    39     0.002616
    40     0.000043
    41    -0.037089
    42    -0.016718
    43     0.000060
    44     0.001157
    45    -0.002230
    46    -0.004200
    47     0.002452
    48    -0.000011
    49     0.000007
    50    -0.204235
    51    -0.931342
    52     0.729409
    53    -0.707263
    54     0.349479
    55     0.000732
    56    -0.708533
    57     0.350091
    58     0.000732
    59    -0.037404
    60     0.109375
    61     0.178040
    62     0.114277
    63     0.000264
    64    -0.000175
Sym=    28a
Ene=   -0.150722E-02
Spin= Alpha
Occup= 0.000684
     1    -0.000239
     2     0.009500
     3     0.163674
     4    -0.063549
     5    -0.000165
     6    -0.016625
     7     0.000058
     8    -0.051711
     9    -0.017119
    10    -0.000375
    11     0.010579
    12     0.080745
    13     0.000481
    14     0.176017
    15    -0.146088
    16    -0.046671
    17    -0.131334
    18    -0.000385
    19    -0.000887
    20     0.000495
    21     0.019669
    22    -0.027905
    23     0.017116
    24     0.010256
    25     0.000207
    26     0.075216
    27    -0.017008
    28     0.000503
    29    -0.003170
    30     0.017769
    31     0.014308
    32    -0.022941
    33     0.000001
    34    -0.000207
    35    -0.000583
    36     0.003887
    37    -0.076174
    38    -0.014247
    39    -0.013198
    40    -0.000034
    41     0.020334
    42    -0.094200
    43    -0.000131
    44     0.000169
    45    -0.007983
    46     0.000528
    47     0.022189
    48     0.000001
    49     0.000012
    50    -0.063882
    51    -0.188125
    52    -0.107994
    53    -0.037438
    54    -0.199173
    55     0.000288
    56    -0.010357
    57    -0.344721
    58    -0.000158
    59    -0.285727
    60     1.052967
    61    -0.405461
    62    -0.064761
    63     0.001124
    64     0.003468
Sym=    29a
Ene=   -0.944785E-02
Spin= Alpha
Occup= 0.006756
     1    -0.006023
     2    -0.037574
     3    -0.061358
     4     0.059898
     5     0.037901
     6     0.005368
     7     0.000054
     8    -0.059022
     9     0.017155
    10    -0.000296
    11     0.011656
    12    -0.085586
    13     0.000218
    14    -0.059144
    15     0.041204
    16    -0.025656
    17    -0.023581
    18     0.000120
    19     0.000019
    20    -0.001151
    21    -0.024051
    22     0.050991
    23    -0.000276
    24    -0.003280
    25     0.000023
    26     0.038240
    27    -0.021264
    28     0.000017
    29     0.000660
    30    -0.002064
    31    -0.004256
    32    -0.003709
    33    -0.000004
    34    -0.000002
    35    -0.203919
    36    -0.928079
    37     0.719737
    38     0.034383
    39    -0.782682
    40     0.000668
    41     0.045890
    42    -0.783102
    43     0.000676
    44     0.181383
    45    -0.106402
    46     0.172360
    47     0.004971
    48    -0.000010
    49     0.000273
    50     0.000672
    51     0.014862
    52    -0.031369
    53    -0.004620
    54     0.002889
    55     0.000051
    56    -0.027667
    57     0.045860
    58     0.000099
    59    -0.001411
    60     0.006692
    61     0.002677
    62     0.004272
    63     0.000037
    64     0.000023
Sym=    30a
Ene=   -0.132605E-02
Spin= Alpha
Occup= 0.000615
     1     0.006843
     2     0.040719
     3     0.294914
     4    -0.151053
     5     0.003944
     6    -0.051785
     7    -0.000585
     8    -0.000741
     9     0.303395
    10     0.002233
    11     0.007403
    12    -0.063032
    13    -0.001222
    14    -0.049496
    15     0.222824
    16    -0.010585
    17    -0.079712
    18     0.000651
    19    -0.002236
    20    -0.030723
    21     0.023845
    22    -0.490502
    23     0.152057
    24     0.015834
    25     0.000214
    26     0.215289
    27     0.317598
    28     0.000922
    29    -0.311550
    30     0.726506
    31    -0.107393
    32     0.675674
    33     0.000690
    34     0.000523
    35     0.001160
    36     0.019373
    37    -0.060512
    38     0.014110
    39     0.005492
    40    -0.000655
    41     0.062875
    42     0.018825
    43    -0.001571
    44    -0.011654
    45     0.010362
    46     0.009638
    47    -0.004345
    48     0.000369
    49    -0.000212
    50     0.000068
    51     0.004066
    52     0.011981
    53    -0.012626
    54    -0.006620
    55    -0.000369
    56    -0.010569
    57    -0.000833
    58    -0.000818
    59     0.014013
    60    -0.004977
    61     0.001465
    62     0.014708
    63    -0.000264
    64    -0.000139
Sym=    31a
Ene=   -0.942068E-02
Spin= Alpha
Occup= 0.006723
     1    -0.006385
     2    -0.039597
     3    -0.061495
     4     0.059812
     5     0.023105
     6     0.032190
     7     0.000072
     8    -0.014319
     9    -0.059873
    10    -0.000325
    11    -0.066607
    12     0.053347
    13     0.000211
    14    -0.001907
    15    -0.016369
    16    -0.026001
    17    -0.059763
    18     0.000073
    19     0.000077
    20    -0.204719
    21    -0.931172
    22     0.720403
    23    -0.649863
    24     0.436744
    25     0.000342
    26    -0.645003
    27     0.447219
    28     0.000351
    29    -0.023566
    30     0.100295
    31     0.174052
    32     0.150383
    33     0.000111
    34    -0.000073
    35    -0.001187
    36    -0.024153
    37     0.051238
    38    -0.003115
    39     0.001549
    40     0.000038
    41    -0.000600
    42     0.043938
    43     0.000047
    44    -0.003881
    45     0.002819
    46    -0.004389
    47    -0.000407
    48    -0.000003
    49    -0.000007
    50     0.000646
    51     0.014153
    52    -0.029867
    53     0.000312
    54    -0.005395
    55     0.000064
    56     0.025999
    57    -0.045238
    58     0.000125
    59     0.007643
    60    -0.002469
    61     0.002524
    62    -0.001935
    63     0.000031
    64     0.000014
Sym=    32a
Ene=   -0.939603E-02
Spin= Alpha
Occup= 0.006693
     1     0.006798
     2     0.042000
     3     0.062945
     4    -0.059946
     5    -0.018069
     6     0.036700
     7    -0.000097
     8     0.044005
     9    -0.042306
    10     0.000369
    11    -0.079242
    12    -0.028966
    13    -0.000180
    14    -0.029573
    15     0.048314
    16     0.025730
    17    -0.037196
    18     0.000002
    19     0.000112
    20    -0.000622
    21    -0.013463
    22     0.028483
    23     0.005823
    24    -0.002398
    25    -0.000070
    26     0.052709
    27     0.000793
    28    -0.000162
    29    -0.001266
    30    -0.002788
    31    -0.003594
    32    -0.003998
    33    -0.000003
    34     0.000026
    35     0.205414
    36     0.933811
    37    -0.721140
    38    -0.711226
    39    -0.326767
    40    -0.000051
    41    -0.717973
    42    -0.317759
    43    -0.000075
    44     0.048613
    45    -0.127078
    46    -0.175656
    47     0.132489
    48     0.000005
    49     0.000004
    50     0.001132
    51     0.024146
    52    -0.052072
    53    -0.002314
    54    -0.002925
    55    -0.000039
    56    -0.038336
    57     0.018477
    58    -0.000062
    59    -0.001426
    60     0.004109
    61     0.002994
    62     0.004690
    63     0.000006
    64     0.000003
Sym=    33a
Ene=   -0.594660E-03
Spin= Alpha
Occup= 0.000128
     1     0.076748
     2     0.897011
     3     3.680236
     4    -0.614749
     5     0.017948
     6     0.001988
     7     0.295241
     8    -0.122702
     9    -0.013071
    10    -1.089602
    11     0.017563
    12     0.002431
    13     0.480149
    14    -1.281481
    15    -1.289238
    16    -1.180935
    17     0.041058
    18    -0.015434
    19    -0.010786
    20     0.004908
    21     0.058232
    22    -0.062038
    23     0.001823
    24     0.061827
    25     0.131315
    26     0.004386
    27     0.056398
    28     0.281194
    29     0.018270
    30    -0.024773
    31     0.043952
    32    -0.002421
    33     0.000009
    34    -0.078605
    35     0.004223
    36     0.040674
    37     0.000522
    38     0.047116
    39    -0.026131
    40     0.130735
    41     0.004918
    42    -0.000280
    43     0.279479
    44    -0.009008
    45     0.003797
    46     0.033454
    47     0.011631
    48    -0.066935
    49     0.040390
    50     0.004834
    51     0.081718
    52    -0.157592
    53    -0.064768
    54    -0.038156
    55     0.128702
    56    -0.116550
    57    -0.069476
    58     0.265932
    59     0.006558
    60     0.012566
    61     0.040742
    62    -0.009850
    63     0.094394
    64     0.054426
Sym=    34a
Ene=   -0.447049E-03
Spin= Alpha
Occup= 0.000091
     1     0.069507
     2     0.810574
     3     3.365506
     4    -0.560754
     5     0.273373
     6    -0.153035
     7    -0.122221
     8    -1.866617
     9     1.046995
    10     0.451652
    11     0.258439
    12    -0.141541
    13    -0.199887
    14    -1.375167
    15    -0.829200
    16    -1.127354
    17     0.559683
    18    -0.022280
    19     0.024137
    20     0.011407
    21     0.274072
    22    -0.865958
    23     0.037566
    24     0.156548
    25    -0.059522
    26     0.106541
    27     0.711149
    28    -0.129347
    29     0.131293
    30    -0.154418
    31     0.189295
    32    -0.051400
    33     0.000575
    34     0.037415
    35    -0.010603
    36    -0.357850
    37     1.397271
    38    -0.122933
    39     0.072781
    40    -0.046663
    41    -1.020364
    42     0.591180
    43    -0.093899
    44     0.113356
    45    -0.095414
    46    -0.215486
    47    -0.215150
    48     0.023843
    49    -0.014447
    50     0.009174
    51     0.278266
    52    -0.908791
    53    -0.129258
    54    -0.108279
    55    -0.057525
    56    -0.599143
    57    -0.457153
    58    -0.120158
    59     0.042910
    60    -0.001695
    61     0.152387
    62    -0.127286
    63    -0.043775
    64    -0.026199
Sym=    35a
Ene=   -0.443895E-03
Spin= Alpha
Occup= 0.000090
     1    -0.068773
     2    -0.817596
     3    -3.301983
     4     0.499113
     5     0.281445
     6     0.162918
     7     0.096319
     8    -1.917469
     9    -1.110310
    10    -0.355732
    11     0.264272
    12     0.153657
    13     0.156602
    14     1.473878
    15     0.906724
    16     1.162937
    17     0.560319
    18    -0.030465
    19    -0.017222
    20    -0.011157
    21    -0.260393
    22     0.816488
    23     0.040707
    24    -0.146710
    25     0.046633
    26     0.117594
    27    -0.671684
    28     0.101161
    29    -0.125569
    30     0.149867
    31    -0.176878
    32    -0.055943
    33     0.000537
    34    -0.029064
    35    -0.011281
    36    -0.259990
    37     0.812048
    38    -0.106930
    39     0.109327
    40     0.046828
    41    -0.520521
    42     0.435761
    43     0.101587
    44     0.038290
    45    -0.013239
    46    -0.176714
    47    -0.167311
    48    -0.024764
    49     0.015514
    50     0.008349
    51     0.391825
    52    -1.552869
    53    -0.147854
    54    -0.085497
    55     0.035808
    56    -1.128883
    57    -0.653088
    58     0.068888
    59    -0.059023
    60     0.102119
    61     0.215269
    62    -0.163183
    63     0.026679
    64     0.015330
Sym=    36a
Ene=   -0.236515E-05
Spin= Alpha
Occup= 0.000000
     1    -0.000359
     2    -0.005964
     3    -0.048765
     4    -0.029956
     5     0.040691
     6     0.034437
     7    -0.002370
     8    -0.746757
     9    -0.515380
    10     0.017126
    11    -0.170946
    12    -0.084179
    13    -0.054885
    14     0.670769
    15    -0.826674
    16     0.146152
    17     1.429432
    18    -0.348079
    19     0.457162
    20     0.001707
    21    -0.167987
    22     0.867342
    23    -0.095314
    24    -0.012481
    25    -0.102088
    26    -0.477072
    27    -0.501931
    28    -0.276114
    29    -0.126166
    30     0.094957
    31    -0.093786
    32     0.209979
    33     0.009207
    34     0.094362
    35     0.001343
    36    -0.146838
    37     0.771342
    38    -0.046537
    39    -0.083093
    40     0.134077
    41    -0.603407
    42    -0.205571
    43     0.361499
    44     0.184969
    45    -0.216575
    46    -0.073138
    47     0.018789
    48    -0.089841
    49     0.048173
    50    -0.003333
    51     0.272784
    52    -1.425444
    53    -0.029252
    54    -0.017085
    55    -0.010406
    56    -0.725332
    57    -0.422170
    58    -0.028051
    59    -0.086999
    60     0.133228
    61     0.171550
    62    -0.220338
    63    -0.010697
    64    -0.024118
Sym=    37a
Ene=   -0.321261E-06
Spin= Alpha
Occup= 0.000000
     1    -0.000030
     2     0.002879
     3    -0.014322
     4    -0.001990
     5    -0.000457
     6     0.003826
     7    -0.000899
     8     0.051416
     9     0.002986
    10    -0.142227
    11    -0.014364
    12     0.008435
    13     0.904894
    14    -0.107184
    15     0.028200
    16     0.008926
    17    -0.143508
    18     0.398742
    19     0.611123
    20     0.000360
    21    -0.004698
    22     0.006220
    23     0.014985
    24    -0.006747
    25    -0.298550
    26     0.065333
    27    -0.006936
    28    -0.779782
    29     0.001660
    30    -0.002586
    31    -0.012497
    32    -0.024719
    33    -0.013455
    34     0.080894
    35     0.000380
    36    -0.002639
    37    -0.002630
    38     0.004707
    39     0.013930
    40    -0.162083
    41     0.044877
    42     0.048015
    43    -0.410863
    44    -0.025212
    45     0.020356
    46    -0.008267
    47    -0.005440
    48    -0.032175
    49     0.006523
    50     0.000138
    51    -0.023992
    52     0.133680
    53     0.002047
    54     0.000502
    55     0.002282
    56     0.077286
    57     0.043079
    58     0.034265
    59     0.011243
    60    -0.008639
    61    -0.016348
    62     0.021685
    63     0.147102
    64     0.083833
Sym=    38a
Ene=   -0.108742E-06
Spin= Alpha
Occup= 0.000000
     1     0.001793
     2    -0.181374
     3     0.542117
     4    -0.451305
     5    -0.009546
     6    -0.005692
     7    -0.001656
     8     0.077662
     9     0.051943
    10     0.001246
    11     0.120915
    12     0.015211
    13     0.028194
    14     1.574946
    15     1.628135
    16     0.393032
    17    -0.015253
    18     0.006524
    19     0.001556
    20    -0.011579
    21     0.415515
    22    -1.773657
    23    -0.018406
    24     0.238678
    25    -0.006416
    26    -0.056863
    27     1.246776
    28    -0.015808
    29     0.249849
    30    -0.111971
    31     0.408944
    32     0.009886
    33     0.000040
    34    -0.000677
    35    -0.012422
    36     0.431346
    37    -1.833425
    38     0.200823
    39    -0.130227
    40    -0.007235
    41     1.054213
    42    -0.647054
    43    -0.017980
    44    -0.002140
    45     0.161694
    46     0.418846
    47     0.178275
    48     0.000039
    49     0.000156
    50    -0.011424
    51     0.355722
    52    -1.535090
    53    -0.206257
    54    -0.111567
    55    -0.004708
    56    -1.026653
    57    -0.564954
    58    -0.010818
    59     0.094936
    60     0.138434
    61     0.249211
    62    -0.024428
    63     0.000610
    64     0.000325
Sym=    39a
Ene=   -0.628749E-03
Spin= Alpha
Occup= 0.000020
     1     0.001834
     2    -0.012566
     3    -0.290415
     4    -0.018843
     5     0.013438
     6     0.007904
     7    -0.000339
     8     0.187309
     9     0.107287
    10     0.001214
    11     0.090299
    12     0.052296
    13    -0.000524
    14    -0.057924
    15     0.003753
    16     0.090328
    17    -0.061609
    18     0.001351
    19     0.000649
    20     0.001576
    21     0.002838
    22     0.010486
    23    -0.003367
    24     0.002538
    25    -0.000310
    26    -0.015127
    27     0.003648
    28    -0.000747
    29     0.001011
    30    -0.010761
    31     0.001652
    32     0.002718
    33    -0.000021
    34     0.000204
    35     0.001585
    36     0.003068
    37     0.009783
    38     0.000617
    39    -0.004246
    40    -0.000357
    41    -0.003799
    42    -0.015147
    43    -0.000873
    44    -0.005648
    45    -0.003931
    46     0.001637
    47     0.007352
    48     0.000200
    49    -0.000142
    50     0.612905
    51     1.533310
    52     1.908903
    53    -0.013541
    54    -0.007729
    55     0.000396
    56     0.134065
    57     0.077632
    58     0.000800
    59    -1.309243
    60    -1.314304
    61    -1.525925
    62     0.005469
    63     0.001159
    64     0.000838
Sym=    40a
Ene=   -0.879824E-11
Spin= Alpha
Occup= 0.000000
     1     0.000273
     2     0.003493
     3     0.010341
     4     0.220480
     5     0.012256
     6    -0.009659
     7     0.000155
     8    -0.171122
     9     0.124847
    10     0.000362
    11    -1.197466
    12     0.961986
    13    -0.006308
    14    -0.044050
    15     0.163110
    16    -0.039698
    17     0.177474
    18     0.009297
    19    -0.011495
    20    -0.011443
    21     0.307749
    22    -1.287907
    23     0.132240
    24     0.021832
    25     0.005277
    26     0.382768
    27     0.193491
    28     0.012543
    29     0.140758
    30     0.163185
    31     0.181793
    32    -0.028747
    33    -0.055042
    34    -0.002015
    35     0.012995
    36    -0.355093
    37     1.506273
    38    -0.014591
    39    -0.022936
    40    -0.001703
    41    -0.166568
    42     0.001663
    43    -0.005624
    44    -0.187653
    45    -0.183119
    46    -0.182336
    47     0.026545
    48    -0.132718
    49    -0.220779
    50    -0.007441
    51     0.202155
    52    -0.848962
    53     0.049900
    54    -0.135371
    55     0.000134
    56     0.083502
    57    -0.463814
    58     0.001846
    59     0.198699
    60     0.025754
    61     0.089886
    62    -0.069014
    63    -0.001539
    64     0.002838
Sym=    41a
Ene=   -0.141224E-02
Spin= Alpha
Occup= 0.000620
     1     0.002699
     2     0.028857
     3     0.241873
     4    -0.020001
     5    -0.004696
     6     0.003231
     7     0.013820
     8     0.056983
     9    -0.034794
    10    -0.039771
    11     0.000869
    12     0.002806
    13     0.063556
    14     0.067829
    15     0.092717
    16    -0.133065
    17     0.018833
    18    -0.061722
    19     0.034422
    20    -0.000139
    21     0.032319
    22    -0.139000
    23    -0.006263
    24     0.006657
    25    -0.010839
    26    -0.024730
    27     0.074481
    28    -0.030248
    29     0.008362
    30    -0.003140
    31     0.024871
    32     0.007181
    33     0.001893
    34     0.002899
    35     0.029585
    36     0.105779
    37    -0.046034
    38     0.119536
    39    -0.069791
    40    -0.066493
    41     0.220795
    42    -0.126619
    43    -0.023090
    44     0.148074
    45     0.333475
    46    -0.699098
    47     0.223461
    48     0.587089
    49    -0.362805
    50     0.000043
    51     0.031971
    52    -0.134149
    53    -0.010378
    54     0.000524
    55    -0.011551
    56    -0.078924
    57    -0.016630
    58    -0.031785
    59    -0.005562
    60     0.015981
    61     0.017737
    62     0.001492
    63    -0.003323
    64    -0.004022
Sym=    42a
Ene=   -0.141187E-02
Spin= Alpha
Occup= 0.000620
     1     0.002682
     2     0.028698
     3     0.241242
     4    -0.019752
     5     0.000240
     6    -0.005679
     7     0.013761
     8    -0.002620
     9     0.066673
    10    -0.039555
    11     0.000238
    12    -0.000716
    13     0.063424
    14     0.101068
    15     0.059878
    16    -0.132934
    17     0.002424
    18     0.001035
    19    -0.070702
    20     0.029610
    21     0.105830
    22    -0.045857
    23    -0.000524
    24     0.138446
    25    -0.066491
    26    -0.001149
    27     0.254407
    28    -0.023087
    29     0.455394
    30     0.026293
    31    -0.699345
    32    -0.001153
    33     0.000680
    34     0.689986
    35    -0.000143
    36     0.031403
    37    -0.134604
    38     0.002677
    39    -0.009095
    40    -0.011260
    41     0.050321
    42    -0.058997
    43    -0.031493
    44     0.005172
    45    -0.000486
    46     0.024726
    47     0.009271
    48     0.003522
    49     0.000067
    50     0.000058
    51     0.032968
    52    -0.138823
    53    -0.004678
    54    -0.009009
    55    -0.011105
    56    -0.055658
    57    -0.059980
    58    -0.030566
    59     0.011209
    60    -0.000468
    61     0.018072
    62    -0.010262
    63    -0.004935
    64    -0.000713
Sym=    43a
Ene=   -0.141042E-02
Spin= Alpha
Occup= 0.000618
     1     0.003088
     2     0.033331
     3     0.260298
     4    -0.023997
     5    -0.004226
     6     0.003027
     7    -0.013259
     8     0.053630
     9    -0.033448
    10     0.037694
    11     0.001526
    12     0.002457
    13    -0.062772
    14     0.060115
    15     0.085023
    16    -0.136515
    17     0.019658
    18     0.060547
    19    -0.033862
    20    -0.000077
    21     0.032752
    22    -0.139020
    23    -0.006191
    24     0.007405
    25     0.011022
    26    -0.024512
    27     0.075389
    28     0.030522
    29     0.008736
    30    -0.003582
    31     0.025115
    32     0.007062
    33    -0.001861
    34    -0.003010
    35     0.029712
    36     0.105762
    37    -0.043366
    38     0.119836
    39    -0.069878
    40     0.067250
    41     0.219342
    42    -0.125798
    43     0.024762
    44     0.149383
    45     0.334358
    46    -0.701930
    47     0.221828
    48    -0.586678
    49     0.361152
    50     0.000092
    51     0.032595
    52    -0.135167
    53    -0.011053
    54     0.000048
    55     0.011695
    56    -0.080123
    57    -0.017673
    58     0.031938
    59    -0.005350
    60     0.015967
    61     0.018017
    62     0.001232
    63     0.003495
    64     0.004131
Sym=    44a
Ene=   -0.141094E-02
Spin= Alpha
Occup= 0.000619
     1    -0.003071
     2    -0.033175
     3    -0.259613
     4     0.023712
     5    -0.000269
     6     0.005195
     7     0.013221
     8     0.002829
     9    -0.063289
    10    -0.037538
    11    -0.000293
    12    -0.000035
    13     0.062606
    14    -0.093823
    15    -0.051737
    16     0.136403
    17    -0.002571
    18     0.001042
    19    -0.069615
    20    -0.029704
    21    -0.105715
    22     0.043309
    23     0.000507
    24    -0.138696
    25    -0.067189
    26     0.001166
    27    -0.252802
    28    -0.024577
    29    -0.455127
    30    -0.028367
    31     0.701710
    32     0.001214
    33     0.000878
    34     0.689056
    35     0.000079
    36    -0.031889
    37     0.134815
    38    -0.003377
    39     0.009400
    40    -0.011424
    41    -0.051349
    42     0.059255
    43    -0.031727
    44    -0.004837
    45     0.000208
    46    -0.024987
    47    -0.009632
    48     0.003616
    49    -0.000029
    50    -0.000104
    51    -0.033483
    52     0.139411
    53     0.005388
    54     0.009341
    55    -0.011292
    56     0.056917
    57     0.060358
    58    -0.030817
    59    -0.011061
    60     0.000141
    61    -0.018294
    62     0.010209
    63    -0.005136
    64    -0.000808
Sym=    45a
Ene=   -0.119331E-02
Spin= Alpha
Occup= 0.000534
     1    -0.000418
     2    -0.003211
     3    -0.016576
     4    -0.041573
     5     0.008051
     6     0.004739
     7    -0.025951
     8    -0.073051
     9    -0.042578
    10     0.072776
    11     0.008600
    12     0.005336
    13    -0.016949
    14     0.019665
    15    -0.100225
    16    -0.014208
    17     0.121454
    18    -0.127681
    19    -0.074289
    20    -0.001716
    21    -0.039621
    22     0.137639
    23    -0.011753
    24    -0.013447
    25     0.005273
    26    -0.051910
    27    -0.086629
    28     0.018215
    29    -0.015770
    30     0.006227
    31    -0.014825
    32     0.015780
    33     0.002487
    34    -0.008465
    35    -0.001673
    36    -0.039600
    37     0.138401
    38    -0.017092
    39    -0.003415
    40     0.005187
    41    -0.100478
    42    -0.001241
    43     0.017781
    44     0.011963
    45    -0.022008
    46    -0.014649
    47    -0.002891
    48    -0.006084
    49     0.006590
    50    -0.022376
    51    -0.045945
    52    -0.126280
    53    -0.025386
    54    -0.014586
    55     0.042561
    56    -0.090206
    57    -0.051591
    58    -0.054756
    59     0.499079
    60     0.034698
    61    -0.370975
    62     0.460473
    63     0.580100
    64     0.334025
Sym=    46a
Ene=   -0.118965E-02
Spin= Alpha
Occup= 0.000533
     1     0.001049
     2     0.010596
     3     0.045230
     4     0.035634
     5    -0.008808
     6    -0.005092
     7    -0.025800
     8     0.078289
     9     0.045231
    10     0.072244
    11    -0.009341
    12    -0.005628
    13    -0.015949
    14    -0.034594
    15     0.086824
    16     0.009520
    17    -0.122410
    18    -0.129261
    19    -0.074997
    20     0.001817
    21     0.040157
    22    -0.136993
    23     0.011565
    24     0.014541
    25     0.005392
    26     0.051291
    27     0.087487
    28     0.018493
    29     0.016354
    30    -0.006767
    31     0.014883
    32    -0.015521
    33     0.002474
    34    -0.008639
    35     0.001779
    36     0.040193
    37    -0.137778
    38     0.018042
    39     0.002706
    40     0.005384
    41     0.101175
    42     0.000368
    43     0.018261
    44    -0.012097
    45     0.022133
    46     0.014801
    47     0.003591
    48    -0.006285
    49     0.006694
    50     0.022108
    51     0.044115
    52     0.131607
    53     0.026322
    54     0.015082
    55     0.041280
    56     0.095115
    57     0.054579
    58    -0.056741
    59    -0.501175
    60    -0.037791
    61     0.377867
    62    -0.460935
    63     0.575535
    64     0.331102
Sym=    47a
Ene=   -0.150681E-02
Spin= Alpha
Occup= 0.000684
     1    -0.000209
     2     0.009815
     3     0.164543
     4    -0.063842
     5    -0.014671
     6     0.007991
     7     0.000044
     8    -0.039522
     9    -0.035260
    10    -0.000300
    11     0.075098
    12    -0.031386
    13     0.000338
    14    -0.164819
    15     0.193563
    16    -0.046688
    17     0.094710
    18    -0.000866
    19     0.000249
    20    -0.000601
    21     0.003988
    22    -0.076691
    23    -0.018458
    24    -0.005784
    25    -0.000063
    26    -0.071194
    27     0.065034
    28    -0.000199
    29     0.010778
    30    -0.018210
    31     0.000447
    32     0.014948
    33     0.000013
    34     0.000026
    35     0.000446
    36     0.019643
    37    -0.028416
    38     0.017258
    39     0.009805
    40     0.000225
    41     0.022876
    42     0.073596
    43     0.000544
    44    -0.004480
    45     0.019571
    46     0.014251
    47    -0.022356
    48    -0.000169
    49     0.000105
    50    -0.063810
    51    -0.188221
    52    -0.106533
    53    -0.191003
    54     0.067785
    55     0.000436
    56    -0.302447
    57     0.164438
    58     0.000108
    59     0.665728
    60     0.101257
    61    -0.405740
    62    -0.703987
    63     0.002078
    64     0.000233
Sym=    48a
Ene=   -0.942308E-02
Spin= Alpha
Occup= 0.006763
     1     0.006650
     2     0.041142
     3     0.067927
     4    -0.063214
     5     0.040869
     6    -0.002128
     7    -0.000118
     8    -0.067016
     9    -0.023152
    10     0.000438
    11     0.015229
    12     0.083534
    13    -0.000215
    14     0.055071
    15    -0.031421
    16     0.023807
    17    -0.010692
    18     0.000109
    19    -0.000021
    20     0.001120
    21     0.023772
    22    -0.052456
    23    -0.001247
    24     0.003028
    25    -0.000046
    26     0.032989
    27     0.023829
    28    -0.000093
    29    -0.000644
    30     0.001559
    31     0.004256
    32    -0.002792
    33    -0.000003
    34     0.000006
    35    -0.000620
    36    -0.014367
    37     0.033659
    38    -0.004421
    39    -0.003611
    40    -0.000079
    41    -0.027773
    42    -0.043330
    43    -0.000178
    44     0.000633
    45    -0.004857
    46    -0.003657
    47     0.002051
    48     0.000022
    49    -0.000011
    50     0.204308
    51     0.931508
    52    -0.729051
    53     0.053918
    54     0.787087
    55     0.000017
    56     0.054178
    57     0.788733
    58     0.000000
    59    -0.158475
    60     0.086223
    61    -0.178285
    62     0.017323
    63     0.000026
    64    -0.000016
Sym=    49a
Ene=   -0.132762E-02
Spin= Alpha
Occup= 0.000616
     1    -0.006861
     2    -0.042003
     3    -0.297854
     4     0.149840
     5     0.046163
     6    -0.022045
     7     0.000584
     8    -0.255878
     9     0.151693
    10    -0.002239
    11     0.055505
    12    -0.025358
    13     0.001248
    14    -0.216151
    15     0.053899
    16     0.010552
    17     0.081276
    18     0.002063
    19    -0.001083
    20    -0.000199
    21    -0.003671
    22    -0.017768
    23     0.001592
    24    -0.014460
    25     0.000491
    26     0.003355
    27    -0.004748
    28     0.001152
    29     0.008221
    30    -0.007551
    31    -0.010933
    32    -0.003943
    33    -0.000022
    34    -0.000309
    35     0.031130
    36    -0.020815
    37     0.482151
    38     0.065580
    39     0.140893
    40    -0.000303
    41    -0.152923
    42     0.348056
    43    -0.001075
    44     0.082627
    45    -0.503356
    46     0.111128
    47     0.836908
    48    -0.000578
    49     0.000932
    50    -0.001052
    51    -0.020190
    52     0.068034
    53     0.004041
    54     0.013162
    55     0.000559
    56     0.021962
    57     0.064783
    58     0.001287
    59    -0.018122
    60     0.014590
    61    -0.005808
    62     0.010645
    63     0.000420
    64     0.000297
Sym=    50a
Ene=   -0.942147E-02
Spin= Alpha
Occup= 0.006724
     1     0.006433
     2     0.039904
     3     0.062330
     4    -0.059915
     5     0.023130
     6    -0.031993
     7    -0.000081
     8    -0.014371
     9     0.059173
    10     0.000330
    11    -0.066502
    12    -0.053737
    13    -0.000175
    14     0.000685
    15     0.018165
    16     0.025476
    17    -0.059971
    18     0.000094
    19    -0.000064
    20     0.204612
    21     0.930696
    22    -0.720502
    23    -0.649724
    24    -0.437275
    25    -0.000226
    26    -0.644784
    27    -0.447236
    28    -0.000247
    29     0.023541
    30    -0.100301
    31    -0.174004
    32     0.150464
    33     0.000065
    34     0.000042
    35    -0.000652
    36    -0.014085
    37     0.029585
    38     0.000637
    39     0.006383
    40    -0.000058
    41     0.027083
    42     0.046925
    43    -0.000137
    44    -0.005481
    45     0.001551
    46    -0.003879
    47    -0.001156
    48     0.000022
    49    -0.000019
    50     0.001110
    51     0.024009
    52    -0.051479
    53    -0.003588
    54    -0.000500
    55    -0.000021
    56    -0.001699
    57    -0.042221
    58    -0.000033
    59     0.006389
    60    -0.003545
    61     0.002924
    62    -0.000418
    63     0.000004
    64    -0.000005
Sym=    51a
Ene=   -0.132428E-02
Spin= Alpha
Occup= 0.000614
     1    -0.006839
     2    -0.040561
     3    -0.294957
     4     0.151189
     5     0.003205
     6     0.052299
     7     0.000599
     8     0.002236
     9    -0.304024
    10    -0.002290
    11     0.008931
    12     0.061024
    13     0.001245
    14     0.045881
    15    -0.220200
    16     0.008945
    17    -0.078828
    18    -0.000026
    19     0.002243
    20     0.030208
    21    -0.026318
    22     0.492063
    23     0.150852
    24    -0.015595
    25    -0.000245
    26     0.212697
    27    -0.317233
    28    -0.000952
    29     0.316555
    30    -0.728783
    31     0.105997
    32     0.673168
    33     0.000509
    34    -0.000599
    35    -0.000137
    36    -0.003614
    37    -0.013941
    38    -0.012124
    39     0.007132
    40     0.000521
    41    -0.008814
    42     0.001984
    43     0.001223
    44    -0.004574
    45     0.005769
    46    -0.010938
    47     0.005981
    48    -0.000280
    49     0.000140
    50    -0.001056
    51    -0.020062
    52     0.064301
    53     0.013474
    54    -0.002166
    55     0.000549
    56     0.062667
    57    -0.011989
    58     0.001233
    59     0.012181
    60    -0.016648
    61    -0.005584
    62    -0.011868
    63     0.000433
    64     0.000202
Sym=    52a
Ene=   -0.132209E-02
Spin= Alpha
Occup= 0.000613
     1     0.006964
     2     0.041086
     3     0.298952
     4    -0.153378
     5    -0.044051
     6     0.029199
     7    -0.000591
     8     0.264715
     9    -0.155894
    10     0.002273
    11    -0.048746
    12     0.040491
    13    -0.001274
    14     0.110794
    15     0.067305
    16    -0.010447
    17    -0.170372
    18    -0.001855
    19     0.001732
    20     0.001191
    21     0.019350
    22    -0.056595
    23     0.010719
    24     0.010362
    25    -0.000673
    26     0.043316
    27     0.042233
    28    -0.001604
    29     0.001013
    30    -0.002274
    31     0.010254
    32    -0.012070
    33     0.000012
    34     0.000445
    35    -0.029737
    36     0.029008
    37    -0.497453
    38     0.089313
    39     0.119293
    40     0.000185
    41     0.383502
    42     0.012519
    43     0.000988
    44     0.958273
    45    -0.551997
    46    -0.102641
    47    -0.241450
    48     0.000820
    49     0.000565
    50     0.000006
    51     0.004298
    52     0.007050
    53    -0.011393
    54    -0.008468
    55    -0.000419
    56    -0.007715
    57    -0.015650
    58    -0.000938
    59     0.011764
    60    -0.003410
    61     0.001929
    62     0.014526
    63    -0.000291
    64    -0.000200
Sym=    53a
Ene=   -0.257997E-05
Spin= Alpha
Occup= 0.000001
     1    -0.002325
     2    -0.034427
     3    -0.488330
     4     0.005896
     5    -0.012030
     6    -0.000859
     7    -0.017864
     8     0.183727
     9     0.010886
    10     0.068095
    11     0.035443
    12    -0.002104
    13    -0.039357
    14    -0.738412
    15    -0.742244
    16     1.182065
    17    -0.282917
    18    -0.002608
    19    -0.031387
    20    -0.000652
    21    -0.107792
    22     0.575120
    23     0.015963
    24     0.061847
    25     0.000656
    26     0.084611
    27    -0.259924
    28     0.007179
    29     0.068219
    30     0.061263
    31    -0.158359
    32    -0.037717
    33     0.000186
    34     0.000519
    35    -0.001248
    36    -0.062463
    37     0.341370
    38     0.061443
    39    -0.027932
    40    -0.010077
    41    -0.089422
    42     0.096526
    43    -0.021785
    44     0.045327
    45     0.099073
    46    -0.136391
    47     0.027687
    48     0.008316
    49    -0.004452
    50    -0.000208
    51    -0.155734
    52     0.816490
    53    -0.027992
    54    -0.023616
    55    -0.011711
    56     0.390843
    57     0.176894
    58    -0.025152
    59     0.093248
    60    -0.026502
    61    -0.130407
    62     0.060831
    63    -0.013349
    64    -0.006985
Sym=    54a
Ene=   -0.189643E-05
Spin= Alpha
Occup= 0.000000
     1    -0.000228
     2    -0.002505
     3    -0.035560
     4    -0.036424
     5     0.044884
     6    -0.012461
     7    -0.002386
     8    -0.683830
     9     0.153887
    10    -0.013410
    11    -0.120134
    12     0.025946
    13     0.131527
    14    -0.259215
    15     0.122459
    16     0.095134
    17     1.167986
    18     0.697162
    19    -0.551511
    20    -0.000373
    21     0.027367
    22    -0.144369
    23    -0.074705
    24     0.010336
    25     0.108353
    26    -0.377540
    27     0.101496
    28     0.296797
    29     0.038685
    30    -0.022156
    31     0.005715
    32     0.164634
    33    -0.018571
    34    -0.115679
    35     0.002629
    36    -0.218254
    37     1.118491
    38    -0.034096
    39    -0.011114
    40    -0.234199
    41    -0.629118
    42     0.209223
    43    -0.627695
    44     0.086888
    45    -0.142776
    46    -0.117748
    47    -0.115462
    48     0.146937
    49    -0.084040
    50    -0.001593
    51     0.140445
    52    -0.738986
    53    -0.034390
    54     0.021776
    55     0.056593
    56    -0.503321
    57    -0.025343
    58     0.153673
    59    -0.168761
    60     0.186792
    61     0.090081
    62    -0.041270
    63     0.066334
    64     0.064040
Sym=    55a
Ene=   -0.224075E-05
Spin= Alpha
Occup= 0.000000
     1    -0.000101
     2    -0.000484
     3    -0.029009
     4    -0.007197
     5     0.013539
     6    -0.051045
     7    -0.000892
     8    -0.276292
     9     0.917022
    10     0.011366
    11    -0.096154
    12     0.251074
    13    -0.049821
    14    -1.542808
    15     1.441925
    16     0.056907
    17     0.549564
    18    -0.311039
    19     0.226539
    20    -0.003567
    21     0.293554
    22    -1.529082
    23    -0.033429
    24     0.030165
    25    -0.046683
    26    -0.174925
    27     0.868225
    28    -0.126882
    29     0.259415
    30    -0.154291
    31     0.126827
    32     0.079459
    33     0.009096
    34     0.048013
    35     0.003165
    36    -0.247315
    37     1.280514
    38     0.018963
    39     0.078357
    40     0.099300
    41    -0.421120
    42     0.696984
    43     0.266831
    44    -0.088915
    45     0.011048
    46    -0.121298
    47    -0.253221
    48    -0.064111
    49     0.036247
    50     0.000961
    51    -0.078571
    52     0.403107
    53    -0.034705
    54     0.075546
    55    -0.030908
    56    -0.066407
    57     0.578421
    58    -0.082216
    59    -0.259350
    60     0.247939
    61    -0.051496
    62     0.242226
    63    -0.033794
    64    -0.029476
Sym=    56a
Ene=   -0.435493E-03
Spin= Alpha
Occup= 0.000088
     1    -0.068438
     2    -0.798184
     3    -3.314286
     4     0.551433
     5     0.008583
     6    -0.320550
     7     0.109270
     8    -0.065543
     9     2.188415
    10    -0.403781
    11     0.007009
    12    -0.300048
    13     0.178458
    14     0.518232
    15     1.647972
    16     1.114354
    17     0.036098
    18    -0.010591
    19     0.028654
    20     0.010868
    21     0.368080
    22    -1.431945
    23    -0.000389
    24     0.149054
    25     0.041647
    26    -0.003465
    27     1.208193
    28     0.083692
    29     0.211035
    30    -0.228720
    31     0.223104
    32     0.001312
    33     0.000088
    34    -0.024871
    35    -0.011772
    36    -0.293385
    37     0.943763
    38    -0.161081
    39     0.048837
    40     0.053752
    41    -0.725920
    42     0.289727
    43     0.117031
    44     0.126923
    45    -0.103538
    46    -0.201958
    47    -0.127747
    48    -0.029204
    49     0.017009
    50    -0.008704
    51    -0.266173
    52     0.864351
    53     0.154287
    54     0.053831
    55     0.051298
    56     0.664803
    57     0.268783
    58     0.106837
    59     0.085339
    60    -0.126472
    61    -0.146534
    62     0.034318
    63     0.039775
    64     0.022079
Sym=    57a
Ene=   -0.651704E-03
Spin= Alpha
Occup= 0.000021
     1     0.001928
     2    -0.017371
     3    -0.335564
     4    -0.011248
     5    -0.000102
     6    -0.017771
     7    -0.000394
     8     0.001304
     9    -0.232074
    10     0.001482
    11    -0.000165
    12    -0.095152
    13    -0.000717
    14     0.037733
    15    -0.082316
    16     0.119110
    17     0.000814
    18     0.000336
    19    -0.002065
    20     0.617745
    21     1.553433
    22     1.900993
    23    -0.000055
    24    -0.030775
    25     0.000295
    26    -0.000582
    27    -0.212005
    28     0.000957
    29    -1.536426
    30    -1.284940
    31    -1.336408
    32     0.001117
    33     0.000024
    34    -0.000223
    35     0.001749
    36     0.002940
    37     0.014628
    38     0.005620
    39     0.000698
    40    -0.000496
    41     0.013870
    42     0.010144
    43    -0.001213
    44    -0.010921
    45     0.001106
    46     0.000860
    47     0.005138
    48     0.000325
    49    -0.000164
    50     0.001573
    51     0.002425
    52     0.014285
    53    -0.005777
    54     0.001540
    55    -0.000367
    56    -0.014434
    57     0.011572
    58    -0.000845
    59    -0.000880
    60    -0.001212
    61    -0.005705
    62     0.003318
    63    -0.000351
    64    -0.000164
Sym=    58a
Ene=   -0.651634E-03
Spin= Alpha
Occup= 0.000021
     1     0.001981
     2    -0.016777
     3    -0.332956
     4    -0.011837
     5    -0.015361
     6     0.008780
     7    -0.000393
     8    -0.201660
     9     0.116142
    10     0.001476
    11    -0.082251
    12     0.047362
    13    -0.000698
    14    -0.050181
    15     0.003835
    16     0.118793
    17     0.062803
    18    -0.001784
    19     0.001350
    20     0.001748
    21     0.002678
    22     0.016362
    23     0.003209
    24     0.004631
    25    -0.000503
    26     0.014707
    27     0.005951
    28    -0.001235
    29     0.001776
    30    -0.011409
    31     0.000651
    32    -0.003305
    33     0.000030
    34     0.000378
    35     0.617757
    36     1.553460
    37     1.901319
    38    -0.027020
    39     0.014539
    40     0.000309
    41    -0.185340
    42     0.103551
    43     0.001029
    44    -1.354477
    45    -1.466819
    46    -1.336418
    47    -0.129737
    48    -0.000156
    49     0.000226
    50     0.001582
    51     0.002965
    52     0.011708
    53    -0.001641
    54    -0.005930
    55    -0.000403
    56     0.001470
    57    -0.019674
    58    -0.000936
    59     0.001457
    60    -0.003581
    61    -0.005387
    62     0.001160
    63    -0.000339
    64    -0.000243
Sym=    59a
Ene=   -0.636492E-06
Spin= Alpha
Occup= 0.000000
     1     0.000030
     2     0.002840
     3    -0.001564
     4    -0.005737
     5    -0.002905
     6    -0.002831
     7    -0.003365
     8    -0.014529
     9    -0.011351
    10    -0.107959
    11    -0.014259
    12    -0.016778
    13     0.762498
    14     0.052523
    15    -0.091736
    16    -0.008433
    17     0.094632
    18    -0.621826
    19    -0.571798
    20     0.000276
    21    -0.016080
    22     0.083169
    23    -0.008463
    24    -0.001335
    25     0.006696
    26    -0.039551
    27    -0.041966
    28     0.040574
    29    -0.012604
    30     0.004504
    31    -0.006788
    32     0.017265
    33     0.008514
    34    -0.146754
    35     0.000217
    36    -0.010517
    37     0.051477
    38    -0.007221
    39    -0.007735
    40    -0.069062
    41    -0.049588
    42    -0.027854
    43    -0.164982
    44     0.016285
    45    -0.021371
    46    -0.005975
    47     0.005706
    48    -0.066157
    49     0.056040
    50     0.000257
    51     0.006865
    52    -0.052153
    53     0.006781
    54     0.002429
    55    -0.343031
    56    -0.014590
    57    -0.018458
    58    -0.874304
    59    -0.004985
    60    -0.001682
    61     0.002585
    62    -0.016573
    63    -0.220035
    64    -0.120372
Sym=    60a
Ene=   -0.349062E-10
Spin= Alpha
Occup= 0.000000
     1     0.001195
     2     0.101424
     3    -0.196377
     4     1.957575
     5     0.001229
     6     0.001361
     7     0.001428
     8    -0.013621
     9    -0.013819
    10    -0.007398
    11     0.210336
    12    -0.040342
    13     0.015244
    14    -0.212247
    15    -0.221236
    16    -0.479521
    17     0.021391
    18     0.004938
    19    -0.001800
    20    -0.010272
    21     0.223923
    22    -0.876806
    23    -0.026221
    24    -0.001717
    25    -0.001157
    26    -0.082750
    27    -0.010269
    28    -0.003131
    29     0.075085
    30     0.195120
    31     0.140789
    32     0.011788
    33     0.007203
    34    -0.001507
    35    -0.012618
    36     0.282444
    37    -1.115878
    38    -0.004393
    39    -0.007134
    40    -0.002685
    41    -0.013728
    42    -0.024199
    43    -0.007364
    44     0.202255
    45     0.132784
    46     0.173667
    47    -0.067959
    48     0.016253
    49     0.026569
    50    -0.009028
    51     0.200413
    52    -0.783827
    53    -0.016165
    54     0.008441
    55    -0.000389
    56    -0.042224
    57     0.035676
    58    -0.001493
    59     0.140468
    60     0.143059
    61     0.077754
    62     0.032082
    63    -0.000250
    64     0.004437
Sym=    61a
Ene=    0.000000E+00
Spin= Alpha
Occup= 0.000000
     1     0.000118
     2    -0.001282
     3     0.015929
     4     0.050983
     5     0.005333
     6     0.007457
     7     0.000020
     8    -0.078770
     9    -0.104479
    10     0.002569
    11    -0.500424
    12    -0.766423
    13    -0.016397
    14     0.130678
    15    -0.051705
    16    -0.005269
    17     0.082534
    18     0.011070
    19    -0.010530
    20     0.006841
    21    -0.184703
    22     0.781074
    23     0.054957
    24     0.000204
    25     0.002877
    26     0.157778
    27    -0.068408
    28     0.010010
    29    -0.084055
    30    -0.110782
    31    -0.095240
    32    -0.011127
    33    -0.664928
    34    -0.000609
    35    -0.000183
    36     0.004869
    37    -0.016235
    38     0.055754
    39     0.084794
    40     0.005311
    41     0.166088
    42     0.243120
    43     0.007117
    44    -0.016883
    45     0.018540
    46     0.006853
    47    -0.010469
    48    -0.022630
    49    -0.043475
    50    -0.008689
    51     0.239543
    52    -1.011067
    53    -0.040043
    54     0.024953
    55    -0.000054
    56    -0.207401
    57     0.030358
    58     0.003614
    59     0.100484
    60     0.165026
    61     0.104060
    62     0.005127
    63    -0.241016
    64     0.418008
Sym=    62a
Ene=    0.000000E+00
Spin= Alpha
Occup= 0.000000
     1     0.000019
     2    -0.001286
     3     0.004794
     4    -0.001434
     5     0.001868
     6    -0.002268
     7    -0.000191
     8    -0.026197
     9     0.029892
    10     0.001317
    11    -0.193316
    12     0.217781
    13    -0.002005
    14    -0.013028
    15     0.038467
    16     0.002603
    17     0.027247
    18    -0.003524
    19    -0.011744
    20    -0.002252
    21     0.061916
    22    -0.261108
    23     0.021424
    24     0.004012
    25     0.001328
    26     0.062159
    27     0.040097
    28     0.005493
    29     0.028884
    30     0.031710
    31     0.035621
    32    -0.004391
    33    -0.433021
    34    -0.001588
    35     0.002614
    36    -0.070354
    37     0.296770
    38    -0.005628
    39    -0.008639
    40    -0.000845
    41    -0.039398
    42    -0.011963
    43    -0.001018
    44    -0.037692
    45    -0.035627
    46    -0.037500
    47     0.006537
    48     0.394646
    49     0.639121
    50    -0.000684
    51     0.019149
    52    -0.081093
    53     0.011708
    54    -0.026198
    55    -0.000259
    56     0.027941
    57    -0.085809
    58    -0.002551
    59     0.026749
    60    -0.006013
    61     0.008370
    62    -0.012792
    63     0.230082
    64    -0.403332
Sym=    63a
Ene=    0.000000E+00
Spin= Alpha
Occup= 0.000000
     1    -0.000163
     2     0.001296
     3    -0.020523
     4    -0.074337
     5    -0.007317
     6    -0.009388
     7    -0.000095
     8     0.106656
     9     0.132196
    10     0.000070
    11     0.678364
    12     0.971019
    13     0.002220
    14    -0.167405
    15     0.064535
    16     0.008859
    17    -0.110220
    18     0.010551
    19    -0.008486
    20    -0.008586
    21     0.232050
    22    -0.981713
    23    -0.074625
    24    -0.000687
    25    -0.002864
    26    -0.214603
    27     0.084666
    28    -0.002715
    29     0.105413
    30     0.139619
    31     0.119171
    32     0.016338
    33    -0.205145
    34    -0.001329
    35    -0.000081
    36     0.002247
    37    -0.015200
    38    -0.071791
    39    -0.109615
    40     0.000571
    41    -0.210955
    42    -0.315967
    43    -0.002713
    44     0.026180
    45    -0.019478
    46    -0.004350
    47     0.013213
    48     0.115722
    49     0.183068
    50     0.011462
    51    -0.315760
    52     1.332379
    53     0.050246
    54    -0.028386
    55     0.000720
    56     0.265629
    57    -0.027361
    58     0.002049
    59    -0.133882
    60    -0.217657
    61    -0.135897
    62    -0.005735
    63    -0.302369
    64     0.527433
Sym=    64a
Ene=    0.000000E+00
Spin= Alpha
Occup= 0.000000
     1    -0.000106
     2     0.002821
     3    -0.018295
     4    -0.027682
     5    -0.006243
     6    -0.002683
     7     0.000057
     8     0.090342
     9     0.040736
    10    -0.001212
    11     0.603766
    12     0.286428
    13     0.005101
    14    -0.082709
    15    -0.006881
    16    -0.000855
    17    -0.094557
    18     0.019682
    19     0.030648
    20    -0.002222
    21     0.058930
    22    -0.250549
    23    -0.066412
    24    -0.004978
    25    -0.002966
    26    -0.191491
    27     0.002366
    28    -0.013462
    29     0.025854
    30     0.041566
    31     0.026045
    32     0.014818
    33    -0.571193
    34     0.006332
    35    -0.003163
    36     0.084781
    37    -0.360216
    38    -0.033266
    39    -0.050661
    40    -0.000340
    41    -0.071116
    42    -0.160410
    43    -0.002395
    44     0.059148
    45     0.032160
    46     0.042056
    47    -0.001092
    48    -0.296922
    49    -0.482171
    50     0.007122
    51    -0.197172
    52     0.833367
    53     0.014558
    54     0.014196
    55     0.000928
    56     0.116419
    57     0.085610
    58     0.009260
    59    -0.106800
    60    -0.109761
    61    -0.086546
    62     0.013478
    63     0.218383
    64    -0.367770
