[Molden Format]
p30-5 set                                                                       
[Atoms] AU
 CL       1    17       -1.0601       -1.8796        0.0000
 O        2     8        0.0000        1.8117        0.0000
 O        3     8        2.2527        2.1824        0.0000
[GTO]
    1 0
s    5 1.00
   10449.827566000000  0.542659537894E-02
    1571.736522100000  0.406263781288E-01
     357.120655230000  0.183597478529E+00
     100.251859350000  0.474389487682E+00
      30.812727554000  0.437351811041E+00
s    3 1.00
      51.923789434000 -0.927541548481E-01
       5.704576097500  0.563808255442E+00
       2.350837680900  0.503670446297E+00
s    1 1.00
       0.446051246720  0.100000000000E+01
s    1 1.00
       0.168488561900  0.100000000000E+01
p    5 1.00
     307.667905690000 -0.887970255889E-02
      72.102015515000 -0.642840717212E-01
      22.532680262000 -0.242887397360E+00
       7.899176544400 -0.483408363699E+00
       2.876726832100 -0.389525638755E+00
p    1 1.00
       0.774593639550  0.100000000000E+01
p    1 1.00
       0.210376996980  0.100000000000E+01
d    1 1.00
       0.650000000000  0.100000000000E+01

    2 0
s    5 1.00
    2266.176778500000 -0.538935039217E-02
     340.870101910000 -0.402347213890E-01
      77.363135167000 -0.180081842055E+00
      21.479644940000 -0.468288576577E+00
       6.658943312400 -0.446926171602E+00
s    1 1.00
       0.809759756680  0.100000000000E+01
s    1 1.00
       0.255307722340  0.100000000000E+01
p    3 1.00
      17.721504317000  0.626302487632E-01
       3.863550544000  0.333311384824E+00
       1.048092088300  0.741486383081E+00
p    1 1.00
       0.276415444110  0.100000000000E+01
d    1 1.00
       1.200000000000  0.100000000000E+01

    3 0
s    5 1.00
    2266.176778500000 -0.538935039217E-02
     340.870101910000 -0.402347213890E-01
      77.363135167000 -0.180081842055E+00
      21.479644940000 -0.468288576577E+00
       6.658943312400 -0.446926171602E+00
s    1 1.00
       0.809759756680  0.100000000000E+01
s    1 1.00
       0.255307722340  0.100000000000E+01
p    3 1.00
      17.721504317000  0.626302487632E-01
       3.863550544000  0.333311384824E+00
       1.048092088300  0.741486383081E+00
p    1 1.00
       0.276415444110  0.100000000000E+01
d    1 1.00
       1.200000000000  0.100000000000E+01

[MO]
Sym=     1a
Ene=   -0.341603E+02
Spin= Alpha
Occup= 2.000000
     1     0.513945
     2     0.020367
     3    -0.009760
     4     0.000658
     5     0.186985
     6     0.060828
     7     0.823893
     8    -0.005931
     9    -0.003640
    10    -0.023754
    11     0.003636
    12    -0.000531
    13     0.018293
    14     0.004699
    15     0.004673
    16     0.004662
    17    -0.000006
    18     0.000008
    19    -0.000004
    20    -0.000007
    21    -0.000019
    22    -0.000118
    23     0.000063
    24    -0.000057
    25    -0.000215
    26     0.000003
    27     0.000063
    28    -0.000624
    29    -0.000008
    30    -0.000003
    31     0.000011
    32    -0.000010
    33    -0.000043
    34    -0.000015
    35     0.000002
    36    -0.000034
    37    -0.000020
    38     0.000010
    39     0.000054
    40    -0.000461
    41     0.000016
    42     0.000065
    43    -0.000266
    44    -0.000003
    45     0.000005
    46    -0.000002
    47     0.000003
    48     0.000013
    49    -0.000008
Sym=     2a
Ene=   -0.787434E+02
Spin= Alpha
Occup= 2.000000
     1    -0.848076
     2    -0.028228
     3     0.022104
     4     0.002684
     5     0.123531
     6     0.034734
     7     0.498509
     8    -0.003897
     9    -0.002233
    10    -0.014380
    11     0.002508
    12    -0.000205
    13     0.011060
    14    -0.007568
    15    -0.007551
    16    -0.007594
    17    -0.000001
    18     0.000005
    19    -0.000003
    20     0.000001
    21    -0.000000
    22     0.000069
    23     0.000039
    24     0.000049
    25    -0.000130
    26     0.000275
    27     0.000103
    28    -0.000377
    29    -0.000008
    30     0.000001
    31    -0.000034
    32    -0.000005
    33    -0.000026
    34    -0.000009
    35    -0.000009
    36     0.000039
    37    -0.000527
    38    -0.000011
    39    -0.000025
    40    -0.000279
    41     0.000269
    42     0.000216
    43    -0.000161
    44     0.000032
    45     0.000059
    46     0.000085
    47    -0.000024
    48     0.000008
    49    -0.000005
Sym=     3a
Ene=   -0.824995E+01
Spin= Alpha
Occup= 1.999990
     1     0.077882
     2    -0.281570
     3    -0.001249
     4     0.005347
     5    -0.910047
     6     0.217985
     7     0.197464
     8     0.023372
     9    -0.005063
    10    -0.004473
    11    -0.024145
    12     0.006352
    13     0.006013
    14    -0.000012
    15    -0.000072
    16     0.000006
    17    -0.000087
    18    -0.000070
    19     0.000024
    20    -0.000046
    21    -0.000394
    22    -0.000904
    23    -0.000100
    24    -0.000006
    25    -0.000082
    26     0.000230
    27    -0.000073
    28    -0.000178
    29     0.000059
    30     0.000013
    31    -0.000058
    32     0.000084
    33    -0.000016
    34    -0.000014
    35     0.000033
    36     0.000345
    37     0.000294
    38    -0.000236
    39    -0.000168
    40    -0.000164
    41    -0.000340
    42    -0.000293
    43    -0.000099
    44     0.000008
    45    -0.000051
    46    -0.000020
    47    -0.000007
    48     0.000007
    49    -0.000003
Sym=     4a
Ene=   -0.923374E+01
Spin= Alpha
Occup= 1.999968
     1    -0.219527
     2     0.708080
     3     0.006759
     4    -0.010833
     5    -0.036468
     6     0.719709
     7    -0.049658
     8    -0.002416
     9    -0.031320
    10    -0.000243
    11    -0.004282
    12     0.006108
    13    -0.003339
    14    -0.000309
    15     0.000070
    16    -0.000208
    17     0.000057
    18    -0.000044
    19    -0.000010
    20     0.000023
    21     0.000618
    22    -0.000632
    23    -0.000279
    24     0.000898
    25     0.000050
    26    -0.000045
    27     0.001159
    28     0.000071
    29     0.000107
    30    -0.000247
    31     0.000150
    32    -0.000083
    33     0.000011
    34     0.000016
    35     0.000019
    36     0.000096
    37     0.000015
    38     0.000014
    39    -0.000316
    40     0.000100
    41     0.000064
    42    -0.000370
    43     0.000064
    44     0.000026
    45     0.000011
    46     0.000036
    47     0.000016
    48    -0.000007
    49     0.000002
Sym=     5a
Ene=   -0.207571E+02
Spin= Alpha
Occup= 1.999963
     1     0.000071
     2    -0.000315
     3    -0.000383
     4     0.002039
     5    -0.000165
     6    -0.000181
     7     0.000021
     8    -0.000186
     9    -0.000438
    10    -0.000013
    11     0.000518
    12     0.001167
    13    -0.000017
    14    -0.000129
    15     0.000163
    16    -0.000218
    17     0.000298
    18    -0.000001
    19    -0.000000
    20    -0.992886
    21     0.029156
    22    -0.017221
    23     0.003422
    24    -0.000810
    25    -0.000022
    26    -0.001561
    27     0.001141
    28    -0.000015
    29    -0.003534
    30    -0.004259
    31    -0.003670
    32    -0.000012
    33    -0.000001
    34     0.000002
    35     0.000028
    36     0.000103
    37     0.005171
    38     0.001720
    39     0.000345
    40    -0.000009
    41    -0.001492
    42    -0.000518
    43    -0.000004
    44    -0.001786
    45    -0.000160
    46    -0.000121
    47    -0.000207
    48     0.000001
    49     0.000000
Sym=     6a
Ene=   -0.207204E+02
Spin= Alpha
Occup= 1.999962
     1     0.000004
     2     0.000056
     3    -0.000047
     4    -0.000309
     5    -0.000098
     6     0.000043
     7    -0.000001
     8     0.000104
     9     0.000119
    10    -0.000003
    11    -0.000311
    12    -0.000021
    13    -0.000003
    14     0.000137
    15     0.000211
    16     0.000189
    17    -0.000014
    18    -0.000001
    19     0.000000
    20    -0.000048
    21    -0.000235
    22    -0.004677
    23     0.001699
    24     0.000298
    25    -0.000001
    26    -0.001216
    27    -0.000218
    28    -0.000001
    29     0.001749
    30     0.000171
    31     0.000124
    32     0.000310
    33    -0.000000
    34     0.000000
    35     0.992504
    36    -0.029609
    37     0.014829
    38     0.003228
    39     0.000708
    40    -0.000001
    41    -0.001715
    42    -0.000260
    43    -0.000000
    44     0.003921
    45     0.004113
    46     0.004417
    47    -0.000008
    48    -0.000000
    49     0.000001
Sym=     7a
Ene=   -0.925902E+01
Spin= Alpha
Occup= 1.999960
     1    -0.220590
     2     0.710124
     3     0.010328
     4    -0.012732
     5    -0.323304
     6    -0.630273
     7     0.118926
     8     0.012718
     9     0.030310
    10    -0.004230
    11    -0.004389
    12    -0.003403
    13     0.001669
    14    -0.000046
    15     0.000001
    16    -0.000170
    17     0.000067
    18    -0.000013
    19    -0.000014
    20    -0.000036
    21     0.000015
    22     0.000502
    23    -0.000087
    24    -0.000403
    25    -0.000009
    26    -0.001193
    27    -0.000781
    28    -0.000078
    29     0.000003
    30     0.000078
    31     0.000098
    32     0.000022
    33    -0.000003
    34     0.000003
    35     0.000031
    36    -0.000272
    37     0.001923
    38     0.000116
    39     0.000037
    40    -0.000032
    41    -0.000926
    42    -0.000788
    43    -0.000015
    44    -0.000107
    45    -0.000189
    46    -0.000278
    47     0.000089
    48    -0.000001
    49    -0.000000
Sym=     8a
Ene=   -0.978204E+00
Spin= Alpha
Occup= 1.995655
     1    -0.001038
     2     0.008084
     3    -0.016091
     4    -0.013958
     5     0.003902
     6     0.009932
     7    -0.002414
     8     0.006016
     9     0.013720
    10    -0.005111
    11     0.006179
    12     0.005861
    13    -0.011184
    14    -0.004589
    15     0.012039
    16    -0.004814
    17     0.003312
    18     0.002393
    19     0.007782
    20     0.196517
    21     0.423354
    22     0.325815
    23    -0.159615
    24     0.012236
    25     0.431449
    26    -0.089552
    27     0.007597
    28     0.286414
    29     0.002800
    30     0.011131
    31     0.009688
    32     0.002226
    33     0.020401
    34    -0.001307
    35    -0.005208
    36    -0.019908
    37    -0.035104
    38     0.011824
    39     0.001104
    40     0.162134
    41     0.030892
    42     0.002940
    43     0.083182
    44     0.001548
    45    -0.002883
    46    -0.002247
    47    -0.000671
    48    -0.021652
    49    -0.003898
Sym=     9a
Ene=   -0.977160E+00
Spin= Alpha
Occup= 1.995614
     1     0.000990
     2    -0.007820
     3     0.015747
     4     0.014021
     5    -0.003961
     6    -0.009923
     7    -0.003580
     8    -0.006129
     9    -0.013725
    10    -0.007442
    11    -0.006446
    12    -0.005625
    13    -0.014225
    14     0.004764
    15    -0.012190
    16     0.004767
    17    -0.003378
    18     0.002529
    19     0.007851
    20    -0.196217
    21    -0.422537
    22    -0.325457
    23     0.159128
    24    -0.010160
    25     0.432416
    26     0.089217
    27    -0.006092
    28     0.287091
    29    -0.002794
    30    -0.011118
    31    -0.009633
    32    -0.002103
    33     0.020447
    34    -0.001234
    35     0.005281
    36     0.020044
    37     0.035162
    38    -0.012161
    39     0.000416
    40     0.162503
    41    -0.031042
    42    -0.002063
    43     0.083372
    44    -0.001496
    45     0.002841
    46     0.002244
    47     0.000555
    48    -0.021704
    49    -0.003900
Sym=    10a
Ene=   -0.936455E+00
Spin= Alpha
Occup= 1.994725
     1     0.001803
     2    -0.012076
     3     0.017236
     4     0.018327
     5     0.007243
     6     0.012551
     7    -0.000118
     8     0.013154
     9     0.021742
    10    -0.000322
    11     0.023880
    12     0.050037
    13    -0.000271
    14    -0.001094
    15     0.000293
    16     0.001801
    17    -0.003462
    18    -0.000017
    19     0.000024
    20    -0.016141
    21    -0.041272
    22    -0.078518
    23    -0.027279
    24     0.129547
    25    -0.000779
    26    -0.040769
    27     0.064519
    28    -0.000462
    29    -0.003566
    30     0.001830
    31    -0.002194
    32     0.022764
    33    -0.000063
    34    -0.000001
    35     0.199171
    36     0.426506
    37     0.342596
    38     0.064347
    39     0.463827
    40    -0.001056
    41     0.021704
    42     0.309004
    43    -0.000700
    44     0.008470
    45     0.004411
    46     0.008944
    47    -0.020565
    48     0.000065
    49     0.000014
Sym=    11a
Ene=   -0.938625E+00
Spin= Alpha
Occup= 1.994572
     1     0.001870
     2    -0.012164
     3     0.019988
     4     0.010618
     5     0.007865
     6     0.010900
     7    -0.000106
     8     0.014900
     9     0.019638
    10    -0.000301
    11     0.020579
    12     0.042026
    13    -0.000240
    14     0.000412
    15     0.001402
    16     0.003296
    17    -0.001778
    18    -0.000092
    19     0.000054
    20     0.000948
    21     0.014122
    22     0.011402
    23     0.005072
    24     0.122394
    25    -0.000624
    26     0.029490
    27     0.062425
    28    -0.000358
    29    -0.005774
    30     0.007379
    31     0.003201
    32     0.020534
    33    -0.000057
    34    -0.000000
    35    -0.197452
    36    -0.421259
    37    -0.331567
    38    -0.237264
    39     0.415234
    40    -0.001011
    41    -0.140569
    42     0.284024
    43    -0.000675
    44     0.003187
    45    -0.015994
    46    -0.008859
    47    -0.016779
    48     0.000058
    49     0.000011
Sym=    12a
Ene=   -0.718819E+00
Spin= Alpha
Occup= 1.993689
     1     0.048603
     2    -0.319473
     3     0.447206
     4     0.251318
     5    -0.016968
     6    -0.001342
     7    -0.200098
     8    -0.032516
     9    -0.001074
    10    -0.381699
    11    -0.042907
    12     0.000380
    13    -0.516733
    14     0.008918
    15     0.009526
    16     0.010470
    17     0.001199
    18    -0.000564
    19    -0.001242
    20    -0.006210
    21    -0.015517
    22    -0.021156
    23     0.007323
    24    -0.017276
    25     0.013725
    26     0.008410
    27    -0.006901
    28     0.010958
    29    -0.000769
    30     0.003152
    31    -0.001718
    32     0.001415
    33     0.002089
    34     0.003580
    35     0.000323
    36     0.001502
    37    -0.001103
    38    -0.003677
    39     0.008095
    40     0.018513
    41    -0.003052
    42     0.007766
    43     0.012164
    44    -0.000053
    45     0.000228
    46     0.000197
    47    -0.000245
    48    -0.001581
    49     0.000305
Sym=    13a
Ene=   -0.705406E+00
Spin= Alpha
Occup= 1.993558
     1     0.044828
     2    -0.298903
     3     0.422752
     4     0.240722
     5     0.163940
     6    -0.051028
     7     0.101388
     8     0.322674
     9    -0.102762
    10     0.200746
    11     0.436347
    12    -0.135503
    13     0.270879
    14     0.011430
    15     0.007938
    16     0.008281
    17     0.004531
    18     0.001714
    19     0.001524
    20    -0.003419
    21    -0.012392
    22     0.001128
    23     0.008897
    24    -0.019378
    25    -0.006809
    26     0.019361
    27    -0.007005
    28    -0.005437
    29    -0.002997
    30     0.004705
    31    -0.002101
    32    -0.001246
    33    -0.001084
    34    -0.001925
    35    -0.002950
    36    -0.008897
    37    -0.012612
    38     0.002067
    39     0.018951
    40    -0.009560
    41     0.007666
    42     0.014900
    43    -0.006341
    44    -0.001859
    45     0.000373
    46    -0.000957
    47    -0.000201
    48     0.000820
    49    -0.000163
Sym=    14a
Ene=   -0.656186E+00
Spin= Alpha
Occup= 1.992647
     1    -0.039282
     2     0.263615
     3    -0.378666
     4    -0.207650
     5     0.169859
     6    -0.042585
     7    -0.114068
     8     0.339754
     9    -0.085201
    10    -0.227811
    11     0.457117
    12    -0.114118
    13    -0.308166
    14    -0.007718
    15    -0.008807
    16    -0.008411
    17     0.003624
    18     0.000218
    19    -0.001270
    20     0.008987
    21     0.018482
    22     0.038214
    23    -0.006217
    24     0.010347
    25     0.008093
    26     0.002456
    27     0.005607
    28     0.006481
    29    -0.001311
    30    -0.000922
    31     0.001148
    32    -0.003513
    33     0.001245
    34     0.002161
    35    -0.003316
    36    -0.010744
    37    -0.009758
    38     0.008714
    39     0.002656
    40     0.010999
    41     0.012587
    42    -0.000194
    43     0.007222
    44    -0.001635
    45    -0.000019
    46    -0.001157
    47     0.000287
    48    -0.000941
    49     0.000183
Sym=    15a
Ene=   -0.114446E+01
Spin= Alpha
Occup= 1.979636
     1     0.000232
     2    -0.002016
     3     0.007893
     4     0.000566
     5    -0.008838
     6    -0.006900
     7    -0.000185
     8    -0.013904
     9    -0.009548
    10    -0.000332
    11    -0.028888
    12    -0.007824
    13    -0.000507
    14     0.004585
    15    -0.006587
    16     0.004255
    17    -0.000521
    18     0.000079
    19    -0.000016
    20     0.073386
    21     0.164500
    22    -0.052294
    23     0.472549
    24     0.032117
    25    -0.000011
    26     0.217420
    27     0.003241
    28    -0.000005
    29     0.047513
    30    -0.011753
    31    -0.010248
    32     0.004825
    33     0.000004
    34     0.000021
    35     0.069086
    36     0.155965
    37    -0.086829
    38    -0.448488
    39    -0.068344
    40    -0.000044
    41    -0.191328
    42    -0.026464
    43    -0.000026
    44     0.046212
    45    -0.007713
    46    -0.011373
    47     0.013141
    48     0.000001
    49    -0.000005
Sym=    16a
Ene=   -0.521594E+00
Spin= Alpha
Occup= 1.782895
     1    -0.003127
     2     0.023478
     3    -0.029545
     4    -0.064805
     5     0.046955
     6     0.187945
     7     0.000617
     8     0.079337
     9     0.321250
    10     0.000572
    11     0.095867
    12     0.401320
    13     0.002952
    14    -0.002245
    15     0.028849
    16    -0.010648
    17     0.018391
    18     0.000621
    19     0.000014
    20    -0.017605
    21    -0.054408
    22    -0.028093
    23     0.079660
    24    -0.446055
    25     0.000992
    26     0.081411
    27    -0.313314
    28     0.000715
    29    -0.006793
    30     0.012412
    31    -0.010846
    32    -0.002251
    33    -0.000032
    34    -0.000063
    35     0.000582
    36     0.004990
    37    -0.020196
    38    -0.024136
    39     0.161915
    40    -0.000235
    41    -0.014580
    42     0.173131
    43    -0.000279
    44    -0.003432
    45     0.004487
    46     0.001532
    47     0.007504
    48    -0.000008
    49    -0.000006
Sym=    17a
Ene=   -0.299060E+00
Spin= Alpha
Occup= 1.000000
     1    -0.000007
     2     0.000044
     3    -0.000048
     4    -0.000115
     5    -0.000028
     6    -0.000026
     7     0.012863
     8    -0.000093
     9    -0.000045
    10     0.023727
    11     0.000049
    12    -0.000173
    13     0.035762
    14    -0.000265
    15     0.000124
    16     0.000123
    17     0.000055
    18    -0.001343
    19    -0.009148
    20    -0.000007
    21    -0.000035
    22     0.000055
    23     0.000095
    24    -0.000498
    25    -0.318018
    26     0.000065
    27    -0.000585
    28    -0.286614
    29    -0.000006
    30     0.000019
    31    -0.000020
    32     0.000007
    33     0.011334
    34     0.005250
    35     0.000001
    36    -0.000000
    37     0.000016
    38    -0.000218
    39     0.001275
    40     0.679080
    41    -0.000159
    42     0.000872
    43     0.450609
    44    -0.000002
    45     0.000004
    46    -0.000003
    47     0.000007
    48    -0.005306
    49    -0.001438
Sym=    18a
Ene=   -0.877723E-01
Spin= Alpha
Occup= 0.216798
     1     0.010167
     2    -0.066403
     3     0.092294
     4     0.090497
     5     0.061223
     6     0.216498
     7    -0.000896
     8     0.112313
     9     0.406451
    10    -0.003745
    11     0.148333
    12     0.489837
    13     0.005195
    14     0.019899
    15    -0.005341
    16    -0.006270
    17     0.007833
    18     0.003615
    19     0.000184
    20    -0.037131
    21    -0.066549
    22    -0.154409
    23    -0.017468
    24     0.582838
    25    -0.001093
    26     0.036695
    27     0.321577
    28    -0.000861
    29     0.001372
    30    -0.003905
    31    -0.002589
    32     0.002810
    33     0.000254
    34    -0.000217
    35     0.000111
    36     0.004434
    37    -0.031778
    38    -0.000739
    39    -0.191661
    40     0.000272
    41     0.021909
    42    -0.189501
    43     0.000464
    44     0.003595
    45     0.000065
    46     0.000473
    47    -0.001871
    48    -0.000037
    49    -0.000031
Sym=    19a
Ene=   -0.230468E-01
Spin= Alpha
Occup= 0.019298
     1     0.000699
     2    -0.004913
     3     0.000909
     4     0.024024
     5    -0.004418
     6     0.004048
     7    -0.000132
     8    -0.005482
     9     0.007328
    10    -0.000433
    11    -0.017665
    12     0.022751
    13     0.000374
    14    -0.000766
    15    -0.001058
    16    -0.002011
    17    -0.002905
    18     0.003306
    19    -0.000517
    20     0.135590
    21     0.418945
    22     0.127428
    23     0.760766
    24     0.098367
    25     0.000163
    26     0.151113
    27     0.056612
    28    -0.000252
    29     0.077742
    30    -0.047211
    31    -0.037137
    32     0.011967
    33     0.000103
    34     0.000549
    35    -0.130837
    36    -0.393385
    37    -0.135401
    38     0.753265
    39     0.133422
    40     0.000010
    41     0.178565
    42     0.029112
    43    -0.000019
    44    -0.085083
    45     0.030222
    46     0.046501
    47    -0.029234
    48    -0.000065
    49     0.000193
Sym=    20a
Ene=   -0.459129E-02
Spin= Alpha
Occup= 0.004817
     1    -0.035733
     2     0.278168
     3    -1.049333
     4     0.974699
     5     0.190881
     6    -0.024215
     7    -0.141367
     8     0.624362
     9    -0.100640
    10    -0.466995
    11    -0.513412
    12     0.174513
    13     0.404272
    14    -0.294861
    15     0.368441
    16    -0.000200
    17     0.136611
    18     0.511542
    19    -0.085469
    20    -0.004846
    21     0.066980
    22    -0.289161
    23     0.020441
    24     0.064348
    25    -0.004317
    26     0.021859
    27     0.075005
    28    -0.038856
    29     0.001412
    30    -0.000133
    31     0.018436
    32     0.005644
    33    -0.002937
    34    -0.005742
    35     0.001498
    36    -0.000186
    37     0.054277
    38    -0.009886
    39    -0.009426
    40     0.003465
    41    -0.040266
    42    -0.022144
    43     0.004199
    44     0.001516
    45     0.001691
    46     0.005580
    47     0.000110
    48     0.002576
    49    -0.000484
Sym=    21a
Ene=   -0.444141E-02
Spin= Alpha
Occup= 0.004424
     1    -0.036970
     2     0.291355
     3    -1.079724
     4     0.965354
     5    -0.185263
     6     0.078406
     7    -0.136752
     8    -0.614112
     9     0.241292
    10    -0.452041
    11     0.543298
    12    -0.130810
    13     0.392211
    14    -0.222103
    15     0.284083
    16     0.051904
    17     0.340502
    18    -0.416861
    19     0.202493
    20    -0.007322
    21     0.024477
    22    -0.128619
    23    -0.024923
    24     0.071242
    25    -0.002927
    26     0.084030
    27     0.089429
    28    -0.041554
    29     0.004276
    30    -0.001286
    31     0.007664
    32     0.002954
    33    -0.003060
    34    -0.005075
    35     0.000243
    36     0.017946
    37    -0.072026
    38     0.006775
    39    -0.006672
    40     0.006943
    41     0.022078
    42     0.044592
    43     0.004827
    44     0.001982
    45    -0.001153
    46    -0.003497
    47    -0.005212
    48     0.002591
    49    -0.000329
Sym=    22a
Ene=   -0.435043E-02
Spin= Alpha
Occup= 0.004255
     1     0.041724
     2    -0.336344
     3     1.216651
     4    -1.024194
     5    -0.034055
     6    -0.018280
     7    -0.264932
     8    -0.107928
     9    -0.040843
    10    -0.875048
    11     0.072531
    12    -0.049394
    13     0.757317
    14    -0.302878
    15    -0.367515
    16     0.465322
    17    -0.056102
    18     0.065191
    19    -0.049723
    20     0.005671
    21    -0.048519
    22     0.215049
    23    -0.000294
    24    -0.061602
    25    -0.004379
    26    -0.056800
    27    -0.084576
    28    -0.067641
    29    -0.003500
    30     0.000463
    31    -0.012814
    32    -0.003920
    33    -0.005368
    34    -0.003630
    35    -0.000900
    36    -0.009613
    37     0.011910
    38     0.001895
    39     0.008572
    40     0.005960
    41     0.009140
    42    -0.014231
    43     0.008775
    44    -0.001290
    45    -0.001153
    46    -0.001989
    47     0.002719
    48     0.003184
    49    -0.000896
Sym=    23a
Ene=   -0.665332E-02
Spin= Alpha
Occup= 0.004890
     1     0.000950
     2    -0.005624
     3     0.001662
     4     0.004274
     5     0.006998
     6     0.003446
     7    -0.001432
     8    -0.000547
     9     0.001549
    10    -0.004740
    11     0.054900
    12     0.003922
    13     0.004130
    14     0.005515
    15     0.001510
    16    -0.010584
    17     0.011656
    18    -0.015651
    19     0.006047
    20     0.006704
    21    -0.007820
    22     0.259503
    23     0.050312
    24    -0.065374
    25     0.000351
    26     0.156800
    27    -0.104334
    28    -0.000345
    29     0.021238
    30     0.001225
    31    -0.005385
    32     0.016183
    33    -0.000473
    34    -0.000643
    35     0.261589
    36     1.264205
    37    -1.161898
    38     0.393588
    39    -0.605276
    40     0.001849
    41    -0.279301
    42     0.768422
    43    -0.001891
    44    -0.161339
    45    -0.021240
    46    -0.203278
    47    -0.120014
    48     0.000395
    49    -0.000132
Sym=    24a
Ene=   -0.644980E-02
Spin= Alpha
Occup= 0.004751
     1    -0.000500
     2     0.003945
     3     0.004427
     4    -0.021078
     5    -0.001398
     6    -0.000522
     7     0.000548
     8     0.006334
     9     0.007586
    10     0.001822
    11    -0.035943
    12    -0.021003
    13    -0.001602
    14     0.002586
    15     0.001502
    16     0.009156
    17    -0.006155
    18     0.003063
    19    -0.001330
    20     0.007234
    21    -0.016494
    22     0.331435
    23     0.033985
    24     0.084159
    25    -0.000151
    26     0.129841
    27     0.143113
    28    -0.000136
    29     0.029251
    30    -0.002372
    31    -0.003817
    32    -0.007249
    33     0.000445
    34     0.000017
    35     0.260512
    36     1.266131
    37    -1.199319
    38     0.164673
    39     0.706921
    40    -0.001562
    41     0.036889
    42    -0.816399
    43     0.001762
    44    -0.212361
    45     0.027677
    46    -0.201183
    47     0.033525
    48    -0.000183
    49    -0.000010
Sym=    25a
Ene=   -0.550576E-02
Spin= Alpha
Occup= 0.003897
     1    -0.001712
     2     0.007800
     3     0.082722
     4    -0.231635
     5    -0.006960
     6    -0.025793
     7     0.006524
     8    -0.020293
     9    -0.044631
    10    -0.004499
    11    -0.012024
    12    -0.167971
    13     0.096973
    14    -0.013785
    15    -0.028022
    16     0.035711
    17    -0.016002
    18    -0.005291
    19     0.003508
    20    -0.263181
    21    -1.312731
    22     1.301892
    23     0.294497
    24    -0.032842
    25     0.664693
    26    -0.180831
    27    -0.002077
    28    -0.824263
    29     0.199297
    30     0.199426
    31    -0.004103
    32    -0.000050
    33    -0.072109
    34     0.014083
    35    -0.005686
    36     0.016925
    37    -0.289810
    38     0.045260
    39     0.009125
    40     0.089870
    41     0.143108
    42    -0.003779
    43     0.132549
    44    -0.029171
    45     0.004531
    46     0.001236
    47    -0.007552
    48     0.006449
    49     0.000847
Sym=    26a
Ene=   -0.546424E-02
Spin= Alpha
Occup= 0.003855
     1     0.001912
     2    -0.010459
     3    -0.077306
     4     0.235810
     5     0.003322
     6     0.025678
     7     0.000244
     8     0.008269
     9     0.044024
    10    -0.025139
    11     0.022240
    12     0.168545
    13     0.114588
    14    -0.016669
    15     0.037786
    16    -0.026876
    17     0.020225
    18     0.021274
    19     0.016642
    20     0.263991
    21     1.317502
    22    -1.310538
    23    -0.295833
    24     0.039446
    25     0.664360
    26     0.179870
    27    -0.003480
    28    -0.827127
    29    -0.199807
    30    -0.200728
    31     0.002286
    32     0.000436
    33    -0.072124
    34     0.008558
    35     0.005649
    36    -0.017905
    37     0.295155
    38    -0.044745
    39    -0.008936
    40     0.090426
    41    -0.147343
    42     0.004596
    43     0.132939
    44     0.029339
    45    -0.004793
    46    -0.001713
    47     0.007526
    48     0.006781
    49     0.000593
Sym=    27a
Ene=   -0.438158E-03
Spin= Alpha
Occup= 0.000040
     1     0.089023
     2    -1.036185
     3     2.599294
     4     0.390793
     5     0.106300
     6     0.243997
     7    -0.041764
     8     0.358656
     9     0.836457
    10    -0.137634
    11    -0.343339
    12    -0.854100
    13     0.118555
    14    -1.070981
    15    -1.158238
    16    -1.402486
    17     0.031358
    18    -0.108212
    19    -0.014742
    20    -0.003935
    21    -0.103132
    22     0.268547
    23     0.010118
    24    -0.106776
    25     0.003023
    26    -0.083902
    27    -0.092537
    28    -0.012042
    29     0.009221
    30     0.034894
    31    -0.047133
    32    -0.005477
    33    -0.002933
    34    -0.013436
    35     0.000909
    36    -0.021131
    37     0.068110
    38     0.015635
    39     0.020124
    40     0.002070
    41    -0.033044
    42    -0.024581
    43     0.001362
    44    -0.015147
    45    -0.010829
    46    -0.018116
    47    -0.009965
    48     0.000682
    49     0.000164
Sym=    28a
Ene=   -0.337529E-04
Spin= Alpha
Occup= 0.000001
     1     0.000096
     2    -0.003796
     3     0.002151
     4     0.023590
     5    -0.000601
     6    -0.000054
     7    -0.001158
     8    -0.002092
     9    -0.000758
    10    -0.009713
    11     0.002213
    12     0.002599
    13     0.036583
    14    -0.007370
    15    -0.018426
    16    -0.005275
    17    -0.003025
    18     0.005563
    19     0.032456
    20     0.000014
    21     0.000406
    22    -0.011951
    23    -0.002177
    24    -0.001855
    25     0.060759
    26    -0.001630
    27    -0.001103
    28    -0.450844
    29     0.007544
    30    -0.003223
    31    -0.004478
    32    -0.008147
    33    -0.143370
    34     0.005120
    35     0.000172
    36    -0.002013
    37     0.011069
    38     0.005209
    39    -0.000894
    40    -0.895162
    41    -0.011948
    42     0.003501
    43     1.243951
    44     0.001558
    45    -0.005862
    46    -0.000857
    47    -0.008884
    48    -0.001127
    49    -0.000296
Sym=    29a
Ene=   -0.232764E-04
Spin= Alpha
Occup= 0.000001
     1     0.001997
     2    -0.072051
     3     0.424558
     4    -0.549715
     5     0.004886
     6    -0.000393
     7     0.009014
     8     0.050578
     9     0.116236
    10     0.030572
    11    -0.251977
    12    -0.790421
    13    -0.028516
    14    -0.016039
    15    -0.574557
    16     0.121771
    17    -0.216194
    18    -0.007495
    19     0.027844
    20     0.012790
    21    -0.203199
    22     0.811780
    23     0.052207
    24     0.858324
    25    -0.000113
    26    -0.152304
    27    -1.708083
    28     0.002310
    29    -0.057809
    30    -0.024086
    31    -0.241501
    32    -0.040594
    33     0.012709
    34    -0.061341
    35     0.001659
    36     0.011482
    37     0.056882
    38    -0.002277
    39    -0.033096
    40     0.001756
    41    -0.063022
    42     0.510166
    43    -0.002888
    44    -0.032995
    45    -0.043083
    46     0.046071
    47    -0.245616
    48     0.003633
    49     0.002530
Sym=    30a
Ene=    0.233044E-11
Spin= Alpha
Occup= 0.000000
     1     0.000091
     2     0.003358
     3     0.032097
     4    -0.098730
     5     0.001143
     6     0.001801
     7     0.007697
     8     0.001948
     9     0.020901
    10     0.032520
    11     0.012478
    12    -0.064257
    13    -0.043476
    14     0.026892
    15    -0.005185
    16     0.034879
    17     0.015999
    18    -0.013200
    19    -0.012634
    20     0.004637
    21     0.073563
    22    -0.541181
    23    -0.023792
    24    -0.004080
    25     0.001710
    26    -0.487671
    27    -0.037665
    28    -0.081494
    29    -0.467753
    30     0.175986
    31     0.160797
    32     0.373623
    33    -0.105623
    34    -0.668450
    35    -0.003625
    36    -0.086864
    37     0.620277
    38    -0.053441
    39    -0.018116
    40    -0.005012
    41    -0.405566
    42    -0.178370
    43     0.075553
    44     0.291133
    45    -0.042902
    46    -0.156913
    47     0.233146
    48    -0.187954
    49    -0.465300
Sym=    31a
Ene=   -0.929348E-04
Spin= Alpha
Occup= 0.000010
     1     0.028486
     2    -0.379101
     3     0.781461
     4     0.628614
     5    -0.248809
     6     0.061737
     7     0.059957
     8    -0.828605
     9     0.189518
    10     0.199214
    11     0.743066
    12    -0.107090
    13    -0.176428
    14    -0.704104
    15    -0.450660
    16    -0.503556
    17    -0.156025
    18     0.564974
    19    -0.285668
    20    -0.000789
    21     0.046574
    22    -0.204535
    23     0.025831
    24    -0.010421
    25    -0.013836
    26    -0.108424
    27     0.062791
    28     0.046387
    29     0.015566
    30    -0.001773
    31     0.019790
    32    -0.003671
    33     0.004416
    34    -0.017820
    35    -0.001926
    36     0.022762
    37     0.015768
    38    -0.005319
    39    -0.026199
    40    -0.003914
    41    -0.046347
    42     0.052240
    43    -0.011539
    44     0.019670
    45     0.003409
    46     0.034147
    47    -0.019146
    48     0.001531
    49     0.000138
Sym=    32a
Ene=   -0.121535E-12
Spin= Alpha
Occup= 0.000000
     1    -0.000044
     2     0.004908
     3     0.030074
     4    -0.106523
     5     0.001465
     6     0.001332
     7     0.001134
     8     0.011231
     9     0.016702
    10     0.000457
    11    -0.018958
    12    -0.060142
    13     0.011962
    14     0.010222
    15     0.010162
    16     0.040560
    17     0.002131
    18     0.004662
    19    -0.001715
    20     0.011601
    21     0.074404
    22    -1.105803
    23    -0.215891
    24     0.007431
    25    -0.012034
    26    -0.644545
    27    -0.183868
    28    -0.127523
    29    -0.242715
    30    -0.035381
    31    -0.006606
    32     0.070438
    33    -0.180860
    34    -0.086258
    35     0.010886
    36    -0.254022
    37     1.480257
    38     0.210023
    39     0.037684
    40    -0.005212
    41    -1.146822
    42    -0.197511
    43     0.083852
    44     0.388449
    45    -0.245560
    46    -0.432896
    47     0.145796
    48    -0.626038
    49     0.580722
Sym=    33a
Ene=   -0.166563E-12
Spin= Alpha
Occup= 0.000000
     1    -0.000051
     2     0.002445
     3     0.028427
     4    -0.096515
     5     0.001075
     6     0.000339
     7     0.001990
     8     0.006847
     9     0.010154
    10     0.008033
    11    -0.005095
    12    -0.073387
    13    -0.013507
    14     0.013276
    15    -0.008835
    16     0.024372
    17     0.004501
    18     0.001888
    19    -0.012233
    20     0.014086
    21     0.181515
    22    -1.321863
    23    -0.210177
    24     0.013776
    25     0.007495
    26    -0.954783
    27    -0.315916
    28     0.090613
    29    -0.809904
    30     0.263160
    31     0.182205
    32    -0.604301
    33     0.137114
    34     0.081755
    35    -0.008802
    36    -0.233180
    37     1.460235
    38    -0.122455
    39    -0.011581
    40     0.003965
    41    -1.068966
    42    -0.056052
    43    -0.062427
    44     0.994771
    45    -0.291615
    46    -0.477132
    47     0.103771
    48     0.368185
    49    -0.049851
Sym=    34a
Ene=   -0.282234E-03
Spin= Alpha
Occup= 0.000306
     1     0.011380
     2     0.015227
     3     0.392655
     4    -1.302528
     5    -0.010463
     6     0.003714
     7     0.025801
     8    -0.021090
     9     0.054273
    10     0.084204
    11    -0.042568
    12    -0.235339
    13    -0.071317
    14    -0.049743
    15     0.993274
    16     0.090121
    17     0.092982
    18    -0.096742
    19    -0.274303
    20    -0.000501
    21    -0.029805
    22     0.293442
    23     0.005825
    24     0.219219
    25    -0.018106
    26     0.032729
    27    -0.326562
    28     0.047524
    29    -0.169288
    30     0.166959
    31    -0.006604
    32     0.171517
    33    -0.001793
    34     0.183843
    35    -0.001142
    36     0.018242
    37    -0.112641
    38    -0.079088
    39    -0.005805
    40    -0.022561
    41     0.153666
    42     0.008559
    43     0.004773
    44     0.018381
    45     0.027729
    46     0.016540
    47     0.039556
    48    -0.011387
    49    -0.005184
Sym=    35a
Ene=   -0.196051E-02
Spin= Alpha
Occup= 0.001066
     1    -0.000815
     2     0.005116
     3     0.011058
     4    -0.034950
     5     0.002307
     6    -0.002372
     7     0.002460
     8     0.039373
     9     0.002281
    10     0.008218
    11    -0.129073
    12    -0.015576
    13    -0.007352
    14    -0.014484
    15    -0.005068
    16     0.029639
    17    -0.068577
    18     0.024359
    19    -0.007199
    20    -0.016080
    21    -0.238321
    22     0.252619
    23    -0.228025
    24    -0.015103
    25     0.000052
    26     0.482577
    27     0.026488
    28     0.000686
    29    -0.506522
    30     0.231034
    31     0.150135
    32    -0.109968
    33     0.001508
    34    -0.007283
    35    -0.013667
    36    -0.208772
    37     0.148602
    38     0.222987
    39     0.046294
    40     0.000072
    41    -0.438113
    42    -0.083575
    43    -0.000415
    44    -0.461122
    45     0.118520
    46     0.225831
    47    -0.121505
    48    -0.000341
    49     0.000715
Sym=    36a
Ene=   -0.243024E-02
Spin= Alpha
Occup= 0.002536
     1    -0.000567
     2    -0.001306
     3    -0.023173
     4     0.081294
     5     0.042373
     6     0.059468
     7     0.070750
     8     0.135163
     9     0.189258
    10     0.232340
    11    -0.098244
    12    -0.134790
    13    -0.196744
    14    -0.595066
    15     0.244404
    16     0.293962
    17    -0.590608
    18    -0.080893
    19     0.485281
    20     0.005600
    21     0.045480
    22    -0.121237
    23     0.028962
    24    -0.073935
    25     0.005469
    26    -0.078241
    27     0.053921
    28    -0.021457
    29     0.004743
    30     0.003964
    31     0.022562
    32    -0.003816
    33    -0.004005
    34    -0.000925
    35    -0.000948
    36    -0.014268
    37     0.093887
    38    -0.009842
    39     0.005219
    40     0.009530
    41    -0.051026
    42    -0.060806
    43     0.002063
    44    -0.005460
    45     0.006004
    46     0.009678
    47     0.007124
    48     0.001531
    49     0.000842
Sym=    37a
Ene=   -0.207163E-02
Spin= Alpha
Occup= 0.002018
     1    -0.016035
     2     0.146610
     3    -0.468096
     4     0.251839
     5    -0.028973
     6    -0.041518
     7    -0.163097
     8    -0.100500
     9    -0.146486
    10    -0.537751
    11     0.104106
    12     0.159230
    13     0.462670
    14     0.409476
    15     0.255481
    16    -0.412945
    17    -0.655289
    18    -0.189810
    19    -0.235555
    20     0.000534
    21     0.042478
    22    -0.214806
    23     0.022210
    24     0.027179
    25     0.000788
    26    -0.073267
    27    -0.012120
    28    -0.025464
    29    -0.006571
    30     0.004440
    31     0.012967
    32     0.005683
    33    -0.001011
    34    -0.002271
    35     0.000225
    36    -0.004845
    37     0.106627
    38    -0.000812
    39    -0.004659
    40    -0.000348
    41    -0.086095
    42     0.002950
    43     0.003129
    44     0.000983
    45     0.000650
    46     0.002732
    47     0.000059
    48     0.000571
    49    -0.001023
Sym=    38a
Ene=   -0.213317E-02
Spin= Alpha
Occup= 0.002055
     1    -0.022528
     2     0.189654
     3    -0.650693
     4     0.478199
     5     0.067596
     6     0.053194
     7     0.068286
     8     0.218394
     9     0.163924
    10     0.227976
    11    -0.168654
    12    -0.088807
    13    -0.205841
    14    -0.217576
    15    -0.110877
    16     0.525503
    17    -0.089550
    18    -0.364148
    19    -0.706253
    20     0.002838
    21     0.024477
    22    -0.039539
    23     0.009701
    24    -0.090893
    25    -0.023611
    26     0.008499
    27     0.109006
    28     0.111344
    29     0.018269
    30     0.001264
    31     0.015710
    32    -0.008477
    33     0.009796
    34     0.003611
    35    -0.000786
    36     0.004759
    37    -0.031103
    38    -0.006568
    39    -0.000837
    40    -0.018576
    41     0.023936
    42    -0.027324
    43    -0.018154
    44    -0.003658
    45     0.008498
    46     0.012335
    47     0.003989
    48    -0.003812
    49    -0.000836
Sym=    39a
Ene=   -0.111113E-02
Spin= Alpha
Occup= 0.000539
     1    -0.000053
     2    -0.001677
     3     0.004040
     4    -0.000382
     5    -0.000032
     6     0.004443
     7    -0.000096
     8     0.001692
     9     0.018038
    10    -0.000408
    11    -0.012877
    12    -0.038333
    13     0.000687
    14    -0.005470
    15    -0.013108
    16    -0.003428
    17    -0.012423
    18     0.003693
    19    -0.001052
    20     0.000531
    21    -0.050165
    22     0.162636
    23    -0.079662
    24     0.123544
    25     0.000246
    26     0.092088
    27    -0.050611
    28    -0.003403
    29    -0.036914
    30    -0.017657
    31    -0.047682
    32    -0.068373
    33     0.004522
    34    -0.000713
    35     0.064720
    36     0.269154
    37    -0.201187
    38     0.081619
    39    -0.037416
    40    -0.004076
    41    -0.070453
    42     0.092395
    43     0.004867
    44    -0.130651
    45    -0.511022
    46     0.465206
    47     0.789158
    48    -0.009185
    49     0.012543
Sym=    40a
Ene=   -0.107758E-02
Spin= Alpha
Occup= 0.000524
     1    -0.000520
     2     0.007489
     3    -0.014501
     4    -0.011081
     5     0.004195
     6    -0.000516
     7    -0.001862
     8     0.012050
     9    -0.004193
    10    -0.006025
    11    -0.006622
    12     0.017724
    13     0.004782
    14     0.016275
    15     0.013712
    16     0.007474
    17    -0.000549
    18    -0.010673
    19     0.006473
    20     0.001079
    21    -0.025197
    22     0.106783
    23    -0.046089
    24    -0.132778
    25     0.000190
    26     0.093698
    27     0.055083
    28     0.003100
    29    -0.062357
    30     0.008038
    31    -0.018606
    32     0.064193
    33    -0.004264
    34    -0.005701
    35     0.063181
    36     0.264272
    37    -0.202232
    38     0.039750
    39     0.061273
    40     0.006274
    41    -0.010153
    42    -0.106346
    43    -0.007192
    44     0.254955
    45    -0.884240
    46     0.460156
    47    -0.497111
    48     0.005248
    49     0.020192
Sym=    41a
Ene=   -0.101815E-02
Spin= Alpha
Occup= 0.000489
     1    -0.000355
     2     0.001308
     3    -0.013457
     4     0.043353
     5    -0.000067
     6    -0.010463
     7     0.004825
     8     0.005954
     9    -0.032489
    10     0.022320
    11    -0.013212
    12     0.055425
    13    -0.038124
    14    -0.010881
    15    -0.002464
    16     0.006719
    17    -0.012472
    18    -0.000874
    19    -0.013028
    20     0.050650
    21     0.226533
    22    -0.228705
    23    -0.058103
    24    -0.039992
    25    -0.043068
    26     0.052775
    27     0.082207
    28     0.081052
    29     0.108684
    30     0.480727
    31    -0.693293
    32    -0.053878
    33    -0.677501
    34    -0.083443
    35    -0.000250
    36    -0.038458
    37     0.116588
    38     0.067452
    39     0.013697
    40     0.108977
    41    -0.088586
    42    -0.044019
    43    -0.003174
    44    -0.053590
    45    -0.026749
    46    -0.002046
    47     0.009623
    48     0.077884
    49     0.012086
Sym=    42a
Ene=   -0.101974E-02
Spin= Alpha
Occup= 0.000490
     1     0.000526
     2    -0.003058
     3     0.020748
     4    -0.051752
     5    -0.000119
     6     0.007717
     7     0.001512
     8    -0.005940
     9     0.023914
    10     0.009516
    11     0.009989
    12    -0.054044
    13    -0.022406
    14     0.008341
    15     0.002685
    16    -0.008927
    17     0.011781
    18    -0.005490
    19    -0.014291
    20    -0.051645
    21    -0.230143
    22     0.225202
    23     0.055236
    24     0.056747
    25    -0.044831
    26    -0.051593
    27    -0.110035
    28     0.082833
    29    -0.098934
    30    -0.477129
    31     0.685636
    32     0.011955
    33    -0.688323
    34     0.072922
    35     0.000342
    36     0.037910
    37    -0.110902
    38    -0.067548
    39    -0.013287
    40     0.105887
    41     0.082659
    42     0.060000
    43    -0.003377
    44     0.054140
    45     0.025804
    46     0.001387
    47    -0.011153
    48     0.076334
    49     0.014978
Sym=    43a
Ene=   -0.102558E-07
Spin= Alpha
Occup= 0.000000
     1     0.001432
     2    -0.075655
     3     0.089687
     4     0.378398
     5     0.000259
     6    -0.000359
     7    -0.011306
     8     0.005462
     9     0.013708
    10    -0.044304
    11    -0.029463
    12    -0.059294
    13     0.056248
    14    -0.065740
    15    -0.480463
    16    -0.080997
    17    -0.091119
    18     0.038826
    19     0.094825
    20     0.005266
    21    -0.095812
    22     1.052723
    23    -0.017171
    24     0.001634
    25    -0.003505
    26     0.514807
    27     0.120881
    28    -0.013089
    29    -0.528917
    30     0.357292
    31    -0.002580
    32     0.528292
    33    -0.036390
    34     0.523790
    35    -0.014564
    36     0.158748
    37    -1.150846
    38    -0.230881
    39    -0.063523
    40    -0.000787
    41     0.832261
    42     0.020491
    43    -0.005891
    44     0.226108
    45     0.148671
    46     0.026650
    47     0.241729
    48    -0.042562
    49    -0.011559
Sym=    44a
Ene=   -0.905349E-03
Spin= Alpha
Occup= 0.000037
     1     0.000166
     2    -0.003450
     3     0.002487
     4     0.012149
     5    -0.001253
     6    -0.000273
     7    -0.000807
     8    -0.010265
     9    -0.002264
    10    -0.002673
    11     0.017198
    12    -0.006683
    13     0.002323
    14    -0.002704
    15    -0.011034
    16    -0.013565
    17     0.002399
    18    -0.006447
    19     0.001823
    20    -0.002069
    21    -0.041068
    22     0.466100
    23    -0.165609
    24    -0.014715
    25    -0.000078
    26     0.205318
    27     0.015932
    28     0.000038
    29    -0.126423
    30    -0.062115
    31    -0.048771
    32    -0.010406
    33    -0.000206
    34     0.000878
    35    -0.688601
    36    -2.167371
    37    -1.406205
    38     0.095669
    39     0.017708
    40     0.000317
    41    -0.000696
    42     0.003854
    43    -0.000363
    44     1.470602
    45     1.394164
    46     1.444405
    47     0.011477
    48    -0.000326
    49     0.003304
Sym=    45a
Ene=   -0.901050E-03
Spin= Alpha
Occup= 0.000037
     1    -0.000176
     2     0.002587
     3    -0.127449
     4     0.310187
     5     0.002657
     6     0.005040
     7    -0.000607
     8     0.006958
     9    -0.014425
    10    -0.001845
    11     0.035599
    12     0.229157
    13     0.001234
    14    -0.032834
    15     0.057277
    16    -0.040754
    17     0.024393
    18     0.009965
    19     0.004332
    20    -0.690135
    21    -2.094803
    22    -1.666238
    23    -0.104169
    24     0.018187
    25     0.000822
    26     0.046775
    27     0.090797
    28    -0.001736
    29     1.496713
    30     1.447405
    31     1.452277
    32     0.008301
    33     0.002000
    34    -0.015959
    35    -0.002012
    36    -0.035831
    37     0.477120
    38     0.164953
    39     0.022718
    40     0.000430
    41    -0.207184
    42    -0.036750
    43     0.000140
    44    -0.127334
    45    -0.049736
    46    -0.057622
    47    -0.007712
    48     0.000239
    49    -0.000567
Sym=    46a
Ene=   -0.349598E-03
Spin= Alpha
Occup= 0.000032
     1    -0.081897
     2     1.006377
     3    -2.172683
     4    -1.310014
     5     0.000889
     6     0.261282
     7    -0.020054
     8     0.019684
     9     0.927318
    10    -0.066551
    11    -0.088391
    12    -1.079016
    13     0.058742
    14     1.532331
    15     1.075948
    16     1.349888
    17    -0.098161
    18     0.203195
    19     0.007635
    20    -0.002743
    21    -0.161663
    22     0.503482
    23     0.024973
    24    -0.088126
    25     0.004711
    26    -0.232218
    27    -0.281380
    28    -0.017231
    29    -0.034373
    30     0.047620
    31    -0.064506
    32     0.024462
    33    -0.006500
    34     0.014243
    35     0.001709
    36    -0.036495
    37     0.174725
    38     0.003636
    39     0.028993
    40     0.000653
    41    -0.066792
    42    -0.038979
    43     0.004619
    44    -0.007516
    45    -0.015349
    46    -0.035527
    47    -0.003628
    48    -0.000312
    49    -0.000297
Sym=    47a
Ene=   -0.230996E-08
Spin= Alpha
Occup= 0.000000
     1     0.000003
     2     0.003119
     3    -0.042252
     4     0.077809
     5    -0.004627
     6     0.000095
     7    -0.001548
     8    -0.058514
     9    -0.003903
    10    -0.006531
    11     0.242688
    12     0.039697
    13     0.008908
    14     0.069292
    15    -0.055661
    16     0.010250
    17     0.190186
    18    -0.027949
    19     0.026160
    20    -0.028859
    21     0.596687
    22    -4.139966
    23     0.477941
    24    -0.020620
    25     0.000056
    26    -2.909220
    27    -0.255563
    28     0.009796
    29    -0.184034
    30     0.525059
    31     0.467769
    32     0.012664
    33     0.009237
    34     0.124559
    35    -0.001292
    36    -0.348972
    37     3.634216
    38    -0.096673
    39    -0.024838
    40     0.000257
    41    -2.182062
    42    -0.434073
    43    -0.009197
    44    -0.091628
    45    -0.058062
    46     0.109212
    47     0.067763
    48     0.029847
    49     0.053254
Sym=    48a
Ene=   -0.799799E-12
Spin= Alpha
Occup= 0.000000
     1    -0.000088
     2     0.005235
     3     0.026013
     4    -0.090945
     5     0.002427
     6     0.001817
     7     0.002769
     8     0.017937
     9     0.017709
    10     0.007554
    11    -0.034856
    12    -0.041935
    13    -0.004619
    14     0.003349
    15     0.012928
    16     0.046849
    17    -0.001440
    18     0.006525
    19    -0.005613
    20     0.010932
    21     0.011112
    22    -1.197567
    23    -0.266490
    24     0.006952
    25    -0.001092
    26    -0.514260
    27    -0.146577
    28     0.068737
    29     0.258799
    30    -0.305736
    31    -0.197702
    32     0.377023
    33     0.067759
    34     0.306406
    35     0.028674
    36    -0.319397
    37     1.788904
    38     0.525553
    39     0.091013
    40     0.005773
    41    -1.459513
    42    -0.289793
    43    -0.052062
    44    -0.017497
    45    -0.309404
    46    -0.427636
    47     0.131428
    48     0.277489
    49    -0.313341
Sym=    49a
Ene=   -0.149839E-11
Spin= Alpha
Occup= 0.000000
     1     0.000079
     2     0.000613
     3     0.015832
     4    -0.037209
     5     0.001048
     6     0.001062
     7     0.005694
     8     0.005263
     9     0.010678
    10     0.027180
    11    -0.011666
    12    -0.022564
    13    -0.050403
    14     0.007424
    15    -0.000455
    16     0.013728
    17    -0.006980
    18    -0.010440
    19    -0.022712
    20     0.001547
    21    -0.047199
    22     0.294885
    23    -0.005399
    24    -0.004128
    25     0.021257
    26     0.163424
    27     0.076992
    28     0.176621
    29    -0.050257
    30    -0.001576
    31     0.002359
    32     0.386681
    33     0.261219
    34    -0.332801
    35     0.001165
    36     0.024813
    37    -0.227017
    38     0.019885
    39    -0.004508
    40     0.008382
    41     0.160453
    42    -0.066364
    43    -0.102149
    44    -0.079209
    45     0.060648
    46    -0.008621
    47     0.119653
    48     0.668868
    49     0.588435
