[Molden Format]
p30-5 set                                                                       
[Atoms] AU
 N        1     7        0.0000        0.0000       -1.0394
 N        2     7        0.0000        0.0000        1.0394
[GTO]
    1 0
s    5 1.00
    1712.841585300000 -0.544779958049E-02
     257.648126770000 -0.406271746324E-01
      58.458245853000 -0.181119622506E+00
      16.198367905000 -0.468439755632E+00
       5.005260080900 -0.446168462892E+00
s    1 1.00
       0.587318565710  0.100000000000E+01
s    1 1.00
       0.187645922530  0.100000000000E+01
p    3 1.00
      13.571470233000 -0.588481169695E-01
       2.925737287400 -0.320246247625E+00
       0.799277507540 -0.753282265204E+00
p    1 1.00
       0.219543480340  0.100000000000E+01
d    1 1.00
       1.000000000000  0.100000000000E+01
 
    2 0
s    5 1.00
    1712.841585300000 -0.544779958049E-02
     257.648126770000 -0.406271746324E-01
      58.458245853000 -0.181119622506E+00
      16.198367905000 -0.468439755632E+00
       5.005260080900 -0.446168462892E+00
s    1 1.00
       0.587318565710  0.100000000000E+01
s    1 1.00
       0.187645922530  0.100000000000E+01
p    3 1.00
      13.571470233000 -0.588481169695E-01
       2.925737287400 -0.320246247625E+00
       0.799277507540 -0.753282265204E+00
p    1 1.00
       0.219543480340  0.100000000000E+01
d    1 1.00
       1.000000000000  0.100000000000E+01
 
[MO]
Sym=     1a
Ene=   -0.156732E+02
Spin= Alpha
Occup= 1.999922
     1     0.994609
     2    -0.025450
     3     0.018847
     4     0.000005
     5    -0.000006
     6     0.003833
     7    -0.000015
     8     0.000020
     9     0.001595
    10     0.002834
    11     0.002837
    12     0.000627
    13    -0.000004
    14    -0.000010
    15     0.000013
    16     0.001088
    17     0.004155
    18    -0.006609
    19     0.000011
    20    -0.000015
    21     0.004928
    22    -0.000011
    23     0.000015
    24     0.000992
    25    -0.000022
    26    -0.000021
    27     0.001421
    28    -0.000005
    29     0.000006
    30    -0.000008
Sym=     2a
Ene=   -0.156732E+02
Spin= Alpha
Occup= 1.999922
     1     0.001049
     2     0.004147
     3    -0.006607
     4     0.000011
     5    -0.000015
     6    -0.004916
     7    -0.000011
     8     0.000015
     9    -0.000995
    10    -0.000022
    11    -0.000020
    12     0.001420
    13    -0.000004
    14    -0.000006
    15     0.000007
    16     0.994601
    17    -0.025467
    18     0.018842
    19     0.000004
    20    -0.000007
    21    -0.003844
    22    -0.000016
    23     0.000020
    24    -0.001592
    25     0.002835
    26     0.002837
    27     0.000626
    28    -0.000004
    29     0.000010
    30    -0.000013
Sym=     3a
Ene=   -0.137845E+01
Spin= Alpha
Occup= 1.995829
     1     0.160315
     2     0.333008
     3     0.009605
     4    -0.002330
     5     0.003083
     6    -0.356802
     7     0.001344
     8    -0.001762
     9     0.094264
    10    -0.006643
    11    -0.006505
    12     0.042961
    13    -0.000275
    14     0.000387
    15    -0.000517
    16     0.160345
    17     0.332996
    18     0.009606
    19    -0.002379
    20     0.003045
    21     0.356809
    22     0.001358
    23    -0.001755
    24    -0.094275
    25    -0.006633
    26    -0.006514
    27     0.042960
    28    -0.000277
    29    -0.000400
    30     0.000508
Sym=     4a
Ene=   -0.743886E+00
Spin= Alpha
Occup= 1.992144
     1     0.040128
     2     0.109103
     3     0.032339
     4     0.000812
     5    -0.001027
     6    -0.100338
     7    -0.000268
     8     0.000328
     9     0.054243
    10     0.001507
    11     0.001465
    12     0.006089
    13     0.000099
    14     0.000007
    15    -0.000014
    16    -0.214481
    17    -0.459831
    18    -0.477288
    19     0.001204
    20    -0.001563
    21     0.400356
    22    -0.000406
    23     0.000528
    24    -0.202111
    25    -0.021733
    26    -0.021734
    27     0.000513
    28     0.000024
    29    -0.000019
    30     0.000027
Sym=     5a
Ene=   -0.743876E+00
Spin= Alpha
Occup= 1.992143
     1     0.214470
     2     0.459823
     3     0.477300
     4    -0.001182
     5     0.001550
     6     0.400365
     7     0.000399
     8    -0.000521
     9    -0.202105
    10     0.021726
    11     0.021742
    12    -0.000517
    13    -0.000021
    14    -0.000022
    15     0.000027
    16    -0.040133
    17    -0.109108
    18    -0.032346
    19    -0.000769
    20     0.001037
    21    -0.100349
    22     0.000239
    23    -0.000332
    24     0.054253
    25    -0.001512
    26    -0.001461
    27    -0.006089
    28    -0.000097
    29     0.000012
    30    -0.000013
Sym=     6a
Ene=   -0.628030E+00
Spin= Alpha
Occup= 1.935816
     1    -0.000003
     2    -0.000007
     3    -0.000014
     4     0.348461
     5     0.266660
     6    -0.000018
     7    -0.198303
     8    -0.151753
     9     0.000004
    10     0.000016
    11    -0.000018
    12     0.000001
    13    -0.000006
    14    -0.033635
    15    -0.025739
    16     0.000011
    17     0.000021
    18     0.000017
    19     0.348423
    20     0.266673
    21    -0.000008
    22    -0.198261
    23    -0.151742
    24     0.000002
    25     0.000017
    26    -0.000017
    27     0.000000
    28    -0.000005
    29     0.033632
    30     0.025740
Sym=     7a
Ene=   -0.627402E+00
Spin= Alpha
Occup= 1.935572
     1     0.001958
     2     0.004347
     3     0.001029
     4     0.266851
     5    -0.348607
     6    -0.001412
     7    -0.151697
     8     0.198149
     9     0.000553
    10     0.000154
    11     0.000304
    12    -0.000006
    13    -0.000223
    14    -0.025428
    15     0.033223
    16     0.001969
    17     0.004376
    18     0.001057
    19     0.266788
    20    -0.348679
    21     0.001399
    22    -0.151643
    23     0.198214
    24    -0.000551
    25     0.000199
    26     0.000263
    27    -0.000006
    28    -0.000237
    29     0.025425
    30    -0.033225
Sym=     8a
Ene=   -0.429735E-03
Spin= Alpha
Occup= 0.000294
     1     0.001240
     2     0.029027
     3    -0.221759
     4     0.108041
     5    -0.141974
     6    -0.041291
     7     0.162948
     8    -0.214465
     9    -0.129375
    10    -0.543481
    11     0.498164
    12     0.055334
    13     0.193984
    14    -0.112188
    15     0.148839
    16    -0.001320
    17    -0.029732
    18     0.222134
    19    -0.108567
    20     0.141564
    21    -0.041709
    22    -0.164013
    23     0.213653
    24    -0.130401
    25    -0.512075
    26     0.557466
    27    -0.055476
    28     0.133645
    29    -0.114210
    30     0.147337
Sym=     9a
Ene=   -0.161161E-02
Spin= Alpha
Occup= 0.001682
     1    -0.000033
     2    -0.000191
     3     0.000450
     4    -0.449828
     5    -0.343901
     6     0.000200
     7    -0.470177
     8    -0.359202
     9     0.000194
    10     0.000950
    11    -0.000849
    12    -0.000167
    13    -0.000327
    14     0.191692
    15     0.146387
    16     0.000023
    17     0.000177
    18    -0.000486
    19    -0.446195
    20    -0.341869
    21     0.000201
    22    -0.462769
    23    -0.354801
    24     0.000181
    25     0.000934
    26    -0.000899
    27     0.000114
    28    -0.000243
    29    -0.191009
    30    -0.146412
Sym=    10a
Ene=   -0.843622E-03
Spin= Alpha
Occup= 0.000458
     1    -0.000042
     2    -0.000022
     3    -0.001387
     4    -0.140103
     5    -0.107540
     6    -0.000278
     7    -0.285877
     8    -0.219115
     9    -0.000769
    10    -0.000389
    11     0.000261
    12     0.000555
    13     0.000134
    14    -0.866477
    15    -0.660515
    16    -0.000023
    17    -0.000281
    18     0.001420
    19    -0.314008
    20    -0.239024
    21    -0.000300
    22     0.037227
    23     0.029317
    24    -0.000728
    25    -0.000382
    26     0.000501
    27    -0.000237
    28     0.000086
    29    -0.235848
    30    -0.179382
Sym=    11a
Ene=   -0.131676E-02
Spin= Alpha
Occup= 0.000809
     1    -0.001984
     2    -0.292071
     3     1.659667
     4     0.126228
     5    -0.165042
     6     0.380452
     7     0.012973
     8    -0.016812
     9     0.780024
    10     0.079048
    11     0.061588
    12    -0.301967
    13     0.038469
    14    -0.001274
    15     0.001367
    16    -0.080762
    17    -0.119846
    18    -1.589865
    19     0.098467
    20    -0.129002
    21     0.429701
    22     0.117827
    23    -0.154356
    24     1.116463
    25    -0.231214
    26    -0.268604
    27     1.099490
    28     0.089763
    29    -0.284375
    30     0.371853
Sym=    12a
Ene=   -0.857750E-04
Spin= Alpha
Occup= 0.000035
     1     0.004603
     2     0.106658
     3    -0.403743
     4     0.250870
     5    -0.327693
     6    -0.187256
     7     0.264593
     8    -0.346578
     9    -0.250717
    10     0.076970
    11    -0.283958
    12     0.268213
    13    -0.043088
    14    -0.435453
    15     0.571109
    16    -0.004622
    17    -0.107552
    18     0.404578
    19    -0.249446
    20     0.327856
    21    -0.188042
    22    -0.263589
    23     0.346469
    24    -0.252601
    25     0.278940
    26    -0.072627
    27    -0.268455
    28    -0.067972
    29    -0.436652
    30     0.570135
Sym=    13a
Ene=   -0.114477E-05
Spin= Alpha
Occup= 0.000000
     1     0.022938
     2    -0.402538
     3     6.276847
     4    -0.058883
     5     0.013760
     6     0.064927
     7    -0.062981
     8    -0.062814
     9     3.730898
    10    -0.650357
    11    -0.594159
    12     0.710962
    13    -0.120536
    14    -0.005072
    15     0.001311
    16     0.011138
    17    -0.236243
    18    -5.415255
    19    -0.009000
    20     0.075625
    21    -0.477885
    22     0.013937
    23     0.127465
    24     2.564555
    25    -0.084059
    26    -0.097641
    27    -0.386595
    28     0.085992
    29     0.045846
    30    -0.065467
Sym=    14a
Ene=   -0.121859E-05
Spin= Alpha
Occup= 0.000000
     1    -0.009473
     2     0.251630
     3     5.199702
     4    -0.025740
     5     0.036970
     6    -0.502953
     7    -0.151325
     8     0.205184
     9     2.449310
    10     0.026748
    11     0.095702
    12     0.434304
    13    -0.063831
    14    -0.047651
    15     0.062334
    16    -0.023501
    17     0.366972
    18    -6.033933
    19     0.091488
    20    -0.122832
    21     0.022672
    22     0.198848
    23    -0.267236
    24     3.578707
    25     0.630387
    26     0.628033
    27    -0.748408
    28     0.114105
    29    -0.096878
    30     0.126671
Sym=    15a
Ene=   -0.343413E-01
Spin= Alpha
Occup= 0.062586
     1     0.002890
     2     0.008253
     3     0.066022
     4     0.390406
     5    -0.510158
     6    -0.002160
     7    -0.184354
     8     0.240892
     9     0.043381
    10     0.002870
    11     0.002422
    12    -0.006008
    13    -0.001866
    14    -0.009483
    15     0.012370
    16    -0.002894
    17    -0.008272
    18    -0.066006
    19    -0.390397
    20     0.510075
    21    -0.002144
    22     0.184378
    23    -0.240925
    24     0.043407
    25    -0.001643
    26    -0.003657
    27     0.006022
    28     0.001492
    29    -0.009478
    30     0.012384
Sym=    16a
Ene=   -0.341025E-01
Spin= Alpha
Occup= 0.062028
     1     0.000005
     2     0.000011
     3     0.000052
     4    -0.513066
     5    -0.392697
     6    -0.000002
     7     0.239250
     8     0.183131
     9     0.000060
    10     0.000002
    11     0.000003
    12    -0.000007
    13     0.000005
    14     0.019657
    15     0.015036
    16     0.000010
    17     0.000038
    18    -0.000095
    19     0.513203
    20     0.392711
    21     0.000022
    22    -0.239207
    23    -0.183042
    24     0.000015
    25     0.000006
    26     0.000001
    27    -0.000003
    28     0.000010
    29     0.019696
    30     0.015066
Sym=    17a
Ene=   -0.131800E-02
Spin= Alpha
Occup= 0.000810
     1     0.080869
     2     0.119935
     3     1.593413
     4    -0.097764
     5     0.127865
     6     0.430246
     7    -0.116086
     8     0.151983
     9     1.118756
    10     0.227765
    11     0.272702
    12    -1.100764
    13    -0.088764
    14    -0.282656
    15     0.370187
    16     0.001978
    17     0.292445
    18    -1.663264
    19    -0.126154
    20     0.165113
    21     0.380955
    22    -0.014234
    23     0.018521
    24     0.782028
    25    -0.079522
    26    -0.061591
    27     0.302528
    28    -0.038234
    29    -0.000433
    30     0.000885
Sym=    18a
Ene=   -0.843583E-03
Spin= Alpha
Occup= 0.000458
     1     0.000023
     2     0.000336
     3    -0.000871
     4    -0.315227
     5    -0.241857
     6    -0.000354
     7     0.032786
     8     0.024220
     9    -0.000495
    10    -0.000486
    11     0.000421
    12     0.000236
    13     0.000166
    14     0.235012
    15     0.180409
    16     0.000041
    17     0.000099
    18     0.000698
    19    -0.137654
    20    -0.104827
    21    -0.000237
    22    -0.280503
    23    -0.213848
    24    -0.000354
    25    -0.000207
    26     0.000541
    27    -0.000665
    28     0.000055
    29     0.864870
    30     0.662584
Sym=    19a
Ene=   -0.682757E-02
Spin= Alpha
Occup= 0.003719
     1     0.256333
     2     1.230413
     3    -0.839174
     4    -0.009152
     5     0.011795
     6    -0.974447
     7     0.002259
     8    -0.003178
     9    -0.117600
    10    -0.152146
    11    -0.149838
    12     0.290109
    13     0.003288
    14     0.016738
    15    -0.021770
    16    -0.256315
    17    -1.230315
    18     0.839152
    19     0.009069
    20    -0.011911
    21    -0.974377
    22    -0.002338
    23     0.003019
    24    -0.117386
    25     0.148482
    26     0.153289
    27    -0.289934
    28    -0.002149
    29     0.016718
    30    -0.021974
Sym=    20a
Ene=   -0.448023E-05
Spin= Alpha
Occup= 0.000000
     1    -0.001626
     2     0.028361
     3    -0.399904
     4    -0.442416
     5    -0.345916
     6    -0.005835
     7    -1.021057
     8    -0.790664
     9    -0.241058
    10     0.046048
    11     0.041524
    12    -0.048482
    13     0.006899
    14    -0.035626
    15    -0.033487
    16    -0.000869
    17     0.018940
    18     0.336242
    19     0.453140
    20     0.343357
    21     0.034300
    22     1.029370
    23     0.789211
    24    -0.154849
    25     0.008692
    26     0.009092
    27     0.024437
    28    -0.004506
    29    -0.041638
    30    -0.030072
Sym=    21a
Ene=   -0.149208E-02
Spin= Alpha
Occup= 0.000078
     1     0.810399
     2     3.047520
     3     0.514137
     4     0.024544
     5    -0.032022
     6     0.125961
     7     0.023186
     8    -0.030230
     9    -0.230344
    10    -1.516507
    11    -1.529457
    12    -1.831071
    13     0.022331
    14     0.041808
    15    -0.054954
    16     0.030786
    17     0.301691
    18    -0.202841
    19     0.024282
    20    -0.031886
    21     0.374037
    22     0.007021
    23    -0.009285
    24     0.021630
    25     0.027684
    26     0.017999
    27     0.199508
    28     0.017816
    29    -0.013257
    30     0.017210
Sym=    22a
Ene=   -0.145572E-02
Spin= Alpha
Occup= 0.001548
     1     0.012156
     2     0.081564
     3    -0.025517
     4    -0.368718
     5     0.481695
     6    -0.047917
     7    -0.363703
     8     0.475054
     9    -0.122183
    10    -0.010115
    11    -0.048159
    12     0.037371
    13     0.094277
    14     0.086545
    15    -0.112844
    16     0.012157
    17     0.081844
    18    -0.028748
    19    -0.369867
    20     0.483475
    21     0.048345
    22    -0.366599
    23     0.479248
    24     0.124217
    25    -0.004558
    26    -0.054400
    27     0.037966
    28     0.092867
    29    -0.085935
    30     0.112395
Sym=    23a
Ene=   -0.681782E-03
Spin= Alpha
Occup= 0.000474
     1     0.026393
     2     0.132730
     3    -0.012776
     4    -0.048682
     5     0.063594
     6    -0.060195
     7    -0.041204
     8     0.053876
     9    -0.161834
    10    -0.226822
    11     0.062254
    12     0.064708
    13    -0.620237
    14    -0.012416
    15     0.016448
    16     0.026393
    17     0.132960
    18    -0.015484
    19    -0.048927
    20     0.064023
    21     0.060544
    22    -0.042132
    23     0.055047
    24     0.163349
    25    -0.226727
    26     0.061921
    27     0.065143
    28    -0.620180
    29     0.012946
    30    -0.016834
Sym=    24a
Ene=   -0.686663E-02
Spin= Alpha
Occup= 0.006589
     1     0.266562
     2     1.358443
     3    -1.249306
     4    -0.002883
     5     0.003781
     6     0.673319
     7    -0.003787
     8     0.004935
     9     0.601550
    10    -0.217943
    11    -0.216487
    12     0.127664
    13    -0.002151
    14    -0.005188
    15     0.006822
    16     0.023493
    17    -0.023149
    18     0.101725
    19    -0.001483
    20     0.001941
    21     0.048082
    22     0.000989
    23    -0.001281
    24    -0.068423
    25     0.007809
    26     0.008202
    27    -0.001131
    28    -0.000182
    29    -0.001449
    30     0.001889
Sym=    25a
Ene=   -0.686684E-02
Spin= Alpha
Occup= 0.006589
     1     0.023491
     2    -0.023164
     3     0.101814
     4    -0.001520
     5     0.001983
     6    -0.048067
     7     0.000923
     8    -0.001226
     9     0.068460
    10     0.008091
    11     0.007917
    12    -0.001137
    13    -0.000268
    14     0.001435
    15    -0.001885
    16     0.266556
    17     1.358428
    18    -1.249394
    19    -0.002914
    20     0.003799
    21    -0.673302
    22    -0.003762
    23     0.004939
    24    -0.601501
    25    -0.217513
    26    -0.216900
    27     0.127698
    28    -0.002264
    29     0.005239
    30    -0.006812
Sym=    26a
Ene=   -0.915030E-03
Spin= Alpha
Occup= 0.000417
     1    -0.036489
     2    -0.180657
     3     0.009831
     4     0.099885
     5    -0.130470
     6     0.109426
     7     0.011635
     8    -0.015422
     9     0.318341
    10     0.141088
    11     0.193101
    12    -0.207859
    13    -0.122968
    14     0.294331
    15    -0.386266
    16    -0.036627
    17    -0.181980
    18     0.016283
    19     0.100753
    20    -0.132220
    21    -0.110990
    22     0.014535
    23    -0.018992
    24    -0.322081
    25     0.136926
    26     0.198888
    27    -0.209605
    28    -0.121739
    29    -0.295734
    30     0.385734
Sym=    27a
Ene=   -0.149233E-02
Spin= Alpha
Occup= 0.000078
     1     0.030791
     2     0.301828
     3    -0.203833
     4     0.024337
     5    -0.031813
     6    -0.374202
     7     0.006838
     8    -0.009035
     9    -0.022187
    10     0.026223
    11     0.019280
    12     0.199697
    13     0.018268
    14     0.013054
    15    -0.017210
    16     0.810412
    17     3.047470
    18     0.515105
    19     0.024619
    20    -0.032204
    21    -0.126146
    22     0.023436
    23    -0.030571
    24     0.229709
    25    -1.518846
    26    -1.526874
    27    -1.831409
    28     0.023009
    29    -0.042205
    30     0.054984
Sym=    28a
Ene=   -0.142596E-05
Spin= Alpha
Occup= 0.000000
     1    -0.007983
     2    -0.001443
     3     1.243380
     4     0.238063
     5    -0.303846
     6     0.010292
     7     0.728586
     8    -0.935520
     9     0.603346
    10     0.171883
    11     0.093696
    12    -0.125707
    13    -0.130183
    14     0.328684
    15    -0.429592
    16    -0.001794
    17     0.182478
    18    -1.488199
    19    -0.216665
    20     0.275431
    21     0.164378
    22    -0.713036
    23     0.914873
    24     0.934500
    25     0.127918
    26     0.011989
    27     0.033788
    28     0.112193
    29     0.312962
    30    -0.408723
Sym=    29a
Ene=    0.000000E+00
Spin= Alpha
Occup= 0.000000
     1     0.000087
     2    -0.008837
     3     0.359740
     4    -0.001981
     5     0.002818
     6    -0.003110
     7     0.000921
     8    -0.000561
     9     0.193825
    10     0.647269
    11    -0.663616
    12     0.016963
    13    -0.009609
    14     0.002441
    15    -0.003001
    16    -0.000258
    17     0.011825
    18    -0.363830
    19    -0.002509
    20     0.003051
    21    -0.000217
    22    -0.004537
    23     0.005289
    24     0.200540
    25    -0.634358
    26     0.656242
    27    -0.016983
    28     0.007910
    29     0.004533
    30    -0.005728
Sym=    30a
Ene=    0.000000E+00
Spin= Alpha
Occup= 0.000000
     1    -0.000297
     2     0.047528
     3    -1.870411
     4    -0.025251
     5     0.033072
     6     0.014174
     7    -0.086925
     8     0.113803
     9    -1.012041
    10     0.015878
    11     0.064215
    12    -0.083110
    13    -0.720670
    14    -0.050753
    15     0.066520
    16     0.001100
    17    -0.062210
    18     1.890317
    19     0.022395
    20    -0.029282
    21     0.001726
    22     0.084773
    23    -0.110962
    24    -1.038695
    25    -0.079136
    26    -0.034205
    27     0.090875
    28     0.734468
    29    -0.048908
    30     0.064023
