[Molden Format]
p30-5 set                                                                       
[Atoms] AU
 SI       1    14        0.0000        0.0000        0.0000
 H        2     1        1.6177        1.6177       -1.6177
 H        3     1       -1.6177       -1.6177       -1.6177
 H        4     1        1.6177       -1.6177        1.6177
 H        5     1       -1.6177        1.6177        1.6177
[GTO]
    1 0
s    5 1.00
    6903.711868600000  0.558446588743E-02
    1038.434641900000  0.417422844355E-01
     235.875814800000  0.187528023742E+00
      66.069385169000  0.478678596587E+00
      20.247945761000  0.429256952162E+00
s    3 1.00
      34.353481730000  0.898348994648E-01
       3.637078819200 -0.545685958777E+00
       1.400204859900 -0.524810829267E+00
s    1 1.00
       0.204844148050  0.100000000000E+01
s    1 1.00
       0.077994095468  0.100000000000E+01
p    5 1.00
     179.839073730000  0.101334983789E-01
      41.907258846000  0.710290410957E-01
      12.955294367000  0.255839142169E+00
       4.438326739300  0.481498047149E+00
       1.546224790400  0.385211960064E+00
p    1 1.00
       0.356076123020  0.100000000000E+01
p    1 1.00
       0.100085137620  0.100000000000E+01
d    1 1.00
       0.350000000000  0.100000000000E+01
 
    2 0
s    3 1.00
      13.010701000000  0.334854848130E-01
       1.962257200000  0.234721870881E+00
       0.444537960000  0.813770285260E+00
s    1 1.00
       0.121949620000  0.100000000000E+01
p    1 1.00
       0.800000000000  0.100000000000E+01
 
    3 0
s    3 1.00
      13.010701000000  0.334854848130E-01
       1.962257200000  0.234721870881E+00
       0.444537960000  0.813770285260E+00
s    1 1.00
       0.121949620000  0.100000000000E+01
p    1 1.00
       0.800000000000  0.100000000000E+01
 
    4 0
s    3 1.00
      13.010701000000  0.334854848130E-01
       1.962257200000  0.234721870881E+00
       0.444537960000  0.813770285260E+00
s    1 1.00
       0.121949620000  0.100000000000E+01
p    1 1.00
       0.800000000000  0.100000000000E+01
 
    5 0
s    3 1.00
      13.010701000000  0.334854848130E-01
       1.962257200000  0.234721870881E+00
       0.444537960000  0.813770285260E+00
s    1 1.00
       0.121949620000  0.100000000000E+01
p    1 1.00
       0.800000000000  0.100000000000E+01
 
[MO]
Sym=     1a
Ene=   -0.687666E+02
Spin= Alpha
Occup= 2.000000
     1    -0.994557
     2     0.025507
     3     0.027674
     4     0.000828
     5     0.000964
     6     0.001371
     7     0.000656
     8     0.000036
     9     0.000052
    10     0.000027
    11    -0.000008
    12    -0.000011
    13    -0.000004
    14    -0.010016
    15    -0.010016
    16    -0.010016
    17    -0.000001
    18    -0.000001
    19    -0.000001
    20     0.000316
    21    -0.000673
    22    -0.000054
    23    -0.000054
    24     0.000053
    25     0.000326
    26    -0.000675
    27     0.000054
    28     0.000054
    29     0.000054
    30     0.000322
    31    -0.000672
    32    -0.000054
    33     0.000054
    34    -0.000054
    35     0.000321
    36    -0.000670
    37     0.000054
    38    -0.000054
    39    -0.000054
Sym=     2a
Ene=   -0.463595E+01
Spin= Alpha
Occup= 1.999963
     1    -0.132410
     2    -0.468704
     3     0.011609
     4    -0.008123
     5     0.534880
     6     0.534194
     7     0.450047
     8     0.020563
     9     0.020580
    10     0.017385
    11    -0.004828
    12    -0.004796
    13    -0.004012
    14     0.000191
    15     0.000196
    16     0.000203
    17    -0.000338
    18    -0.000388
    19    -0.000377
    20    -0.001720
    21     0.002122
    22    -0.000054
    23    -0.000049
    24    -0.000184
    25     0.002197
    26    -0.000447
    27     0.000346
    28     0.000346
    29     0.000366
    30    -0.001339
    31     0.001961
    32    -0.000100
    33    -0.000150
    34    -0.000070
    35    -0.001278
    36     0.002000
    37    -0.000154
    38    -0.000103
    39    -0.000072
Sym=     3a
Ene=   -0.472551E+01
Spin= Alpha
Occup= 1.999954
     1     0.148668
     2     0.519569
     3    -0.012950
     4     0.009009
     5     0.500303
     6    -0.490476
     7     0.486517
     8     0.019355
     9    -0.018908
    10     0.018751
    11    -0.004472
    12     0.004434
    13    -0.004393
    14    -0.000180
    15    -0.000172
    16    -0.000168
    17    -0.000347
    18     0.000348
    19    -0.000380
    20     0.001516
    21    -0.002106
    22    -0.000147
    23     0.000078
    24    -0.000085
    25     0.001448
    26    -0.002196
    27    -0.000078
    28     0.000150
    29    -0.000086
    30    -0.002026
    31     0.000282
    32     0.000359
    33    -0.000359
    34     0.000361
    35     0.001461
    36    -0.002206
    37    -0.000075
    38     0.000079
    39    -0.000146
Sym=     4a
Ene=   -0.474958E+01
Spin= Alpha
Occup= 1.999953
     1    -0.152760
     2    -0.532384
     3     0.013270
     4    -0.009235
     5     0.478727
     6    -0.506647
     7    -0.478827
     8     0.018477
     9    -0.019600
    10    -0.018414
    11    -0.004322
    12     0.004533
    13     0.004352
    14     0.000166
    15     0.000175
    16     0.000162
    17     0.000323
    18     0.000381
    19    -0.000341
    20    -0.001504
    21     0.002102
    22    -0.000083
    23     0.000138
    24     0.000090
    25    -0.001530
    26     0.002213
    27    -0.000144
    28     0.000078
    29     0.000077
    30    -0.001443
    31     0.002278
    32    -0.000081
    33     0.000079
    34     0.000146
    35     0.001993
    36    -0.000224
    37     0.000361
    38    -0.000357
    39    -0.000360
Sym=     5a
Ene=   -0.475386E+01
Spin= Alpha
Occup= 1.999953
     1     0.153551
     2     0.534674
     3    -0.013322
     4     0.009296
     5     0.459325
     6     0.440380
     7    -0.555024
     8     0.017675
     9     0.016920
    10    -0.021398
    11    -0.004170
    12    -0.004013
    13     0.005021
    14    -0.000169
    15    -0.000165
    16    -0.000175
    17     0.000400
    18    -0.000299
    19    -0.000321
    20    -0.002078
    21     0.000135
    22     0.000368
    23     0.000372
    24    -0.000347
    25     0.001316
    26    -0.001985
    27    -0.000113
    28    -0.000114
    29     0.000128
    30     0.001624
    31    -0.002247
    32    -0.000159
    33    -0.000063
    34     0.000086
    35     0.001657
    36    -0.002317
    37    -0.000060
    38    -0.000165
    39     0.000076
Sym=     6a
Ene=   -0.562901E+00
Spin= Alpha
Occup= 1.977731
     1     0.027981
     2     0.173421
     3     0.263755
     4     0.040565
     5    -0.079717
     6    -0.079662
     7     0.079902
     8     0.146524
     9     0.146286
    10    -0.146968
    11     0.091186
    12     0.090623
    13    -0.092142
    14     0.007729
    15     0.007862
    16     0.007926
    17     0.043180
    18    -0.042846
    19    -0.042945
    20     0.434033
    21     0.247133
    22    -0.012867
    23    -0.012876
    24     0.012895
    25    -0.027145
    26    -0.036926
    27     0.002888
    28     0.002656
    29    -0.001188
    30    -0.027262
    31    -0.036234
    32     0.001097
    33     0.002765
    34    -0.002891
    35    -0.027287
    36    -0.035772
    37     0.002764
    38     0.001076
    39    -0.002999
Sym=     7a
Ene=   -0.562774E+00
Spin= Alpha
Occup= 1.976659
     1     0.027925
     2     0.172964
     3     0.262859
     4     0.041034
     5     0.080040
     6     0.080355
     7     0.079979
     8    -0.146849
     9    -0.147746
    10    -0.146423
    11    -0.092036
    12    -0.093205
    13    -0.093127
    14     0.008273
    15     0.008791
    16     0.006511
    17     0.042490
    18     0.042801
    19     0.042512
    20    -0.028484
    21    -0.037458
    22    -0.002621
    23    -0.002809
    24    -0.001201
    25     0.434130
    26     0.244628
    27     0.012874
    28     0.012899
    29     0.012809
    30    -0.027155
    31    -0.035272
    32    -0.002777
    33    -0.001414
    34    -0.003135
    35    -0.027591
    36    -0.035089
    37    -0.001281
    38    -0.002795
    39    -0.003155
Sym=     8a
Ene=   -0.562706E+00
Spin= Alpha
Occup= 1.976047
     1     0.027906
     2     0.172779
     3     0.262553
     4     0.041129
     5    -0.080415
     6     0.079998
     7    -0.080535
     8     0.147171
     9    -0.146531
    10     0.147919
    11     0.094333
    12    -0.092771
    13     0.093779
    14     0.007251
    15     0.007108
    16     0.009229
    17    -0.042460
    18     0.042242
    19    -0.042449
    20    -0.028308
    21    -0.036899
    22     0.001425
    23    -0.002962
    24     0.002642
    25    -0.028461
    26    -0.035545
    27     0.003084
    28    -0.001323
    29     0.002727
    30     0.434188
    31     0.243240
    32    -0.012833
    33     0.012749
    34    -0.012965
    35    -0.027127
    36    -0.034747
    37     0.003179
    38    -0.002914
    39     0.001465
Sym=     9a
Ene=   -0.562711E+00
Spin= Alpha
Occup= 1.975558
     1    -0.027907
     2    -0.172721
     3    -0.262419
     4    -0.041260
     5    -0.080459
     6     0.080608
     7     0.080168
     8     0.147617
     9    -0.147549
    10    -0.146882
    11     0.094437
    12    -0.095062
    13    -0.093253
    14    -0.008181
    15    -0.007605
    16    -0.007857
    17     0.042048
    18     0.042310
    19    -0.042244
    20     0.028193
    21     0.036492
    22     0.003008
    23    -0.001543
    24    -0.002729
    25     0.027820
    26     0.035369
    27     0.001515
    28    -0.003072
    29    -0.002889
    30     0.028155
    31     0.034918
    32     0.002844
    33    -0.003171
    34    -0.001407
    35    -0.434188
    36    -0.242190
    37    -0.012860
    38     0.012852
    39     0.012824
Sym=    10a
Ene=   -0.279195E-02
Spin= Alpha
Occup= 0.003041
     1     0.000154
     2     0.001016
     3    -0.002017
     4     0.007245
     5    -0.005060
     6    -0.007401
     7     0.001224
     8    -0.006853
     9    -0.005264
    10     0.006730
    11     0.099781
    12     0.120923
    13    -0.049489
    14    -0.252571
    15     0.348176
    16    -0.093612
    17    -0.078490
    18     0.224310
    19     0.170022
    20     0.233337
    21    -0.365149
    22     0.006643
    23    -0.050264
    24    -0.032390
    25    -0.155530
    26     0.234170
    27    -0.032899
    28     0.011027
    29     0.013454
    30    -0.073000
    31     0.102391
    32     0.009289
    33     0.008301
    34     0.004144
    35    -0.027149
    36     0.035437
    37     0.434500
    38     0.603709
    39    -0.160938
Sym=    11a
Ene=   -0.975987E-02
Spin= Alpha
Occup= 0.014647
     1    -0.031106
     2    -0.213958
     3    -0.553444
     4     0.067491
     5     0.136330
     6    -0.134452
     7     0.137725
     8    -0.404632
     9     0.402100
    10    -0.412563
    11    -0.223304
    12     0.201137
    13    -0.200925
    14     0.011222
    15     0.002099
    16    -0.065701
    17     0.157691
    18    -0.156378
    19     0.138468
    20    -0.029253
    21     0.025225
    22     0.005652
    23     0.010820
    24     0.008414
    25    -0.016589
    26    -0.009657
    27    -0.008885
    28    -0.008299
    29     0.009315
    30     1.117756
    31     0.001817
    32     0.028164
    33    -0.029857
    34     0.014252
    35    -0.005229
    36    -0.014715
    37    -0.010938
    38    -0.003263
    39    -0.001674
Sym=    12a
Ene=   -0.951922E-02
Spin= Alpha
Occup= 0.014129
     1     0.031098
     2     0.213662
     3     0.556297
     4    -0.081757
     5     0.137057
     6     0.139110
     7     0.135921
     8    -0.413817
     9    -0.417676
    10    -0.406088
    11    -0.179276
    12    -0.193442
    13    -0.206270
    14     0.039421
    15     0.051484
    16    -0.037946
    17     0.153432
    18     0.163420
    19     0.173917
    20     0.040231
    21    -0.031731
    22     0.008518
    23    -0.000050
    24     0.018524
    25    -1.126087
    26     0.022332
    27     0.025631
    28     0.020372
    29     0.039384
    30     0.013852
    31     0.000646
    32     0.007548
    33     0.003608
    34    -0.011198
    35     0.014876
    36     0.014311
    37     0.009830
    38     0.012903
    39    -0.010667
Sym=    13a
Ene=   -0.263020E-02
Spin= Alpha
Occup= 0.002746
     1    -0.000094
     2    -0.000788
     3    -0.004587
     4     0.015538
     5     0.004758
     6     0.002207
     7     0.004021
     8     0.001285
     9     0.001739
    10     0.011269
    11    -0.058772
    12    -0.033328
    13    -0.084904
    14    -0.210790
    15    -0.101149
    16     0.313218
    17    -0.197469
    18    -0.068678
    19    -0.122530
    20     0.010187
    21    -0.007293
    22    -0.439665
    23    -0.207556
    24    -0.648073
    25     0.189755
    26    -0.280763
    27    -0.029967
    28    -0.063363
    29     0.104828
    30    -0.119598
    31     0.168525
    32     0.078046
    33     0.049472
    34    -0.020598
    35    -0.077286
    36     0.099739
    37     0.024510
    38     0.028583
    39     0.001426
Sym=    14a
Ene=   -0.344570E-06
Spin= Alpha
Occup= 0.000000
     1     0.000404
     2     0.071832
     3    -0.406951
     4     4.293922
     5    -0.029156
     6    -0.013652
     7     0.012946
     8     0.181157
     9     0.127194
    10    -0.067596
    11     0.704684
    12    -0.272641
    13    -0.473770
    14    -0.656179
    15    -0.159670
    16    -0.132814
    17     0.262118
    18    -0.441981
    19    -0.724484
    20    -0.109783
    21    -1.925736
    22     0.404888
    23     0.358642
    24    -0.119932
    25     0.475066
    26    -1.385378
    27     0.173626
    28     0.187587
    29     0.074198
    30     0.236337
    31    -1.636293
    32     0.290567
    33     0.129970
    34    -0.074333
    35     0.119221
    36    -0.313926
    37     0.122386
    38    -0.124427
    39    -0.404792
Sym=    15a
Ene=    0.714613E-08
Spin= Alpha
Occup= 0.000000
     1    -0.000158
     2    -0.024899
     3     0.112615
     4    -1.244029
     5     0.007417
     6     0.007292
     7    -0.015967
     8    -0.023452
     9     0.002486
    10     0.034007
    11    -0.136158
    12    -1.047989
    13     1.046404
    14     0.007132
    15     0.101569
    16     0.227387
    17    -0.266183
    18     0.090195
    19     0.163169
    20    -0.104505
    21     1.692741
    22    -0.035728
    23    -0.426743
    24     0.170611
    25    -0.024668
    26     0.267067
    27     0.371177
    28    -0.186479
    29    -0.250446
    30     0.237129
    31    -1.060704
    32     0.369722
    33    -0.208465
    34     0.064534
    35    -0.319172
    36     0.578653
    37    -0.041713
    38     0.174364
    39    -0.150563
Sym=    16a
Ene=   -0.181345E-05
Spin= Alpha
Occup= 0.000000
     1     0.000392
     2     0.029959
     3    -0.119416
     4     1.372402
     5     0.035198
     6    -0.029949
     7     0.005698
     8    -0.258335
     9     0.210822
    10    -0.037040
    11    -0.122184
    12     0.166552
    13    -0.237647
    14     0.028712
    15     0.147279
    16    -0.554530
    17     0.124672
    18    -0.820038
    19     0.943531
    20     0.102854
    21    -0.605804
    22    -0.186496
    23     0.003964
    24    -0.217455
    25     0.066592
    26    -0.623057
    27    -0.066000
    28     0.154263
    29    -0.277268
    30     0.583498
    31    -0.130457
    32    -0.493360
    33     0.356305
    34    -0.186359
    35    -0.536024
    36    -0.254610
    37    -0.281955
    38     0.160618
    39     0.234281
Sym=    17a
Ene=   -0.102500E-05
Spin= Alpha
Occup= 0.000000
     1    -0.000139
     2    -0.016713
     3     0.103023
     4    -1.059967
     5    -0.020003
     6     0.006581
     7     0.026641
     8     0.148265
     9    -0.026006
    10    -0.216873
    11     0.148060
    12    -0.158994
    13    -0.010446
    14     0.619999
    15     0.145382
    16    -0.551693
    17     0.765014
    18     0.095838
    19    -0.604679
    20    -0.406922
    21     0.320965
    22     0.023780
    23     0.030850
    24    -0.564572
    25    -0.086462
    26     0.264084
    27     0.226363
    28     0.089213
    29    -0.478775
    30    -0.051193
    31     0.232598
    32    -0.060193
    33     0.002954
    34     0.038381
    35     0.375223
    36     0.489472
    37     0.439281
    38    -0.112766
    39    -0.212724
Sym=    18a
Ene=    0.101895E-08
Spin= Alpha
Occup= 0.000000
     1     0.000527
     2    -0.065450
     3    -0.032711
     4    -0.243586
     5     0.006936
     6    -0.001700
     7     0.007977
     8    -0.000272
     9    -0.002068
    10    -0.015777
    11    -0.640772
    12     0.123046
    13    -0.723323
    14     0.421911
    15     0.276498
    16     0.385917
    17     0.123645
    18    -0.011151
    19     0.077793
    20     0.029354
    21    -0.322762
    22     0.004162
    23     0.516198
    24    -0.000250
    25     0.111988
    26    -0.978755
    27     0.179869
    28    -0.634119
    29    -0.356192
    30    -0.124671
    31     0.799279
    32     0.059250
    33    -0.205346
    34    -0.247310
    35    -0.053365
    36    -0.069746
    37    -0.004346
    38     0.090791
    39     0.269826
Sym=    19a
Ene=   -0.479567E-02
Spin= Alpha
Occup= 0.006385
     1     0.009887
     2     0.073608
     3     0.413839
     4    -0.117219
     5     0.040741
     6    -0.041529
     7    -0.041057
     8    -0.135295
     9     0.138770
    10     0.135723
    11     0.068158
    12    -0.075200
    13    -0.063902
    14    -0.068271
    15    -0.048772
    16    -0.069007
    17    -0.118160
    18    -0.124841
    19     0.121609
    20     0.044850
    21     0.055717
    22    -0.007486
    23    -0.015098
    24     0.019452
    25     0.051830
    26     0.043671
    27     0.016279
    28     0.011604
    29     0.014698
    30     0.053887
    31     0.037312
    32    -0.021789
    33     0.006827
    34    -0.012591
    35     0.676430
    36    -1.015631
    37     0.278378
    38    -0.273167
    39    -0.279350
Sym=    20a
Ene=   -0.273526E-02
Spin= Alpha
Occup= 0.002937
     1     0.000250
     2     0.001630
     3    -0.001038
     4     0.006217
     5    -0.007607
     6    -0.003176
     7     0.001640
     8    -0.002807
     9    -0.008318
    10     0.010012
    11     0.106369
    12     0.079408
    13    -0.066400
    14     0.344763
    15    -0.194245
    16    -0.147258
    17    -0.116420
    18     0.133456
    19     0.212078
    20     0.225010
    21    -0.348643
    22    -0.076918
    23     0.002434
    24    -0.063172
    25    -0.109181
    26     0.162978
    27    -0.004137
    28    -0.040013
    29     0.037947
    30    -0.043654
    31     0.054756
    32     0.636996
    33     0.359470
    34    -0.265353
    35    -0.101912
    36     0.142071
    37     0.017000
    38     0.008200
    39     0.015528
Sym=    21a
Ene=   -0.269338E-02
Spin= Alpha
Occup= 0.002860
     1    -0.000730
     2    -0.004884
     3    -0.009039
     4     0.025102
     5    -0.002968
     6     0.000333
     7    -0.010642
     8     0.020077
     9     0.022586
    10     0.011540
    11    -0.050466
    12    -0.097990
    13     0.079971
    14     0.070165
    15     0.243872
    16    -0.320996
    17     0.169747
    18    -0.184758
    19    -0.080229
    20    -0.211295
    21     0.316239
    22    -0.060738
    23    -0.031313
    24    -0.104406
    25     0.118447
    26    -0.136619
    27    -0.137438
    28    -0.462437
    29     0.625730
    30     0.127708
    31    -0.194019
    32     0.038786
    33     0.044851
    34    -0.000165
    35     0.029203
    36    -0.049833
    37     0.004562
    38     0.003583
    39    -0.000699
Sym=    22a
Ene=   -0.475722E-02
Spin= Alpha
Occup= 0.006291
     1     0.007929
     2     0.060117
     3     0.376359
     4    -0.081930
     5    -0.031750
     6    -0.031586
     7     0.031522
     8     0.102968
     9     0.102000
    10    -0.103097
    11    -0.047708
    12    -0.044045
    13     0.054601
    14    -0.060253
    15    -0.069632
    16    -0.059669
    17     0.086001
    18    -0.078224
    19    -0.080422
    20     0.802368
    21    -1.118504
    22    -0.273847
    23    -0.278155
    24     0.275551
    25     0.028464
    26     0.074571
    27     0.015782
    28     0.027276
    29    -0.001810
    30     0.035121
    31     0.061025
    32     0.004424
    33     0.023144
    34    -0.021432
    35     0.038650
    36     0.054408
    37     0.028103
    38     0.005269
    39    -0.017021
Sym=    23a
Ene=    0.143230E-07
Spin= Alpha
Occup= 0.000000
     1    -0.001070
     2    -0.021757
     3     0.428186
     4    -4.203306
     5    -0.010127
     6     0.002255
     7     0.010021
     8     0.005304
     9    -0.023788
    10     0.001162
    11     0.998018
    12    -0.120320
    13    -1.113552
    14     0.014518
    15     0.019802
    16     0.047646
    17     0.109641
    18     0.077654
    19    -0.117024
    20     0.002419
    21     0.212512
    22     0.112558
    23     0.049177
    24    -0.005461
    25    -0.134678
    26     1.259598
    27     0.107059
    28    -0.091381
    29     0.188335
    30    -0.175776
    31     1.418504
    32    -0.249475
    33     0.030133
    34     0.028878
    35    -0.442521
    36     3.023341
    37     0.201462
    38    -0.441333
    39    -0.374068
Sym=    24a
Ene=   -0.107755E-05
Spin= Alpha
Occup= 0.000000
     1     0.000276
     2     0.016139
     3    -0.052532
     4     0.667273
     5     0.011592
     6     0.031304
     7     0.013049
     8    -0.081870
     9    -0.215990
    10    -0.095522
    11    -0.092481
    12    -0.337345
    13    -0.156315
    14    -0.614556
    15     0.659263
    16    -0.242587
    17     0.388471
    18     0.803956
    19     0.275104
    20     0.197069
    21    -0.016532
    22    -0.136560
    23    -0.298781
    24    -0.000873
    25    -0.342586
    26    -0.551776
    27    -0.310344
    28    -0.142458
    29    -0.365892
    30    -0.014757
    31    -0.233171
    32     0.194043
    33     0.119587
    34    -0.014769
    35     0.274557
    36     0.016266
    37    -0.173585
    38    -0.617974
    39    -0.083217
Sym=    25a
Ene=   -0.230957E-05
Spin= Alpha
Occup= 0.000001
     1    -0.000177
     2     0.005261
     3    -0.079054
     4     0.664268
     5    -0.016376
     6     0.003882
     7    -0.042179
     8     0.104732
     9    -0.026383
    10     0.290684
    11     0.120687
    12    -0.115223
    13     0.264166
    14     0.166759
    15     0.373627
    16    -0.625258
    17    -1.121121
    18     0.121499
    19    -0.420036
    20     0.261184
    21    -0.089390
    22    -0.122345
    23    -0.192780
    24     0.102635
    25     0.535446
    26    -0.235063
    27     0.274455
    28     0.270236
    29     0.089401
    30    -0.528082
    31    -0.339006
    32     0.175290
    33    -0.232487
    34     0.432391
    35    -0.177281
    36    -0.172333
    37    -0.116327
    38    -0.070078
    39     0.236056
Sym=    26a
Ene=   -0.220613E-03
Spin= Alpha
Occup= 0.000036
     1    -0.059349
     2    -0.654504
     3    -2.071665
     4    -0.093780
     5     0.164979
     6     0.164836
     7     0.138622
     8    -0.729025
     9    -0.728912
    10    -0.612596
    11     0.697456
    12     0.703186
    13     0.610166
    14     0.879379
    15     0.876286
    16     0.902617
    17    -0.032693
    18    -0.026522
    19    -0.029733
    20    -0.067291
    21    -0.090805
    22    -0.126837
    23    -0.132005
    24     0.206088
    25    -0.114129
    26     0.408047
    27    -0.335775
    28    -0.336584
    29    -0.332106
    30    -0.072235
    31    -0.074033
    32    -0.080180
    33     0.158245
    34    -0.094897
    35    -0.067650
    36    -0.083728
    37     0.158978
    38    -0.076656
    39    -0.095455
Sym=    27a
Ene=    0.154468E-08
Spin= Alpha
Occup= 0.000000
     1     0.000497
     2    -0.010255
     3    -0.166028
     4     1.429554
     5    -0.005989
     6    -0.005768
     7     0.000534
     8     0.019700
     9    -0.031526
    10     0.007146
    11     0.616087
    12     0.703163
    13    -0.030593
    14     0.092730
    15     0.133896
    16     0.037209
    17    -0.007678
    18    -0.013380
    19    -0.119915
    20     0.142176
    21    -1.354266
    22     0.450774
    23    -0.237403
    24    -0.325743
    25    -0.064814
    26     0.281966
    27     0.070452
    28    -0.055183
    29     0.105485
    30     0.173005
    31    -0.748028
    32     0.047581
    33    -0.400250
    34    -0.040946
    35    -0.009753
    36    -0.421019
    37     0.230346
    38    -0.231332
    39     0.556138
Sym=    28a
Ene=   -0.993582E-02
Spin= Alpha
Occup= 0.015016
     1     0.031064
     2     0.213641
     3     0.550288
     4    -0.057541
     5     0.135787
     6    -0.136180
     7    -0.134312
     8    -0.403417
     9     0.402660
    10     0.401523
    11    -0.219435
    12     0.232275
    13     0.203935
    14     0.027957
    15     0.001250
    16     0.024752
    17    -0.152435
    18    -0.130199
    19     0.142009
    20     0.021639
    21    -0.018290
    22    -0.012116
    23     0.001148
    24    -0.003538
    25     0.010840
    26     0.003725
    27    -0.002867
    28     0.007414
    29     0.002548
    30     0.009104
    31     0.020563
    32     0.007348
    33     0.012382
    34    -0.001664
    35    -1.112783
    36    -0.016663
    37     0.018671
    38    -0.022157
    39    -0.021504
Sym=    29a
Ene=   -0.478792E-02
Spin= Alpha
Occup= 0.006368
     1    -0.009523
     2    -0.071039
     3    -0.407210
     4     0.111132
     5     0.040126
     6    -0.039944
     7     0.038250
     8    -0.133639
     9     0.131132
    10    -0.127181
    11     0.072423
    12    -0.059117
    13     0.066483
    14     0.040512
    15     0.046367
    16     0.099235
    17     0.115496
    18    -0.109623
    19     0.118107
    20    -0.040639
    21    -0.059831
    22     0.010458
    23     0.008546
    24    -0.022826
    25    -0.051644
    26    -0.036919
    27    -0.010115
    28    -0.009174
    29    -0.022675
    30    -0.698192
    31     1.032165
    32     0.269861
    33    -0.266496
    34     0.293724
    35    -0.052920
    36    -0.045358
    37    -0.008557
    38     0.019637
    39     0.013987
Sym=    30a
Ene=   -0.478119E-02
Spin= Alpha
Occup= 0.006352
     1    -0.008969
     2    -0.066982
     3    -0.396173
     4     0.102286
     5    -0.036695
     6    -0.036294
     7    -0.038220
     8     0.120514
     9     0.120041
    10     0.126382
    11    -0.056721
    12    -0.062119
    13    -0.065930
    14     0.079142
    15     0.083942
    16     0.021409
    17    -0.106823
    18    -0.103980
    19    -0.101162
    20    -0.034677
    21    -0.063085
    22     0.023058
    23     0.016577
    24    -0.001531
    25    -0.731294
    26     1.058485
    27    -0.282848
    28    -0.283223
    29    -0.262692
    30    -0.049542
    31    -0.048105
    32     0.022717
    33    -0.011205
    34     0.009081
    35    -0.049527
    36    -0.042627
    37    -0.006501
    38     0.026356
    39     0.008775
Sym=    31a
Ene=   -0.909001E-02
Spin= Alpha
Occup= 0.013233
     1    -0.031444
     2    -0.216789
     3    -0.577420
     4     0.117723
     5     0.138932
     6     0.138594
     7    -0.139870
     8    -0.421834
     9    -0.422293
    10     0.421851
    11    -0.162036
    12    -0.152790
    13     0.179962
    14    -0.010081
    15    -0.019804
    16    -0.010603
    17    -0.179538
    18     0.198580
    19     0.191313
    20     1.142060
    21    -0.070366
    22     0.039932
    23     0.038935
    24    -0.036848
    25    -0.045766
    26     0.038482
    27    -0.002326
    28     0.011804
    29    -0.021061
    30    -0.038046
    31     0.013797
    32     0.024128
    33     0.008534
    34    -0.005286
    35    -0.032366
    36    -0.000159
    37     0.014361
    38     0.024690
    39    -0.000513
Sym=    32a
Ene=   -0.279183E-03
Spin= Alpha
Occup= 0.000047
     1     0.069769
     2     0.768777
     3     2.441933
     4     0.045264
     5     0.139802
     6     0.133723
     7    -0.171825
     8    -0.616195
     9    -0.588411
    10     0.759800
    11     0.592728
    12     0.559956
    13    -0.732680
    14    -1.041476
    15    -1.040285
    16    -1.036048
    17     0.020835
    18    -0.038933
    19    -0.032771
    20     0.119071
    21    -0.359473
    22    -0.314666
    23    -0.316994
    24     0.315952
    25     0.097397
    26     0.039899
    27    -0.062102
    28    -0.057780
    29    -0.130393
    30     0.079854
    31     0.097297
    32     0.184766
    33    -0.113022
    34     0.104282
    35     0.070437
    36     0.120038
    37    -0.116442
    38     0.194654
    39     0.117945
Sym=    33a
Ene=   -0.277666E-03
Spin= Alpha
Occup= 0.000047
     1     0.069346
     2     0.764219
     3     2.420874
     4     0.095522
     5    -0.148556
     6     0.155143
     7     0.146371
     8     0.657186
     9    -0.687474
    10    -0.646637
    11    -0.650461
    12     0.683107
    13     0.633314
    14    -1.030441
    15    -1.033912
    16    -1.035191
    17    -0.030467
    18    -0.016471
    19     0.022542
    20     0.086324
    21     0.066193
    22     0.095480
    23     0.152479
    24    -0.092867
    25     0.079994
    26     0.082352
    27    -0.164563
    28    -0.107105
    29    -0.102724
    30     0.068700
    31     0.102619
    32     0.103491
    33    -0.111771
    34     0.167981
    35     0.136298
    36    -0.421381
    37     0.316023
    38    -0.317472
    39    -0.318359
Sym=    34a
Ene=   -0.268197E-03
Spin= Alpha
Occup= 0.000045
     1     0.067648
     2     0.745567
     3     2.362302
     4     0.090271
     5     0.152955
     6    -0.151817
     7     0.148689
     8    -0.677080
     9     0.670504
    10    -0.656975
    11     0.673433
    12    -0.659777
    13     0.640097
    14    -1.013930
    15    -1.015717
    16    -0.994936
    17    -0.025654
    18     0.033674
    19    -0.022849
    20     0.083570
    21     0.070467
    22     0.162010
    23     0.101470
    24    -0.094795
    25     0.072039
    26     0.088311
    27    -0.104367
    28    -0.169669
    29    -0.092053
    30     0.129847
    31    -0.416500
    32    -0.319612
    33     0.321516
    34    -0.317250
    35     0.077512
    36     0.095304
    37    -0.107147
    38     0.101981
    39     0.165905
Sym=    35a
Ene=   -0.620315E-06
Spin= Alpha
Occup= 0.000000
     1    -0.000569
     2    -0.065830
     3     0.368795
     4    -3.940753
     5    -0.008716
     6    -0.031548
     7    -0.002480
     8     0.091066
     9     0.198294
    10    -0.001648
    11    -0.239312
    12     0.661056
    13     0.325998
    14    -0.186380
    15     0.747264
    16     0.283133
    17    -0.052241
    18    -0.777798
    19    -0.289512
    20    -0.440144
    21     1.136879
    22     0.312164
    23     0.126416
    24    -0.107333
    25     0.058146
    26     1.714396
    27     0.143409
    28     0.446232
    29     0.116432
    30    -0.097614
    31     1.564626
    32     0.244842
    33     0.346458
    34    -0.216033
    35    -0.185428
    36     0.443598
    37    -0.154260
    38     0.063537
    39     0.309685
Sym=    36a
Ene=    0.948905E-09
Spin= Alpha
Occup= 0.000000
     1    -0.000223
     2     0.053707
     3    -0.054678
     4     0.953285
     5     0.003029
     6    -0.012214
     7    -0.001747
     8     0.006203
     9    -0.001159
    10     0.005292
    11    -0.282878
    12     1.236887
    13     0.175627
    14    -0.256925
    15    -0.292544
    16    -0.291337
    17    -0.021609
    18    -0.141578
    19     0.006471
    20     0.097172
    21    -0.657087
    22     0.113864
    23    -0.215416
    24    -0.053307
    25    -0.085059
    26     0.616166
    27     0.711687
    28    -0.236010
    29     0.129721
    30    -0.030950
    31     0.615143
    32    -0.248479
    33     0.371853
    34     0.039960
    35     0.179601
    36    -1.213664
    37    -0.213796
    38    -0.011337
    39    -0.033853
Sym=    37a
Ene=    0.000000E+00
Spin= Alpha
Occup= 0.000000
     1     0.000025
     2     0.007526
     3    -0.017758
     4     0.252669
     5     0.009384
     6     0.005621
     7     0.009418
     8     0.016621
     9     0.007409
    10     0.014417
    11    -1.013231
    12    -0.663952
    13    -0.959701
    14    -0.034116
    15     0.011012
    16    -0.084225
    17     0.075835
    18     0.063379
    19     0.087336
    20    -0.050953
    21     0.390412
    22     0.269507
    23    -0.258581
    24     0.213856
    25     0.165755
    26    -1.593288
    27    -0.188029
    28    -0.202862
    29    -0.170819
    30    -0.024781
    31     0.621531
    32    -0.027639
    33     0.552427
    34     0.298425
    35    -0.035572
    36     0.302452
    37     0.429645
    38    -0.022590
    39     0.284066
Sym=    38a
Ene=    0.000000E+00
Spin= Alpha
Occup= 0.000000
     1    -0.000905
     2     0.107348
     3     0.053961
     4     0.302510
     5     0.006276
     6    -0.000232
     7    -0.000426
     8     0.009830
     9    -0.007182
    10    -0.008189
    11    -0.739719
    12     0.013115
    13     0.013874
    14    -0.577953
    15    -0.642762
    16    -0.565360
    17     0.008697
    18     0.026183
    19     0.053614
    20    -0.048492
    21     0.726012
    22    -0.240408
    23    -0.310882
    24     0.338376
    25     0.107734
    26    -0.251140
    27     0.209827
    28     0.146749
    29     0.125571
    30    -0.089388
    31     0.761595
    32    -0.179233
    33    -0.038475
    34    -0.742980
    35     0.026147
    36    -0.107390
    37     0.378787
    38    -0.182940
    39    -0.035299
Sym=    39a
Ene=    0.000000E+00
Spin= Alpha
Occup= 0.000000
     1     0.000290
     2    -0.037248
     3    -0.011342
     4    -0.207975
     5     0.006254
     6    -0.004108
     7     0.005441
     8    -0.010142
     9    -0.006917
    10    -0.036160
    11    -0.600900
    12     0.388073
    13    -0.375576
    14     0.114413
    15     0.228148
    16     0.272208
    17     0.142386
    18    -0.021553
    19     0.086592
    20     0.005810
    21    -0.188439
    22     0.529682
    23    -0.368126
    24    -0.164837
    25     0.125238
    26    -0.633239
    27    -0.308556
    28    -0.134290
    29    -0.122966
    30    -0.168474
    31     0.921531
    32    -0.033222
    33    -0.135027
    34    -0.330747
    35     0.001314
    36    -0.322100
    37    -0.399084
    38     0.198037
    39    -0.308010
