[Molden Format]
p30-5 set                                                                       
[Atoms] AU
 B        1     5        0.0000        0.0000        0.0000
 H        2     1       -1.1276        1.9530        0.0000
 H        3     1       -1.1276       -1.9530        0.0000
 H        4     1        2.2552        0.0000        0.0000
[GTO]
    1 0
s    5 1.00
     839.318300860000 -0.562888359825E-02
     126.264648430000 -0.418327946095E-01
      28.620600763000 -0.184174881258E+00
       7.879372271000 -0.468396550281E+00
       2.408885717200 -0.444579308833E+00
s    1 1.00
       0.251051090360  0.100000000000E+01
s    1 1.00
       0.083648866069  0.100000000000E+01
p    3 1.00
       6.033222361900 -0.540325003228E-01
       1.249915786600 -0.301940343932E+00
       0.338716763500 -0.771707916582E+00
p    1 1.00
       0.096415632351  0.100000000000E+01
d    1 1.00
       0.500000000000  0.100000000000E+01
 
    2 0
s    3 1.00
      13.010701000000  0.334854848130E-01
       1.962257200000  0.234721870881E+00
       0.444537960000  0.813770285260E+00
s    1 1.00
       0.121949620000  0.100000000000E+01
p    1 1.00
       0.800000000000  0.100000000000E+01
 
    3 0
s    3 1.00
      13.010701000000  0.334854848130E-01
       1.962257200000  0.234721870881E+00
       0.444537960000  0.813770285260E+00
s    1 1.00
       0.121949620000  0.100000000000E+01
p    1 1.00
       0.800000000000  0.100000000000E+01
 
    4 0
s    3 1.00
      13.010701000000  0.334854848130E-01
       1.962257200000  0.234721870881E+00
       0.444537960000  0.813770285260E+00
s    1 1.00
       0.121949620000  0.100000000000E+01
p    1 1.00
       0.800000000000  0.100000000000E+01
 
[MO]
Sym=     1a
Ene=   -0.762849E+01
Spin= Alpha
Occup= 1.999752
     1    -0.996226
     2     0.020602
     3    -0.017301
     4    -0.000010
     5     0.000019
     6    -0.000002
     7    -0.000011
     8    -0.000030
     9    -0.000009
    10    -0.000329
    11    -0.000330
    12    -0.001461
    13    -0.000013
    14    -0.000013
    15    -0.000012
    16    -0.004963
    17     0.002011
    18     0.000252
    19    -0.000439
    20     0.000013
    21    -0.004978
    22     0.001946
    23     0.000243
    24     0.000422
    25    -0.000001
    26    -0.004980
    27     0.001973
    28    -0.000491
    29     0.000007
    30     0.000003
Sym=     2a
Ene=   -0.585395E+00
Spin= Alpha
Occup= 1.974624
     1    -0.119011
     2    -0.240516
     3    -0.051508
     4     0.340150
     5    -0.000024
     6     0.000008
     7    -0.081617
     8    -0.000006
     9    -0.000001
    10    -0.040158
    11     0.006651
    12    -0.004852
    13    -0.000011
    14     0.000003
    15     0.000020
    16     0.024840
    17     0.039337
    18    -0.005377
    19     0.001897
    20    -0.000003
    21     0.024901
    22     0.039336
    23    -0.005362
    24    -0.001874
    25     0.000002
    26    -0.427427
    27    -0.216993
    28     0.021739
    29    -0.000009
    30    -0.000011
Sym=     3a
Ene=   -0.585391E+00
Spin= Alpha
Occup= 1.974597
     1     0.119034
     2     0.240562
     3     0.051603
     4     0.170088
     5    -0.294562
     6    -0.000007
     7    -0.040797
     8     0.070633
     9     0.000006
    10     0.004996
    11     0.028451
    12     0.004826
    13    -0.023400
    14    -0.000013
    15    -0.000015
    16     0.427436
    17     0.217013
    18     0.010867
    19    -0.018821
    20     0.000002
    21    -0.024900
    22    -0.039421
    23    -0.001077
    24     0.005583
    25    -0.000001
    26    -0.024833
    27    -0.039415
    28    -0.004318
    29     0.003734
    30     0.000003
Sym=     4a
Ene=   -0.585406E+00
Spin= Alpha
Occup= 1.974593
     1     0.119027
     2     0.240514
     3     0.051546
     4     0.170065
     5     0.294523
     6     0.000003
     7    -0.040796
     8    -0.070640
     9    -0.000007
    10     0.005041
    11     0.028424
    12     0.004871
    13     0.023394
    14     0.000017
    15     0.000008
    16    -0.024860
    17    -0.039370
    18    -0.001068
    19    -0.005599
    20     0.000014
    21     0.427475
    22     0.217012
    23     0.010903
    24     0.018853
    25     0.000002
    26    -0.024854
    27    -0.039366
    28    -0.004336
    29    -0.003734
    30    -0.000002
Sym=     5a
Ene=   -0.170113E-03
Spin= Alpha
Occup= 0.000116
     1     0.006591
     2     0.533272
     3    -0.227210
     4     0.566836
     5     0.982517
     6    -0.000113
     7     0.166180
     8     0.287486
     9     0.001966
    10     0.261363
    11     0.487598
    12     0.157485
    13     0.228531
    14    -0.001419
    15    -0.002341
    16    -0.003889
    17    -0.049372
    18     0.050989
    19     0.046818
    20    -0.000052
    21    -0.412277
    22    -0.551570
    23    -0.673989
    24    -1.168502
    25    -0.002826
    26    -0.005063
    27    -0.049408
    28     0.015740
    29     0.067024
    30     0.000014
Sym=     6a
Ene=   -0.440915E-02
Spin= Alpha
Occup= 0.005367
     1    -0.013873
     2    -0.112209
     3    -0.008599
     4     0.089966
     5    -0.155718
     6    -0.052324
     7    -0.044958
     8     0.078161
     9     0.013377
    10     0.058216
    11     0.019573
    12     0.090830
    13     0.038608
    14    -0.033609
    15     0.058293
    16    -1.136809
    17     1.193524
    18    -0.204333
    19     0.353930
    20     0.086515
    21    -0.007177
    22    -0.110663
    23     0.025184
    24    -0.042190
    25    -0.005937
    26    -0.007145
    27    -0.110861
    28     0.023943
    29    -0.042838
    30    -0.005925
Sym=     7a
Ene=   -0.440571E-02
Spin= Alpha
Occup= 0.005359
     1    -0.013940
     2    -0.112730
     3    -0.008775
     4    -0.180846
     5     0.000035
     6    -0.038235
     7     0.090534
     8     0.000104
     9     0.009801
    10     0.000370
    11     0.077813
    12     0.091256
    13    -0.000071
    14     0.049233
    15     0.000013
    16    -0.007125
    17    -0.111477
    18    -0.049340
    19    -0.000673
    20    -0.004360
    21    -0.007102
    22    -0.111343
    23    -0.049410
    24     0.000734
    25    -0.004358
    26    -1.142939
    27     1.200108
    28     0.410961
    29     0.000002
    30     0.063344
Sym=     8a
Ene=   -0.374797E-05
Spin= Alpha
Occup= 0.000001
     1    -0.000044
     2     0.000866
     3     0.000274
     4    -0.054870
     5    -0.061306
     6     0.607759
     7    -0.002694
     8    -0.003147
     9     1.190298
    10     0.118770
    11    -0.114114
    12    -0.002133
    13    -0.150225
    14     0.000006
    15    -0.000294
    16    -0.040839
    17     0.007580
    18     0.065558
    19     0.068000
    20    -0.184619
    21     0.122519
    22    -0.024619
    23     0.055611
    24     0.057208
    25    -0.185187
    26    -0.085824
    27     0.016339
    28     0.054576
    29     0.071208
    30    -0.184702
Sym=     9a
Ene=   -0.440934E-02
Spin= Alpha
Occup= 0.005366
     1     0.013839
     2     0.111978
     3     0.008715
     4    -0.089819
     5    -0.155528
     6     0.056150
     7     0.044945
     8     0.077920
     9    -0.014222
    10    -0.058035
    11    -0.019560
    12    -0.090728
    13     0.038603
    14     0.036077
    15     0.062478
    16     0.007149
    17     0.110504
    18    -0.025078
    19    -0.042050
    20     0.006358
    21     1.134721
    22    -1.191433
    23     0.204085
    24     0.353496
    25    -0.092695
    26     0.007105
    27     0.110554
    28    -0.023868
    29    -0.042772
    30     0.006330
Sym=    10a
Ene=   -0.170670E-03
Spin= Alpha
Occup= 0.000117
     1     0.006771
     2     0.533560
     3    -0.229902
     4     0.568121
     5    -0.982940
     6    -0.001614
     7     0.166863
     8    -0.289560
     9    -0.001004
    10     0.256859
    11     0.488812
    12     0.158221
    13    -0.228518
    14    -0.000894
    15     0.001848
    16    -0.412967
    17    -0.547933
    18    -0.675213
    19     1.167857
    20    -0.001814
    21    -0.004092
    22    -0.049229
    23     0.049816
    24    -0.045751
    25     0.000281
    26    -0.002279
    27    -0.049227
    28     0.013691
    29    -0.066774
    30     0.000068
Sym=    11a
Ene=   -0.890334E-02
Spin= Alpha
Occup= 0.012371
     1     0.171580
     2     0.768575
     3    -0.063755
     4    -0.902676
     5     0.000037
     6     0.000036
     7    -0.012635
     8     0.000060
     9    -0.000091
    10     0.210776
    11    -0.106946
    12    -0.069930
    13     0.000047
    14    -0.000068
    15     0.000008
    16     0.028826
    17    -0.058058
    18    -0.015571
    19    -0.015092
    20    -0.000008
    21     0.028739
    22    -0.057957
    23    -0.015625
    24     0.015104
    25     0.000009
    26    -1.011245
    27    -0.157964
    28    -0.125001
    29    -0.000040
    30    -0.000044
Sym=    12a
Ene=   -0.654418E-08
Spin= Alpha
Occup= 0.000000
     1     0.035828
     2    -0.026966
     3     5.927567
     4    -0.004340
     5     0.003899
     6     0.000133
     7     0.309863
     8    -0.283915
     9     0.000319
    10    -0.126176
    11    -0.190843
    12    -0.307196
    13     0.035201
    14     0.000018
    15    -0.000030
    16     0.311137
    17    -2.108113
    18    -0.055426
    19     0.072751
    20    -0.000089
    21     0.323732
    22    -2.621259
    23    -0.104990
    24    -0.108966
    25    -0.000069
    26     0.330278
    27    -2.850374
    28     0.171845
    29     0.024813
    30    -0.000103
Sym=    13a
Ene=   -0.441215E-02
Spin= Alpha
Occup= 0.005272
     1     0.002404
     2     0.018806
     3     0.001342
     4    -0.014340
     5    -0.024898
     6    -0.342290
     7     0.007354
     8     0.012535
     9     0.086718
    10    -0.009459
    11    -0.003054
    12    -0.014877
    13     0.006391
    14    -0.221108
    15    -0.383051
    16     0.001386
    17     0.017788
    18    -0.004109
    19    -0.006909
    20    -0.038984
    21     0.184062
    22    -0.194160
    23     0.033566
    24     0.058047
    25     0.570309
    26     0.001341
    27     0.017724
    28    -0.003936
    29    -0.007009
    30    -0.038899
Sym=    14a
Ene=   -0.197593E-03
Spin= Alpha
Occup= 0.000150
     1    -0.000053
     2    -0.001264
     3     0.000437
     4    -0.001563
     5     0.002042
     6    -0.503206
     7     0.000045
     8     0.000922
     9    -0.046511
    10     0.001047
    11    -0.002408
    12    -0.000342
    13    -0.000873
    14    -0.404280
    15     0.701301
    16     0.000983
    17     0.000981
    18     0.002484
    19    -0.002051
    20    -0.937564
    21     0.001217
    22    -0.000001
    23     0.000440
    24     0.000382
    25     0.014097
    26    -0.000918
    27     0.000052
    28     0.000388
    29     0.000873
    30     0.013662
Sym=    15a
Ene=   -0.228901E-02
Spin= Alpha
Occup= 0.002127
     1    -0.000021
     2    -0.000043
     3    -0.000102
     4    -0.000108
     5     0.255544
     6     0.000061
     7     0.000043
     8     0.267009
     9     0.000046
    10     0.000084
    11     0.000008
    12    -0.000044
    13     0.419393
    14     0.000017
    15    -0.000062
    16     0.349299
    17    -0.484068
    18    -0.046932
    19    -0.106975
    20    -0.000049
    21    -0.349339
    22     0.484330
    23     0.046986
    24    -0.107000
    25     0.000015
    26    -0.000097
    27    -0.000023
    28     0.000088
    29     0.819781
    30     0.000091
Sym=    16a
Ene=   -0.980094E-07
Spin= Alpha
Occup= 0.000000
     1     0.004068
     2    -0.289892
     3    -0.786494
     4    -0.009898
     5    -0.010883
     6    -0.000789
     7     0.008036
     8    -0.002092
     9    -0.001472
    10    -0.899300
    11    -0.949385
    12     1.118241
    13    -0.029946
    14    -0.000055
    15    -0.000103
    16     0.616669
    17     0.239586
    18     0.228048
    19    -0.357942
    20     0.000200
    21     0.649325
    22     0.228748
    23     0.224576
    24     0.381503
    25     0.000136
    26     0.607217
    27     0.227616
    28    -0.417116
    29     0.014810
    30     0.000221
Sym=    17a
Ene=   -0.229081E-02
Spin= Alpha
Occup= 0.002132
     1     0.000017
     2     0.000003
     3     0.000174
     4     0.221213
     5    -0.127802
     6    -0.000018
     7     0.231864
     8    -0.133829
     9     0.000033
    10    -0.314676
    11     0.314590
    12    -0.000016
    13    -0.209802
    14    -0.000068
    15     0.000059
    16    -0.349322
    17     0.484674
    18    -0.116101
    19     0.012785
    20     0.000036
    21     0.000103
    22    -0.000079
    23     0.709817
    24    -0.409755
    25    -0.000081
    26     0.349235
    27    -0.484755
    28    -0.069147
    29     0.094161
    30    -0.000052
Sym=    18a
Ene=   -0.228902E-02
Spin= Alpha
Occup= 0.002127
     1    -0.000020
     2    -0.000099
     3     0.000217
     4     0.221307
     5     0.127728
     6     0.000065
     7     0.231439
     8     0.133593
     9     0.000071
    10    -0.314511
    11     0.314513
    12    -0.000021
    13     0.209692
    14    -0.000018
    15    -0.000019
    16     0.000037
    17    -0.000134
    18     0.709929
    19     0.409905
    20     0.000066
    21    -0.349307
    22     0.484344
    23    -0.116136
    24    -0.012792
    25     0.000016
    26     0.349222
    27    -0.484311
    28    -0.069186
    29    -0.094147
    30    -0.000046
Sym=    19a
Ene=   -0.440527E-02
Spin= Alpha
Occup= 0.005250
     1    -0.001553
     2    -0.012520
     3    -0.001035
     4    -0.020283
     5    -0.000041
     6     0.343955
     7     0.009728
     8     0.000115
     9    -0.086975
    10     0.000145
    11     0.008487
    12     0.010085
    13     0.000056
    14    -0.445382
    15    -0.000143
    16    -0.000956
    17    -0.012186
    18    -0.005512
    19    -0.000101
    20     0.039150
    21    -0.000907
    22    -0.011993
    23    -0.005495
    24     0.000059
    25     0.039215
    26    -0.126369
    27     0.132732
    28     0.045786
    29     0.000025
    30    -0.574973
Sym=    20a
Ene=   -0.108708E-05
Spin= Alpha
Occup= 0.000000
     1     0.000101
     2    -0.008277
     3    -0.022956
     4     0.413433
     5     0.459815
     6     0.076103
     7     0.018348
     8     0.023462
     9     0.151853
    10    -0.934584
    11     0.885076
    12     0.029071
    13     1.168825
    14     0.000105
    15     0.000663
    16     0.321882
    17    -0.059071
    18    -0.517971
    19    -0.529842
    20    -0.024897
    21    -0.947536
    22     0.211558
    23    -0.425348
    24    -0.426549
    25    -0.024081
    26     0.674834
    27    -0.129718
    28    -0.418140
    29    -0.558411
    30    -0.024551
Sym=    21a
Ene=   -0.198392E-03
Spin= Alpha
Occup= 0.000152
     1    -0.000041
     2    -0.001489
     3     0.000490
     4    -0.001815
     5    -0.003068
     6    -0.504307
     7    -0.000191
     8    -0.000854
     9    -0.047067
    10     0.000141
    11    -0.001720
    12    -0.000510
    13    -0.001043
    14    -0.404179
    15    -0.700225
    16    -0.000005
    17     0.000124
    18     0.000073
    19     0.000210
    20     0.013265
    21     0.001727
    22     0.001387
    23     0.002218
    24     0.003561
    25    -0.937724
    26    -0.000426
    27    -0.000073
    28     0.000288
    29    -0.000024
    30     0.013227
Sym=    22a
Ene=   -0.890718E-02
Spin= Alpha
Occup= 0.012384
     1     0.171567
     2     0.768567
     3    -0.063445
     4     0.451299
     5    -0.781666
     6     0.000033
     7     0.006299
     8    -0.010858
     9    -0.000065
    10    -0.027503
    11     0.131313
    12    -0.069906
    13    -0.158760
    14     0.000021
    15    -0.000036
    16    -1.011039
    17    -0.158313
    18     0.062526
    19    -0.108311
    20    -0.000050
    21     0.028730
    22    -0.058059
    23     0.020893
    24    -0.005970
    25     0.000005
    26     0.028750
    27    -0.058078
    28    -0.005245
    29    -0.021020
    30     0.000006
Sym=    23a
Ene=   -0.197550E-03
Spin= Alpha
Occup= 0.000150
     1     0.000030
     2     0.000524
     3    -0.000008
     4    -0.001351
     5     0.000205
     6     0.503222
     7    -0.000458
     8    -0.000345
     9     0.046628
    10     0.000036
    11     0.000471
    12     0.000142
    13     0.001617
    14    -0.809664
    15    -0.000481
    16     0.000573
    17     0.000046
    18    -0.000493
    19    -0.000668
    20    -0.013701
    21    -0.000973
    22     0.000128
    23    -0.000080
    24    -0.000272
    25    -0.014198
    26    -0.000282
    27    -0.000617
    28     0.001494
    29    -0.000873
    30     0.937432
Sym=    24a
Ene=   -0.237729E-02
Spin= Alpha
Occup= 0.000247
     1     0.915089
     2     4.198327
     3    -0.574245
     4     0.000341
     5     0.000223
     6    -0.000083
     7     0.000177
     8     0.000223
     9     0.000068
    10    -1.927433
    11    -1.927342
    12    -1.705604
    13    -0.000031
    14    -0.000019
    15     0.000003
    16     0.214202
    17     0.110987
    18     0.029438
    19    -0.050892
    20    -0.000035
    21     0.214195
    22     0.111098
    23     0.029270
    24     0.050699
    25    -0.000035
    26     0.214341
    27     0.111051
    28    -0.059046
    29     0.000036
    30    -0.000026
Sym=    25a
Ene=   -0.890168E-02
Spin= Alpha
Occup= 0.012368
     1    -0.171556
     2    -0.768418
     3     0.063640
     4    -0.451303
     5    -0.781678
     6    -0.000519
     7    -0.006269
     8    -0.010874
     9     0.000122
    10     0.027467
    11    -0.131371
    12     0.069962
    13    -0.158791
    14    -0.000214
    15    -0.000328
    16    -0.028765
    17     0.058052
    18    -0.020854
    19    -0.005999
    20    -0.000039
    21     1.011430
    22     0.157734
    23    -0.062538
    24    -0.108286
    25     0.000490
    26    -0.028751
    27     0.058013
    28     0.005250
    29    -0.021069
    30    -0.000021
Sym=    26a
Ene=   -0.440730E-02
Spin= Alpha
Occup= 0.005258
     1    -0.002120
     2    -0.016966
     3    -0.001624
     4     0.013808
     5    -0.024019
     6     0.342336
     7    -0.006648
     8     0.011543
     9    -0.086645
    10     0.008761
    11     0.003109
    12     0.013759
    13     0.005727
    14     0.221330
    15    -0.383772
    16    -0.172783
    17     0.181502
    18    -0.031235
    19     0.054138
    20    -0.571731
    21    -0.001189
    22    -0.016540
    23     0.003849
    24    -0.006485
    25     0.039024
    26    -0.001173
    27    -0.016691
    28     0.003647
    29    -0.006580
    30     0.038929
Sym=    27a
Ene=   -0.171095E-03
Spin= Alpha
Occup= 0.000118
     1    -0.006949
     2    -0.534221
     3     0.230383
     4     1.134585
     5    -0.000905
     6     0.001624
     7     0.335773
     8     0.000666
     9     0.001724
    10    -0.599957
    11    -0.144015
    12    -0.158699
    13    -0.002872
    14    -0.001048
    15    -0.000153
    16     0.001721
    17     0.049758
    18     0.065191
    19     0.021933
    20    -0.000054
    21     0.004671
    22     0.050186
    23     0.064946
    24    -0.019825
    25    -0.000279
    26     0.411650
    27     0.546365
    28    -1.347989
    29     0.001352
    30     0.000751
Sym=    28a
Ene=   -0.908528E-06
Spin= Alpha
Occup= 0.000000
     1     0.000007
     2    -0.000201
     3     0.001636
     4    -0.461164
     5     0.414057
     6     0.000124
     7    -0.018598
     8     0.018775
     9     0.000298
    10     1.020763
    11    -1.020680
    12    -0.000664
    13     1.058618
    14     0.000523
    15    -0.000039
    16     0.943604
    17    -0.199014
    18     0.492935
    19    -0.384750
    20     0.000139
    21    -0.205453
    22     0.044393
    23     0.578578
    24    -0.479150
    25     0.000096
    26    -0.738397
    27     0.153344
    28     0.453654
    29    -0.506000
    30    -0.000441
Sym=    29a
Ene=    0.000000E+00
Spin= Alpha
Occup= 0.000000
     1     0.001058
     2    -0.001747
     3     0.164919
     4     0.034581
     5     0.025076
     6    -0.000018
     7    -2.417309
     8    -1.770226
     9     0.000233
    10    -0.263768
    11     0.250354
    12    -0.006829
    13     0.218371
    14    -0.000037
    15     0.000036
    16     0.002239
    17     0.268323
    18     0.244492
    19     0.101161
    20    -0.000152
    21     0.082113
    22    -2.933291
    23    -0.065777
    24    -0.327797
    25    -0.000100
    26    -0.053355
    27     2.454714
    28    -0.274740
    29     0.155429
    30    -0.000073
Sym=    30a
Ene=    0.000000E+00
Spin= Alpha
Occup= 0.000000
     1     0.004948
     2    -0.004395
     3     0.821115
     4     0.024838
     5    -0.034236
     6    -0.000048
     7    -1.744605
     8     2.402192
     9    -0.000081
    10    -0.208797
    11     0.161108
    12    -0.040218
    13    -0.295917
    14    -0.000045
    15    -0.000069
    16     0.123494
    17    -3.433912
    18    -0.154141
    19     0.322785
    20    -0.000040
    21     0.014780
    22     0.911082
    23     0.267458
    24    -0.015301
    25    -0.000028
    26    -0.000364
    27     1.472036
    28    -0.181792
    29    -0.211173
    30     0.000093
