[Molden Format]
p30-5 set                                                                       
[Atoms] AU
 MG       1    12        0.0000        0.0000        0.0000
 H        2     1        0.0000        0.0000       -3.2256
 H        3     1        0.0000        0.0000        3.2256
[GTO]
    1 0
s    5 1.00
    4953.833919600000 -0.573034825338E-02
     745.180441540000 -0.427698711217E-01
     169.216049720000 -0.191096515460E+00
      47.300672019000 -0.482411503269E+00
      14.461336973000 -0.422007266852E+00
s    3 1.00
      24.768174789000  0.871156057208E-01
       2.494094534900 -0.546373693218E+00
       0.878075845330 -0.529320757859E+00
s    1 1.00
       0.087212782497  0.100000000000E+01
s    1 1.00
       0.033599293780  0.100000000000E+01
p    5 1.00
      98.053010494000 -0.144805646010E-01
      22.586932277000 -0.954957507867E-01
       6.839150984200 -0.307876726509E+00
       2.233284381800 -0.499362928859E+00
       0.716065993870 -0.315034762129E+00
p    1 1.00
       0.189147961950  0.100000000000E+01
p    1 1.00
       0.053768755187  0.100000000000E+01
d    1 1.00
       0.101000000000  0.100000000000E+01
 
    2 0
s    3 1.00
      13.010701000000  0.334854848130E-01
       1.962257200000  0.234721870881E+00
       0.444537960000  0.813770285260E+00
s    1 1.00
       0.121949620000  0.100000000000E+01
p    1 1.00
       0.800000000000  0.100000000000E+01
 
    3 0
s    3 1.00
      13.010701000000  0.334854848130E-01
       1.962257200000  0.234721870881E+00
       0.444537960000  0.813770285260E+00
s    1 1.00
       0.121949620000  0.100000000000E+01
p    1 1.00
       0.800000000000  0.100000000000E+01
 
[MO]
Sym=     1a
Ene=   -0.490376E+02
Spin= Alpha
Occup= 2.000000
     1    -0.998022
     2    -0.009162
     3    -0.007756
     4    -0.004155
     5    -0.000073
     6     0.000349
     7    -0.003108
     8    -0.000002
     9    -0.000003
    10    -0.000016
    11    -0.000000
    12    -0.000002
    13    -0.000004
    14     0.004364
    15     0.004365
    16     0.003999
    17    -0.000001
    18    -0.000001
    19     0.000003
    20     0.000442
    21    -0.000145
    22    -0.000001
    23     0.000002
    24     0.000522
    25     0.000462
    26    -0.000138
    27     0.000002
    28    -0.000004
    29    -0.000539
Sym=     2a
Ene=   -0.246004E+01
Spin= Alpha
Occup= 1.999988
     1    -0.084353
     2     0.333375
     3    -0.006666
     4    -0.000425
     5     0.034418
     6    -0.159916
     7    -0.931967
     8    -0.000263
     9     0.001232
    10    -0.002764
    11    -0.000079
    12     0.000364
    13    -0.000369
    14     0.001668
    15     0.001619
    16     0.002755
    17     0.000006
    18     0.000002
    19    -0.000008
    20    -0.002865
    21    -0.000302
    22    -0.000021
    23     0.000108
    24    -0.002579
    25     0.002508
    26    -0.001236
    27    -0.000024
    28     0.000107
    29    -0.001915
Sym=     3a
Ene=   -0.285507E+01
Spin= Alpha
Occup= 1.999935
     1     0.164989
     2    -0.625816
     3     0.012555
     4     0.000992
     5    -0.165912
     6     0.694995
     7    -0.338932
     8     0.001354
     9    -0.005681
    10    -0.000963
    11     0.000351
    12    -0.001468
    13    -0.000204
    14    -0.003279
    15    -0.003286
    16    -0.005705
    17    -0.000004
    18     0.000007
    19     0.000090
    20    -0.000670
    21     0.001898
    22     0.000103
    23    -0.000462
    24    -0.000222
    25     0.001221
    26     0.001540
    27     0.000106
    28    -0.000408
    29    -0.001374
Sym=     4a
Ene=   -0.269421E+01
Spin= Alpha
Occup= 1.999897
     1    -0.137688
     2     0.525996
     3    -0.010677
     4    -0.000911
     5     0.574077
     6     0.628645
     7     0.091589
     8    -0.004773
     9    -0.005205
    10     0.000273
    11    -0.001184
    12    -0.001302
    13     0.000057
    14     0.002838
    15     0.002833
    16     0.004940
    17    -0.000017
    18    -0.000103
    19     0.000071
    20    -0.000016
    21    -0.001584
    22    -0.000328
    23    -0.000412
    24    -0.000261
    25    -0.000512
    26    -0.001484
    27    -0.000385
    28    -0.000372
    29     0.000690
Sym=     5a
Ene=   -0.269000E+01
Spin= Alpha
Occup= 1.999895
     1     0.136975
     2    -0.523156
     3     0.010621
     4     0.000920
     5     0.797546
     6    -0.301038
     7    -0.096212
     8    -0.006627
     9     0.002484
    10    -0.000269
    11    -0.001641
    12     0.000624
    13    -0.000049
    14    -0.002816
    15    -0.002838
    16    -0.004921
    17    -0.000009
    18    -0.000111
    19    -0.000068
    20    -0.000019
    21     0.001572
    22    -0.000466
    23     0.000205
    24     0.000245
    25     0.000538
    26     0.001485
    27    -0.000524
    28     0.000168
    29    -0.000694
Sym=     6a
Ene=   -0.412644E+00
Spin= Alpha
Occup= 1.964901
     1    -0.028825
     2     0.180003
     3     0.352912
     4     0.067976
     5     0.000034
     6    -0.000061
     7    -0.105055
     8     0.000059
     9    -0.000372
    10    -0.159401
    11    -0.000019
    12     0.000111
    13    -0.137511
    14    -0.040628
    15    -0.043920
    16     0.083835
    17     0.000345
    18     0.000001
    19     0.000015
    20     0.416653
    21     0.242533
    22    -0.000001
    23     0.000017
    24     0.019773
    25    -0.019467
    26    -0.075777
    27    -0.000002
    28     0.000005
    29    -0.005561
Sym=     7a
Ene=   -0.412613E+00
Spin= Alpha
Occup= 1.964885
     1     0.028779
     2    -0.179762
     3    -0.352582
     4    -0.067913
     5     0.000043
     6    -0.000098
     7    -0.104961
     8    -0.000019
     9    -0.000004
    10    -0.159328
    11     0.000015
    12    -0.000084
    13    -0.137655
    14     0.043737
    15     0.040442
    16    -0.084006
    17     0.000405
    18    -0.000001
    19     0.000001
    20     0.019567
    21     0.075889
    22    -0.000000
    23    -0.000005
    24    -0.005554
    25    -0.416728
    26    -0.242421
    27     0.000003
    28     0.000001
    29     0.019768
Sym=     8a
Ene=   -0.377374E-02
Spin= Alpha
Occup= 0.006391
     1    -0.025753
     2     0.176484
     3     1.312064
     4     0.023461
     5     0.000539
     6    -0.001420
     7     0.159147
     8     0.001585
     9    -0.004235
    10     0.666144
    11     0.000190
    12    -0.000371
    13     0.028974
    14    -0.365195
    15    -0.368198
    16     0.630204
    17     0.000437
    18     0.001063
    19    -0.001163
    20     0.044386
    21    -0.554291
    22     0.000007
    23    -0.000395
    24     0.030950
    25     0.336974
    26    -1.723894
    27     0.001270
    28    -0.002654
    29    -0.489103
Sym=     9a
Ene=   -0.115434E-01
Spin= Alpha
Occup= 0.023589
     1     0.031273
     2    -0.216766
     3    -0.671936
     4    -0.098583
     5    -0.000223
     6     0.001286
     7     0.119848
     8    -0.000740
     9     0.003933
    10     0.410647
    11     0.000131
    12     0.000165
    13     0.469039
    14     0.073309
    15     0.071702
    16    -0.164842
    17     0.000179
    18     0.000143
    19    -0.002341
    20     1.082963
    21     0.081551
    22    -0.000090
    23     0.001249
    24     0.011125
    25    -0.051236
    26     0.069688
    27     0.000026
    28    -0.000149
    29     0.008541
Sym=    10a
Ene=   -0.326688E-07
Spin= Alpha
Occup= 0.000000
     1     0.001188
     2    -0.019057
     3    -0.137904
     4    -1.289662
     5     0.015059
     6     0.004122
     7    -0.000889
     8     0.210740
     9     0.059286
    10    -0.004312
    11    -0.519547
    12    -0.146368
    13     0.017935
    14     0.131754
    15     0.422659
    16    -0.191848
    17     0.210850
    18    -0.623684
    19     0.094418
    20    -0.271232
    21     0.962144
    22    -0.313064
    23    -0.013272
    24     0.086677
    25    -0.262649
    26     0.934236
    27    -0.058412
    28    -0.102355
    29    -0.098772
Sym=    11a
Ene=   -0.338670E-03
Spin= Alpha
Occup= 0.000102
     1    -0.040814
     2     0.325282
     3     0.387023
     4     0.639699
     5     0.205968
     6     0.221903
     7     0.016938
     8     0.745595
     9     0.802208
    10     0.086493
    11    -0.340316
    12    -0.363455
    13    -0.083476
    14    -0.571373
    15    -0.570353
    16    -1.178683
    17     0.011840
    18     0.135084
    19    -0.099124
    20     0.009963
    21     0.549691
    22    -0.151555
    23    -0.047587
    24    -0.123700
    25    -0.031929
    26     0.601731
    27    -0.026844
    28    -0.140436
    29     0.217806
Sym=    12a
Ene=   -0.241560E-03
Spin= Alpha
Occup= 0.000065
     1     0.047906
     2    -0.383096
     3    -0.419638
     4    -0.770169
     5    -0.060389
     6     0.253942
     7    -0.069319
     8    -0.219888
     9     0.922149
    10    -0.349046
    11     0.103351
    12    -0.426788
    13     0.287363
    14     0.684252
    15     0.667303
    16     1.426477
    17     0.004988
    18    -0.007857
    19    -0.137039
    20    -0.051056
    21    -0.666114
    22     0.030994
    23    -0.047432
    24     0.049374
    25     0.088924
    26    -0.779909
    27     0.026854
    28    -0.189258
    29    -0.378200
Sym=    13a
Ene=   -0.117855E-07
Spin= Alpha
Occup= 0.000000
     1    -0.000065
     2    -0.001125
     3     0.209044
     4    -0.447989
     5    -0.006597
     6     0.008569
     7    -0.013462
     8    -0.210126
     9     0.044841
    10    -0.251442
    11     0.656657
    12    -0.014317
    13    -0.977807
    14    -0.003108
    15    -0.158885
    16     0.521382
    17     0.049341
    18     0.028794
    19     0.549882
    20     0.027271
    21    -0.996081
    22    -0.180074
    23    -0.084073
    24    -0.145811
    25    -0.467820
    26     1.029515
    27     0.009812
    28    -0.424769
    29    -0.185387
Sym=    14a
Ene=    0.195241E-08
Spin= Alpha
Occup= 0.000000
     1    -0.000377
     2     0.002965
     3     0.251212
     4    -0.010653
     5     0.005270
     6     0.000153
     7    -0.000660
     8     0.023208
     9     0.001579
    10    -0.018105
    11     0.057806
    12     0.003132
    13    -0.082817
    14    -0.043894
    15    -0.054825
    16     0.336141
    17    -0.027050
    18     0.289883
    19    -0.017836
    20     0.025894
    21    -0.410156
    22     0.144579
    23    -0.005812
    24    -0.059585
    25    -0.015944
    26    -0.242195
    27    -1.021614
    28    -0.068906
    29     0.036144
Sym=    15a
Ene=   -0.315393E-02
Spin= Alpha
Occup= 0.005034
     1    -0.000226
     2     0.001930
     3    -0.003711
     4     0.004391
     5     0.012342
     6    -0.113480
     7    -0.001161
     8     0.029965
     9    -0.273579
    10    -0.005017
    11     0.022254
    12    -0.209631
    13     0.001825
    14    -0.002473
    15    -0.003009
    16    -0.014639
    17     0.000257
    18     0.050977
    19    -0.481679
    20    -0.000272
    21     0.009267
    22     0.003345
    23    -0.030244
    24    -0.001120
    25    -0.001580
    26     0.014582
    27     0.065777
    28    -0.618307
    29     0.003033
Sym=    16a
Ene=   -0.314809E-02
Spin= Alpha
Occup= 0.005016
     1     0.000009
     2    -0.000005
     3    -0.003067
     4     0.000761
     5     0.112020
     6     0.009792
     7     0.000386
     8     0.268239
     9     0.023176
    10     0.001581
    11     0.212004
    12     0.019267
    13     0.000346
    14     0.000437
    15    -0.000034
    16    -0.003644
    17    -0.000398
    18    -0.483305
    19    -0.043908
    20    -0.000910
    21     0.005748
    22     0.620815
    23     0.055984
    24    -0.001575
    25    -0.000061
    26     0.002435
    27     0.030464
    28     0.002633
    29     0.000172
Sym=    17a
Ene=   -0.340455E-03
Spin= Alpha
Occup= 0.000104
     1    -0.040642
     2     0.323982
     3     0.382071
     4     0.637067
     5    -0.283980
     6     0.104367
     7     0.018465
     8    -1.028485
     9     0.377984
    10     0.093636
    11     0.470696
    12    -0.173071
    13    -0.085635
    14    -0.560741
    15    -0.575446
    16    -1.178325
    17    -0.007872
    18    -0.143691
    19    -0.089372
    20     0.009818
    21     0.554877
    22     0.190175
    23    -0.003689
    24    -0.122339
    25    -0.032742
    26     0.601963
    27     0.058595
    28    -0.087124
    29     0.218622
Sym=    18a
Ene=   -0.254835E-06
Spin= Alpha
Occup= 0.000001
     1    -0.000040
     2     0.001974
     3     0.094918
     4     0.118719
     5     0.000030
     6     0.006326
     7     0.000166
     8    -0.017729
     9     0.041925
    10     0.013153
    11     0.061824
    12    -0.069084
    13     0.074862
    14    -0.752408
    15     0.542769
    16     0.265628
    17    -0.645623
    18    -0.016519
    19     0.084526
    20    -0.059620
    21    -0.116787
    22    -0.028596
    23    -0.014721
    24     0.003476
    25    -0.024151
    26    -0.267094
    27     0.011553
    28    -0.050594
    29     0.006841
Sym=    19a
Ene=    0.369803E-07
Spin= Alpha
Occup= 0.000000
     1     0.000818
     2    -0.001163
     3    -0.688642
     4     0.723921
     5     0.003377
     6    -0.002907
     7    -0.004056
     8    -0.145947
     9     0.079979
    10    -0.069743
    11     0.586715
    12    -0.339181
    13    -0.274826
    14    -0.113919
    15     0.061541
    16    -0.840515
    17     0.129582
    18    -0.340639
    19    -0.372986
    20     0.166934
    21     0.188099
    22    -0.528176
    23    -0.015515
    24     0.070753
    25     0.026489
    26     0.758010
    27    -0.095904
    28     0.427926
    29    -0.153593
Sym=    20a
Ene=   -0.415200E-04
Spin= Alpha
Occup= 0.000012
     1    -0.018764
     2     0.150323
     3     0.202520
     4     0.337699
     5     0.009822
     6    -0.044152
     7    -0.241079
     8     0.038208
     9    -0.175188
    10    -1.240202
    11    -0.023878
    12     0.123149
    13     1.044017
    14    -0.269670
    15    -0.260457
    16    -0.533576
    17     0.004016
    18    -0.011692
    19     0.013263
    20    -0.237330
    21     0.433685
    22    -0.017051
    23     0.028229
    24    -0.740585
    25     0.270810
    26    -0.019892
    27    -0.004639
    28     0.023583
    29    -0.541613
Sym=    21a
Ene=   -0.641384E-09
Spin= Alpha
Occup= 0.000000
     1     0.002108
     2    -0.016654
     3    -1.234166
     4     0.104173
     5    -0.001337
     6    -0.000627
     7    -0.026389
     8     0.090041
     9     0.069108
    10    -0.497041
    11    -0.346983
    12    -0.263176
    13    -1.998673
    14     0.190555
    15     0.314987
    16    -1.670925
    17     0.003393
    18     0.188889
    19    -0.064745
    20     0.513992
    21    -0.508267
    22     0.290426
    23     0.084709
    24    -0.078460
    25    -0.501760
    26     3.618884
    27     0.017483
    28     0.163397
    29    -0.542811
Sym=    22a
Ene=   -0.115719E-01
Spin= Alpha
Occup= 0.023691
     1     0.030990
     2    -0.214509
     3    -0.669768
     4    -0.096228
     5    -0.000078
     6     0.000022
     7    -0.119304
     8    -0.000290
     9     0.000366
    10    -0.408346
    11     0.000133
    12    -0.000917
    13    -0.472333
    14     0.067882
    15     0.069535
    16    -0.173847
    17    -0.000240
    18    -0.000124
    19     0.000289
    20    -0.050559
    21     0.073910
    22     0.000045
    23    -0.000196
    24    -0.008336
    25     1.081566
    26     0.089352
    27    -0.000041
    28    -0.000104
    29    -0.009975
Sym=    23a
Ene=   -0.380751E-02
Spin= Alpha
Occup= 0.006494
     1    -0.026800
     2     0.184905
     3     1.317539
     4     0.035959
     5     0.001382
     6    -0.007524
     7    -0.160516
     8     0.004031
     9    -0.021155
    10    -0.673041
    11     0.000612
    12    -0.005707
    13    -0.017378
    14    -0.381659
    15    -0.378918
    16     0.592731
    17    -0.000347
    18    -0.002783
    19     0.021069
    20     0.333649
    21    -1.693964
    22     0.003312
    23    -0.021798
    24     0.480614
    25     0.045345
    26    -0.535782
    27     0.000103
    28    -0.000475
    29    -0.030827
Sym=    24a
Ene=   -0.210761E-06
Spin= Alpha
Occup= 0.000001
     1    -0.000071
     2    -0.001259
     3    -0.300664
     4    -0.063531
     5     0.009736
     6     0.006852
     7    -0.000721
     8     0.073759
     9     0.158973
    10     0.004065
    11    -0.134020
    12    -0.462283
    13     0.070889
    14     0.701249
    15    -0.248785
    16    -0.750612
    17    -0.610301
    18    -0.244396
    19     0.194080
    20     0.127008
    21     0.500592
    22    -0.130263
    23    -0.021873
    24    -0.009047
    25     0.165154
    26     0.368141
    27    -0.007612
    28    -0.010542
    29     0.004500
Sym=    25a
Ene=   -0.455877E-07
Spin= Alpha
Occup= 0.000000
     1    -0.001259
     2     0.016795
     3     0.029167
     4     0.886151
     5    -0.004019
     6     0.011922
     7     0.005623
     8     0.013582
     9     0.249845
    10     0.121288
    11    -0.102771
    12    -0.707196
    13     0.551596
    14    -0.346589
    15     0.074480
    16    -0.078957
    17     0.375226
    18     0.065267
    19     0.465026
    20     0.087517
    21     0.017008
    22     0.158180
    23    -0.013986
    24    -0.019883
    25     0.368937
    26    -1.108140
    27    -0.001517
    28    -0.115684
    29     0.150072
Sym=    26a
Ene=    0.106757E-07
Spin= Alpha
Occup= 0.000000
     1    -0.000531
     2     0.007716
     3     0.491688
     4    -0.120610
     5    -0.004430
     6    -0.000864
     7    -0.004266
     8    -0.034366
     9     0.142528
    10     0.085480
    11     0.049696
    12    -0.524084
    13     0.657288
    14    -0.389397
    15    -0.614025
    16     1.525464
    17    -0.057834
    18     0.268821
    19    -0.137208
    20    -0.635546
    21     0.120372
    22     0.213346
    23     0.013944
    24     0.128762
    25    -0.303322
    26    -1.147687
    27     0.001324
    28     0.344061
    29    -0.012988
Sym=    27a
Ene=   -0.654834E-07
Spin= Alpha
Occup= 0.000000
     1     0.001607
     2    -0.035782
     3    -0.646928
     4    -2.349414
     5    -0.007327
     6    -0.000965
     7     0.001049
     8    -0.112027
     9     0.053640
    10     0.069304
    11     0.291218
    12    -0.202118
    13     0.376625
    14     1.020915
    15     1.203346
    16    -2.018323
    17     0.040783
    18     0.267593
    19    -0.090048
    20    -0.017808
    21     2.581709
    22     0.120203
    23    -0.069428
    24     0.082290
    25     0.172797
    26     1.831216
    27    -0.008402
    28     0.183236
    29     0.003850
Sym=    28a
Ene=    0.638195E-10
Spin= Alpha
Occup= 0.000000
     1    -0.003990
     2     0.029556
     3     2.539186
     4    -0.375205
     5     0.001072
     6     0.001786
     7    -0.007524
     8     0.024160
     9     0.050614
    10    -0.194288
    11    -0.076346
    12    -0.135146
    13    -0.866697
    14    -0.421989
    15    -0.372721
    16     3.265337
    17     0.015083
    18    -0.071915
    19    -0.251463
    20     0.269993
    21    -4.007822
    22    -0.001141
    23    -0.414187
    24    -0.633097
    25    -0.168281
    26    -2.244758
    27     0.065922
    28     0.227525
    29     0.378436
Sym=    29a
Ene=    0.000000E+00
Spin= Alpha
Occup= 0.000000
     1    -0.001751
     2     0.010284
     3     1.212040
     4    -0.395434
     5    -0.000286
     6    -0.004571
     7    -0.001250
     8    -0.015244
     9     0.011933
    10    -0.050904
    11     0.055244
    12    -0.172108
    13    -0.289677
    14    -0.121765
    15    -0.097894
    16     1.484545
    17     0.001579
    18    -0.011468
    19     0.192283
    20     0.097810
    21    -1.665393
    22    -0.092800
    23     0.932663
    24    -0.251968
    25    -0.052288
    26    -1.086068
    27     0.019791
    28    -0.024687
    29     0.208143
