p30-5 set                                                                       
ENERGY    PNOF5    /home/ion/P30-20/Pnof5/def2-svp.bas                                             
Number of atoms                            I                5
Charge                                     I                0
Multiplicity                               I                1
Number of electrons                        I               18
Number of alpha electrons                  I                9
Number of beta electrons                   I                9
Number of basis functions                  I               39
Number of independent functions            I               36
Number of contracted shells                I               20
Highest angular momentum                   I                2
Largest degree of contraction              I                5
Number of primitive shells                 I               38
Virial Ratio                               R      2.001454525414125E+00
Atomic numbers                             I   N=           5
          14           1           1           1           1
Nuclear charges                            R   N=           5
  1.40000000E+01  1.00000000E+00  1.00000000E+00  1.00000000E+00  1.00000000E+00
Current cartesian coordinates              R   N=          15
  0.00000000E+00  0.00000000E+00  0.00000000E+00  1.61768368E+00  1.61768368E+00
 -1.61768368E+00 -1.61768368E+00 -1.61768368E+00 -1.61768368E+00  1.61768368E+00
 -1.61768368E+00  1.61768368E+00 -1.61768368E+00  1.61768368E+00  1.61768368E+00
Total Energy                               R     -2.912452160515014E+02
Shell types                                I   N=          20
           0           0           0           0           1           1
           1           2           0           0           1           0
           0           1           0           0           1           0
           0           1
Number of primitives per shell             I   N=          20
           5           3           1           1           5           1
           1           1           3           1           1           3
           1           1           3           1           1           3
           1           1
Shell to atom map                          I   N=          20
           1           1           1           1           1           1
           1           1           2           2           2           3
           3           3           4           4           4           5
           5           5
Coordinates of each shell                  R   N=          60
  0.00000000E+00  0.00000000E+00  0.00000000E+00  0.00000000E+00  0.00000000E+00
  0.00000000E+00  0.00000000E+00  0.00000000E+00  0.00000000E+00  0.00000000E+00
  0.00000000E+00  0.00000000E+00  0.00000000E+00  0.00000000E+00  0.00000000E+00
  0.00000000E+00  0.00000000E+00  0.00000000E+00  0.00000000E+00  0.00000000E+00
  0.00000000E+00  0.00000000E+00  0.00000000E+00  0.00000000E+00  1.61768368E+00
  1.61768368E+00 -1.61768368E+00  1.61768368E+00  1.61768368E+00 -1.61768368E+00
  1.61768368E+00  1.61768368E+00 -1.61768368E+00 -1.61768368E+00 -1.61768368E+00
 -1.61768368E+00 -1.61768368E+00 -1.61768368E+00 -1.61768368E+00 -1.61768368E+00
 -1.61768368E+00 -1.61768368E+00  1.61768368E+00 -1.61768368E+00  1.61768368E+00
  1.61768368E+00 -1.61768368E+00  1.61768368E+00  1.61768368E+00 -1.61768368E+00
  1.61768368E+00 -1.61768368E+00  1.61768368E+00  1.61768368E+00 -1.61768368E+00
  1.61768368E+00  1.61768368E+00 -1.61768368E+00  1.61768368E+00  1.61768368E+00
Primitive exponents                        R   N=          38
  6.90371187E+03  1.03843464E+03  2.35875815E+02  6.60693852E+01  2.02479458E+01
  3.43534817E+01  3.63707882E+00  1.40020486E+00  2.04844148E-01  7.79940955E-02
  1.79839074E+02  4.19072588E+01  1.29552944E+01  4.43832674E+00  1.54622479E+00
  3.56076123E-01  1.00085138E-01  3.50000000E-01  1.30107010E+01  1.96225720E+00
  4.44537960E-01  1.21949620E-01  8.00000000E-01  1.30107010E+01  1.96225720E+00
  4.44537960E-01  1.21949620E-01  8.00000000E-01  1.30107010E+01  1.96225720E+00
  4.44537960E-01  1.21949620E-01  8.00000000E-01  1.30107010E+01  1.96225720E+00
  4.44537960E-01  1.21949620E-01  8.00000000E-01
Contraction coefficients                   R   N=          38
  5.58446589E-03  4.17422844E-02  1.87528024E-01  4.78678597E-01  4.29256952E-01
  8.98348995E-02 -5.45685959E-01 -5.24810829E-01  1.00000000E+00  1.00000000E+00
  1.01334984E-02  7.10290411E-02  2.55839142E-01  4.81498047E-01  3.85211960E-01
  1.00000000E+00  1.00000000E+00  1.00000000E+00  3.34854848E-02  2.34721871E-01
  8.13770285E-01  1.00000000E+00  1.00000000E+00  3.34854848E-02  2.34721871E-01
  8.13770285E-01  1.00000000E+00  1.00000000E+00  3.34854848E-02  2.34721871E-01
  8.13770285E-01  1.00000000E+00  1.00000000E+00  3.34854848E-02  2.34721871E-01
  8.13770285E-01  1.00000000E+00  1.00000000E+00
Alpha Orbital Energies                     R   N=          36
 -6.87665756E+01 -4.63595032E+00 -4.72551079E+00 -4.74958354E+00 -4.75385998E+00
 -5.62901025E-01 -5.62774382E-01 -5.62705772E-01 -5.62711376E-01 -2.79195412E-03
 -9.75987011E-03 -9.51922379E-03 -2.63019943E-03 -3.44570156E-07  7.14612742E-09
 -1.81344635E-06 -1.02500262E-06  1.01894971E-09 -4.79566694E-03 -2.73525956E-03
 -2.69338326E-03 -4.75721517E-03  1.43229609E-08 -1.07754880E-06 -2.30957224E-06
 -2.20612946E-04  1.54468042E-09 -9.93581911E-03 -4.78792311E-03 -4.78119109E-03
 -9.09001378E-03 -2.79182641E-04 -2.77665592E-04 -2.68196844E-04 -6.20314559E-07
  9.48904753E-10
Alpha MO coefficients                      R   N=        1404
 -9.94556501E-01  2.55072357E-02  2.76738916E-02  8.28180928E-04  9.64171069E-04
  1.37127507E-03  6.55545660E-04  3.57262657E-05  5.20730484E-05  2.67570195E-05
 -8.42388249E-06 -1.14585323E-05 -4.14618166E-06 -1.00160536E-02 -1.00163933E-02
 -1.00160332E-02 -1.14814761E-06 -7.51990545E-07 -5.60096945E-07  3.15934531E-04
 -6.72873602E-04 -5.39032320E-05 -5.36987201E-05  5.30637355E-05  3.26369848E-04
 -6.75070042E-04  5.44697183E-05  5.44349283E-05  5.44896576E-05  3.21744580E-04
 -6.71696221E-04 -5.41734941E-05  5.38695458E-05 -5.38512183E-05  3.20789480E-04
 -6.70051336E-04  5.35190935E-05 -5.38248041E-05 -5.39671552E-05 -1.32409649E-01
 -4.68703845E-01  1.16092382E-02 -8.12271757E-03  5.34879987E-01  5.34193821E-01
  4.50047197E-01  2.05626323E-02  2.05797040E-02  1.73854744E-02 -4.82804870E-03
 -4.79609852E-03 -4.01205418E-03  1.91311243E-04  1.95891896E-04  2.02963341E-04
 -3.38098252E-04 -3.88454470E-04 -3.76551324E-04 -1.72043601E-03  2.12196098E-03
 -5.39120839E-05 -4.93206206E-05 -1.84360627E-04  2.19749055E-03 -4.46884321E-04
  3.45654600E-04  3.46267792E-04  3.65887178E-04 -1.33851129E-03  1.96078370E-03
 -9.97521799E-05 -1.50449797E-04 -6.96979870E-05 -1.27787788E-03  1.99953132E-03
 -1.53512160E-04 -1.02773185E-04 -7.24434779E-05  1.48667560E-01  5.19569338E-01
 -1.29497347E-02  9.00909245E-03  5.00303377E-01 -4.90476168E-01  4.86517144E-01
  1.93546054E-02 -1.89079471E-02  1.87509936E-02 -4.47179318E-03  4.43448182E-03
 -4.39273099E-03 -1.79737104E-04 -1.71982933E-04 -1.68430914E-04 -3.47029304E-04
  3.47530970E-04 -3.80466963E-04  1.51634117E-03 -2.10586627E-03 -1.47110791E-04
  7.81392342E-05 -8.45177070E-05  1.44761350E-03 -2.19623473E-03 -7.82025101E-05
  1.49907753E-04 -8.55542561E-05 -2.02621542E-03  2.82448067E-04  3.59131104E-04
 -3.59427169E-04  3.60933999E-04  1.46075695E-03 -2.20626296E-03 -7.46773372E-05
  7.91231355E-05 -1.45968144E-04 -1.52759537E-01 -5.32384402E-01  1.32697018E-02
 -9.23496353E-03  4.78727173E-01 -5.06646749E-01 -4.78826769E-01  1.84774128E-02
 -1.96000741E-02 -1.84138153E-02 -4.32156686E-03  4.53257046E-03  4.35185679E-03
  1.65986889E-04  1.75068659E-04  1.61761303E-04  3.23214493E-04  3.81272078E-04
 -3.41061046E-04 -1.50365199E-03  2.10229296E-03 -8.32880016E-05  1.37795458E-04
  8.96173441E-05 -1.52994310E-03  2.21345385E-03 -1.44147534E-04  7.84651506E-05
  7.70293227E-05 -1.44275880E-03  2.27805103E-03 -8.10266602E-05  7.89718032E-05
  1.45708101E-04  1.99273333E-03 -2.23950794E-04  3.60738199E-04 -3.56515047E-04
 -3.60316005E-04  1.53550777E-01  5.34673898E-01 -1.33215051E-02  9.29579662E-03
  4.59325041E-01  4.40379834E-01 -5.55024266E-01  1.76751228E-02  1.69195255E-02
 -2.13976137E-02 -4.16985487E-03 -4.01256170E-03  5.02135856E-03 -1.68976698E-04
 -1.64918124E-04 -1.75359637E-04  4.00398334E-04 -2.99328527E-04 -3.20675801E-04
 -2.07832988E-03  1.35085326E-04  3.68184635E-04  3.71925540E-04 -3.46591433E-04
  1.31634881E-03 -1.98478935E-03 -1.12827470E-04 -1.13829957E-04  1.27746017E-04
  1.62376139E-03 -2.24709958E-03 -1.58981103E-04 -6.33374580E-05  8.63651478E-05
  1.65730157E-03 -2.31738919E-03 -5.97053199E-05 -1.65078519E-04  7.59829183E-05
  2.79805047E-02  1.73420566E-01  2.63754808E-01  4.05652426E-02 -7.97168160E-02
 -7.96623612E-02  7.99017495E-02  1.46524066E-01  1.46286161E-01 -1.46967634E-01
  9.11858187E-02  9.06233602E-02 -9.21415218E-02  7.72880956E-03  7.86196288E-03
  7.92632219E-03  4.31795967E-02 -4.28458273E-02 -4.29449037E-02  4.34032603E-01
  2.47132570E-01 -1.28671434E-02 -1.28755861E-02  1.28952995E-02 -2.71447994E-02
 -3.69261040E-02  2.88828951E-03  2.65595145E-03 -1.18765261E-03 -2.72616360E-02
 -3.62343332E-02  1.09689848E-03  2.76468831E-03 -2.89148966E-03 -2.72865774E-02
 -3.57716567E-02  2.76426687E-03  1.07617642E-03 -2.99878649E-03  2.79251626E-02
  1.72964356E-01  2.62859384E-01  4.10335475E-02  8.00401415E-02  8.03551839E-02
  7.99793556E-02 -1.46848712E-01 -1.47745547E-01 -1.46422539E-01 -9.20358621E-02
 -9.32053555E-02 -9.31265590E-02  8.27275650E-03  8.79093786E-03  6.51148263E-03
  4.24896685E-02  4.28013420E-02  4.25117912E-02 -2.84844607E-02 -3.74582524E-02
 -2.62095465E-03 -2.80913851E-03 -1.20051219E-03  4.34130043E-01  2.44628488E-01
  1.28735739E-02  1.28987236E-02  1.28092928E-02 -2.71554735E-02 -3.52723064E-02
 -2.77744618E-03 -1.41372371E-03 -3.13510801E-03 -2.75908864E-02 -3.50889579E-02
 -1.28140957E-03 -2.79456579E-03 -3.15455265E-03  2.79059109E-02  1.72778504E-01
  2.62553203E-01  4.11285744E-02 -8.04152079E-02  7.99978662E-02 -8.05351339E-02
  1.47171141E-01 -1.46530662E-01  1.47919085E-01  9.43326081E-02 -9.27710963E-02
  9.37786903E-02  7.25106393E-03  7.10787277E-03  9.22922483E-03 -4.24596029E-02
  4.22418817E-02 -4.24488654E-02 -2.83078394E-02 -3.68991625E-02  1.42473626E-03
 -2.96189522E-03  2.64200812E-03 -2.84614938E-02 -3.55451163E-02  3.08393617E-03
 -1.32298631E-03  2.72745460E-03  4.34187984E-01  2.43239818E-01 -1.28325138E-02
  1.27491144E-02 -1.29648683E-02 -2.71266440E-02 -3.47472412E-02  3.17852236E-03
 -2.91445938E-03  1.46541500E-03 -2.79071118E-02 -1.72721414E-01 -2.62418573E-01
 -4.12597737E-02 -8.04592942E-02  8.06083093E-02  8.01682694E-02  1.47617148E-01
 -1.47549045E-01 -1.46881831E-01  9.44370331E-02 -9.50620614E-02 -9.32531459E-02
 -8.18052614E-03 -7.60485476E-03 -7.85685819E-03  4.20476987E-02  4.23098210E-02
 -4.22436427E-02  2.81930231E-02  3.64915319E-02  3.00826381E-03 -1.54305133E-03
 -2.72904036E-03  2.78195341E-02  3.53694020E-02  1.51477828E-03 -3.07163829E-03
 -2.88860514E-03  2.81554578E-02  3.49181325E-02  2.84386595E-03 -3.17070322E-03
 -1.40677622E-03 -4.34188151E-01 -2.42189656E-01 -1.28603148E-02  1.28521707E-02
  1.28235837E-02  1.53926829E-04  1.01612597E-03 -2.01696364E-03  7.24469193E-03
 -5.06038595E-03 -7.40146078E-03  1.22418806E-03 -6.85279021E-03 -5.26399517E-03
  6.73020368E-03  9.97806535E-02  1.20923024E-01 -4.94889453E-02 -2.52571317E-01
  3.48176185E-01 -9.36119982E-02 -7.84902960E-02  2.24309962E-01  1.70021578E-01
  2.33336645E-01 -3.65148572E-01  6.64335531E-03 -5.02639106E-02 -3.23899751E-02
 -1.55530494E-01  2.34169662E-01 -3.28985866E-02  1.10271651E-02  1.34544453E-02
 -7.30000720E-02  1.02391418E-01  9.28944063E-03  8.30075068E-03  4.14423644E-03
 -2.71487938E-02  3.54369477E-02  4.34500304E-01  6.03709160E-01 -1.60938055E-01
 -3.11061571E-02 -2.13957852E-01 -5.53443778E-01  6.74914464E-02  1.36330375E-01
 -1.34452021E-01  1.37724616E-01 -4.04632304E-01  4.02100321E-01 -4.12562881E-01
 -2.23304407E-01  2.01136646E-01 -2.00925370E-01  1.12219140E-02  2.09926760E-03
 -6.57011902E-02  1.57691260E-01 -1.56377964E-01  1.38468375E-01 -2.92534133E-02
  2.52251919E-02  5.65161110E-03  1.08200090E-02  8.41435847E-03 -1.65890624E-02
 -9.65656748E-03 -8.88547325E-03 -8.29938569E-03  9.31473832E-03  1.11775584E+00
  1.81662593E-03  2.81638084E-02 -2.98571959E-02  1.42520688E-02 -5.22899318E-03
 -1.47150985E-02 -1.09380756E-02 -3.26294212E-03 -1.67412570E-03  3.10982382E-02
  2.13661901E-01  5.56297115E-01 -8.17567660E-02  1.37056782E-01  1.39110479E-01
  1.35920931E-01 -4.13817425E-01 -4.17675593E-01 -4.06088115E-01 -1.79276168E-01
 -1.93442438E-01 -2.06269634E-01  3.94214322E-02  5.14836361E-02 -3.79461082E-02
  1.53432112E-01  1.63420013E-01  1.73917208E-01  4.02305180E-02 -3.17305733E-02
  8.51837607E-03 -4.97011502E-05  1.85236777E-02 -1.12608692E+00  2.23321467E-02
  2.56312545E-02  2.03723225E-02  3.93836875E-02  1.38519741E-02  6.46251854E-04
  7.54784319E-03  3.60795061E-03 -1.11980263E-02  1.48764969E-02  1.43110456E-02
  9.82998962E-03  1.29029197E-02 -1.06665065E-02 -9.38580530E-05 -7.88049551E-04
 -4.58691157E-03  1.55384629E-02  4.75831594E-03  2.20739854E-03  4.02085409E-03
  1.28547892E-03  1.73870162E-03  1.12689052E-02 -5.87722379E-02 -3.33278990E-02
 -8.49044017E-02 -2.10790449E-01 -1.01148880E-01  3.13218257E-01 -1.97469432E-01
 -6.86782515E-02 -1.22529704E-01  1.01872910E-02 -7.29276021E-03 -4.39665492E-01
 -2.07555775E-01 -6.48073240E-01  1.89755203E-01 -2.80763467E-01 -2.99673666E-02
 -6.33632932E-02  1.04827672E-01 -1.19597881E-01  1.68524984E-01  7.80460851E-02
  4.94716600E-02 -2.05977240E-02 -7.72862599E-02  9.97394925E-02  2.45104776E-02
  2.85832893E-02  1.42606663E-03  4.03944897E-04  7.18315002E-02 -4.06950703E-01
  4.29392238E+00 -2.91562352E-02 -1.36523500E-02  1.29456500E-02  1.81156668E-01
  1.27194160E-01 -6.75957021E-02  7.04683729E-01 -2.72641252E-01 -4.73770125E-01
 -6.56179065E-01 -1.59670301E-01 -1.32813563E-01  2.62117647E-01 -4.41980542E-01
 -7.24484423E-01 -1.09783481E-01 -1.92573603E+00  4.04888381E-01  3.58642043E-01
 -1.19932032E-01  4.75066300E-01 -1.38537806E+00  1.73626369E-01  1.87586939E-01
  7.41982439E-02  2.36336606E-01 -1.63629262E+00  2.90566998E-01  1.29969557E-01
 -7.43330330E-02  1.19221488E-01 -3.13925802E-01  1.22385962E-01 -1.24427216E-01
 -4.04791690E-01 -1.57895365E-04 -2.48987546E-02  1.12615193E-01 -1.24402912E+00
  7.41712034E-03  7.29171367E-03 -1.59670207E-02 -2.34519619E-02  2.48635133E-03
  3.40065014E-02 -1.36158337E-01 -1.04798927E+00  1.04640444E+00  7.13173279E-03
  1.01569058E-01  2.27387249E-01 -2.66183238E-01  9.01948347E-02  1.63168765E-01
 -1.04505240E-01  1.69274126E+00 -3.57275844E-02 -4.26743449E-01  1.70610620E-01
 -2.46683629E-02  2.67066621E-01  3.71177097E-01 -1.86479199E-01 -2.50446280E-01
  2.37128862E-01 -1.06070422E+00  3.69721612E-01 -2.08465382E-01  6.45335760E-02
 -3.19171889E-01  5.78653173E-01 -4.17129429E-02  1.74363677E-01 -1.50563043E-01
  3.91854084E-04  2.99589748E-02 -1.19415693E-01  1.37240170E+00  3.51979578E-02
 -2.99493593E-02  5.69798477E-03 -2.58334617E-01  2.10821982E-01 -3.70398375E-02
 -1.22184356E-01  1.66551614E-01 -2.37646530E-01  2.87123385E-02  1.47278739E-01
 -5.54529553E-01  1.24672309E-01 -8.20038116E-01  9.43530725E-01  1.02853822E-01
 -6.05804465E-01 -1.86495676E-01  3.96412980E-03 -2.17454990E-01  6.65915149E-02
 -6.23056818E-01 -6.59995813E-02  1.54262728E-01 -2.77267655E-01  5.83498479E-01
 -1.30456997E-01 -4.93360393E-01  3.56305273E-01 -1.86358527E-01 -5.36024368E-01
 -2.54609702E-01 -2.81955071E-01  1.60617629E-01  2.34280569E-01 -1.38914503E-04
 -1.67126302E-02  1.03022864E-01 -1.05996665E+00 -2.00033150E-02  6.58095958E-03
  2.66406413E-02  1.48264622E-01 -2.60056823E-02 -2.16872679E-01  1.48060298E-01
 -1.58994116E-01 -1.04459465E-02  6.19999400E-01  1.45381653E-01 -5.51693235E-01
  7.65013780E-01  9.58380180E-02 -6.04679405E-01 -4.06922206E-01  3.20964584E-01
  2.37803504E-02  3.08498689E-02 -5.64571539E-01 -8.64624659E-02  2.64083881E-01
  2.26363407E-01  8.92125315E-02 -4.78774858E-01 -5.11928387E-02  2.32598297E-01
 -6.01925646E-02  2.95376756E-03  3.83812759E-02  3.75222532E-01  4.89472194E-01
  4.39280626E-01 -1.12766497E-01 -2.12724278E-01  5.26593824E-04 -6.54503941E-02
 -3.27108328E-02 -2.43586079E-01  6.93580308E-03 -1.69988113E-03  7.97733026E-03
 -2.71521862E-04 -2.06849571E-03 -1.57774837E-02 -6.40771890E-01  1.23045710E-01
 -7.23323343E-01  4.21911317E-01  2.76497994E-01  3.85917048E-01  1.23645457E-01
 -1.11513034E-02  7.77930180E-02  2.93538645E-02 -3.22761916E-01  4.16181469E-03
  5.16197524E-01 -2.50359933E-04  1.11988138E-01 -9.78754944E-01  1.79868913E-01
 -6.34118676E-01 -3.56191836E-01 -1.24671310E-01  7.99279018E-01  5.92496116E-02
 -2.05346309E-01 -2.47310414E-01 -5.33649335E-02 -6.97462501E-02 -4.34565649E-03
  9.07913091E-02  2.69825745E-01  9.88710241E-03  7.36080342E-02  4.13839454E-01
 -1.17219439E-01  4.07412822E-02 -4.15289578E-02 -4.10567424E-02 -1.35294949E-01
  1.38769674E-01  1.35722642E-01  6.81582064E-02 -7.51999562E-02 -6.39015161E-02
 -6.82709099E-02 -4.87724970E-02 -6.90073867E-02 -1.18160130E-01 -1.24840920E-01
  1.21608764E-01  4.48500836E-02  5.57171562E-02 -7.48633841E-03 -1.50977982E-02
  1.94517587E-02  5.18300661E-02  4.36713444E-02  1.62793286E-02  1.16037384E-02
  1.46983348E-02  5.38872398E-02  3.73118036E-02 -2.17885987E-02  6.82737503E-03
 -1.25907858E-02  6.76429934E-01 -1.01563125E+00  2.78378078E-01 -2.73167121E-01
 -2.79349700E-01  2.50237816E-04  1.63003602E-03 -1.03775054E-03  6.21742268E-03
 -7.60708287E-03 -3.17638502E-03  1.64026403E-03 -2.80716956E-03 -8.31825113E-03
  1.00124945E-02  1.06369412E-01  7.94077271E-02 -6.64001202E-02  3.44762908E-01
 -1.94245137E-01 -1.47257760E-01 -1.16420269E-01  1.33456045E-01  2.12077789E-01
  2.25010426E-01 -3.48643388E-01 -7.69177807E-02  2.43355245E-03 -6.31716405E-02
 -1.09181426E-01  1.62978443E-01 -4.13734301E-03 -4.00129660E-02  3.79465045E-02
 -4.36538625E-02  5.47562797E-02  6.36996123E-01  3.59469986E-01 -2.65353181E-01
 -1.01911648E-01  1.42070626E-01  1.69996925E-02  8.19972441E-03  1.55284965E-02
 -7.30087302E-04 -4.88415520E-03 -9.03931177E-03  2.51022814E-02 -2.96751446E-03
  3.33124090E-04 -1.06417540E-02  2.00766736E-02  2.25862853E-02  1.15404883E-02
 -5.04655690E-02 -9.79904832E-02  7.99712556E-02  7.01649431E-02  2.43871581E-01
 -3.20996172E-01  1.69746520E-01 -1.84757764E-01 -8.02293735E-02 -2.11295293E-01
  3.16238990E-01 -6.07381555E-02 -3.13126555E-02 -1.04405563E-01  1.18447044E-01
 -1.36619262E-01 -1.37437972E-01 -4.62437310E-01  6.25729940E-01  1.27708128E-01
 -1.94019015E-01  3.87858231E-02  4.48510155E-02 -1.64678332E-04  2.92030421E-02
 -4.98329663E-02  4.56179468E-03  3.58253728E-03 -6.98852171E-04  7.92917313E-03
  6.01168382E-02  3.76358751E-01 -8.19296335E-02 -3.17500712E-02 -3.15863564E-02
  3.15223739E-02  1.02967897E-01  1.01999903E-01 -1.03096912E-01 -4.77077617E-02
 -4.40445669E-02  5.46011414E-02 -6.02529590E-02 -6.96322817E-02 -5.96691219E-02
  8.60008062E-02 -7.82240237E-02 -8.04220195E-02  8.02368201E-01 -1.11850447E+00
 -2.73846685E-01 -2.78154649E-01  2.75550751E-01  2.84644198E-02  7.45707550E-02
  1.57816888E-02  2.72757015E-02 -1.80955484E-03  3.51214467E-02  6.10253720E-02
  4.42389415E-03  2.31440212E-02 -2.14318069E-02  3.86501577E-02  5.44081724E-02
  2.81031187E-02  5.26916404E-03 -1.70206275E-02 -1.06970828E-03 -2.17568730E-02
  4.28186214E-01 -4.20330638E+00 -1.01272317E-02  2.25516070E-03  1.00211265E-02
  5.30417626E-03 -2.37884677E-02  1.16171019E-03  9.98018326E-01 -1.20320121E-01
 -1.11355182E+00  1.45180150E-02  1.98021563E-02  4.76457151E-02  1.09641253E-01
  7.76543753E-02 -1.17023502E-01  2.41945457E-03  2.12511676E-01  1.12557768E-01
  4.91767834E-02 -5.46141973E-03 -1.34677543E-01  1.25959820E+00  1.07058923E-01
 -9.13811054E-02  1.88335300E-01 -1.75775857E-01  1.41850399E+00 -2.49474621E-01
  3.01331311E-02  2.88780186E-02 -4.42520668E-01  3.02334113E+00  2.01462190E-01
 -4.41333150E-01 -3.74068001E-01  2.76436674E-04  1.61388302E-02 -5.25319766E-02
  6.67273355E-01  1.15916685E-02  3.13037548E-02  1.30486124E-02 -8.18697202E-02
 -2.15989617E-01 -9.55224558E-02 -9.24808451E-02 -3.37345466E-01 -1.56314645E-01
 -6.14556328E-01  6.59263130E-01 -2.42586533E-01  3.88471411E-01  8.03956184E-01
  2.75103570E-01  1.97069426E-01 -1.65323045E-02 -1.36559822E-01 -2.98781360E-01
 -8.73260492E-04 -3.42586259E-01 -5.51776454E-01 -3.10344496E-01 -1.42458263E-01
 -3.65891627E-01 -1.47572529E-02 -2.33171209E-01  1.94043190E-01  1.19587114E-01
 -1.47685567E-02  2.74556756E-01  1.62663656E-02 -1.73584681E-01 -6.17974295E-01
 -8.32170575E-02 -1.76555240E-04  5.26080341E-03 -7.90537743E-02  6.64267540E-01
 -1.63757172E-02  3.88199009E-03 -4.21787173E-02  1.04732213E-01 -2.63825307E-02
  2.90684165E-01  1.20686578E-01 -1.15223007E-01  2.64166005E-01  1.66759126E-01
  3.73627169E-01 -6.25257607E-01 -1.12112125E+00  1.21499243E-01 -4.20036218E-01
  2.61183860E-01 -8.93901677E-02 -1.22345477E-01 -1.92780499E-01  1.02635251E-01
  5.35446282E-01 -2.35062856E-01  2.74455400E-01  2.70235504E-01  8.94012044E-02
 -5.28081671E-01 -3.39006266E-01  1.75290254E-01 -2.32487050E-01  4.32390584E-01
 -1.77280943E-01 -1.72332560E-01 -1.16326698E-01 -7.00784788E-02  2.36055512E-01
 -5.93485038E-02 -6.54503508E-01 -2.07166484E+00 -9.37796609E-02  1.64979322E-01
  1.64835722E-01  1.38622456E-01 -7.29025152E-01 -7.28911626E-01 -6.12595861E-01
  6.97455861E-01  7.03185529E-01  6.10166472E-01  8.79379137E-01  8.76286167E-01
  9.02616964E-01 -3.26931217E-02 -2.65223768E-02 -2.97333839E-02 -6.72909996E-02
 -9.08049114E-02 -1.26837099E-01 -1.32005424E-01  2.06088212E-01 -1.14129373E-01
  4.08047412E-01 -3.35775284E-01 -3.36584449E-01 -3.32105699E-01 -7.22353048E-02
 -7.40329664E-02 -8.01803248E-02  1.58244737E-01 -9.48967337E-02 -6.76500132E-02
 -8.37280084E-02  1.58978251E-01 -7.66562922E-02 -9.54548203E-02  4.96689404E-04
 -1.02548901E-02 -1.66027752E-01  1.42955437E+00 -5.98857178E-03 -5.76800625E-03
  5.34093026E-04  1.96999146E-02 -3.15263084E-02  7.14599559E-03  6.16086724E-01
  7.03163067E-01 -3.05932973E-02  9.27304891E-02  1.33895915E-01  3.72092480E-02
 -7.67809413E-03 -1.33804947E-02 -1.19915126E-01  1.42176174E-01 -1.35426552E+00
  4.50773719E-01 -2.37402620E-01 -3.25742775E-01 -6.48140971E-02  2.81966179E-01
  7.04518116E-02 -5.51829801E-02  1.05484866E-01  1.73004995E-01 -7.48028386E-01
  4.75805786E-02 -4.00250217E-01 -4.09459582E-02 -9.75310529E-03 -4.21018772E-01
  2.30346435E-01 -2.31332457E-01  5.56138238E-01  3.10635627E-02  2.13641459E-01
  5.50288445E-01 -5.75412069E-02  1.35787245E-01 -1.36179502E-01 -1.34311637E-01
 -4.03417351E-01  4.02660384E-01  4.01522826E-01 -2.19434755E-01  2.32274559E-01
  2.03934523E-01  2.79571503E-02  1.24986237E-03  2.47523516E-02 -1.52434519E-01
 -1.30199048E-01  1.42008683E-01  2.16386123E-02 -1.82902179E-02 -1.21164663E-02
  1.14823491E-03 -3.53803168E-03  1.08401854E-02  3.72469211E-03 -2.86737247E-03
  7.41368200E-03  2.54824375E-03  9.10376934E-03  2.05632156E-02  7.34848309E-03
  1.23822987E-02 -1.66413247E-03 -1.11278347E+00 -1.66630919E-02  1.86707931E-02
 -2.21566915E-02 -2.15044172E-02 -9.52324849E-03 -7.10387820E-02 -4.07210328E-01
  1.11132114E-01  4.01259601E-02 -3.99440049E-02  3.82500677E-02 -1.33638554E-01
  1.31131754E-01 -1.27180691E-01  7.24231572E-02 -5.91173096E-02  6.64825588E-02
  4.05120425E-02  4.63674156E-02  9.92349280E-02  1.15495672E-01 -1.09622559E-01
  1.18107389E-01 -4.06387720E-02 -5.98307045E-02  1.04577163E-02  8.54601921E-03
 -2.28260278E-02 -5.16441355E-02 -3.69191086E-02 -1.01145344E-02 -9.17359023E-03
 -2.26751262E-02 -6.98191915E-01  1.03216540E+00  2.69860501E-01 -2.66495679E-01
  2.93724090E-01 -5.29199732E-02 -4.53583924E-02 -8.55701892E-03  1.96366203E-02
  1.39865932E-02 -8.96869019E-03 -6.69824755E-02 -3.96173196E-01  1.02285819E-01
 -3.66946623E-02 -3.62939145E-02 -3.82202190E-02  1.20513745E-01  1.20040960E-01
  1.26381595E-01 -5.67212279E-02 -6.21186324E-02 -6.59295171E-02  7.91423750E-02
  8.39420463E-02  2.14088382E-02 -1.06822829E-01 -1.03980250E-01 -1.01161815E-01
 -3.46766269E-02 -6.30849809E-02  2.30581341E-02  1.65770788E-02 -1.53105456E-03
 -7.31294097E-01  1.05848515E+00 -2.82848321E-01 -2.83223421E-01 -2.62691536E-01
 -4.95420367E-02 -4.81051636E-02  2.27173696E-02 -1.12054612E-02  9.08104294E-03
 -4.95265104E-02 -4.26266283E-02 -6.50066706E-03  2.63560418E-02  8.77536273E-03
 -3.14437810E-02 -2.16788745E-01 -5.77420279E-01  1.17722902E-01  1.38932274E-01
  1.38594145E-01 -1.39869617E-01 -4.21834117E-01 -4.22292673E-01  4.21850938E-01
 -1.62036134E-01 -1.52790234E-01  1.79961721E-01 -1.00813655E-02 -1.98038299E-02
 -1.06034506E-02 -1.79538034E-01  1.98579889E-01  1.91312786E-01  1.14206006E+00
 -7.03658101E-02  3.99315474E-02  3.89350638E-02 -3.68483742E-02 -4.57662657E-02
  3.84821910E-02 -2.32597570E-03  1.18038656E-02 -2.10605622E-02 -3.80464368E-02
  1.37971653E-02  2.41279657E-02  8.53365006E-03 -5.28601916E-03 -3.23662015E-02
 -1.58982550E-04  1.43613464E-02  2.46903804E-02 -5.12713871E-04  6.97692515E-02
  7.68776520E-01  2.44193260E+00  4.52641751E-02  1.39802101E-01  1.33723116E-01
 -1.71824844E-01 -6.16195383E-01 -5.88411471E-01  7.59799658E-01  5.92728186E-01
  5.59955910E-01 -7.32680281E-01 -1.04147564E+00 -1.04028477E+00 -1.03604822E+00
  2.08347212E-02 -3.89330163E-02 -3.27710897E-02  1.19071332E-01 -3.59473164E-01
 -3.14665636E-01 -3.16993817E-01  3.15952021E-01  9.73965668E-02  3.98993551E-02
 -6.21020986E-02 -5.77803643E-02 -1.30392732E-01  7.98535738E-02  9.72973142E-02
  1.84766138E-01 -1.13022238E-01  1.04282163E-01  7.04366598E-02  1.20037941E-01
 -1.16442132E-01  1.94653679E-01  1.17944549E-01  6.93461977E-02  7.64219140E-01
  2.42087404E+00  9.55218472E-02 -1.48556427E-01  1.55142657E-01  1.46370576E-01
  6.57185646E-01 -6.87474221E-01 -6.46637157E-01 -6.50460771E-01  6.83107378E-01
  6.33313683E-01 -1.03044069E+00 -1.03391220E+00 -1.03519056E+00 -3.04669066E-02
 -1.64707312E-02  2.25424952E-02  8.63237274E-02  6.61932284E-02  9.54796919E-02
  1.52478795E-01 -9.28674071E-02  7.99942273E-02  8.23521812E-02 -1.64563267E-01
 -1.07104762E-01 -1.02724055E-01  6.87003461E-02  1.02619339E-01  1.03490604E-01
 -1.11771161E-01  1.67980655E-01  1.36298352E-01 -4.21381357E-01  3.16023448E-01
 -3.17472165E-01 -3.18358876E-01  6.76475617E-02  7.45566595E-01  2.36230221E+00
  9.02712340E-02  1.52955337E-01 -1.51816800E-01  1.48689328E-01 -6.77080400E-01
  6.70504202E-01 -6.56974854E-01  6.73432671E-01 -6.59777411E-01  6.40096618E-01
 -1.01393035E+00 -1.01571707E+00 -9.94936096E-01 -2.56535810E-02  3.36744160E-02
 -2.28487083E-02  8.35697706E-02  7.04672071E-02  1.62009556E-01  1.01469902E-01
 -9.47951128E-02  7.20387464E-02  8.83114448E-02 -1.04367213E-01 -1.69668996E-01
 -9.20533505E-02  1.29846628E-01 -4.16499669E-01 -3.19612219E-01  3.21515652E-01
 -3.17249682E-01  7.75115830E-02  9.53036006E-02 -1.07146756E-01  1.01981154E-01
  1.65904682E-01 -5.68656395E-04 -6.58301780E-02  3.68794913E-01 -3.94075315E+00
 -8.71632476E-03 -3.15475418E-02 -2.48040848E-03  9.10656566E-02  1.98293708E-01
 -1.64768280E-03 -2.39312270E-01  6.61055759E-01  3.25998058E-01 -1.86380401E-01
  7.47264208E-01  2.83132640E-01 -5.22410604E-02 -7.77797904E-01 -2.89512303E-01
 -4.40144121E-01  1.13687915E+00  3.12164179E-01  1.26416255E-01 -1.07332647E-01
  5.81460453E-02  1.71439639E+00  1.43409001E-01  4.46232079E-01  1.16432429E-01
 -9.76136319E-02  1.56462595E+00  2.44842066E-01  3.46457834E-01 -2.16033028E-01
 -1.85428387E-01  4.43597664E-01 -1.54259869E-01  6.35373704E-02  3.09685008E-01
 -2.22893167E-04  5.37070774E-02 -5.46778550E-02  9.53284905E-01  3.02873713E-03
 -1.22139137E-02 -1.74730128E-03  6.20325415E-03 -1.15855458E-03  5.29205376E-03
 -2.82878121E-01  1.23688698E+00  1.75626952E-01 -2.56925351E-01 -2.92544060E-01
 -2.91337427E-01 -2.16087824E-02 -1.41577946E-01  6.47138998E-03  9.71724852E-02
 -6.57086994E-01  1.13863885E-01 -2.15416150E-01 -5.33072228E-02 -8.50585575E-02
  6.16165597E-01  7.11686693E-01 -2.36009676E-01  1.29721136E-01 -3.09495688E-02
  6.15142921E-01 -2.48478710E-01  3.71852965E-01  3.99595398E-02  1.79601071E-01
 -1.21366393E+00 -2.13796107E-01 -1.13367413E-02 -3.38531147E-02
Total SCF Density                          R   N=         780
  2.15760225E+00  5.93310371E-01  2.35852120E+00 -1.09519232E-02  3.16044294E-01
  5.72087544E-01  1.77452387E-02  9.17034037E-02  8.07573358E-02  1.46071920E-02
  4.43129050E-06  2.73723122E-05  3.44164626E-05  2.09087602E-04  2.00498633E+00
 -1.55050809E-06 -1.42880412E-05 -7.16193780E-05  1.24368972E-04 -1.25907266E-04
  2.00497887E+00 -1.82250772E-05 -1.22430929E-04 -2.67219115E-04 -3.07482590E-04
  5.06841398E-05  9.59281483E-05  2.00498638E+00 -1.19774486E-05 -9.52237545E-05
 -2.11304033E-04 -4.21211008E-04 -2.12368959E-02  2.48043151E-04 -9.90121862E-05
  1.83922954E-01 -1.70514378E-06 -2.65730059E-05 -3.03341627E-05 -2.36842298E-04
  2.33586827E-04 -2.12249740E-02 -2.10259324E-04 -4.77350886E-04  1.83908035E-01
  3.70226091E-05  2.38086750E-04  5.11464707E-04  6.39883499E-04 -1.00452342E-04
 -1.60958347E-04 -2.12353346E-02  1.48005686E-04  3.08378347E-04  1.83924447E-01
 -4.40108178E-05 -2.56525737E-04 -4.08533287E-04 -2.71971969E-04 -7.80118838E-02
  1.12057159E-03 -1.73381805E-04  1.11762700E-01 -2.21609836E-03  4.48553576E-04
  7.10575058E-02 -1.39478587E-05 -5.61481904E-05 -4.13890832E-05 -1.06099382E-04
  9.82033393E-04 -7.79461586E-02 -7.31911296E-04 -1.96457227E-03  1.11638026E-01
  1.51499113E-03 -2.28461218E-03  7.09357420E-02  6.99009809E-05  4.63213279E-04
  8.30458168E-04  4.45020142E-04 -2.43542482E-04 -3.56808505E-04 -7.80752424E-02
  5.62542498E-04  8.23471452E-04  1.11879921E-01  5.00195324E-04  1.24768890E-03
  7.11319926E-02  2.14549698E-02  9.47769823E-03  1.52856544E-02  2.58856584E-03
  3.62388094E-04 -4.32275893E-05  1.44884255E-04 -7.90135525E-04  1.67382230E-04
 -3.12919732E-04 -4.65763445E-04  9.35532214E-05 -1.44253673E-04  1.68529130E-03
  2.14522134E-02  9.45830857E-03  1.52679372E-02  2.58554709E-03  3.22605411E-04
  1.43664488E-04  4.25680291E-04 -5.97115304E-04 -2.68945219E-04 -9.11983309E-04
 -3.64079345E-04 -1.67667863E-04 -4.91764980E-04  6.42742034E-04  1.69071331E-03
  2.14593752E-02  9.50588669E-03  1.53219819E-02  2.60372873E-03 -5.63030383E-04
  1.74696068E-05 -5.84874501E-04  1.26460224E-03  5.02163166E-05  1.40782172E-03
  6.93712943E-04  1.10003988E-05  8.02111066E-04  6.09236009E-04  5.96498921E-04
  1.74218726E-03  8.27554092E-05  4.94827803E-04  6.70875212E-04 -8.02677483E-05
 -7.60536325E-05 -8.11862919E-05  2.69069084E-02  1.75663073E-04  2.06450423E-04
 -5.36086147E-02 -6.82441943E-05 -3.79918318E-04 -3.28102495E-02  2.24495896E-04
  4.75546292E-04 -6.42693267E-04  1.63266468E-02 -1.13377500E-05 -7.20153101E-05
 -1.36671258E-04  7.69187211E-05  1.88633968E-04  2.69105890E-02 -1.54171910E-04
 -5.09547072E-04 -5.36439583E-02  4.11677177E-04  4.58250166E-04 -3.26724642E-02
 -4.27496657E-05 -8.00377053E-05  1.31914103E-04 -3.02108832E-05 -3.84313301E-04
  1.64269775E-02 -4.56318532E-05 -2.78668124E-04 -3.99904541E-04  7.25773600E-05
  2.68989437E-02  2.14900180E-04 -4.59858576E-05 -5.36111774E-02 -5.90558923E-04
  1.00644745E-04 -3.27174457E-02  3.31665682E-04 -1.48461126E-04  3.63581719E-04
  2.08642367E-04 -5.78919452E-04 -1.92301883E-04  6.62295548E-04  1.63715431E-02
  1.90449692E-02  1.19804340E-01  1.76515718E-01  2.91399319E-02 -7.45840204E-02
 -7.44963492E-02  7.47438306E-02  1.27793484E-01  1.27538569E-01 -1.28245903E-01
  8.08900319E-02  8.05202433E-02 -8.14449339E-02  4.80710251E-03  4.71118987E-03
  5.00209104E-03  3.67973179E-02 -3.60962706E-02 -3.63300338E-02  3.99181546E-01
  7.05974382E-03  4.02113660E-02  6.92287501E-02  1.11305619E-02 -4.24600653E-02
 -4.25452866E-02  4.23915517E-02  8.22984582E-02  8.24739107E-02 -8.21778430E-02
  5.15791330E-02  5.13391542E-02 -5.20787517E-02  2.40640330E-03  2.60142036E-03
  2.47964464E-03  2.40007153E-02 -2.43832487E-02 -2.42041316E-02  2.10942096E-01
  1.38000150E-01 -7.64678694E-04 -5.73707598E-03 -1.00351502E-02 -1.15403532E-03
  1.08343197E-03  2.95715560E-03 -2.79542941E-03 -2.06328333E-03 -4.68728793E-03
  4.23607526E-03 -9.79930496E-04 -2.68867434E-03  2.58027032E-03  8.42729535E-06
 -6.52465513E-06 -4.51085336E-04 -1.14110408E-03  1.58239106E-03  8.53285431E-04
 -1.16238123E-02 -4.07435852E-03  1.43001295E-03 -7.67362195E-04 -5.74951933E-03
 -1.00582012E-02 -1.13870055E-03  2.94075838E-03  1.02524956E-03 -2.86868166E-03
 -4.64492669E-03 -1.90556638E-03  4.42608623E-03 -2.69333353E-03 -9.26043446E-04
  2.63903749E-03  1.45285578E-05 -1.58028087E-04 -3.01076499E-04 -1.32096341E-03
  7.07327797E-04  1.53522063E-03 -1.16676349E-02 -4.03508063E-03  1.09032618E-03
  1.01383302E-03  7.62563206E-04  5.71798801E-03  1.00088317E-02  1.08884298E-03
 -2.80339702E-03 -2.84302214E-03  1.21113830E-03  4.26523800E-03  4.36891547E-03
 -2.37698343E-03  2.56804263E-03  2.60037794E-03 -1.10409775E-03  4.68933900E-04
  2.54633879E-04 -2.89305844E-04  1.15607242E-03 -1.27231485E-03 -1.18320826E-03
  1.16711417E-02  4.12205103E-03 -1.68806912E-05 -4.55929624E-04  2.07447902E-03
  1.90159071E-02  1.19599717E-01  1.76108233E-01  2.91484979E-02  7.45046209E-02
  7.46822343E-02  7.46900051E-02 -1.27566774E-01 -1.28019602E-01 -1.28162806E-01
 -8.09275992E-02 -8.15855272E-02 -8.18435100E-02  4.69320717E-03  4.96757427E-03
  4.79888354E-03  3.69076420E-02  3.64889644E-02  3.61730288E-02 -4.58421005E-02
 -4.02776035E-02 -2.02590228E-03 -1.89269650E-03 -2.56536715E-03  3.98783365E-01
  7.02075145E-03  4.00061045E-02  6.88984431E-02  1.15912915E-02  4.20058055E-02
  4.22297993E-02  4.13280276E-02 -8.13087622E-02 -8.17804145E-02 -7.97964160E-02
 -5.14915804E-02 -5.21927568E-02 -5.17873938E-02  2.97647001E-03  3.31546356E-03
  1.20529095E-03  2.24762235E-02  2.35874783E-02  2.35008154E-02 -4.04034448E-02
 -3.25175583E-02  1.54221070E-04 -1.89730263E-04 -1.29080832E-03  2.10217657E-01
  1.33706146E-01  7.76662679E-04  5.79778568E-03  1.01009339E-02  1.13363684E-03
  9.86081645E-04  2.93866973E-03  2.84626238E-03 -1.83632609E-03 -4.64261364E-03
 -4.41588960E-03 -8.80953888E-04 -2.69086709E-03 -2.58988338E-03  1.43429424E-04
  2.65171794E-05  2.95071952E-04  1.38179433E-03  1.53483588E-03  6.85398141E-04
  1.85291824E-03  2.62533894E-04 -1.29716921E-04 -1.94819648E-04  1.87581085E-04
  1.16790904E-02  4.06891109E-03  9.56446532E-04  7.71716566E-04  5.76665437E-03
  1.00371585E-02  1.12612177E-03  2.93346767E-03  1.09462251E-03  2.75635067E-03
 -4.63226716E-03 -2.12507264E-03 -4.16909673E-03 -2.61548225E-03 -9.35717924E-04
 -2.50541160E-03  3.25865276E-05 -1.30839702E-04  5.57484573E-04  1.15849877E-03
  1.00064213E-03  1.58316957E-03  2.11623938E-03 -2.63903293E-04 -7.27856229E-05
 -1.20025298E-04  3.52653412E-04  1.16507664E-02  4.26123204E-03  1.03984416E-03
  1.52431918E-03  7.74531849E-04  5.78857902E-03  1.01021832E-02  1.17651976E-03
  2.84976432E-03  2.77793226E-03  1.13911612E-03 -4.42342636E-03 -4.21171839E-03
 -2.25467058E-03 -2.68485606E-03 -2.64156664E-03 -1.09422686E-03  2.57789175E-04
  5.73718689E-04 -3.41967803E-04  1.03728930E-03  1.03216506E-03  1.27325183E-03
 -2.63787381E-03 -1.28453919E-03 -3.30394900E-04 -1.99630085E-04 -3.90196578E-04
  1.16098708E-02  3.82650151E-03  5.65040325E-04 -3.12689825E-05  1.99134049E-03
  1.90021874E-02  1.19498634E-01  1.75905148E-01  2.90855622E-02 -7.47687722E-02
  7.44586678E-02 -7.46728105E-02  1.28323711E-01 -1.27520507E-01  1.27940037E-01
  8.22783647E-02 -8.12499697E-02  8.16723717E-02  4.94781644E-03  4.61643830E-03
  4.94210195E-03 -3.63574772E-02  3.63080051E-02 -3.70326733E-02 -4.54140021E-02
 -4.02051705E-02  2.31287142E-03 -1.66581080E-03  2.00234005E-03 -4.46669053E-02
 -4.00136166E-02  1.85322977E-03 -2.28661705E-03  2.10046347E-03  3.98616465E-01
  6.99945503E-03  3.98521864E-02  6.87164654E-02  1.16811060E-02 -4.12320347E-02
  4.13559103E-02 -4.19213487E-02  7.96338379E-02 -7.99660733E-02  8.11186154E-02
  5.21360346E-02 -5.13726536E-02  5.21447042E-02  1.86351127E-03  1.87148637E-03
  3.77479759E-03 -2.30719707E-02  2.27162125E-02 -2.22408691E-02 -4.02756452E-02
 -3.14586264E-02  1.76978203E-03 -5.60292318E-04 -6.42390538E-05 -4.02405205E-02
 -2.95130444E-02  5.65161419E-04 -1.66361660E-03 -5.04004933E-05  2.09782744E-01
  1.31484616E-01 -7.74576528E-04 -5.79239270E-03 -1.01113651E-02 -1.11783238E-03
  1.17505777E-03 -2.78896406E-03  2.81854765E-03 -2.35126030E-03  4.22350344E-03
 -4.29039039E-03 -1.06644123E-03  2.61885113E-03 -2.65418658E-03  4.38637919E-04
 -5.06512840E-04 -3.94864436E-04  1.13894405E-03 -1.12709221E-03  1.20060218E-03
  2.68376446E-03  1.07941161E-03 -2.52486420E-04  3.43469939E-05 -3.55331009E-04
 -2.05925568E-03  6.82631489E-06 -2.25321630E-04 -2.39871799E-04 -7.18799801E-05
 -1.16214760E-02 -3.95817015E-03  2.07085364E-03  7.70908342E-04  5.77507772E-03
  1.00719577E-02  1.16320882E-03 -2.76919589E-03  1.02069308E-03 -2.95747372E-03
  4.22097472E-03 -1.92595680E-03  4.71292407E-03  2.56625706E-03 -9.05326359E-04
  2.68087172E-03  5.06342449E-04 -3.06252255E-05 -3.91990291E-07 -1.63645191E-03
  8.10816233E-04 -1.16035262E-03  2.11806225E-03 -1.15281780E-04 -2.51039805E-04
 -2.13798877E-04  5.95609004E-05 -2.24098018E-03 -1.86446872E-03  6.34631223E-05
 -1.01628206E-04  2.30901931E-04  1.13485605E-02  4.12724045E-03 -1.13609472E-04
  1.23285411E-03 -7.85787330E-04 -5.85445697E-03 -1.01869529E-02 -1.16984414E-03
  2.81890976E-03 -2.93597295E-03  1.02583997E-03 -4.29797026E-03  4.61141710E-03
 -1.91857503E-03 -2.59567660E-03  2.63675920E-03 -9.02454338E-04 -4.29138199E-04
 -1.13604579E-06 -1.25891113E-05  7.94372727E-04 -1.57707068E-03  1.23137429E-03
 -2.11342817E-03 -2.63971250E-05  1.82881729E-04  2.34360418E-04 -1.19436131E-04
 -1.77898777E-03 -6.33550378E-04 -2.18335528E-04 -5.90711817E-05 -2.30468621E-04
 -1.19244171E-02 -4.03052291E-03  3.47910862E-04 -1.12521725E-03  1.14625615E-03
  1.89985981E-02  1.19456075E-01  1.75798911E-01  2.90915815E-02  7.46451905E-02
 -7.47760773E-02 -7.44487769E-02 -1.27953870E-01  1.28328619E-01  1.27456801E-01
 -8.20360895E-02  8.25356874E-02  8.13189983E-02  4.90164050E-03  5.01520431E-03
  4.63249034E-03 -3.61891640E-02 -3.69865562E-02  3.65173601E-02 -4.50703878E-02
 -4.01220569E-02 -1.63065626E-03  2.20031941E-03  1.95563017E-03 -4.44537383E-02
 -3.99925145E-02 -2.10509658E-03  1.86849382E-03  1.84090808E-03 -4.41451802E-02
 -3.96972815E-02 -2.18796778E-03  1.76918049E-03  2.17991874E-03  3.98512786E-01
  6.97280352E-03  3.96846174E-02  6.85074949E-02  1.17459606E-02  4.13823397E-02
 -4.11479352E-02 -4.12808478E-02 -8.00057942E-02  7.94538237E-02  7.97828832E-02
 -5.20406910E-02  5.22862358E-02  5.14332279E-02  2.75519839E-03  2.16779586E-03
  2.58936733E-03 -2.25140828E-02 -2.20539786E-02  2.24484164E-02 -4.01170445E-02
 -3.07459948E-02 -6.42874696E-04  1.97743248E-03  8.46034180E-05 -3.99180041E-02
 -2.93139444E-02 -2.03470941E-03  5.31642866E-04  3.37353882E-04 -3.99149841E-02
 -2.87881152E-02 -3.28069705E-05  7.53551993E-04  1.84539137E-03  2.09293099E-01
  1.30005393E-01  7.82048060E-04  5.83622981E-03  1.01517718E-02  1.18007609E-03
  1.07049875E-03 -2.74649310E-03 -2.92862528E-03 -2.05352527E-03  4.12403854E-03
  4.63266799E-03 -9.25518455E-04  2.58438626E-03  2.62532852E-03 -1.83376657E-04
  6.03056033E-04  4.04706273E-05 -1.60480995E-03 -1.03263198E-03  9.68209535E-04
  2.32623966E-03 -3.25715297E-04 -2.13825282E-04 -1.91702894E-04  1.45069290E-04
 -2.36193600E-03 -1.57915130E-03 -3.94158198E-05  9.74980431E-05  1.22718020E-04
  1.78575895E-03  7.13540872E-04 -1.38821960E-04  2.52199922E-04 -1.07611152E-04
  1.16369397E-02  4.08843428E-03  1.46045676E-03 -7.80718292E-04 -5.82438919E-03
 -1.01495569E-02 -1.13142060E-03 -2.77536025E-03  1.16776899E-03  2.82389121E-03
  4.15758006E-03 -2.34272960E-03 -4.32173614E-03  2.63573113E-03 -1.02172472E-03
 -2.63376406E-03 -6.20822920E-04  4.67753244E-04 -3.07197357E-04  1.22691602E-03
  1.24049060E-03 -1.02437628E-03  2.70721759E-03  1.01377192E-03  5.47178959E-05
 -1.14568154E-04 -1.95796820E-04 -2.29827356E-03  1.95307843E-04 -1.77312622E-04
 -1.87637768E-04 -1.94930674E-04 -2.09061212E-03 -1.43888033E-04  2.82925626E-04
 -1.55966079E-04  1.02487571E-04 -1.16648756E-02 -3.97817871E-03 -2.47828882E-05
  1.98065790E-03 -7.83278647E-04 -5.84593298E-03 -1.01810083E-02 -1.15758624E-03
 -2.92713100E-03  2.84026411E-03  9.67162914E-04  4.61117276E-03 -4.38677659E-03
 -1.79430957E-03  2.66593922E-03 -2.62719902E-03 -8.75005903E-04 -2.43782522E-05
 -3.58497222E-04 -8.01362129E-05  6.82868525E-04  1.31311383E-03 -1.55768458E-03
 -2.05847752E-03 -2.33549455E-04  2.10375107E-04  1.24792205E-04 -1.86115046E-04
 -1.82506981E-03 -6.58877727E-04 -8.15666501E-05 -2.28872085E-04 -1.92121478E-04
  2.14025612E-03  1.98044904E-03  1.27049349E-04 -7.84492113E-05 -1.50906681E-06
 -1.15990873E-02 -4.00461467E-03 -1.05180392E-03  5.35367997E-04  9.63881989E-04
Natural orbital occupancies                R   N=          36
  9.99999996E-01  9.99981612E-01  9.99976848E-01  9.99976418E-01  9.99976343E-01
  9.88865324E-01  9.88329502E-01  9.88023566E-01  9.87779011E-01  1.52038923E-03
  7.32356375E-03  7.06445925E-03  1.37286660E-03  3.37916808E-08  6.59933605E-08
  2.04627044E-07  9.12282539E-08  1.13532341E-09  3.19254956E-03  1.46874669E-03
  1.42996965E-03  3.14549803E-03  2.76257012E-08  8.98564694E-08  2.53594349E-07
  1.82069542E-05  1.27572148E-09  7.50805019E-03  3.18412338E-03  3.17606886E-03
  6.61631162E-03  2.35955071E-05  2.34265385E-05  2.26935822E-05  8.98251886E-08
  1.27990559E-09
Dipole Moment                              R   N=           3
 -6.37291330E-03 -2.71919318E-03  1.12583038E-02
