[Molden Format]
p30-5 set                                                                       
[Atoms] AU
 S        1    16        0.0000        0.0000       -1.8028
 S        2    16        0.0000        0.0000        1.8028
[GTO]
    1 0
s    5 1.00
    9184.930301000000 -0.547294661347E-02
    1381.510550300000 -0.409544021551E-01
     313.871475800000 -0.184758289562E+00
      88.053870623000 -0.475672806440E+00
      27.039914905000 -0.434951535842E+00
s    3 1.00
      45.648731303000 -0.919040458089E-01
       4.966452232600  0.556987772145E+00
       2.011624204700  0.511154682985E+00
s    1 1.00
       0.356610770130  0.100000000000E+01
s    1 1.00
       0.135072214770  0.100000000000E+01
p    5 1.00
     261.982334390000 -0.918305465927E-02
      61.306894736000 -0.659022265260E-01
      19.103729887000 -0.245877845187E+00
       6.656772037800 -0.482314710760E+00
       2.395963516100 -0.389563143514E+00
p    1 1.00
       0.617761616790  0.100000000000E+01
p    1 1.00
       0.169933768710  0.100000000000E+01
d    1 1.00
       0.550000000000  0.100000000000E+01
 
    2 0
s    5 1.00
    9184.930301000000 -0.547294661347E-02
    1381.510550300000 -0.409544021551E-01
     313.871475800000 -0.184758289562E+00
      88.053870623000 -0.475672806440E+00
      27.039914905000 -0.434951535842E+00
s    3 1.00
      45.648731303000 -0.919040458089E-01
       4.966452232600  0.556987772145E+00
       2.011624204700  0.511154682985E+00
s    1 1.00
       0.356610770130  0.100000000000E+01
s    1 1.00
       0.135072214770  0.100000000000E+01
p    5 1.00
     261.982334390000 -0.918305465927E-02
      61.306894736000 -0.659022265260E-01
      19.103729887000 -0.245877845187E+00
       6.656772037800 -0.482314710760E+00
       2.395963516100 -0.389563143514E+00
p    1 1.00
       0.617761616790  0.100000000000E+01
p    1 1.00
       0.169933768710  0.100000000000E+01
d    1 1.00
       0.550000000000  0.100000000000E+01
 
[MO]
Sym=     1a
Ene=   -0.919866E+02
Spin= Alpha
Occup= 2.000000
     1     0.944743
     2    -0.027462
     3     0.024601
     4     0.000835
     5    -0.002577
     6    -0.000932
     7    -0.004233
     8     0.000082
     9     0.000030
    10     0.000078
    11    -0.000046
    12    -0.000017
    13     0.000033
    14    -0.008910
    15    -0.008913
    16    -0.008929
    17     0.000002
    18    -0.000003
    19    -0.000001
    20     0.307582
    21    -0.008831
    22     0.007712
    23    -0.000092
    24    -0.000139
    25     0.000164
    26    -0.000229
    27    -0.000009
    28    -0.000012
    29    -0.000015
    30    -0.000017
    31    -0.000006
    32     0.000104
    33    -0.002840
    34    -0.002839
    35    -0.002540
    36    -0.000000
    37     0.000004
    38     0.000001
Sym=     2a
Ene=   -0.919869E+02
Spin= Alpha
Occup= 2.000000
     1    -0.307570
     2     0.008992
     3    -0.008242
     4    -0.000707
     5     0.000835
     6     0.000307
     7     0.001445
     8    -0.000032
     9     0.000003
    10     0.000134
    11     0.000009
    12     0.000022
    13    -0.000086
    14     0.002976
    15     0.002976
    16     0.003404
    17    -0.000000
    18    -0.000000
    19     0.000004
    20     0.944774
    21    -0.027400
    22     0.024635
    23     0.000980
    24    -0.000430
    25     0.000553
    26    -0.000680
    27     0.000014
    28     0.000002
    29     0.000030
    30    -0.000008
    31     0.000035
    32    -0.000300
    33    -0.008969
    34    -0.008967
    35    -0.009180
    36    -0.000001
    37    -0.000000
    38    -0.000003
Sym=     3a
Ene=   -0.669057E+01
Spin= Alpha
Occup= 1.999997
     1    -0.000453
     2    -0.001639
     3     0.000161
     4    -0.000208
     5     0.000904
     6    -0.001580
     7     0.005789
     8     0.002588
     9    -0.007190
    10     0.000239
    11     0.002994
    12    -0.008262
    13     0.000384
    14    -0.000013
    15    -0.000014
    16     0.000321
    17     0.000001
    18     0.000665
    19    -0.001839
    20     0.007435
    21     0.022595
    22     0.000902
    23     0.000098
    24     0.334511
    25    -0.929108
    26    -0.092422
    27    -0.009252
    28     0.025743
    29     0.003490
    30     0.007767
    31    -0.021521
    32    -0.001009
    33     0.000049
    34     0.000065
    35     0.000101
    36    -0.000005
    37    -0.000453
    38     0.001252
Sym=     4a
Ene=   -0.685796E+01
Spin= Alpha
Occup= 1.999993
     1     0.076278
     2     0.272095
     3     0.000755
     4    -0.005157
     5    -0.044055
     6    -0.054422
     7    -0.953763
     8     0.001692
     9     0.001700
    10     0.030797
    11    -0.000414
    12    -0.001022
    13    -0.016252
    14     0.000273
    15     0.000371
    16    -0.001896
    17    -0.000048
    18     0.000010
    19    -0.000119
    20     0.000335
    21     0.002427
    22    -0.003814
    23     0.004999
    24     0.001728
    25    -0.005599
    26     0.001855
    27     0.000021
    28    -0.000579
    29     0.011415
    30     0.000180
    31    -0.001044
    32     0.008929
    33     0.000495
    34     0.000456
    35    -0.005577
    36     0.000019
    37     0.000009
    38     0.000106
Sym=     5a
Ene=   -0.717699E+01
Spin= Alpha
Occup= 1.999962
     1     0.139753
     2     0.474226
     3     0.006563
     4    -0.007352
     5    -0.817046
     6    -0.278286
     7     0.175672
     8     0.026081
     9     0.008760
    10    -0.004987
    11    -0.014722
    12    -0.005151
    13     0.002984
    14     0.000209
    15     0.000238
    16     0.000669
    17    -0.000021
    18    -0.000891
    19    -0.000315
    20    -0.000070
    21    -0.000481
    22     0.000732
    23     0.000476
    24    -0.001768
    25    -0.000481
    26    -0.000428
    27    -0.004636
    28    -0.001601
    29    -0.000944
    30    -0.005181
    31    -0.001783
    32    -0.001368
    33    -0.000068
    34    -0.000068
    35     0.000094
    36    -0.000000
    37     0.001145
    38     0.000403
Sym=     6a
Ene=   -0.739042E+01
Spin= Alpha
Occup= 1.999954
     1    -0.000195
     2    -0.000681
     3    -0.000286
     4    -0.000626
     5    -0.000172
     6     0.000111
     7     0.002621
     8    -0.000231
     9     0.000134
    10     0.000297
    11    -0.000156
    12     0.000143
    13     0.000962
    14     0.000181
    15     0.000199
    16     0.001039
    17    -0.000009
    18    -0.000026
    19     0.000039
    20     0.171632
    21     0.581213
    22    -0.003924
    23    -0.012720
    24    -0.175298
    25     0.030148
    26    -0.802945
    27     0.007210
    28    -0.000900
    29     0.030964
    30    -0.001303
    31     0.000538
    32    -0.009180
    33     0.000364
    34     0.000185
    35    -0.000056
    36     0.000085
    37     0.000001
    38    -0.000039
Sym=     7a
Ene=   -0.753091E+01
Spin= Alpha
Occup= 1.999943
     1     0.187588
     2     0.624035
     3     0.007517
     4    -0.010379
     5     0.089022
     6     0.775856
     7     0.111798
     8    -0.000222
     9    -0.031218
    10    -0.002570
    11     0.004619
    12     0.006783
    13     0.002068
    14     0.000139
    15     0.000248
    16     0.000494
    17    -0.000037
    18     0.000418
    19     0.000088
    20    -0.000048
    21    -0.000349
    22     0.000541
    23     0.001233
    24     0.000103
    25     0.002265
    26     0.000180
    27     0.001719
    28     0.001519
    29     0.000108
    30     0.002064
    31     0.001375
    32    -0.000749
    33    -0.000016
    34    -0.000024
    35    -0.000518
    36     0.000003
    37    -0.000475
    38    -0.000246
Sym=     8a
Ene=   -0.750340E+01
Spin= Alpha
Occup= 1.999942
     1     0.000120
     2    -0.000187
     3     0.001932
     4     0.003024
     5    -0.000986
     6    -0.000200
     7    -0.002356
     8    -0.000838
     9     0.000365
    10    -0.000225
    11    -0.000661
    12     0.000627
    13     0.000859
    14    -0.000157
    15    -0.000175
    16    -0.001862
    17     0.000008
    18    -0.000109
    19     0.000136
    20     0.181715
    21     0.607199
    22     0.012670
    23    -0.009714
    24    -0.566232
    25    -0.240348
    26     0.506607
    27     0.023361
    28     0.011075
    29    -0.023745
    30    -0.004348
    31    -0.000249
    32     0.003093
    33    -0.000026
    34    -0.000090
    35     0.001148
    36     0.000032
    37    -0.000030
    38    -0.000167
Sym=     9a
Ene=   -0.753766E+01
Spin= Alpha
Occup= 1.999942
     1     0.188735
     2     0.627452
     3     0.006683
     4    -0.010695
     5     0.549552
     6    -0.538091
     7     0.166174
     8    -0.019642
     9     0.023738
    10    -0.004841
    11     0.007634
    12    -0.002328
    13     0.002593
    14     0.000155
    15     0.000244
    16     0.000419
    17    -0.000052
    18     0.000367
    19     0.000185
    20    -0.000082
    21    -0.000421
    22     0.000415
    23     0.001102
    24     0.001478
    25    -0.001572
    26    -0.000158
    27     0.002221
    28    -0.000123
    29     0.000122
    30     0.002388
    31     0.000191
    32    -0.000737
    33     0.000003
    34    -0.000004
    35    -0.000420
    36     0.000004
    37    -0.000503
    38    -0.000107
Sym=    10a
Ene=   -0.750930E+01
Spin= Alpha
Occup= 1.999941
     1    -0.000053
     2     0.000292
     3    -0.001508
     4    -0.002349
     5    -0.001075
     6    -0.000547
     7     0.001690
     8    -0.000615
     9    -0.000776
    10     0.000108
    11    -0.000275
    12    -0.000804
    13    -0.000926
    14     0.000087
    15     0.000098
    16     0.001297
    17    -0.000005
    18    -0.000021
    19    -0.000151
    20    -0.183410
    21    -0.613548
    22    -0.009142
    23     0.010750
    24    -0.713462
    25    -0.246259
    26    -0.247636
    27     0.030182
    28     0.009472
    29     0.013041
    30    -0.004461
    31    -0.002810
    32    -0.000556
    33    -0.000042
    34     0.000062
    35    -0.000891
    36    -0.000048
    37    -0.000128
    38     0.000082
Sym=    11a
Ene=   -0.648188E+00
Spin= Alpha
Occup= 1.996904
     1     0.000668
     2     0.005861
     3    -0.014365
     4    -0.016002
     5     0.031858
     6    -0.088158
     7    -0.000073
     8     0.056209
     9    -0.155686
    10    -0.004339
    11     0.071549
    12    -0.198133
    13    -0.030266
    14    -0.004059
    15    -0.003884
    16     0.003368
    17    -0.000087
    18     0.014927
    19    -0.041352
    20    -0.046277
    21    -0.311209
    22     0.463388
    23     0.270146
    24     0.045569
    25    -0.125596
    26     0.041338
    27     0.096433
    28    -0.267255
    29     0.085476
    30     0.131748
    31    -0.365120
    32     0.100735
    33     0.015533
    34     0.016916
    35     0.008522
    36    -0.000662
    37    -0.012388
    38     0.034318
Sym=    12a
Ene=   -0.667226E+00
Spin= Alpha
Occup= 1.996880
     1    -0.002626
     2    -0.017886
     3     0.031542
     4     0.017368
     5     0.028552
     6    -0.079085
     7     0.012061
     8     0.050553
     9    -0.139857
    10     0.025310
    11     0.064333
    12    -0.177976
    13     0.052453
    14     0.003100
    15     0.002915
    16     0.003009
    17     0.000086
    18     0.013517
    19    -0.037425
    20     0.051443
    21     0.342415
    22    -0.503987
    23    -0.305200
    24     0.041647
    25    -0.116380
    26    -0.052553
    27     0.087095
    28    -0.241072
    29    -0.118939
    30     0.119038
    31    -0.329595
    32    -0.132455
    33    -0.018685
    34    -0.019978
    35    -0.003320
    36     0.000617
    37    -0.011097
    38     0.030720
Sym=    13a
Ene=   -0.703843E+00
Spin= Alpha
Occup= 1.995755
     1     0.036845
     2     0.242121
     3    -0.356367
     4    -0.128280
     5     0.125924
     6     0.042535
     7    -0.060479
     8     0.254854
     9     0.084742
    10    -0.141426
    11     0.347391
    12     0.116215
    13    -0.117324
    14     0.002168
    15     0.003902
    16    -0.057493
    17    -0.000752
    18     0.035582
    19     0.011107
    20     0.009051
    21     0.050784
    22    -0.064207
    23     0.052067
    24     0.089276
    25     0.025929
    26     0.107447
    27     0.157681
    28     0.045527
    29     0.186786
    30     0.201919
    31     0.057748
    32     0.157468
    33     0.015296
    34     0.014849
    35    -0.054390
    36     0.000216
    37    -0.039614
    38    -0.012876
Sym=    14a
Ene=   -0.707575E+00
Spin= Alpha
Occup= 1.995720
     1    -0.037570
     2    -0.245484
     3     0.359199
     4     0.128829
     5     0.124579
     6     0.047906
     7     0.062092
     8     0.247496
     9     0.096685
    10     0.143558
    11     0.337896
    12     0.131252
    13     0.119172
    14    -0.002422
    15    -0.003994
    16     0.058169
    17     0.000833
    18     0.034147
    19     0.014096
    20    -0.009206
    21    -0.051648
    22     0.065298
    23    -0.052556
    24     0.084355
    25     0.036889
    26    -0.108837
    27     0.148755
    28     0.065319
    29    -0.189197
    30     0.190141
    31     0.084085
    32    -0.159632
    33    -0.015465
    34    -0.015019
    35     0.055070
    36    -0.000216
    37    -0.038310
    38    -0.015271
Sym=    15a
Ene=   -0.623378E+00
Spin= Alpha
Occup= 1.988274
     1    -0.049201
     2    -0.328017
     3     0.480812
     4     0.375787
     5     0.001899
     6    -0.002312
     7    -0.158157
     8     0.002343
     9    -0.004792
    10    -0.318123
    11     0.003059
    12    -0.006093
    13    -0.310405
    14     0.033192
    15     0.033340
    16    -0.044503
    17    -0.000071
    18     0.000425
    19    -0.001032
    20     0.012389
    21     0.075896
    22    -0.113170
    23     0.015795
    24     0.001536
    25    -0.003733
    26     0.115519
    27     0.002821
    28    -0.006855
    29     0.213621
    30     0.003590
    31    -0.008773
    32     0.231206
    33     0.009706
    34     0.008919
    35    -0.057956
    36     0.000379
    37    -0.000429
    38     0.000896
Sym=    16a
Ene=   -0.189179E+00
Spin= Alpha
Occup= 1.000000
     1    -0.000002
     2    -0.000002
     3     0.000112
     4    -0.000382
     5    -0.119771
     6    -0.101749
     7     0.000108
     8    -0.217077
     9    -0.185470
    10     0.000225
    11    -0.371894
    12    -0.290887
    13     0.000041
    14     0.000006
    15     0.000033
    16     0.000096
    17     0.000070
    18     0.028409
    19     0.016340
    20     0.000007
    21     0.000043
    22    -0.000145
    23     0.000178
    24     0.197572
    25     0.108142
    26    -0.000108
    27     0.361279
    28     0.196901
    29    -0.000216
    30     0.527928
    31     0.304776
    32    -0.000222
    33    -0.000039
    34     0.000069
    35    -0.000073
    36    -0.000072
    37     0.017006
    38     0.013014
Sym=    17a
Ene=   -0.190756E+00
Spin= Alpha
Occup= 1.000000
     1    -0.000009
     2    -0.000063
     3    -0.000148
     4     0.001167
     5    -0.110412
     6     0.200281
     7    -0.000456
     8    -0.201581
     9     0.366802
    10    -0.000876
    11    -0.308077
    12     0.531672
    13    -0.000337
    14    -0.000105
    15     0.000107
    16    -0.000086
    17    -0.000059
    18     0.015367
    19    -0.019427
    20    -0.000046
    21    -0.000307
    22     0.001013
    23    -0.000943
    24     0.099291
    25    -0.115329
    26     0.000591
    27     0.180384
    28    -0.207828
    29     0.001155
    30     0.287264
    31    -0.365165
    32     0.001195
    33     0.000197
    34    -0.000335
    35     0.000331
    36     0.000215
    37     0.013679
    38    -0.023256
Sym=    18a
Ene=   -0.782672E-02
Spin= Alpha
Occup= 0.011726
     1     0.005639
     2     0.039006
     3    -0.454045
     4     0.986656
     5    -0.000289
     6    -0.000676
     7     0.209804
     8    -0.001126
     9    -0.001721
    10     0.509101
    11     0.001963
    12    -0.001615
    13     0.349430
    14     0.222165
    15     0.281958
    16    -0.645634
    17    -0.028616
    18     0.004813
    19    -0.006481
    20     0.015052
    21     0.102788
    22    -0.205070
    23    -0.266909
    24     0.001460
    25    -0.004058
    26     0.126660
    27     0.005244
    28    -0.014083
    29     0.263959
    30    -0.005553
    31     0.012983
    32     0.386422
    33     0.038231
    34     0.041517
    35    -0.052179
    36    -0.001450
    37    -0.000651
    38    -0.001371
Sym=    19a
Ene=   -0.368915E-02
Spin= Alpha
Occup= 0.004280
     1     0.034768
     2     0.250538
     3    -0.892427
     4     0.692094
     5    -0.138735
     6    -0.053302
     7    -0.162923
     8    -0.483009
     9    -0.187192
    10    -0.478304
    11     0.432096
    12     0.175926
    13     0.107576
    14     0.009038
    15     0.233864
    16    -0.284801
    17    -0.129738
    18    -0.518229
    19    -0.218921
    20    -0.010067
    21    -0.066083
    22     0.068196
    23    -0.016329
    24     0.013563
    25     0.017320
    26    -0.106487
    27     0.021185
    28     0.048295
    29    -0.201873
    30     0.015971
    31    -0.025119
    32    -0.232361
    33     0.030921
    34    -0.006015
    35    -0.021031
    36     0.015886
    37     0.032343
    38     0.026317
Sym=    20a
Ene=   -0.364903E-02
Spin= Alpha
Occup= 0.004245
     1     0.033182
     2     0.235401
     3    -0.845911
     4     0.675545
     5     0.139402
     6     0.047212
     7    -0.160504
     8     0.486719
     9     0.163287
    10    -0.470862
    11    -0.441467
    12    -0.139952
    13     0.103053
    14    -0.032714
    15     0.247466
    16    -0.290743
    17    -0.112206
    18     0.550733
    19     0.167368
    20    -0.009877
    21    -0.064694
    22     0.064892
    23    -0.011636
    24    -0.021799
    25     0.004431
    26    -0.105017
    27    -0.047333
    28     0.023160
    29    -0.199057
    30     0.000849
    31    -0.030249
    32    -0.231386
    33     0.029275
    34    -0.003940
    35    -0.020592
    36     0.017314
    37    -0.044804
    38    -0.002073
Sym=    21a
Ene=   -0.278071E-02
Spin= Alpha
Occup= 0.003120
     1     0.004556
     2     0.026653
     3    -0.033384
     4    -0.146106
     5     0.010405
     6    -0.028845
     7    -0.012691
     8     0.022313
     9    -0.062172
    10    -0.028803
    11     0.048231
    12    -0.132379
    13    -0.153996
    14    -0.004759
    15    -0.016993
    16    -0.031729
    17     0.005585
    18    -0.031135
    19     0.088530
    20     0.036209
    21     0.293726
    22    -1.119696
    23     1.017011
    24     0.077861
    25    -0.215964
    26    -0.087033
    27     0.265216
    28    -0.735494
    29    -0.279833
    30    -0.226843
    31     0.628504
    32     0.089741
    33     0.296046
    34    -0.282478
    35     0.213092
    36     0.283931
    37     0.142279
    38    -0.389464
Sym=    22a
Ene=   -0.271991E-02
Spin= Alpha
Occup= 0.003096
     1    -0.004850
     2    -0.031213
     3     0.071728
     4     0.097171
     5     0.008434
     6    -0.022724
     7     0.011494
     8     0.020453
     9    -0.054338
    10     0.052246
    11     0.035660
    12    -0.101174
    13     0.086464
    14     0.031052
    15     0.022868
    16    -0.000880
    17     0.003827
    18    -0.036175
    19     0.097437
    20    -0.032510
    21    -0.259941
    22     0.984550
    23    -0.875997
    24     0.083231
    25    -0.230163
    26     0.033598
    27     0.283769
    28    -0.784933
    29     0.117330
    30    -0.241446
    31     0.668800
    32    -0.041871
    33    -0.272711
    34     0.454798
    35    -0.353463
    36    -0.346161
    37     0.060253
    38    -0.169038
Sym=    23a
Ene=   -0.517781E-03
Spin= Alpha
Occup= 0.000059
     1     0.002624
     2     0.015363
     3    -0.053858
     4    -0.061735
     5     0.012300
     6     0.004063
     7    -0.028856
     8     0.022570
     9     0.005364
    10    -0.120074
    11     0.131859
    12     0.053385
    13    -0.001779
    14    -0.076928
    15    -0.015689
    16     0.025059
    17    -0.027068
    18     0.036822
    19     0.006891
    20     0.081554
    21     0.915524
    22    -2.529912
    23    -0.034766
    24     0.270513
    25     0.093680
    26     0.095100
    27     0.935757
    28     0.323672
    29     0.345518
    30    -0.845157
    31    -0.292069
    32    -0.371465
    33     0.957103
    34     1.112628
    35     1.034801
    36    -0.072938
    37    -0.016472
    38     0.021562
Sym=    24a
Ene=   -0.515464E-03
Spin= Alpha
Occup= 0.000058
     1     0.085317
     2     0.961811
     3    -2.597175
     4    -0.178260
     5     0.186350
     6    -0.210857
     7     0.065952
     8     0.641965
     9    -0.731955
    10     0.241241
    11    -0.578902
    12     0.676663
    13    -0.223218
    14     1.075412
    15     1.009686
    16     1.229542
    17     0.051931
    18    -0.182419
    19    -0.045707
    20    -0.000313
    21    -0.016011
    22     0.106850
    23     0.028055
    24    -0.000261
    25     0.014870
    26     0.017333
    27    -0.026279
    28     0.065447
    29     0.028768
    30     0.164705
    31    -0.172584
    32     0.029384
    33    -0.034135
    34    -0.001142
    35    -0.088311
    36    -0.018048
    37     0.013573
    38     0.031220
Sym=    25a
Ene=   -0.506783E-03
Spin= Alpha
Occup= 0.000058
     1    -0.004931
     2    -0.040198
     3     0.150071
     4     0.163741
     5     0.010442
     6     0.005039
     7     0.039692
     8     0.020360
     9     0.011894
    10     0.186996
    11     0.102278
    12     0.036770
    13     0.007376
    14     0.109433
    15     0.020907
    16    -0.116021
    17     0.044544
    18     0.021213
    19     0.017433
    20    -0.081669
    21    -0.907168
    22     2.562312
    23    -0.125708
    24     0.215882
    25     0.090826
    26    -0.189705
    27     0.746179
    28     0.314365
    29    -0.687110
    30    -0.671786
    31    -0.283558
    32     0.724107
    33    -0.957123
    34    -1.026011
    35    -1.012265
    36     0.037005
    37    -0.015663
    38    -0.022003
Sym=    26a
Ene=   -0.504398E-03
Spin= Alpha
Occup= 0.000057
     1     0.084438
     2     0.952300
     3    -2.575496
     4    -0.163151
     5     0.011241
     6     0.286313
     7     0.048154
     8     0.035088
     9     0.990552
    10     0.177801
    11    -0.020477
    12    -0.906617
    13    -0.154139
    14     1.101447
    15     0.977455
    16     1.204706
    17     0.023694
    18    -0.180635
    19    -0.069048
    20     0.000486
    21    -0.010386
    22     0.076724
    23     0.038565
    24     0.010866
    25    -0.015745
    26     0.011698
    27     0.026106
    28    -0.080954
    29     0.015346
    30     0.016144
    31     0.250310
    32     0.047745
    33    -0.036484
    34    -0.000503
    35    -0.094242
    36    -0.016091
    37     0.030274
    38    -0.010452
Sym=    27a
Ene=   -0.399180E-03
Spin= Alpha
Occup= 0.000046
     1    -0.004497
     2    -0.048627
     3     0.210769
     4     0.442214
     5    -0.002826
     6     0.001939
     7     0.025205
     8    -0.001511
     9     0.001864
    10     0.177627
    11    -0.046914
    12     0.016853
    13     0.129032
    14     0.118731
    15     0.018085
    16    -0.218707
    17     0.048345
    18    -0.018370
    19     0.006533
    20     0.071685
    21     0.844448
    22    -2.065867
    23    -0.829586
    24    -0.065901
    25     0.008640
    26    -0.289784
    27    -0.228580
    28     0.029761
    29    -1.054051
    30     0.209905
    31    -0.027812
    32     1.177952
    33     0.974668
    34     1.365945
    35     0.859204
    36    -0.186483
    37    -0.048688
    38     0.069614
Sym=    28a
Ene=   -0.303486E-03
Spin= Alpha
Occup= 0.000038
     1     0.062833
     2     0.710718
     3    -1.901968
     4    -0.193398
     5    -0.260575
     6    -0.087358
     7     0.063205
     8    -0.893387
     9    -0.299203
    10     0.233691
    11     0.793690
    12     0.264472
    13    -0.244771
    14     0.748520
    15     0.795693
    16     0.925075
    17    -0.002629
    18     0.478323
    19     0.174256
    20    -0.000040
    21    -0.012734
    22     0.072320
    23     0.088324
    24    -0.009168
    25    -0.005248
    26     0.010495
    27     0.016890
    28    -0.001023
    29     0.011862
    30    -0.253553
    31    -0.081635
    32    -0.001085
    33    -0.024088
    34    -0.002039
    35    -0.087215
    36    -0.009231
    37    -0.057607
    38    -0.020834
Sym=    29a
Ene=   -0.612668E-04
Spin= Alpha
Occup= 0.000007
     1     0.021574
     2     0.342568
     3    -0.893494
     4    -0.026572
     5    -0.013562
     6    -0.016750
     7    -0.255164
     8    -0.046417
     9    -0.057546
    10    -0.975579
    11     0.040626
    12     0.051286
    13     1.438504
    14     0.821676
    15     0.510423
    16     0.445660
    17     0.159948
    18     0.006537
    19     0.095922
    20     0.001447
    21     0.023118
    22     0.051968
    23    -0.805885
    24     0.000458
    25    -0.007504
    26     0.005038
    27     0.002676
    28    -0.017882
    29    -0.016671
    30    -0.010261
    31    -0.014942
    32     0.633314
    33    -0.138948
    34    -0.015171
    35     0.270956
    36    -0.055654
    37    -0.002420
    38    -0.003248
Sym=    30a
Ene=   -0.187515E-04
Spin= Alpha
Occup= 0.000003
     1    -0.000234
     2     0.027811
     3    -0.057982
     4    -0.152256
     5    -0.000576
     6     0.000608
     7     0.006212
     8    -0.016229
     9     0.039425
    10     0.007857
    11     0.041147
    12    -0.101280
    13     0.069682
    14     0.096333
    15     0.036261
    16     0.165669
    17     0.028275
    18    -0.034559
    19     0.105126
    20    -0.001472
    21    -0.040782
    22     0.069075
    23     0.152897
    24    -0.055493
    25     0.155749
    26     0.017130
    27    -0.194484
    28     0.546529
    29     0.065028
    30     0.174075
    31    -0.492931
    32    -0.040173
    33    -0.109946
    34     0.192509
    35    -0.388325
    36    -0.018149
    37     0.279918
    38    -0.746885
Sym=    31a
Ene=   -0.194101E-07
Spin= Alpha
Occup= 0.000000
     1    -0.000619
     2    -0.083954
     3     0.305603
     4    -0.018743
     5    -0.005139
     6    -0.000956
     7     0.005235
     8    -0.051566
     9     0.000222
    10     0.121521
    11     0.159436
    12    -0.009950
    13    -0.658859
    14     0.160273
    15    -0.229217
    16    -0.697037
    17     0.172567
    18     0.150367
    19    -0.019770
    20     0.003323
    21     0.226621
    22    -0.352031
    23    -0.817591
    24     0.000724
    25     0.006889
    26    -0.013855
    27     0.014296
    28     0.023173
    29    -0.011972
    30    -0.067425
    31    -0.016714
    32    -0.470231
    33     0.515017
    34     0.266520
    35     1.255242
    36     0.134526
    37     0.490644
    38    -0.067408
Sym=    32a
Ene=   -0.400228E-08
Spin= Alpha
Occup= 0.000000
     1     0.000224
     2     0.081821
     3     0.258663
     4    -1.722295
     5     0.006899
     6     0.007168
     7     0.022705
     8     0.023904
     9     0.005857
    10     0.163081
    11    -0.031046
    12     0.081122
    13    -0.941575
    14     0.098609
    15     0.885739
    16    -0.118667
    17    -0.206180
    18    -0.247880
    19     0.677210
    20     0.000471
    21     0.031181
    22    -0.278316
    23     0.986712
    24    -0.005668
    25     0.016093
    26    -0.001856
    27    -0.037084
    28     0.102728
    29     0.031080
    30     0.091022
    31    -0.247427
    32    -0.822330
    33    -0.028214
    34    -0.110904
    35     0.392381
    36     0.031431
    37     0.016715
    38     0.220785
Sym=    33a
Ene=    0.000000E+00
Spin= Alpha
Occup= 0.000000
     1    -0.001584
     2    -0.125142
     3    -0.218738
     4     2.079549
     5    -0.008970
     6     0.001791
     7    -0.006856
     8    -0.015630
     9    -0.006241
    10    -0.099025
    11    -0.043408
    12     0.066109
    13     0.950642
    14    -0.489389
    15    -0.715320
    16     0.001810
    17     0.482494
    18    -0.233575
    19     0.568266
    20     0.000132
    21     0.030828
    22     0.267380
    23    -1.534672
    24    -0.003447
    25     0.010613
    26     0.005326
    27    -0.028065
    28     0.076159
    29    -0.025723
    30     0.080348
    31    -0.198503
    32     0.888128
    33     0.449832
    34     0.091080
    35    -0.201428
    36    -0.061244
    37    -0.207409
    38     0.140463
Sym=    34a
Ene=    0.000000E+00
Spin= Alpha
Occup= 0.000000
     1     0.000239
     2     0.053056
     3    -0.419887
     4     1.159763
     5     0.003864
     6     0.000702
     7    -0.006582
     8    -0.031721
     9    -0.013177
    10    -0.123708
    11     0.182810
    12     0.062242
    13     1.218635
    14    -0.260418
    15     0.131571
    16     0.591452
    17    -0.193238
    18     0.186601
    19     0.000395
    20     0.000031
    21     0.007532
    22     0.382342
    23    -1.540707
    24     0.013193
    25     0.001253
    26    -0.000791
    27     0.060143
    28     0.004870
    29    -0.110864
    30    -0.118836
    31    -0.012932
    32     1.172758
    33     0.667563
    34     0.038841
    35    -0.568802
    36    -0.137092
    37     0.633781
    38     0.227757
Sym=    35a
Ene=    0.000000E+00
Spin= Alpha
Occup= 0.000000
     1     0.000275
     2     0.075471
     3    -0.107680
     4    -0.314080
     5    -0.001889
     6     0.000078
     7     0.005996
     8    -0.010701
     9    -0.011776
    10     0.023578
    11     0.027031
    12     0.045703
    13     0.143766
    14     0.298684
    15     0.210817
    16     0.244221
    17     0.176130
    18     0.022601
    19     0.029755
    20     0.000486
    21     0.042346
    22     0.011571
    23    -0.377316
    24     0.010379
    25    -0.013458
    26     0.005711
    27     0.037948
    28    -0.044623
    29     0.014704
    30    -0.042718
    31     0.027736
    32     0.046182
    33     0.175421
    34     0.582342
    35    -0.359701
    36     0.779971
    37     0.046307
    38     0.195972
Sym=    36a
Ene=    0.000000E+00
Spin= Alpha
Occup= 0.000000
     1    -0.000552
     2    -0.014671
     3     0.189568
     4    -0.821181
     5    -0.004183
     6    -0.008525
     7     0.005344
     8    -0.034603
     9    -0.054338
    10     0.053964
    11     0.097578
    12     0.140688
    13    -0.631908
    14     0.626995
    15    -0.548113
    16    -0.152098
    17    -0.223341
    18     0.035624
    19     0.323173
    20    -0.001324
    21    -0.109301
    22    -0.148477
    23     1.584583
    24     0.002753
    25     0.006956
    26     0.000324
    27     0.013145
    28     0.047414
    29     0.085989
    30    -0.033680
    31    -0.130972
    32    -0.717443
    33    -0.469399
    34    -0.251781
    35    -0.338170
    36    -0.117579
    37     0.290586
    38     0.346051
Sym=    37a
Ene=    0.000000E+00
Spin= Alpha
Occup= 0.000000
     1    -0.000325
     2    -0.024682
     3     0.178232
     4    -0.647825
     5    -0.004809
     6     0.005961
     7     0.000188
     8    -0.044206
     9     0.008502
    10     0.021783
    11     0.133229
    12     0.028908
    13    -0.542630
    14    -0.312239
    15     0.259754
    16    -0.151616
    17     0.630136
    18     0.131945
    19    -0.061098
    20    -0.001427
    21    -0.125145
    22    -0.103798
    23     1.559220
    24     0.003602
    25    -0.000913
    26    -0.004673
    27     0.023196
    28    -0.007611
    29     0.046966
    30    -0.068741
    31     0.017245
    32    -0.562258
    33    -0.755649
    34    -0.267257
    35    -0.179694
    36    -0.155813
    37     0.390604
    38     0.185002
Sym=    38a
Ene=    0.000000E+00
Spin= Alpha
Occup= 0.000000
     1    -0.000766
     2    -0.117037
     3    -0.196631
     4     1.960847
     5     0.003168
     6    -0.000718
     7    -0.014861
     8    -0.000282
     9    -0.006307
    10    -0.146071
    11     0.035760
    12     0.021645
    13     0.931408
    14    -0.705364
    15    -0.521960
    16     0.028506
    17    -0.339691
    18    -0.010079
    19     0.150336
    20    -0.000361
    21    -0.030163
    22     0.320935
    23    -1.115910
    24    -0.000432
    25    -0.002634
    26    -0.007210
    27    -0.002036
    28     0.001801
    29    -0.108550
    30    -0.000527
    31    -0.038075
    32     1.034909
    33    -0.632428
    34     0.262089
    35     0.141442
    36     0.257170
    37     0.166144
    38     0.047218
