[Molden Format]
p30-5 set                                                                       
[Atoms] AU
 AL       1    13        0.0000        0.0000        0.0000
 H        2     1       -1.4979        2.5944        0.0000
 H        3     1       -1.4979       -2.5944        0.0000
 H        4     1        2.9958        0.0000        0.0000
[GTO]
    1 0
s    5 1.00
    5887.572703000000  0.565197896170E-02
     885.612259960000  0.422182534268E-01
     201.136048990000  0.189187196726E+00
      56.284974674000  0.480435911881E+00
      17.229551243000  0.425872684294E+00
s    3 1.00
      29.340249922000  0.885686032394E-01
       3.043963042000 -0.543157066723E+00
       1.128553951800 -0.529385510294E+00
s    1 1.00
       0.142341751600  0.100000000000E+01
s    1 1.00
       0.054400192313  0.100000000000E+01
p    5 1.00
     145.119188090000  0.107263778593E-01
      33.717894833000  0.741036235460E-01
      10.369863083000  0.261296213060E+00
       3.513561603600  0.480201235327E+00
       1.198005027300  0.384382240624E+00
p    1 1.00
       0.265830059130  0.100000000000E+01
p    1 1.00
       0.071003361994  0.100000000000E+01
d    1 1.00
       0.300000000000  0.100000000000E+01
 
    2 0
s    3 1.00
      13.010701000000  0.334854848130E-01
       1.962257200000  0.234721870881E+00
       0.444537960000  0.813770285260E+00
s    1 1.00
       0.121949620000  0.100000000000E+01
p    1 1.00
       0.800000000000  0.100000000000E+01
 
    3 0
s    3 1.00
      13.010701000000  0.334854848130E-01
       1.962257200000  0.234721870881E+00
       0.444537960000  0.813770285260E+00
s    1 1.00
       0.121949620000  0.100000000000E+01
p    1 1.00
       0.800000000000  0.100000000000E+01
 
    4 0
s    3 1.00
      13.010701000000  0.334854848130E-01
       1.962257200000  0.234721870881E+00
       0.444537960000  0.813770285260E+00
s    1 1.00
       0.121949620000  0.100000000000E+01
p    1 1.00
       0.800000000000  0.100000000000E+01
 
[MO]
Sym=     1a
Ene=   -0.584568E+02
Spin= Alpha
Occup= 2.000000
     1     0.992053
     2    -0.035494
     3    -0.038059
     4     0.005816
     5    -0.000799
     6    -0.001697
     7     0.000011
     8    -0.000027
     9    -0.000059
    10     0.000000
    11     0.000007
    12     0.000013
    13     0.000000
    14     0.012447
    15     0.012446
    16     0.012363
    17    -0.000001
    18     0.000000
    19     0.000000
    20    -0.000140
    21     0.000483
    22    -0.000129
    23     0.000225
    24    -0.000000
    25    -0.000150
    26     0.000478
    27    -0.000128
    28    -0.000223
    29     0.000000
    30    -0.000140
    31     0.000481
    32     0.000260
    33     0.000001
    34     0.000000
Sym=     2a
Ene=   -0.320846E+01
Spin= Alpha
Occup= 1.999983
     1     0.001951
     2     0.006735
     3    -0.000066
     4     0.000046
     5     0.899540
     6    -0.413420
     7     0.003109
     8     0.031010
     9    -0.014257
    10     0.000125
    11    -0.006808
    12     0.003126
    13    -0.000022
    14    -0.000407
    15     0.000339
    16    -0.000035
    17    -0.000197
    18    -0.000001
    19    -0.000000
    20     0.002647
    21     0.001479
    22    -0.000553
    23     0.000673
    24    -0.000001
    25     0.000309
    26     0.000172
    27    -0.000264
    28     0.000036
    29    -0.000001
    30    -0.002945
    31    -0.001651
    32    -0.000951
    33     0.000103
    34    -0.000001
Sym=     3a
Ene=   -0.322028E+01
Spin= Alpha
Occup= 1.999979
     1    -0.022945
     2    -0.086533
     3     0.000660
     4    -0.000598
     5     0.412404
     6     0.895821
     7    -0.026337
     8     0.014213
     9     0.030884
    10    -0.001072
    11    -0.003139
    12    -0.006812
    13     0.000192
    14     0.000289
    15     0.000641
    16     0.000485
    17     0.000441
    18    -0.000001
    19    -0.000001
    20    -0.001953
    21    -0.001057
    22     0.000142
    23    -0.000649
    24     0.000010
    25     0.003169
    26     0.001805
    27    -0.000480
    28    -0.000876
    29     0.000009
    30    -0.001444
    31    -0.000774
    32    -0.000467
    33    -0.000225
    34     0.000010
Sym=     4a
Ene=   -0.405010E+01
Spin= Alpha
Occup= 1.999872
     1     0.209056
     2     0.727894
     3    -0.006603
     4     0.005660
     5     0.026184
     6     0.073148
     7     0.695961
     8     0.000904
     9     0.002533
    10     0.028769
    11    -0.000212
    12    -0.000590
    13    -0.005323
    14    -0.003097
    15    -0.003072
    16    -0.003607
    17     0.000037
    18    -0.000002
    19    -0.000005
    20     0.000789
    21     0.000134
    22    -0.000134
    23     0.000201
    24    -0.000308
    25     0.001248
    26     0.000380
    27    -0.000173
    28    -0.000306
    29    -0.000311
    30     0.000871
    31     0.000177
    32     0.000262
    33    -0.000019
    34    -0.000309
Sym=     5a
Ene=   -0.404776E+01
Spin= Alpha
Occup= 1.999869
     1    -0.208712
     2    -0.726888
     3     0.006610
     4    -0.005659
     5    -0.014508
     6    -0.037186
     7     0.700086
     8    -0.000504
     9    -0.001282
    10     0.028942
    11     0.000112
    12     0.000289
    13    -0.005355
    14     0.003077
    15     0.003066
    16     0.003594
    17    -0.000013
    18    -0.000003
    19    -0.000004
    20    -0.000878
    21    -0.000177
    22     0.000137
    23    -0.000223
    24    -0.000310
    25    -0.001112
    26    -0.000308
    27     0.000159
    28     0.000278
    29    -0.000314
    30    -0.000926
    31    -0.000205
    32    -0.000270
    33     0.000009
    34    -0.000311
Sym=     6a
Ene=   -0.492283E+00
Spin= Alpha
Occup= 1.971716
     1    -0.027072
     2    -0.164899
     3    -0.246752
     4    -0.042271
     5    -0.059643
     6    -0.103244
     7     0.000025
     8     0.107912
     9     0.186885
    10    -0.000028
    11     0.057135
    12     0.098965
    13    -0.000009
    14    -0.001189
    15    -0.055476
    16    -0.000835
    17    -0.054287
    18     0.000006
    19     0.000008
    20     0.025869
    21     0.048109
    22     0.000751
    23     0.003990
    24     0.000000
    25    -0.420966
    26    -0.297548
    27    -0.008663
    28    -0.015006
    29     0.000000
    30     0.025888
    31     0.048131
    32     0.003080
    33     0.002646
    34     0.000001
Sym=     7a
Ene=   -0.492323E+00
Spin= Alpha
Occup= 1.971693
     1    -0.027103
     2    -0.165060
     3    -0.247030
     4    -0.042202
     5     0.119447
     6     0.000082
     7    -0.000036
     8    -0.215838
     9     0.000013
    10    -0.000002
    11    -0.114209
    12     0.000008
    13     0.000082
    14    -0.082589
    15     0.025980
    16    -0.000837
    17    -0.000001
    18    -0.000007
    19    -0.000001
    20     0.025835
    21     0.048100
    22    -0.003834
    23     0.001351
    24    -0.000001
    25     0.025812
    26     0.048087
    27    -0.003836
    28    -0.001353
    29    -0.000001
    30    -0.420940
    31    -0.297509
    32     0.017324
    33    -0.000001
    34    -0.000005
Sym=     8a
Ene=   -0.492301E+00
Spin= Alpha
Occup= 1.971682
     1    -0.027105
     2    -0.165061
     3    -0.247003
     4    -0.042184
     5    -0.059710
     6     0.103524
     7    -0.000023
     8     0.107942
     9    -0.186901
    10     0.000025
    11     0.057116
    12    -0.098914
    13    -0.000011
    14    -0.001144
    15    -0.055427
    16    -0.000821
    17     0.054283
    18     0.000000
    19     0.000004
    20    -0.420941
    21    -0.297551
    22    -0.008664
    23     0.015005
    24     0.000000
    25     0.025826
    26     0.048086
    27     0.000746
    28    -0.003997
    29    -0.000001
    30     0.025872
    31     0.048125
    32     0.003086
    33    -0.002646
    34    -0.000000
Sym=     9a
Ene=   -0.483089E-02
Spin= Alpha
Occup= 0.007356
     1    -0.014351
     2    -0.095619
     3    -0.587465
     4     0.144940
     5    -0.063020
     6     0.109050
     7    -0.000347
     8     0.232438
     9    -0.402156
    10     0.001106
    11    -0.008330
    12     0.013808
    13    -0.000322
    14     0.046187
    15    -0.163838
    16     0.155947
    17     0.210206
    18    -0.000390
    19     0.000606
    20    -0.452830
    21     1.099756
    22    -0.219985
    23     0.381079
    24     0.000645
    25    -0.028012
    26    -0.021435
    27    -0.005763
    28    -0.018717
    29    -0.000109
    30    -0.028051
    31    -0.021161
    32     0.019202
    33    -0.004371
    34    -0.000108
Sym=    10a
Ene=   -0.366736E-02
Spin= Alpha
Occup= 0.005060
     1    -0.000672
     2    -0.004585
     3    -0.028122
     4     0.005734
     5     0.005825
     6     0.000153
     7    -0.106686
     8    -0.020994
     9    -0.000681
    10     0.248955
    11     0.000882
    12     0.001169
    13     0.179799
    14    -0.011789
    15     0.007757
    16     0.007983
    17    -0.000344
    18     0.468825
    19     0.000059
    20    -0.001476
    21    -0.001172
    22    -0.000593
    23     0.000650
    24    -0.011732
    25    -0.001454
    26    -0.000160
    27    -0.000879
    28    -0.001038
    29    -0.011592
    30    -0.022845
    31     0.053008
    32     0.024283
    33    -0.000054
    34     0.646887
Sym=    11a
Ene=   -0.482341E-02
Spin= Alpha
Occup= 0.007336
     1     0.014088
     2     0.092455
     3     0.573663
     4    -0.139436
     5     0.062973
     6     0.108968
     7    -0.000424
     8    -0.231968
     9    -0.401345
    10     0.001316
    11     0.006888
    12     0.011243
    13    -0.000255
    14    -0.040839
    15     0.169636
    16    -0.153085
    17     0.210790
    18    -0.000403
    19    -0.000773
    20     0.027627
    21     0.021037
    22     0.005536
    23    -0.018400
    24    -0.000121
    25     0.450417
    26    -1.101019
    27     0.220568
    28     0.382133
    29     0.000738
    30     0.027571
    31     0.020783
    32    -0.018811
    33    -0.004428
    34    -0.000143
Sym=    12a
Ene=   -0.144062E-05
Spin= Alpha
Occup= 0.000000
     1    -0.004216
     2    -0.048345
     3    -0.143510
     4    -0.213748
     5    -0.003326
     6    -0.038198
     7     0.000294
     8     0.009969
     9     0.265268
    10     0.007989
    11     0.114749
    12     0.198674
    13    -0.036034
    14    -0.476990
    15    -0.354934
    16     0.830158
    17    -0.676082
    18     0.351826
    19     0.282207
    20    -0.045457
    21    -0.078048
    22    -0.035008
    23     0.097763
    24    -0.037609
    25     0.439105
    26     0.319429
    27     0.202090
    28     0.450921
    29     0.332904
    30     0.307592
    31    -0.105935
    32    -0.181095
    33     0.065959
    34    -0.252843
Sym=    13a
Ene=   -0.653817E-03
Spin= Alpha
Occup= 0.000127
     1    -0.097418
     2    -1.154182
     3    -4.687862
     4     0.850332
     5    -0.006585
     6    -0.018780
     7    -0.241805
     8     0.030140
     9     0.085932
    10     0.874024
    11    -0.025337
    12    -0.070853
    13    -0.520912
    14     1.735894
    15     1.734307
    16     1.562235
    17    -0.005407
    18    -0.001067
    19    -0.003393
    20    -0.106500
    21     0.003288
    22    -0.018442
    23     0.027130
    24    -0.182010
    25    -0.084775
    26    -0.022461
    27     0.024594
    28     0.041899
    29    -0.185671
    30    -0.102293
    31    -0.000529
    32     0.017287
    33    -0.002841
    34    -0.183041
Sym=    14a
Ene=   -0.302889E-05
Spin= Alpha
Occup= 0.000001
     1     0.002838
     2     0.061803
     3     0.177262
     4     0.577998
     5     0.041590
     6     0.008329
     7    -0.000944
     8    -0.337711
     9    -0.027049
    10     0.006110
    11    -0.222280
    12     0.066714
    13    -0.012905
    14    -0.876541
    15     1.101343
    16    -0.601892
    17    -0.090330
    18     0.237420
    19     0.251786
    20    -0.375047
    21    -0.303926
    22    -0.268222
    23     0.204085
    24    -0.071976
    25    -0.311882
    26    -0.261019
    27    -0.267577
    28    -0.188825
    29     0.258441
    30     0.432120
    31    -0.000436
    32    -0.428940
    33    -0.002728
    34    -0.176493
Sym=    15a
Ene=   -0.697741E-05
Spin= Alpha
Occup= 0.000002
     1    -0.004384
     2    -0.075884
     3    -0.230638
     4    -0.478246
     5     0.018737
     6     0.030467
     7     0.000143
     8    -0.155200
     9    -0.275611
    10    -0.000671
    11    -0.121571
    12    -0.233827
    13     0.000828
    14    -0.642433
    15     0.286507
    16     0.732201
    17     1.059385
    18    -0.048217
    19    -0.043695
    20     0.433279
    21     0.234453
    22     0.067531
    23    -0.364730
    24     0.010495
    25    -0.397014
    26    -0.064803
    27    -0.192243
    28    -0.346940
    29    -0.046924
    30     0.376734
    31     0.239817
    32    -0.320572
    33    -0.130724
    34     0.036904
Sym=    16a
Ene=    0.813130E-09
Spin= Alpha
Occup= 0.000000
     1    -0.000885
     2     0.095206
     3     0.178344
     4    -1.290275
     5    -0.002521
     6    -0.003274
     7     0.000904
     8     0.014308
     9     0.010119
    10     0.024628
    11     0.190044
    12     0.292939
    13    -0.111521
    14    -0.612693
    15    -0.614591
    16    -0.217268
    17     0.058996
    18    -0.016824
    19    -0.029711
    20    -0.163678
    21     0.971737
    22    -0.194990
    23    -0.669139
    24     0.057582
    25    -0.282100
    26     1.437297
    27     0.478656
    28     0.313073
    29     0.018540
    30    -0.169133
    31     0.924278
    32    -0.453887
    33    -0.131737
    34     0.058433
Sym=    17a
Ene=   -0.365626E-02
Spin= Alpha
Occup= 0.005025
     1    -0.000028
     2    -0.000346
     3    -0.001473
     4     0.000736
     5     0.000276
     6    -0.000011
     7    -0.106573
     8    -0.001091
     9    -0.000141
    10     0.248693
    11     0.000585
    12     0.001202
    13     0.179372
    14     0.000285
    15     0.000744
    16     0.000363
    17    -0.000483
    18    -0.234627
    19     0.406128
    20     0.000365
    21    -0.001795
    22     0.000587
    23    -0.000761
    24     0.648578
    25    -0.000048
    26     0.000586
    27    -0.000151
    28    -0.000220
    29    -0.011569
    30    -0.000271
    31     0.000539
    32    -0.000007
    33     0.000029
    34    -0.011804
Sym=    18a
Ene=   -0.481864E-02
Spin= Alpha
Occup= 0.007319
     1    -0.014271
     2    -0.094833
     3    -0.583780
     4     0.143259
     5     0.125730
     6     0.000007
     7     0.005848
     8    -0.463526
     9    -0.000017
    10    -0.013606
    11     0.016078
    12     0.000025
    13    -0.010537
    14    -0.269409
    15     0.150010
    16     0.155309
    17    -0.000139
    18    -0.024585
    19    -0.000017
    20    -0.027984
    21    -0.020877
    22    -0.013321
    23     0.014387
    24     0.000576
    25    -0.027830
    26    -0.020956
    27    -0.013338
    28    -0.014363
    29     0.000560
    30    -0.451947
    31     1.098104
    32     0.440081
    33    -0.000065
    34    -0.029851
Sym=    19a
Ene=   -0.365406E-02
Spin= Alpha
Occup= 0.005018
     1    -0.000056
     2    -0.000454
     3    -0.002282
     4     0.000771
     5     0.000054
     6    -0.000041
     7    -0.106293
     8    -0.000364
     9    -0.000026
    10     0.247725
    11     0.000550
    12     0.001061
    13     0.179792
    14    -0.000088
    15     0.000316
    16     0.000587
    17    -0.000655
    18    -0.234491
    19    -0.405757
    20    -0.000211
    21    -0.000326
    22     0.000066
    23    -0.000124
    24    -0.011603
    25    -0.000506
    26     0.001974
    27    -0.000308
    28    -0.001207
    29     0.649151
    30    -0.000241
    31     0.000509
    32     0.000018
    33     0.000055
    34    -0.011689
Sym=    20a
Ene=   -0.833179E-07
Spin= Alpha
Occup= 0.000000
     1     0.000604
     2     0.062147
     3     0.179102
     4     1.087725
     5     0.013351
     6    -0.014243
     7     0.000818
     8    -0.109933
     9     0.114970
    10     0.032112
    11    -1.278681
    12     1.215234
    13    -0.140856
    14    -0.384283
    15    -0.128767
    16    -0.191677
    17    -0.165050
    18    -0.253416
    19     0.212440
    20     0.543106
    21    -2.345046
    22    -0.109577
    23     0.281704
    24    -0.180077
    25     0.050816
    26     0.023489
    27     0.146301
    28     0.129523
    29     0.099146
    30    -0.164368
    31     0.986268
    32    -0.363911
    33    -0.039149
    34     0.249199
Sym=    21a
Ene=   -0.992459E-07
Spin= Alpha
Occup= 0.000000
     1     0.001452
     2     0.133186
     3     0.382104
     4     2.193052
     5    -0.013135
     6     0.007423
     7    -0.000019
     8     0.109663
     9    -0.060280
    10    -0.000882
    11     1.065600
    12    -0.424894
    13     0.003765
    14    -0.363183
    15    -0.698974
    16    -0.431960
    17     0.126553
    18    -0.302211
    19     0.130821
    20     0.109781
    21     0.131097
    22     0.201970
    23    -0.366601
    24    -0.202292
    25     0.222424
    26    -0.692762
    27     0.077903
    28     0.186175
    29    -0.030284
    30     0.501382
    31    -2.069958
    32     0.081581
    33    -0.012640
    34     0.228602
Sym=    22a
Ene=   -0.762766E-04
Spin= Alpha
Occup= 0.000020
     1     0.010013
     2     0.120696
     3     0.482773
     4    -0.019026
     5    -0.116327
     6    -0.252632
     7     0.008839
     8     0.530602
     9     1.155820
    10    -0.032046
    11    -0.469877
    12    -1.014885
    13     0.019065
    14    -0.161933
    15    -0.116407
    16    -0.243183
    17     0.029598
    18    -0.000366
    19     0.001228
    20    -0.087866
    21     0.126470
    22    -0.252657
    23     0.340285
    24     0.006811
    25     0.122920
    26    -0.279418
    27     0.340242
    28     0.582440
    29     0.008403
    30    -0.057371
    31     0.086054
    32     0.303981
    33    -0.053597
    34     0.007130
Sym=    23a
Ene=   -0.889745E-06
Spin= Alpha
Occup= 0.000000
     1    -0.001760
     2    -0.088546
     3    -0.255790
     4    -1.369116
     5     0.010966
     6    -0.012611
     7    -0.000386
     8    -0.092554
     9     0.094352
    10    -0.015631
    11    -0.015023
    12    -0.281804
    13     0.068329
    14    -0.068579
    15     0.511590
    16     0.431027
    17    -0.345036
    18    -0.641793
    19     0.273056
    20    -0.425442
    21     0.830255
    22    -0.135964
    23     0.163310
    24    -0.449733
    25     0.024385
    26     0.260949
    27    -0.096162
    28     0.003244
    29    -0.091150
    30     0.046176
    31     0.545363
    32    -0.073623
    33     0.074525
    34     0.460043
Sym=    24a
Ene=    0.175911E-09
Spin= Alpha
Occup= 0.000000
     1     0.000033
     2     0.002262
     3     0.004827
     4    -0.022595
     5    -0.003542
     6    -0.009969
     7    -0.006769
     8     0.030687
     9     0.077503
    10    -0.198514
    11     0.286667
    12     0.815102
    13     0.891782
    14     0.035283
    15    -0.051140
    16    -0.010291
    17    -0.105220
    18     0.004870
    19     0.005974
    20     0.116168
    21    -0.592984
    22    -0.083660
    23     0.083195
    24    -0.357664
    25    -0.200487
    26     0.971719
    27     0.225903
    28     0.103913
    29    -0.349698
    30     0.066587
    31    -0.317524
    32     0.069526
    33    -0.046712
    34    -0.360415
Sym=    25a
Ene=   -0.952540E-02
Spin= Alpha
Occup= 0.015936
     1     0.028830
     2     0.187832
     3     0.454052
     4     0.013655
     5     0.097898
     6    -0.169447
     7     0.000210
     8    -0.308442
     9     0.533823
    10    -0.000728
    11    -0.161026
    12     0.279378
    13     0.000375
    14     0.005581
    15     0.152049
    16    -0.007657
    17    -0.146857
    18     0.000043
    19    -0.000119
    20    -1.169442
    21     0.137640
    22     0.002444
    23    -0.004314
    24    -0.000009
    25     0.033436
    26    -0.057312
    27    -0.003928
    28     0.006787
    29     0.000086
    30     0.033372
    31    -0.057452
    32    -0.003883
    33     0.006808
    34     0.000048
Sym=    26a
Ene=   -0.952292E-02
Spin= Alpha
Occup= 0.015929
     1    -0.028787
     2    -0.187379
     3    -0.452136
     4    -0.014363
     5     0.195674
     6    -0.000013
     7    -0.000148
     8    -0.616453
     9     0.000025
    10     0.000502
    11    -0.322322
    12     0.000052
    13    -0.000220
    14    -0.226202
    15     0.067174
    16     0.007381
    17     0.000072
    18     0.000094
    19    -0.000051
    20    -0.033337
    21     0.057487
    22    -0.007795
    23    -0.000100
    24    -0.000035
    25    -0.033388
    26     0.057604
    27    -0.007859
    28    -0.000005
    29    -0.000017
    30     1.169670
    31    -0.137960
    32     0.004870
    33     0.000024
    34    -0.000031
Sym=    27a
Ene=   -0.952348E-02
Spin= Alpha
Occup= 0.015931
     1    -0.028576
     2    -0.185172
     3    -0.442642
     4    -0.018081
     5    -0.097597
     6    -0.168985
     7     0.000231
     8     0.307227
     9     0.531865
    10    -0.000786
    11     0.162029
    12     0.281257
    13     0.000363
    14    -0.009105
    15    -0.155763
    16     0.005367
    17    -0.146756
    18     0.000129
    19     0.000144
    20    -0.033087
    21     0.057369
    22     0.004144
    23     0.006462
    24     0.000057
    25     1.170391
    26    -0.138095
    27    -0.002496
    28    -0.004307
    29    -0.000010
    30    -0.033110
    31     0.057705
    32     0.003634
    33     0.006830
    34     0.000100
Sym=    28a
Ene=   -0.662004E-03
Spin= Alpha
Occup= 0.000130
     1    -0.097523
     2    -1.155594
     3    -4.693016
     4     0.850792
     5    -0.003350
     6    -0.008219
     7     0.242417
     8     0.015321
     9     0.038016
    10    -0.876327
    11    -0.011932
    12    -0.030484
    13     0.522670
    14     1.739355
    15     1.737222
    16     1.563392
    17    -0.003939
    18     0.001898
    19     0.002671
    20    -0.102149
    21    -0.002824
    22    -0.008539
    23     0.012817
    24     0.182660
    25    -0.091788
    26    -0.013093
    27     0.011237
    28     0.019036
    29     0.185659
    30    -0.099587
    31    -0.005808
    32     0.008825
    33    -0.001186
    34     0.183111
Sym=    29a
Ene=    0.212585E-07
Spin= Alpha
Occup= 0.000000
     1    -0.000046
     2     0.054871
     3     0.139566
     4     0.414022
     5     0.013710
     6     0.015636
     7    -0.002685
     8    -0.113818
     9    -0.129851
    10    -0.081257
    11    -1.227727
    12    -1.366688
    13     0.363773
    14    -0.456982
    15    -0.164803
    16    -0.106287
    17     0.198210
    18     0.037572
    19     0.003714
    20    -0.064486
    21     0.584800
    22     0.135836
    23    -0.262305
    24    -0.132925
    25     0.488680
    26    -2.089810
    27    -0.132681
    28    -0.222839
    29    -0.128013
    30    -0.227286
    31     1.331593
    32    -0.442812
    33    -0.003827
    34    -0.172751
Sym=    30a
Ene=   -0.120666E-05
Spin= Alpha
Occup= 0.000000
     1    -0.000503
     2     0.014516
     3     0.045014
     4     0.409388
     5     0.018098
     6    -0.022272
     7     0.001624
     8    -0.155723
     9     0.175548
    10    -0.001180
    11    -0.234337
    12     0.279589
    13    -0.015711
    14    -0.656614
    15     0.284284
    16     0.107092
    17    -0.534477
    18    -0.152020
    19    -0.702187
    20    -0.153442
    21    -0.555534
    22    -0.152014
    23     0.243696
    24     0.412355
    25     0.168457
    26    -0.044221
    27     0.002736
    28     0.198603
    29    -0.510068
    30     0.322537
    31     0.036314
    32    -0.313588
    33     0.069652
    34     0.124600
Sym=    31a
Ene=   -0.636873E-04
Spin= Alpha
Occup= 0.000015
     1    -0.000846
     2    -0.010571
     3    -0.041186
     4    -0.013099
     5    -0.254762
     6     0.117384
     7    -0.000872
     8     1.170074
     9    -0.539654
    10     0.003544
    11    -1.000489
    12     0.459412
    13    -0.003241
    14     0.005320
    15     0.009802
    16     0.030885
    17     0.002588
    18    -0.005027
    19     0.000254
    20     0.120034
    21    -0.184542
    22     0.267934
    23    -0.526662
    24    -0.002265
    25     0.013642
    26    -0.014776
    27    -0.016025
    28     0.087797
    29    -0.001923
    30    -0.127922
    31     0.222716
    32     0.647352
    33     0.021593
    34     0.001853
Sym=    32a
Ene=    0.134559E-08
Spin= Alpha
Occup= 0.000000
     1    -0.000499
     2     0.057537
     3     0.109320
     4    -0.730819
     5     0.000545
     6     0.001412
     7    -0.000232
     8     0.004735
     9     0.013443
    10    -0.007115
    11    -0.024151
    12    -0.163491
    13     0.031749
    14    -0.333829
    15    -0.397356
    16    -0.134428
    17    -0.111517
    18     0.007533
    19     0.008434
    20    -0.118736
    21     0.684718
    22     0.641686
    23     0.079444
    24    -0.015447
    25    -0.126298
    26     0.618281
    27    -0.000460
    28     0.390387
    29    -0.004100
    30    -0.107776
    31     0.622461
    32    -0.263957
    33     0.671689
    34    -0.017710
Sym=    33a
Ene=    0.000000E+00
Spin= Alpha
Occup= 0.000000
     1    -0.000380
     2     0.025237
     3     0.040980
     4    -0.528414
     5     0.001054
     6    -0.001495
     7     0.000101
     8     0.005201
     9    -0.000703
    10     0.002326
    11    -0.039944
    12     0.111814
    13    -0.010732
    14    -0.134373
    15    -0.227959
    16    -0.048198
    17     0.049452
    18    -0.012520
    19    -0.007029
    20    -0.071140
    21     0.356022
    22     0.602945
    23     0.144833
    24     0.004049
    25    -0.095486
    26     0.475627
    27     0.024465
    28     0.165535
    29    -0.005008
    30    -0.071566
    31     0.393162
    32    -0.125987
    33    -0.770534
    34     0.014005
Sym=    34a
Ene=    0.000000E+00
Spin= Alpha
Occup= 0.000000
     1    -0.000087
     2     0.012645
     3     0.024421
     4    -0.150053
     5    -0.003357
     6    -0.001747
     7    -0.000658
     8     0.000846
     9     0.018801
    10    -0.019178
    11     0.297126
    12     0.151070
    13     0.086131
    14    -0.154466
    15     0.000626
    16    -0.032606
    17    -0.039342
    18     0.006534
    19    -0.002705
    20     0.008618
    21     0.048480
    22    -0.281072
    23    -0.169791
    24    -0.030083
    25    -0.078809
    26     0.401326
    27    -0.790224
    28     0.565070
    29    -0.033183
    30    -0.005992
    31    -0.046619
    32    -0.078968
    33    -0.093285
    34    -0.039253
