[Molden Format]
p30-5 set                                                                       
[Atoms] AU
 LI       1     3        0.0000        0.0000        2.6356
 LI       2     3        0.0000        0.0000       -2.6356
[GTO]
    1 0
s    5 1.00
     266.277855160000  0.635428653465E-02
      40.069783447000  0.467348893628E-01
       9.055994438900  0.198387923560E+00
       2.450300905100  0.475753833454E+00
       0.722095718550  0.427014289368E+00
s    1 1.00
       0.052810884721  0.100000000000E+01
s    1 1.00
       0.020960948798  0.100000000000E+01
p    2 1.00
       1.450000000000  0.224912327222E+00
       0.300000000000  0.869730577039E+00
p    1 1.00
       0.082000000000  0.100000000000E+01
 
    2 0
s    5 1.00
     266.277855160000  0.635428653465E-02
      40.069783447000  0.467348893628E-01
       9.055994438900  0.198387923560E+00
       2.450300905100  0.475753833454E+00
       0.722095718550  0.427014289368E+00
s    1 1.00
       0.052810884721  0.100000000000E+01
s    1 1.00
       0.020960948798  0.100000000000E+01
p    2 1.00
       1.450000000000  0.224912327222E+00
       0.300000000000  0.869730577039E+00
p    1 1.00
       0.082000000000  0.100000000000E+01
 
[MO]
Sym=     1a
Ene=   -0.245537E+01
Spin= Alpha
Occup= 1.999385
     1     0.705938
     2     0.026899
     3    -0.012326
     4     0.000009
     5    -0.000008
     6     0.003155
     7     0.000007
     8    -0.000004
     9    -0.006350
    10    -0.701127
    11    -0.026832
    12     0.012290
    13    -0.000006
    14    -0.000011
    15     0.003118
    16     0.000004
    17     0.000013
    18    -0.006316
Sym=     2a
Ene=   -0.245527E+01
Spin= Alpha
Occup= 1.999134
     1     0.702350
     2     0.011745
     3    -0.006870
     4     0.000007
     5     0.000008
     6     0.003693
     7    -0.000003
     8    -0.000009
     9    -0.001329
    10     0.707155
    11     0.011938
    12    -0.006995
    13     0.000011
    14    -0.000011
    15    -0.003728
    16    -0.000018
    17     0.000009
    18     0.001379
Sym=     3a
Ene=   -0.186505E+00
Spin= Alpha
Occup= 1.934780
     1     0.167920
     2    -0.423832
     3    -0.141681
     4    -0.000016
     5    -0.000003
     6     0.032406
     7     0.000006
     8    -0.000000
     9     0.077413
    10     0.167917
    11    -0.423876
    12    -0.141640
    13     0.000003
    14    -0.000006
    15    -0.032413
    16    -0.000013
    17     0.000004
    18    -0.077427
Sym=     4a
Ene=   -0.418644E-02
Spin= Alpha
Occup= 0.015337
     1     0.000009
     2    -0.000043
     3     0.000084
     4    -0.081604
     5     0.089323
     6    -0.000013
     7    -0.370448
     8     0.405471
     9    -0.000021
    10    -0.000005
    11    -0.000051
    12     0.000022
    13    -0.081650
    14     0.089330
    15     0.000010
    16    -0.370467
    17     0.405498
    18    -0.000045
Sym=     5a
Ene=   -0.732577E-03
Spin= Alpha
Occup= 0.000262
     1     0.000339
     2    -0.002771
     3    -0.000435
     4     0.628433
     5     0.568583
     6    -0.009710
     7    -0.356106
     8    -0.323421
     9     0.006418
    10     0.000308
    11     0.000664
    12     0.002969
    13     0.623750
    14     0.576852
    15    -0.001836
    16    -0.354776
    17    -0.326881
    18     0.001624
Sym=     6a
Ene=   -0.891637E-03
Spin= Alpha
Occup= 0.000331
     1     0.001097
     2    -0.031053
     3    -0.015777
     4     0.553929
     5    -0.614364
     6    -0.080914
     7    -0.203074
     8     0.227283
     9     0.056148
    10    -0.000963
    11     0.030576
    12     0.016317
    13    -0.553404
    14     0.598285
    15    -0.079610
    16     0.203017
    17    -0.217466
    18     0.055352
Sym=     7a
Ene=   -0.388840E-02
Spin= Alpha
Occup= 0.014236
     1    -0.000452
     2     0.005251
     3    -0.010801
     4    -0.062161
     5    -0.057415
     6    -0.004054
     7    -0.421081
     8    -0.384663
     9    -0.006125
    10    -0.001285
    11     0.010574
    12    -0.012072
    13    -0.062862
    14    -0.056774
    15     0.005940
    16    -0.420981
    17    -0.384695
    18     0.006936
Sym=     8a
Ene=   -0.928325E-03
Spin= Alpha
Occup= 0.000337
     1    -0.010235
     2     0.319465
     3     0.173820
     4     0.058868
     5    -0.050435
     6     0.842950
     7    -0.021612
     8     0.017999
     9    -0.580825
    10     0.011251
    11    -0.322666
    12    -0.169789
    13    -0.051816
    14     0.058480
    15     0.854842
    16     0.018639
    17    -0.021668
    18    -0.588485
Sym=     9a
Ene=   -0.653811E-03
Spin= Alpha
Occup= 0.000237
     1    -0.071807
     2     0.234335
     3    -0.291220
     4     0.042195
     5    -0.070984
     6     0.847832
     7    -0.027628
     8     0.040271
     9    -0.549944
    10    -0.071622
    11     0.229411
    12    -0.293499
    13     0.071808
    14    -0.042142
    15    -0.835697
    16    -0.040648
    17     0.027587
    18     0.541317
Sym=    10a
Ene=   -0.632616E-02
Spin= Alpha
Occup= 0.021407
     1    -0.229118
     2     1.584695
     3    -0.500752
     4    -0.000325
     5    -0.000299
     6    -0.048269
     7    -0.000749
     8    -0.000670
     9    -0.357024
    10     0.229115
    11    -1.584750
    12     0.500839
    13    -0.000207
    14    -0.000166
    15    -0.048258
    16    -0.000665
    17    -0.000625
    18    -0.357090
Sym=    11a
Ene=   -0.669535E-03
Spin= Alpha
Occup= 0.000239
     1     0.006886
     2    -0.022380
     3     0.028449
     4     0.556407
     5    -0.621661
     6    -0.079896
     7    -0.335351
     8     0.372459
     9     0.051597
    10     0.006916
    11    -0.022885
    12     0.028222
    13     0.577347
    14    -0.618760
    15     0.081196
    16    -0.343941
    17     0.370749
    18    -0.052472
Sym=    12a
Ene=   -0.683068E-04
Spin= Alpha
Occup= 0.000024
     1    -0.046067
     2     0.502393
     3    -0.405929
     4    -0.309933
     5    -0.281030
     6    -0.087112
     7     0.703875
     8     0.646534
     9     0.229251
    10    -0.045658
    11     0.492959
    12    -0.401408
    13     0.305537
    14     0.284475
    15     0.089921
    16    -0.701346
    17    -0.648675
    18    -0.238941
Sym=    13a
Ene=   -0.603770E-03
Spin= Alpha
Occup= 0.001299
     1     0.002196
     2    -0.011179
     3     0.012810
     4    -0.552778
     5    -0.491449
     6    -0.014268
     7     0.049048
     8     0.036561
     9     0.008442
    10     0.002077
    11    -0.010459
    12     0.009283
    13     0.537525
    14     0.505233
    15     0.021905
    16    -0.039996
    17    -0.044867
    18    -0.010603
Sym=    14a
Ene=   -0.252231E-04
Spin= Alpha
Occup= 0.000009
     1     0.071230
     2    -1.633241
     3     0.908845
     4    -0.000306
     5    -0.000733
     6    -0.209746
     7     0.001122
     8     0.003802
     9     1.603544
    10    -0.071042
    11     1.631040
    12    -0.907086
    13     0.000353
    14     0.000772
    15    -0.210258
    16    -0.001105
    17    -0.003762
    18     1.604675
Sym=    15a
Ene=   -0.611331E-04
Spin= Alpha
Occup= 0.000023
     1     0.104850
     2    -1.126368
     3     0.916807
     4    -0.137319
     5    -0.118371
     6     0.186459
     7     0.321675
     8     0.273985
     9    -0.523669
    10     0.105178
    11    -1.133633
    12     0.920150
    13     0.134940
    14     0.120241
    15    -0.184814
    16    -0.320127
    17    -0.275031
    18     0.516112
Sym=    16a
Ene=   -0.373822E-02
Spin= Alpha
Occup= 0.012942
     1     0.043194
     2    -0.394240
     3     0.564136
     4    -0.001223
     5    -0.001192
     6     0.237972
     7    -0.008887
     8    -0.008122
     9     0.316635
    10     0.043137
    11    -0.393935
    12     0.563993
    13    -0.000975
    14    -0.000906
    15    -0.237828
    16    -0.008658
    17    -0.007911
    18    -0.316620
Sym=    17a
Ene=   -0.480070E-04
Spin= Alpha
Occup= 0.000018
     1     0.001474
     2    -0.013904
     3     0.010977
     4     0.181908
     5    -0.200324
     6     0.003449
     7    -0.674328
     8     0.740682
     9    -0.010970
    10     0.001822
    11    -0.021376
    12     0.017702
    13    -0.181901
    14     0.200203
    15    -0.002292
    16     0.674174
    17    -0.740704
    18     0.005211
Sym=    18a
Ene=   -0.209325E-05
Spin= Alpha
Occup= 0.000001
     1     0.041977
     2    -0.258798
     3     2.201653
     4     0.000249
     5    -0.000075
     6     0.118790
     7    -0.000645
     8     0.000321
     9    -1.054160
    10    -0.042005
    11     0.258983
    12    -2.201808
    13    -0.000040
    14     0.000240
    15     0.118828
    16     0.000320
    17    -0.000635
    18    -1.054249
