[Molden Format]
p30-5 set                                                                       
[Atoms] AU
 NA       1    11        0.0000        0.0000        2.9521
 NA       2    11        0.0000        0.0000       -2.9521
[GTO]
    1 0
s    5 1.00
    4098.200390800000 -0.582973440428E-02
     616.493740310000 -0.434692743388E-01
     139.966440010000 -0.193522713755E+00
      39.073441051000 -0.484866458138E+00
      11.929847205000 -0.417110128653E+00
s    3 1.00
      20.659966030000  0.857687067851E-01
       1.983886097800 -0.562404693737E+00
       0.648363239420 -0.518446102123E+00
s    1 1.00
       0.052443967404  0.100000000000E+01
s    1 1.00
       0.028048160742  0.100000000000E+01
p    5 1.00
      75.401862017000  0.154353625324E-01
      17.274818978000  0.997382931840E-01
       5.184234742500  0.312095939659E+00
       1.660121197300  0.492956748074E+00
       0.512325289580  0.324203983180E+00
p    1 1.00
       0.052000000000  0.100000000000E+01
d    1 1.00
       0.131000000000  0.100000000000E+01

    2 0
s    5 1.00
    4098.200390800000 -0.582973440428E-02
     616.493740310000 -0.434692743388E-01
     139.966440010000 -0.193522713755E+00
      39.073441051000 -0.484866458138E+00
      11.929847205000 -0.417110128653E+00
s    3 1.00
      20.659966030000  0.857687067851E-01
       1.983886097800 -0.562404693737E+00
       0.648363239420 -0.518446102123E+00
s    1 1.00
       0.052443967404  0.100000000000E+01
s    1 1.00
       0.028048160742  0.100000000000E+01
p    5 1.00
      75.401862017000  0.154353625324E-01
      17.274818978000  0.997382931840E-01
       5.184234742500  0.312095939659E+00
       1.660121197300  0.492956748074E+00
       0.512325289580  0.324203983180E+00
p    1 1.00
       0.052000000000  0.100000000000E+01
d    1 1.00
       0.131000000000  0.100000000000E+01

[MO]
Sym=     1a
Ene=   -0.404771E+02
Spin= Alpha
Occup= 2.000000
     1     0.703452
     2     0.016970
     3     0.025391
     4    -0.008516
     5    -0.000015
     6     0.000005
     7    -0.000081
     8     0.000000
     9     0.000000
    10     0.000162
    11    -0.007177
    12    -0.007177
    13    -0.006698
    14    -0.000000
    15     0.000000
    16     0.000000
    17     0.703451
    18     0.016970
    19     0.025387
    20    -0.008514
    21     0.000007
    22    -0.000001
    23     0.000089
    24     0.000000
    25    -0.000000
    26    -0.000160
    27    -0.007176
    28    -0.007175
    29    -0.006696
    30     0.000000
    31    -0.000000
    32     0.000000
Sym=     2a
Ene=   -0.404772E+02
Spin= Alpha
Occup= 2.000000
     1    -0.703536
     2    -0.016753
     3    -0.029088
     4     0.011304
     5    -0.000012
     6     0.000025
     7     0.000030
     8    -0.000001
     9     0.000001
    10     0.000489
    11     0.007234
    12     0.007235
    13     0.007467
    14     0.000000
    15     0.000000
    16    -0.000000
    17     0.703535
    18     0.016756
    19     0.029092
    20    -0.011306
    21    -0.000001
    22    -0.000027
    23    -0.000033
    24    -0.000000
    25    -0.000000
    26     0.000488
    27    -0.007236
    28    -0.007236
    29    -0.007468
    30     0.000000
    31     0.000000
    32    -0.000000
Sym=     3a
Ene=   -0.279404E+01
Spin= Alpha
Occup= 1.999957
     1    -0.190762
     2     0.724885
     3    -0.018289
     4     0.008103
     5     0.000218
     6    -0.000295
     7    -0.008245
     8     0.000004
     9    -0.000003
    10    -0.000365
    11    -0.000179
    12    -0.000183
    13    -0.000865
    14     0.000000
    15     0.000002
    16     0.000002
    17    -0.190690
    18     0.724600
    19    -0.018289
    20     0.008104
    21    -0.001817
    22     0.000566
    23     0.008459
    24    -0.000021
    25     0.000007
    26     0.000368
    27    -0.000178
    28    -0.000181
    29    -0.000863
    30     0.000000
    31     0.000000
    32    -0.000003
Sym=     4a
Ene=   -0.279363E+01
Spin= Alpha
Occup= 1.999935
     1     0.189984
     2    -0.722190
     3     0.041971
     4    -0.016957
     5    -0.002126
     6     0.003192
     7     0.003563
     8    -0.000017
     9     0.000036
    10    -0.007643
    11    -0.002967
    12    -0.002963
    13     0.000093
    14    -0.000001
    15    -0.000002
    16     0.000003
    17    -0.190059
    18     0.722469
    19    -0.041993
    20     0.016965
    21    -0.000877
    22    -0.002096
    23     0.003519
    24    -0.000001
    25    -0.000031
    26    -0.007653
    27     0.002969
    28     0.002967
    29    -0.000094
    30     0.000001
    31    -0.000000
    32     0.000001
Sym=     5a
Ene=   -0.151483E+01
Spin= Alpha
Occup= 1.999837
     1    -0.000084
     2     0.000240
     3    -0.000701
     4     0.000198
     5    -0.673882
     6     0.206902
     7    -0.038718
     8    -0.007378
     9     0.001981
    10     0.000885
    11     0.000163
    12     0.000162
    13    -0.001414
    14     0.000002
    15     0.000038
    16    -0.000258
    17     0.000145
    18    -0.000360
    19     0.003100
    20    -0.001364
    21    -0.507905
    22     0.469396
    23    -0.141431
    24    -0.005337
    25     0.005305
    26    -0.000677
    27    -0.000551
    28    -0.000555
    29     0.000504
    30    -0.000001
    31    -0.000266
    32    -0.000085
Sym=     6a
Ene=   -0.151424E+01
Spin= Alpha
Occup= 1.999423
     1    -0.000034
     2     0.000103
     3     0.000023
     4    -0.000102
     5     0.363623
     6     0.604666
     7    -0.005625
     8     0.003916
     9     0.006512
    10     0.000783
    11     0.000028
    12     0.000030
    13    -0.001012
    14     0.000003
    15    -0.000080
    16    -0.000149
    17    -0.000405
    18     0.001709
    19     0.002216
    20    -0.001021
    21     0.351325
    22     0.603739
    23    -0.104321
    24     0.003768
    25     0.006499
    26    -0.000693
    27    -0.000413
    28    -0.000411
    29     0.000147
    30     0.000002
    31     0.000097
    32     0.000151
Sym=     7a
Ene=   -0.151401E+01
Spin= Alpha
Occup= 1.999413
     1    -0.001123
     2     0.004973
     3     0.007615
     4    -0.003073
     5     0.097145
     6     0.577226
     7     0.388804
     8     0.001397
     9     0.007093
    10    -0.001290
    11    -0.001565
    12    -0.001564
    13     0.005264
    14     0.000001
    15     0.000355
    16     0.000561
    17     0.001628
    18    -0.007073
    19    -0.010351
    20     0.004442
    21    -0.369629
    22    -0.330191
    23     0.507900
    24    -0.004325
    25    -0.004432
    26     0.000530
    27     0.002023
    28     0.002022
    29    -0.004198
    30    -0.000001
    31     0.000288
    32     0.000623
Sym=     8a
Ene=   -0.151421E+01
Spin= Alpha
Occup= 1.999332
     1     0.000673
     2    -0.002638
     3    -0.000486
     4     0.000074
     5     0.632154
     6    -0.230596
     7    -0.039119
     8     0.007949
     9    -0.003000
    10     0.001203
    11     0.000169
    12     0.000169
    13    -0.001830
    14    -0.000000
    15     0.000883
    16    -0.000274
    17    -0.000483
    18     0.002208
    19     0.003899
    20    -0.001759
    21    -0.680460
    22     0.213841
    23    -0.185028
    24    -0.008472
    25     0.002814
    26    -0.001031
    27    -0.000719
    28    -0.000721
    29     0.000534
    30    -0.000000
    31     0.000870
    32    -0.000279
Sym=     9a
Ene=   -0.151464E+01
Spin= Alpha
Occup= 1.999325
     1    -0.002176
     2     0.009423
     3     0.016871
     4    -0.008370
     5    -0.033299
     6     0.030735
     7     0.737406
     8    -0.000446
     9     0.000501
    10     0.010615
    11    -0.002822
    12    -0.002824
    13    -0.005758
    14    -0.000000
    15    -0.000053
    16     0.000129
    17    -0.001896
    18     0.007954
    19     0.015147
    20    -0.007651
    21     0.048391
    22    -0.144950
    23    -0.651370
    24     0.000593
    25    -0.001754
    26    -0.010688
    27    -0.002494
    28    -0.002494
    29    -0.006683
    30     0.000001
    31    -0.000056
    32     0.000099
Sym=    10a
Ene=   -0.151101E+01
Spin= Alpha
Occup= 1.996455
     1     0.000579
     2    -0.003027
     3    -0.011241
     4     0.004814
     5     0.022955
     6     0.448609
     7    -0.545475
     8     0.000314
     9     0.005795
    10     0.000069
    11     0.002190
    12     0.002190
    13    -0.005316
    14    -0.000000
    15     0.000115
    16     0.000608
    17    -0.000559
    18     0.002909
    19     0.010159
    20    -0.004220
    21    -0.116794
    22    -0.486207
    23    -0.498180
    24    -0.001335
    25    -0.006197
    26     0.000812
    27    -0.002005
    28    -0.002006
    29     0.005749
    30    -0.000000
    31     0.000089
    32     0.000600
Sym=    11a
Ene=   -0.169722E+00
Spin= Alpha
Occup= 1.974173
     1    -0.029496
     2     0.173223
     3     0.090778
     4     0.353021
     5    -0.000008
     6    -0.000030
     7     0.035932
     8     0.000125
     9    -0.000063
    10    -0.068882
    11     0.053597
    12     0.053700
    13     0.070940
    14    -0.000061
    15    -0.000031
    16     0.000003
    17    -0.029495
    18     0.173213
    19     0.090897
    20     0.352888
    21     0.000058
    22    -0.000005
    23    -0.035859
    24    -0.000144
    25     0.000064
    26     0.069080
    27     0.053573
    28     0.053673
    29     0.070923
    30    -0.000058
    31    -0.000009
    32     0.000017
Sym=    12a
Ene=   -0.154723E-01
Spin= Alpha
Occup= 0.025827
     1     0.081485
     2    -0.665023
     3    -3.932640
     4     1.474342
     5     0.000286
     6    -0.000156
     7     0.013383
     8    -0.001620
     9     0.000815
    10     0.222340
    11     0.758775
    12     0.758426
    13     0.735948
    14    -0.000047
    15     0.000573
    16    -0.000089
    17    -0.081542
    18     0.665466
    19     3.934605
    20    -1.476181
    21     0.000282
    22    -0.000115
    23     0.012882
    24    -0.001565
    25     0.000705
    26     0.224545
    27    -0.759625
    28    -0.759403
    29    -0.735468
    30     0.000022
    31    -0.000567
    32     0.000472
Sym=    13a
Ene=   -0.746860E-02
Spin= Alpha
Occup= 0.003545
     1     0.089084
     2    -0.834349
     3    -5.058616
     4     1.912665
     5     0.000008
     6     0.000032
     7     0.013656
     8     0.000013
     9    -0.000112
    10    -0.064981
    11     1.402643
    12     1.402236
    13     1.300603
    14    -0.000079
    15     0.000012
    16     0.000570
    17     0.088985
    18    -0.833412
    19    -5.052369
    20     1.910551
    21     0.000025
    22     0.000025
    23    -0.013672
    24    -0.000174
    25    -0.000058
    26     0.065642
    27     1.400905
    28     1.400501
    29     1.299299
    30    -0.000219
    31    -0.000194
    32    -0.000569
Sym=    14a
Ene=   -0.120090E-02
Spin= Alpha
Occup= 0.000675
     1     0.028163
     2    -0.301826
     3    -1.920404
     4     0.964261
     5    -0.004613
     6     0.004259
     7    -0.123618
     8     0.026792
     9    -0.024728
    10     0.434920
    11     0.818509
    12     0.818644
    13     0.475171
    14    -0.000123
    15    -0.012054
    16     0.010930
    17    -0.031979
    18     0.365554
    19     2.657984
    20    -0.874465
    21    -0.004667
    22     0.004241
    23     0.077150
    24     0.027221
    25    -0.024589
    26    -0.438864
    27    -0.727161
    28    -0.727191
    29    -1.190305
    30     0.000099
    31     0.011799
    32    -0.010588
Sym=    15a
Ene=   -0.122080E-02
Spin= Alpha
Occup= 0.000668
     1     0.037968
     2    -0.429862
     3    -3.062726
     4     1.086471
     5    -0.026641
     6     0.010996
     7     0.046274
     8     0.155152
     9    -0.064471
    10    -0.327026
    11     0.907845
    12     0.908702
    13     1.282532
    14     0.000304
    15    -0.068839
    16     0.028488
    17    -0.035208
    18     0.383116
    19     2.517919
    20    -1.155206
    21    -0.026380
    22     0.010646
    23    -0.103083
    24     0.153004
    25    -0.061389
    26     0.322238
    27    -0.978311
    28    -0.978045
    29    -0.749224
    30     0.000219
    31     0.070027
    32    -0.028515
Sym=    16a
Ene=   -0.987967E-03
Spin= Alpha
Occup= 0.000587
     1     0.014696
     2    -0.165947
     3    -1.168446
     4     0.430384
     5     0.073903
     6    -0.039168
     7     0.006405
     8    -0.429877
     9     0.228008
    10    -0.076337
    11     0.363549
    12     0.365335
    13     0.471093
    14     0.002276
    15     0.193482
    16    -0.102443
    17    -0.014021
    18     0.154645
    19     1.034996
    20    -0.445472
    21     0.073778
    22    -0.039014
    23    -0.030065
    24    -0.428861
    25     0.226542
    26     0.082319
    27    -0.381417
    28    -0.383343
    29    -0.341283
    30    -0.000781
    31    -0.194046
    32     0.102351
Sym=    17a
Ene=   -0.955378E-03
Spin= Alpha
Occup= 0.000577
     1     0.000643
     2    -0.007724
     3    -0.059813
     4     0.015975
     5     0.040628
     6     0.078578
     7     0.003614
     8    -0.236191
     9    -0.457008
    10    -0.017814
    11     0.013542
    12     0.013215
    13     0.031627
    14    -0.000428
    15     0.106324
    16     0.205469
    17    -0.000605
    18     0.006209
    19     0.036061
    20    -0.022204
    21     0.040692
    22     0.078565
    23    -0.004627
    24    -0.236787
    25    -0.456869
    26     0.018081
    27    -0.018979
    28    -0.019328
    29    -0.003539
    30    -0.000143
    31    -0.106488
    32    -0.205480
Sym=    18a
Ene=   -0.266754E-03
Spin= Alpha
Occup= 0.000163
     1     0.000076
     2    -0.000907
     3    -0.007307
     4     0.007079
     5     0.032883
     6    -0.095284
     7     0.000575
     8    -0.325612
     9     0.942154
    10    -0.004925
    11     0.003460
    12     0.003383
    13    -0.000315
    14     0.000396
    15     0.074944
    16    -0.216941
    17    -0.000067
    18     0.000745
    19     0.005665
    20    -0.006909
    21    -0.033070
    22     0.095388
    23     0.000310
    24     0.326656
    25    -0.942683
    26    -0.003892
    27    -0.003368
    28    -0.003458
    29     0.001720
    30     0.000292
    31     0.075933
    32    -0.217769
Sym=    19a
Ene=   -0.167220E-03
Spin= Alpha
Occup= 0.000065
     1    -0.000004
     2     0.000057
     3     0.000077
     4     0.002364
     5    -0.095000
     6    -0.032921
     7     0.000207
     8     0.945690
     9     0.327442
    10    -0.001966
    11     0.000961
    12     0.000589
    13    -0.002266
    14     0.000086
    15    -0.234961
    16    -0.081485
    17    -0.000005
    18     0.000074
    19     0.001182
    20    -0.002675
    21     0.095063
    22     0.032858
    23     0.000346
    24    -0.946030
    25    -0.327085
    26    -0.002484
    27    -0.000540
    28    -0.001220
    29     0.001406
    30    -0.000179
    31    -0.235110
    32    -0.081126
Sym=    20a
Ene=   -0.108888E-03
Spin= Alpha
Occup= 0.000043
     1    -0.004075
     2     0.044836
     3     0.505461
     4    -0.637226
     5    -0.000417
     6    -0.000451
     7    -0.083460
     8     0.002805
     9     0.005656
    10     0.444750
    11    -0.404355
    12    -0.406039
    13     0.626154
    14     0.000522
    15    -0.001920
    16    -0.001836
    17     0.004102
    18    -0.045184
    19    -0.506780
    20     0.637162
    21    -0.000211
    22     0.000724
    23    -0.083245
    24     0.000637
    25    -0.007044
    26     0.443162
    27     0.405273
    28     0.406227
    29    -0.624535
    30     0.000577
    31     0.001142
    32    -0.003880
Sym=    21a
Ene=   -0.605843E-05
Spin= Alpha
Occup= 0.000000
     1     0.000571
     2    -0.010879
     3    -0.040585
     4    -0.027142
     5     0.002140
     6    -0.008989
     7    -0.003373
     8    -0.018628
     9     0.077970
    10     0.045749
    11     0.428185
    12    -0.402452
    13     0.090508
    14     0.435001
    15    -0.033741
    16     0.139322
    17     0.000564
    18    -0.010522
    19    -0.044897
    20    -0.015108
    21     0.002123
    22    -0.009080
    23     0.003538
    24    -0.018866
    25     0.080041
    26    -0.048369
    27     0.423858
    28    -0.402869
    29     0.088331
    30     0.439467
    31     0.032155
    32    -0.134538
Sym=    22a
Ene=   -0.590295E-05
Spin= Alpha
Occup= 0.000000
     1     0.000155
     2    -0.002907
     3    -0.012292
     4    -0.009695
     5    -0.015782
     6    -0.011447
     7    -0.001080
     8     0.137148
     9     0.100908
    10     0.019195
    11    -0.360372
    12     0.365866
    13     0.023882
    14     0.395363
    15     0.239405
    16     0.171343
    17     0.000212
    18    -0.003702
    19    -0.015218
    20    -0.001040
    21    -0.015661
    22    -0.011500
    23     0.001096
    24     0.137348
    25     0.099884
    26    -0.009865
    27    -0.353504
    28     0.361189
    29     0.030591
    30     0.404262
    31    -0.234138
    32    -0.177279
Sym=    23a
Ene=    0.000000E+00
Spin= Alpha
Occup= 0.000000
     1    -0.003828
     2     0.074734
     3     0.120594
     4     0.552349
     5     0.002400
     6     0.028181
     7     0.018429
     8    -0.021780
     9    -0.243222
    10    -0.253333
    11    -0.236565
    12    -0.178653
    13    -0.451190
    14     0.302817
    15    -0.034571
    16    -0.435193
    17    -0.003080
    18     0.057982
    19     0.236356
    20    -0.039982
    21     0.002389
    22     0.028075
    23    -0.015588
    24    -0.020377
    25    -0.248002
    26     0.162058
    27    -0.151274
    28    -0.100388
    29    -0.365626
    30     0.246188
    31     0.039640
    32     0.412577
Sym=    24a
Ene=    0.000000E+00
Spin= Alpha
Occup= 0.000000
     1     0.002549
     2    -0.050037
     3    -0.047871
     4    -0.331693
     5     0.032477
     6    -0.000190
     7    -0.010615
     8    -0.277399
     9    -0.007741
    10     0.065777
    11    -0.030856
    12     0.311710
    13     0.322255
    14     0.169052
    15    -0.512001
    16     0.037330
    17     0.001837
    18    -0.033468
    19    -0.166249
    20    -0.004457
    21     0.032231
    22     0.000131
    23     0.009929
    24    -0.287624
    25     0.008207
    26    -0.179858
    27    -0.132184
    28     0.299097
    29     0.164478
    30     0.147915
    31     0.462881
    32     0.036847
Sym=    25a
Ene=    0.000000E+00
Spin= Alpha
Occup= 0.000000
     1     0.000249
     2    -0.005005
     3    -0.015878
     4    -0.005184
     5    -0.001030
     6    -0.000566
     7    -0.001283
     8     0.009243
     9     0.004065
    10     0.014731
    11     0.021594
    12     0.012014
    13     0.022499
    14     0.737199
    15     0.010903
    16     0.014491
    17     0.000383
    18    -0.007513
    19    -0.006323
    20    -0.059625
    21    -0.001091
    22    -0.000542
    23     0.001575
    24     0.008485
    25     0.006142
    26    -0.015555
    27     0.028334
    28     0.024561
    29     0.037586
    30    -0.752967
    31    -0.016151
    32    -0.005514
Sym=    26a
Ene=    0.000000E+00
Spin= Alpha
Occup= 0.000000
     1    -0.000259
     2     0.005235
     3     0.002272
     4     0.067354
     5    -0.000859
     6    -0.000459
     7     0.001356
     8     0.007212
     9     0.003601
    10    -0.029805
    11     0.627498
    12    -0.671202
    13    -0.018374
    14    -0.006225
    15     0.016624
    16     0.006909
    17    -0.000248
    18     0.004712
    19     0.013432
    20    -0.013205
    21    -0.000803
    22    -0.000435
    23    -0.000741
    24     0.007874
    25     0.003921
    26    -0.008651
    27    -0.656905
    28     0.626752
    29    -0.024555
    30    -0.003224
    31    -0.011946
    32    -0.004768
Sym=    27a
Ene=    0.000000E+00
Spin= Alpha
Occup= 0.000000
     1    -0.001741
     2     0.043643
     3    -0.290269
     4     1.030454
     5    -0.004647
     6     0.009735
     7    -0.004241
     8     0.033457
     9    -0.087306
    10     0.038881
    11    -0.536817
    12    -0.523691
    13     0.370998
    14     0.000889
    15     0.094437
    16    -0.138911
    17    -0.001272
    18     0.034028
    19    -0.236827
    20     0.342654
    21    -0.004203
    22     0.009871
    23     0.008951
    24     0.043687
    25    -0.083943
    26    -0.378623
    27    -0.453791
    28    -0.446153
    29     0.316473
    30     0.005212
    31    -0.038053
    32     0.157041
Sym=    28a
Ene=    0.000000E+00
Spin= Alpha
Occup= 0.000000
     1     0.000484
     2    -0.010110
     3     0.024273
     4    -0.152394
     5    -0.003732
     6     0.003190
     7    -0.001532
     8    -0.148955
     9     0.124795
    10     0.005373
    11     0.038922
    12     0.046838
    13     0.051049
    14     0.009385
    15     0.706356
    16    -0.608623
    17     0.000116
    18    -0.001734
    19    -0.036412
    20     0.078781
    21     0.006226
    22    -0.002856
    23     0.000750
    24     0.127502
    25    -0.127862
    26    -0.014189
    27     0.002491
    28     0.013760
    29    -0.010842
    30     0.001293
    31     0.741944
    32    -0.602629
Sym=    29a
Ene=    0.000000E+00
Spin= Alpha
Occup= 0.000000
     1    -0.000211
     2     0.002826
     3     0.074744
     4    -0.171647
     5    -0.004866
     6    -0.005323
     7     0.001201
     8    -0.106676
     9    -0.135411
    10    -0.019964
    11    -0.001284
    12     0.000244
    13    -0.000416
    14    -0.000609
    15     0.596511
    16     0.735388
    17    -0.000827
    18     0.017335
    19    -0.032058
    20     0.266337
    21     0.004940
    22     0.003751
    23    -0.003357
    24     0.106136
    25     0.149113
    26     0.031856
    27    -0.058593
    28    -0.066975
    29    -0.104333
    30    -0.003047
    31     0.597009
    32     0.711838
Sym=    30a
Ene=    0.000000E+00
Spin= Alpha
Occup= 0.000000
     1    -0.000290
     2     0.015796
     3    -0.421686
     4    -3.423876
     5    -0.002684
     6     0.005799
     7    -0.037648
     8     0.022999
     9    -0.053889
    10     3.658228
    11     0.363503
    12     0.340283
    13    -1.476528
    14     0.012840
    15     0.040581
    16    -0.075845
    17     0.003944
    18    -0.087396
    19     0.303209
    20     3.040175
    21    -0.002641
    22     0.006069
    23    -0.022880
    24     0.023240
    25    -0.049665
    26     3.504462
    27    -0.095450
    28    -0.087085
    29     1.793728
    30     0.023447
    31    -0.038041
    32     0.102606
Sym=    31a
Ene=    0.000000E+00
Spin= Alpha
Occup= 0.000000
     1     0.007513
     2    -0.157741
     3     0.356264
     4    -1.249725
     5    -0.008873
     6     0.014914
     7    -0.016012
     8     0.088623
     9    -0.134429
    10    -0.752202
    11     0.567842
    12     0.493735
    13     1.160116
    14     0.029694
    15     0.094557
    16    -0.209972
    17     0.001545
    18    -0.021144
    19    -0.593980
    20     0.205762
    21    -0.009523
    22     0.015066
    23     0.017928
    24     0.072105
    25    -0.127467
    26    -1.080852
    27     0.195158
    28     0.172587
    29    -0.463399
    30     0.048438
    31    -0.183122
    32     0.242755
Sym=    32a
Ene=    0.000000E+00
Spin= Alpha
Occup= 0.000000
     1    -0.002731
     2     0.048720
     3     0.476813
     4    -1.552233
     5     0.004680
     6    -0.007883
     7     0.006696
     8    -0.021245
     9     0.086240
    10     0.359325
    11    -0.148415
    12    -0.127633
    13    -0.183942
    14     0.006724
    15    -0.140980
    16     0.057171
    17    -0.007460
    18     0.153716
    19    -0.241647
    20     2.782889
    21     0.003430
    22    -0.008754
    23    -0.030448
    24    -0.049860
    25     0.059210
    26     0.703674
    27    -0.703147
    28    -0.707910
    29    -0.554383
    30    -0.039387
    31    -0.016963
    32    -0.194906
