[Molden Format]
p30-5 set                                                                       
[Atoms] AU
 MG       1    12        0.0000        0.0000        1.6325
 O        2     8        0.0000        0.0000       -1.6325
[GTO]
    1 0
s    5 1.00
    4953.833919600000 -0.573034825338E-02
     745.180441540000 -0.427698711217E-01
     169.216049720000 -0.191096515460E+00
      47.300672019000 -0.482411503269E+00
      14.461336973000 -0.422007266852E+00
s    3 1.00
      24.768174789000  0.871156057208E-01
       2.494094534900 -0.546373693218E+00
       0.878075845330 -0.529320757859E+00
s    1 1.00
       0.087212782497  0.100000000000E+01
s    1 1.00
       0.033599293780  0.100000000000E+01
p    5 1.00
      98.053010494000 -0.144805646010E-01
      22.586932277000 -0.954957507867E-01
       6.839150984200 -0.307876726509E+00
       2.233284381800 -0.499362928859E+00
       0.716065993870 -0.315034762129E+00
p    1 1.00
       0.189147961950  0.100000000000E+01
p    1 1.00
       0.053768755187  0.100000000000E+01
d    1 1.00
       0.101000000000  0.100000000000E+01

    2 0
s    5 1.00
    2266.176778500000 -0.538935039217E-02
     340.870101910000 -0.402347213890E-01
      77.363135167000 -0.180081842055E+00
      21.479644940000 -0.468288576577E+00
       6.658943312400 -0.446926171602E+00
s    1 1.00
       0.809759756680  0.100000000000E+01
s    1 1.00
       0.255307722340  0.100000000000E+01
p    3 1.00
      17.721504317000  0.626302487632E-01
       3.863550544000  0.333311384824E+00
       1.048092088300  0.741486383081E+00
p    1 1.00
       0.276415444110  0.100000000000E+01
d    1 1.00
       1.200000000000  0.100000000000E+01

[MO]
Sym=     1a
Ene=   -0.490774E+02
Spin= Alpha
Occup= 2.000000
     1     0.995947
     2     0.017090
     3     0.008901
     4     0.004194
     5     0.000008
     6    -0.000018
     7     0.000061
     8     0.000001
     9    -0.000002
    10    -0.001173
    11     0.000000
    12    -0.000000
    13     0.000145
    14    -0.004620
    15    -0.004620
    16    -0.003943
    17     0.000000
    18    -0.000000
    19     0.000000
    20    -0.000023
    21     0.000248
    22    -0.001324
    23     0.000001
    24    -0.000003
    25    -0.000246
    26    -0.000001
    27     0.000002
    28    -0.001167
    29     0.000047
    30     0.000047
    31    -0.000267
    32    -0.000000
    33     0.000000
    34    -0.000000
Sym=     2a
Ene=   -0.204992E+02
Spin= Alpha
Occup= 1.999995
     1    -0.000010
     2     0.000157
     3    -0.003517
     4     0.000287
     5    -0.000002
     6     0.000004
     7    -0.000122
     8    -0.000006
     9     0.000013
    10     0.002476
    11     0.000002
    12    -0.000004
    13     0.001732
    14     0.000927
    15     0.000927
    16    -0.002303
    17     0.000000
    18     0.000000
    19    -0.000001
    20     0.987930
    21    -0.042649
    22     0.015890
    23     0.000002
    24    -0.000005
    25    -0.000886
    26     0.000006
    27    -0.000012
    28     0.002462
    29     0.004489
    30     0.004489
    31     0.004943
    32     0.000000
    33     0.000000
    34    -0.000000
Sym=     3a
Ene=   -0.380680E+01
Spin= Alpha
Occup= 1.999721
     1    -0.275468
     2     1.023128
     3    -0.028530
     4    -0.003111
     5     0.000748
     6    -0.001997
     7     0.023401
     8    -0.000026
     9     0.000059
    10    -0.004007
    11    -0.000011
    12     0.000024
    13    -0.000023
    14     0.006671
    15     0.006670
    16     0.008444
    17     0.000000
    18     0.000002
    19    -0.000004
    20    -0.000414
    21     0.000636
    22    -0.002532
    23    -0.000020
    24     0.000042
    25     0.000179
    26     0.000007
    27    -0.000013
    28    -0.001696
    29     0.000504
    30     0.000501
    31    -0.001671
    32     0.000002
    33    -0.000001
    34     0.000003
Sym=     4a
Ene=   -0.232341E+01
Spin= Alpha
Occup= 1.998692
     1     0.000071
     2    -0.000275
     3    -0.000035
     4    -0.000010
     5    -0.899479
     6    -0.427778
     7     0.003007
     8     0.009996
     9     0.004765
    10    -0.000035
    11     0.003262
    12     0.001528
    13    -0.000007
    14     0.000006
    15     0.000021
    16     0.000005
    17     0.000001
    18     0.000408
    19     0.000212
    20     0.000015
    21     0.000028
    22     0.000010
    23    -0.000427
    24    -0.000202
    25     0.000034
    26     0.001948
    27     0.000940
    28     0.000007
    29    -0.000010
    30     0.000011
    31     0.000008
    32     0.000003
    33     0.000969
    34     0.000461
Sym=     5a
Ene=   -0.232355E+01
Spin= Alpha
Occup= 1.998464
     1     0.005252
     2    -0.021542
     3    -0.010164
     4    -0.002660
     5    -0.261091
     6     0.554518
     7     0.783751
     8     0.002842
     9    -0.006053
    10    -0.009664
    11     0.000973
    12    -0.002036
    13    -0.001836
    14     0.003738
    15     0.003728
    16     0.001696
    17     0.000002
    18     0.000107
    19    -0.000250
    20     0.004053
    21     0.007549
    22     0.002584
    23    -0.000086
    24     0.000182
    25     0.008912
    26     0.000604
    27    -0.001298
    28     0.001676
    29     0.000136
    30     0.000119
    31     0.002082
    32     0.000006
    33     0.000267
    34    -0.000568
Sym=     6a
Ene=   -0.232302E+01
Spin= Alpha
Occup= 1.998300
     1    -0.004813
     2     0.019527
     3     0.007807
     4     0.002092
     5    -0.338848
     6     0.708162
     7    -0.611572
     8     0.003868
     9    -0.008099
    10     0.007763
    11     0.001273
    12    -0.002622
    13     0.001510
    14    -0.002885
    15    -0.002897
    16    -0.001361
    17     0.000002
    18     0.000102
    19    -0.000244
    20    -0.003338
    21    -0.006200
    22    -0.002246
    23    -0.000089
    24     0.000186
    25    -0.006965
    26     0.000728
    27    -0.001545
    28    -0.001526
    29    -0.000088
    30    -0.000101
    31    -0.001664
    32     0.000003
    33     0.000382
    34    -0.000798
Sym=     7a
Ene=   -0.111515E+01
Spin= Alpha
Occup= 1.987317
     1    -0.010368
     2     0.055925
     3     0.029770
     4     0.015688
     5     0.000052
     6    -0.000093
     7    -0.074574
     8     0.000346
     9    -0.000694
    10    -0.028269
    11     0.000585
    12    -0.001194
    13    -0.026623
    14    -0.017556
    15    -0.017560
    16     0.010257
    17     0.000005
    18    -0.000419
    19     0.000853
    20     0.298366
    21     0.597755
    22     0.436993
    23     0.002695
    24    -0.005472
    25     0.003629
    26     0.002099
    27    -0.004266
    28     0.011529
    29     0.006630
    30     0.006629
    31     0.017538
    32     0.000002
    33     0.000048
    34    -0.000097
Sym=     8a
Ene=   -0.406051E+00
Spin= Alpha
Occup= 1.972120
     1     0.000916
     2    -0.005758
     3    -0.011015
     4    -0.000196
     5     0.073925
     6     0.003510
     7     0.001890
     8     0.115433
     9     0.005597
    10     0.000791
    11     0.127313
    12     0.006575
    13    -0.001703
    14     0.000246
    15     0.000381
    16     0.001513
    17     0.000090
    18    -0.096833
    19    -0.004898
    20    -0.000674
    21    -0.000883
    22    -0.000859
    23     0.586565
    24     0.028639
    25    -0.010281
    26     0.444811
    27     0.021640
    28    -0.008265
    29     0.000150
    30     0.000176
    31    -0.000376
    32     0.000026
    33     0.015436
    34     0.000758
Sym=     9a
Ene=   -0.406182E+00
Spin= Alpha
Occup= 1.972113
     1    -0.002184
     2     0.013722
     3     0.026286
     4     0.000466
     5    -0.003657
     6     0.074050
     7    -0.004468
     8    -0.005579
     9     0.115277
    10    -0.001861
    11    -0.005746
    12     0.127059
    13     0.004091
    14    -0.000868
    15    -0.000599
    16    -0.003612
    17    -0.000056
    18     0.004476
    19    -0.096684
    20     0.001513
    21     0.001919
    22     0.001907
    23    -0.028162
    24     0.586047
    25     0.024485
    26    -0.021436
    27     0.444469
    28     0.019687
    29    -0.000413
    30    -0.000367
    31     0.000891
    32    -0.000014
    33    -0.000737
    34     0.015416
Sym=    10a
Ene=   -0.365117E+00
Spin= Alpha
Occup= 1.955330
     1    -0.047347
     2     0.299094
     3     0.606319
     4     0.027271
     5     0.001759
     6    -0.003680
     7    -0.057513
     8     0.003001
     9    -0.006271
    10    -0.000856
    11     0.003234
    12    -0.006776
    13     0.117311
    14    -0.007415
    15    -0.007359
    16    -0.076249
    17    -0.000016
    18    -0.002069
    19     0.004340
    20    -0.027698
    21    -0.075953
    22    -0.049832
    23     0.012884
    24    -0.026980
    25     0.472691
    26     0.009783
    27    -0.020482
    28     0.381733
    29    -0.009035
    30    -0.009038
    31     0.015084
    32     0.000002
    33     0.000347
    34    -0.000728
Sym=    11a
Ene=   -0.453731E-01
Spin= Alpha
Occup= 0.042311
     1    -0.054739
     2     0.375053
     3     1.051138
     4     0.148857
     5     0.002580
     6    -0.005359
     7     0.075012
     8     0.006860
     9    -0.014219
    10     0.063381
    11     0.002476
    12    -0.005247
    13     0.108536
    14    -0.170278
    15    -0.170567
    16    -0.236338
    17     0.000250
    18    -0.002511
    19     0.005284
    20    -0.020657
    21    -0.038563
    22    -0.103701
    23    -0.009690
    24     0.020200
    25    -0.710793
    26     0.001932
    27    -0.004030
    28    -0.028970
    29    -0.002438
    30    -0.002103
    31     0.009844
    32    -0.000214
    33     0.001935
    34    -0.004026
Sym=    12a
Ene=   -0.676394E-02
Spin= Alpha
Occup= 0.003799
     1     0.006328
     2    -0.051254
     3    -0.135247
     4    -0.065098
     5     0.009009
     6    -0.009449
     7     0.203141
     8     0.034373
     9    -0.037037
    10     0.678540
    11    -0.009092
    12     0.010253
    13    -0.115777
    14     0.076645
    15     0.184417
    16    -0.025099
    17    -0.006119
    18    -0.004753
    19     0.004536
    20    -0.149019
    21    -0.640441
    22     0.455470
    23     0.021467
    24    -0.027804
    25     0.319931
    26    -0.034787
    27     0.042077
    28    -0.179190
    29    -0.238461
    30     0.970940
    31    -0.091606
    32    -0.068688
    33     0.024848
    34    -0.021623
Sym=    13a
Ene=   -0.264220E-01
Spin= Alpha
Occup= 0.024083
     1     0.000747
     2    -0.005097
     3    -0.011526
     4    -0.002022
     5     0.175314
     6     0.008077
     7     0.002149
     8     0.428931
     9     0.019002
    10     0.005628
    11     0.135860
    12     0.009181
    13    -0.000452
    14     0.003224
    15     0.003577
    16     0.002567
    17    -0.000010
    18    -0.161760
    19    -0.009484
    20     0.002811
    21     0.011158
    22    -0.002605
    23    -0.854278
    24    -0.041303
    25     0.012229
    26     0.529820
    27     0.024206
    28    -0.004391
    29    -0.000820
    30    -0.001057
    31    -0.002612
    32     0.000117
    33     0.051449
    34     0.002563
Sym=    14a
Ene=   -0.686393E-02
Spin= Alpha
Occup= 0.002704
     1    -0.000169
     2     0.001399
     3     0.006357
     4     0.002203
     5    -0.004058
     6     0.002144
     7     0.000847
     8    -0.015123
     9     0.007986
    10     0.000295
    11     0.004677
    12    -0.002410
    13    -0.000239
    14     0.002775
    15    -0.008888
    16    -0.002810
    17    -0.069052
    18     0.003108
    19    -0.001528
    20    -0.000322
    21    -0.000813
    22    -0.001179
    23    -0.009150
    24     0.004619
    25     0.003344
    26     0.015688
    27    -0.007960
    28    -0.005314
    29     0.083620
    30    -0.083432
    31     0.001643
    32    -0.989158
    33    -0.033205
    34     0.015317
Sym=    15a
Ene=   -0.246622E-02
Spin= Alpha
Occup= 0.000604
     1     0.050436
     2    -0.417173
     3    -1.474310
     4    -0.650159
     5     0.007211
     6    -0.016587
     7     0.089920
     8     0.027035
     9    -0.062253
    10     0.738917
    11    -0.005026
    12     0.012226
    13    -0.018700
    14     0.887274
    15     0.886228
    16     0.643975
    17     0.000607
    18    -0.004113
    19     0.008813
    20    -0.313847
    21    -1.108793
    22     0.002128
    23     0.012689
    24    -0.028212
    25    -0.214520
    26    -0.023268
    27     0.051799
    28     0.737299
    29     0.396970
    30     0.400376
    31     1.257654
    32    -0.001425
    33    -0.006970
    34     0.019277
Sym=    16a
Ene=   -0.279790E-02
Spin= Alpha
Occup= 0.000761
     1     0.000184
     2    -0.001470
     3    -0.005751
     4    -0.002363
     5     0.213498
     6     0.092720
     7    -0.000526
     8     0.802811
     9     0.348920
    10    -0.000102
    11    -0.183290
    12    -0.082111
    13     0.000484
    14     0.003077
    15     0.003119
    16     0.002767
    17     0.000020
    18    -0.076747
    19    -0.031112
    20    -0.000433
    21    -0.001697
    22     0.000350
    23     0.276500
    24     0.118764
    25    -0.002531
    26    -0.528590
    27    -0.226334
    28     0.004192
    29     0.002064
    30     0.002184
    31    -0.001664
    32     0.009691
    33    -0.671174
    34    -0.289923
Sym=    17a
Ene=   -0.814073E-03
Spin= Alpha
Occup= 0.000225
     1     0.013230
     2    -0.047347
     3     1.303470
     4    -0.511300
     5    -0.002788
     6     0.005973
     7    -0.157316
     8    -0.010645
     9     0.022950
    10    -1.819181
    11     0.005759
    12    -0.013467
    13     0.345002
    14     0.082943
    15     0.081897
    16     0.479677
    17     0.000725
    18    -0.001052
    19     0.003390
    20    -0.208732
    21    -0.111312
    22    -2.650750
    23    -0.001325
    24     0.002329
    25     0.414177
    26     0.002344
    27    -0.003589
    28    -1.482397
    29     0.783120
    30     0.782210
    31     0.433558
    32     0.000588
    33    -0.000063
    34     0.000041
Sym=    18a
Ene=   -0.128123E-03
Spin= Alpha
Occup= 0.000029
     1     0.000088
     2    -0.000655
     3     0.004202
     4    -0.006201
     5    -0.073850
     6    -0.068176
     7     0.000130
     8    -0.358032
     9    -0.330365
    10    -0.003300
    11     0.748742
    12     0.690130
    13     0.000483
    14     0.001128
    15     0.005507
    16     0.002280
    17     0.000401
    18    -0.596618
    19    -0.550137
    20    -0.000298
    21     0.000344
    22    -0.005555
    23     0.235206
    24     0.216449
    25     0.002078
    26    -0.682040
    27    -0.628215
    28    -0.005643
    29     0.001522
    30    -0.000194
    31     0.002025
    32    -0.000226
    33    -0.025183
    34    -0.023985
Sym=    19a
Ene=   -0.136222E-04
Spin= Alpha
Occup= 0.000001
     1    -0.000057
     2     0.000454
     3    -0.000084
     4     0.002406
     5    -0.000083
     6    -0.000117
     7     0.000009
     8    -0.000960
     9    -0.002142
    10     0.000335
    11     0.002600
    12     0.006535
    13     0.000855
    14     0.857861
    15    -0.860785
    16    -0.001504
    17     0.096400
    18     0.000761
    19     0.002334
    20     0.000260
    21     0.000307
    22     0.002487
    23     0.000305
    24     0.000763
    25     0.000129
    26    -0.000580
    27    -0.001356
    28     0.000231
    29    -0.112393
    30     0.111220
    31    -0.001226
    32    -0.012543
    33     0.000344
    34     0.000918
Sym=    20a
Ene=   -0.821175E-06
Spin= Alpha
Occup= 0.000000
     1    -0.000196
     2     0.004381
     3     0.450407
     4    -0.215005
     5     0.002555
     6    -0.005276
     7     0.044332
     8     0.012924
     9    -0.026611
    10     0.139508
    11    -0.012133
    12     0.024652
    13    -1.515480
    14     0.062528
    15     0.061471
    16     0.637934
    17     0.000228
    18    -0.014252
    19     0.029581
    20    -0.054087
    21     0.337270
    22    -2.107831
    23     0.003168
    24    -0.006698
    25    -0.006035
    26    -0.009672
    27     0.020334
    28    -0.022078
    29     0.264799
    30     0.265369
    31     0.374678
    32    -0.000356
    33     0.000578
    34    -0.001263
Sym=    21a
Ene=   -0.405015E-02
Spin= Alpha
Occup= 0.002359
     1     0.033729
     2    -0.274145
     3    -1.115518
     4    -0.458903
     5    -0.057294
     6     0.120338
     7    -0.045746
     8    -0.214016
     9     0.449703
    10     0.216799
    11     0.054862
    12    -0.117076
    13    -0.026445
    14     0.622311
    15     0.621222
    16     0.517899
    17     0.000975
    18     0.028911
    19    -0.059000
    20     0.022314
    21    -0.005557
    22     0.326368
    23    -0.101456
    24     0.211833
    25    -0.407044
    26     0.179860
    27    -0.374983
    28     0.773161
    29     0.216444
    30     0.197452
    31    -0.586540
    32     0.012890
    33    -0.122094
    34     0.255507
Sym=    22a
Ene=   -0.264358E-01
Spin= Alpha
Occup= 0.024088
     1    -0.001767
     2     0.012051
     3     0.027320
     4     0.004719
     5    -0.008929
     6     0.175546
     7    -0.005029
     8    -0.022628
     9     0.429857
    10    -0.013223
    11    -0.003936
    12     0.134861
    13     0.001121
    14    -0.008402
    15    -0.007546
    16    -0.006080
    17    -0.000053
    18     0.006167
    19    -0.161173
    20    -0.006520
    21    -0.025839
    22     0.005869
    23     0.041473
    24    -0.853768
    25    -0.028983
    26    -0.027143
    27     0.529791
    28     0.010387
    29     0.002309
    30     0.002008
    31     0.006065
    32    -0.000057
    33    -0.002411
    34     0.051190
Sym=    23a
Ene=   -0.676532E-02
Spin= Alpha
Occup= 0.003797
     1     0.006611
     2    -0.053580
     3    -0.145858
     4    -0.068819
     5     0.005632
     6    -0.020932
     7     0.201526
     8     0.021849
     9    -0.079672
    10     0.677386
    11    -0.005900
    12     0.021254
    13    -0.115143
    14     0.189396
    15     0.081760
    16    -0.020413
    17     0.005970
    18    -0.002905
    19     0.010822
    20    -0.148879
    21    -0.640367
    22     0.456771
    23     0.015480
    24    -0.048425
    25     0.313871
    26    -0.023985
    27     0.078979
    28    -0.169900
    29     0.971018
    30    -0.237062
    31    -0.093844
    32     0.067007
    33     0.014319
    34    -0.057771
Sym=    24a
Ene=   -0.226179E-01
Spin= Alpha
Occup= 0.009978
     1    -0.008724
     2     0.053365
     3     0.003143
     4     0.039332
     5    -0.001323
     6     0.002810
     7    -0.154259
     8    -0.006525
     9     0.013747
    10    -0.333724
    11     0.002973
    12    -0.006291
    13    -0.030619
    14    -0.083534
    15    -0.083487
    16     0.040718
    17    -0.000008
    18     0.000186
    19    -0.000330
    20    -0.561633
    21    -2.287057
    22     0.787011
    23    -0.011569
    24     0.023785
    25    -0.080847
    26     0.013371
    27    -0.027528
    28    -0.012843
    29     0.522045
    30     0.521752
    31     0.583889
    32     0.000430
    33    -0.003599
    34     0.007520
Sym=    25a
Ene=   -0.398930E-02
Spin= Alpha
Occup= 0.001096
     1    -0.000330
     2     0.002665
     3     0.010997
     4     0.004608
     5    -0.183500
     6    -0.084946
     7     0.001664
     8    -0.685415
     9    -0.317509
    10     0.001938
    11     0.192995
    12     0.091055
    13    -0.000772
    14    -0.007389
    15    -0.004401
    16    -0.005633
    17     0.001548
    18     0.089280
    19     0.039623
    20    -0.000892
    21    -0.002515
    22    -0.002126
    23    -0.330986
    24    -0.151979
    25     0.005653
    26     0.580639
    27     0.266035
    28    -0.008523
    29    -0.025344
    30     0.024267
    31     0.006808
    32     0.022062
    33    -0.620031
    34    -0.283926
Sym=    26a
Ene=   -0.289063E-02
Spin= Alpha
Occup= 0.000775
     1    -0.000884
     2     0.005873
     3     0.031033
     4     0.012565
     5    -0.087507
     6     0.203490
     7     0.020588
     8    -0.328642
     9     0.764829
    10     0.062505
    11     0.070904
    12    -0.170458
    13    -0.014002
    14    -0.012046
    15    -0.011882
    16    -0.022987
    17    -0.000114
    18     0.033772
    19    -0.073618
    20    -0.011961
    21    -0.041151
    22     0.003408
    23    -0.113275
    24     0.260546
    25     0.048184
    26     0.218393
    27    -0.500770
    28    -0.048344
    29    -0.022725
    30    -0.024879
    31     0.126237
    32    -0.010659
    33     0.299366
    34    -0.692492
Sym=    27a
Ene=   -0.394017E-02
Spin= Alpha
Occup= 0.001083
     1    -0.019161
     2     0.154566
     3     0.637301
     4     0.265535
     5    -0.066733
     6     0.148798
     7     0.079911
     8    -0.248561
     9     0.554659
    10     0.057760
    11     0.068084
    12    -0.154948
    13    -0.033658
    14    -0.342228
    15    -0.344950
    16    -0.317393
    17     0.002082
    18     0.035050
    19    -0.075001
    20    -0.038509
    21    -0.094920
    22    -0.142101
    23    -0.121023
    24     0.267616
    25     0.307404
    26     0.213972
    27    -0.472078
    28    -0.484739
    29    -0.046553
    30    -0.091031
    31     0.396925
    32     0.029912
    33    -0.242991
    34     0.535065
Sym=    28a
Ene=   -0.138816E-02
Spin= Alpha
Occup= 0.000250
     1     0.037192
     2    -0.314391
     3    -0.923809
     4    -0.751054
     5     0.000999
     6    -0.002167
     7    -0.027463
     8     0.003644
     9    -0.007903
    10     0.088946
    11     0.001922
    12    -0.004057
    13     0.135190
    14     0.833092
    15     0.832520
    16     0.581397
    17     0.000241
    18    -0.002403
    19     0.005171
    20     0.371210
    21     0.969032
    22     1.377025
    23     0.003571
    24    -0.007707
    25     0.167470
    26    -0.007256
    27     0.015609
    28    -0.112734
    29    -1.085091
    30    -1.085804
    31    -0.677780
    32     0.000287
    33    -0.006257
    34     0.012783
Sym=    29a
Ene=   -0.461757E-04
Spin= Alpha
Occup= 0.000004
     1    -0.000284
     2     0.002216
     3    -0.010129
     4     0.019365
     5    -0.069532
     6     0.075471
     7    -0.000579
     8    -0.335541
     9     0.364093
    10     0.007376
    11     0.689958
    12    -0.748287
    13    -0.001463
    14    -0.010066
    15    -0.011726
    16    -0.006781
    17     0.001355
    18    -0.552654
    19     0.599724
    20     0.000624
    21    -0.000981
    22     0.012460
    23     0.210999
    24    -0.228593
    25    -0.005349
    26    -0.621582
    27     0.673924
    28     0.014517
    29    -0.001303
    30    -0.000759
    31    -0.005270
    32    -0.000561
    33    -0.023085
    34     0.025763
Sym=    30a
Ene=   -0.395403E-05
Spin= Alpha
Occup= 0.000000
     1     0.000038
     2    -0.000306
     3     0.000472
     4    -0.002184
     5    -0.000638
     6     0.000245
     7     0.000005
     8    -0.004388
     9     0.001666
    10    -0.000425
    11     0.007320
    12    -0.002754
    13    -0.000293
    14     0.084771
    15    -0.082451
    16     0.001051
    17    -0.993740
    18     0.005410
    19    -0.002008
    20    -0.000254
    21    -0.000454
    22    -0.001820
    23     0.000013
    24     0.000008
    25    -0.000037
    26     0.001331
    27    -0.000504
    28    -0.000444
    29    -0.008727
    30     0.009835
    31     0.001048
    32     0.110320
    33     0.001114
    34    -0.000393
Sym=    31a
Ene=    0.000000E+00
Spin= Alpha
Occup= 0.000000
     1    -0.001562
     2     0.027853
     3    -0.363017
     4     1.237154
     5     0.005741
     6     0.035537
     7    -0.011239
     8     0.056674
     9     0.342033
    10    -0.146139
    11    -0.109095
    12    -0.653916
    13    -0.105773
    14    -0.424334
    15    -0.432127
    16     0.107099
    17     0.001521
    18    -0.125299
    19    -0.738545
    20    -0.010409
    21     0.097527
    22    -0.596948
    23     0.004664
    24     0.025356
    25    -0.008736
    26    -0.040991
    27    -0.236895
    28    -0.020947
    29     0.066505
    30     0.067568
    31     0.055167
    32    -0.000100
    33    -0.010403
    34    -0.061724
Sym=    32a
Ene=    0.000000E+00
Spin= Alpha
Occup= 0.000000
     1    -0.001037
     2     0.007300
     3    -0.881029
     4     1.267279
     5     0.031513
     6    -0.008776
     7     0.020443
     8     0.303353
     9    -0.082782
    10     0.399202
    11    -0.580931
    12     0.157915
    13     0.183401
    14     0.028468
    15     0.026858
    16    -1.164608
    17    -0.006258
    18    -0.651892
    19     0.172809
    20     0.013699
    21    -0.185196
    22     1.227190
    23     0.022141
    24    -0.005512
    25    -0.019630
    26    -0.208305
    27     0.054262
    28     0.238562
    29    -0.091888
    30    -0.091708
    31    -0.087107
    32     0.000368
    33    -0.054501
    34     0.014520
Sym=    33a
Ene=    0.000000E+00
Spin= Alpha
Occup= 0.000000
     1     0.000518
     2     0.004213
     3     0.951237
     4    -1.042624
     5     0.024572
     6    -0.006078
     7    -0.033220
     8     0.237076
     9    -0.058237
    10    -0.593393
    11    -0.454641
    12     0.112386
    13    -0.216592
    14    -0.240692
    15    -0.242181
    16     1.529198
    17    -0.004744
    18    -0.509746
    19     0.121451
    20    -0.020365
    21     0.270952
    22    -1.778786
    23     0.017253
    24    -0.003682
    25     0.023005
    26    -0.162710
    27     0.037597
    28    -0.321606
    29     0.138848
    30     0.138944
    31     0.123364
    32     0.000296
    33    -0.042841
    34     0.010676
Sym=    34a
Ene=    0.000000E+00
Spin= Alpha
Occup= 0.000000
     1    -0.002715
     2     0.047661
     3    -0.603471
     4     2.070479
     5    -0.010176
     6    -0.019282
     7    -0.021460
     8    -0.098794
     9    -0.185887
    10    -0.271843
    11     0.188636
    12     0.357285
    13    -0.108898
    14    -0.735772
    15    -0.729994
    16     0.194195
    17    -0.000150
    18     0.217863
    19     0.395285
    20    -0.015689
    21     0.156487
    22    -0.960220
    23    -0.007806
    24    -0.013318
    25    -0.012207
    26     0.070846
    27     0.125649
    28    -0.047801
    29     0.105090
    30     0.104216
    31     0.080013
    32     0.000058
    33     0.017902
    34     0.033561
