[Molden Format]
p30-5 set                                                                       
[Atoms] AU
 O        1     8        0.0000        0.0000        0.7444
 H        2     1       -1.4268        0.0000       -0.3722
 H        3     1        1.4268        0.0000       -0.3722
[GTO]
    1 0
s    5 1.00
    2266.176778500000 -0.538935039217E-02
     340.870101910000 -0.402347213890E-01
      77.363135167000 -0.180081842055E+00
      21.479644940000 -0.468288576577E+00
       6.658943312400 -0.446926171602E+00
s    1 1.00
       0.809759756680  0.100000000000E+01
s    1 1.00
       0.255307722340  0.100000000000E+01
p    3 1.00
      17.721504317000  0.626302487632E-01
       3.863550544000  0.333311384824E+00
       1.048092088300  0.741486383081E+00
p    1 1.00
       0.276415444110  0.100000000000E+01
d    1 1.00
       1.200000000000  0.100000000000E+01
 
    2 0
s    3 1.00
      13.010701000000  0.334854848130E-01
       1.962257200000  0.234721870881E+00
       0.444537960000  0.813770285260E+00
s    1 1.00
       0.121949620000  0.100000000000E+01
p    1 1.00
       0.800000000000  0.100000000000E+01
 
    3 0
s    3 1.00
      13.010701000000  0.334854848130E-01
       1.962257200000  0.234721870881E+00
       0.444537960000  0.813770285260E+00
s    1 1.00
       0.121949620000  0.100000000000E+01
p    1 1.00
       0.800000000000  0.100000000000E+01
 
[MO]
Sym=     1a
Ene=   -0.205848E+02
Spin= Alpha
Occup= 1.999982
     1     0.987549
     2    -0.043104
     3     0.009308
     4     0.000006
     5     0.000009
     6     0.001978
     7    -0.000002
     8     0.000009
     9    -0.000196
    10     0.004149
    11     0.005251
    12     0.004548
    13    -0.000000
    14    -0.000006
    15     0.000001
    16     0.002181
    17    -0.001284
    18     0.001471
    19     0.000002
    20     0.001123
    21     0.002158
    22    -0.001289
    23    -0.001474
    24     0.000004
    25     0.001123
Sym=     2a
Ene=   -0.124363E+01
Spin= Alpha
Occup= 1.989561
     1    -0.290335
     2    -0.578553
     3    -0.377101
     4    -0.002048
     5     0.001587
     6    -0.126518
     7    -0.000948
     8     0.001260
     9    -0.143009
    10    -0.016679
    11    -0.010237
    12    -0.005398
    13    -0.000037
    14     0.000094
    15    -0.000021
    16    -0.098605
    17     0.011720
    18    -0.015014
    19     0.000081
    20    -0.016214
    21    -0.101437
    22     0.010992
    23     0.015203
    24     0.000069
    25    -0.016517
Sym=     3a
Ene=   -0.530918E+00
Spin= Alpha
Occup= 1.979057
     1    -0.000658
     2    -0.001391
     3    -0.001811
     4    -0.007392
     5    -0.631060
     6    -0.002485
     7    -0.003251
     8    -0.498494
     9    -0.001678
    10    -0.000045
    11    -0.000071
    12     0.000082
    13    -0.000003
    14     0.000372
    15     0.018985
    16     0.005704
    17     0.001353
    18     0.000343
    19    -0.029134
    20     0.000445
    21    -0.003972
    22    -0.000723
    23     0.000134
    24    -0.029133
    25    -0.000553
Sym=     4a
Ene=   -0.723692E+00
Spin= Alpha
Occup= 1.971320
     1    -0.008523
     2    -0.012667
     3     0.149108
     4    -0.350654
     5     0.004714
     6     0.380485
     7    -0.155072
     8     0.003833
     9     0.227795
    10     0.000733
    11     0.006465
    12    -0.014883
    13    -0.000009
    14     0.018081
    15    -0.000132
    16     0.046613
    17     0.020972
    18    -0.012815
    19     0.000114
    20     0.021915
    21    -0.425392
    22    -0.098180
    23     0.040424
    24     0.000204
    25    -0.018832
Sym=     5a
Ene=   -0.725828E+00
Spin= Alpha
Occup= 1.971151
     1     0.010325
     2     0.016366
     3    -0.148050
     4    -0.348477
     5     0.008372
     6    -0.382035
     7    -0.153606
     8     0.006647
     9    -0.228019
    10    -0.000657
    11    -0.006487
    12     0.015052
    13     0.000034
    14     0.017988
    15    -0.000228
    16     0.426263
    17     0.098164
    18     0.040505
    19     0.000377
    20     0.018669
    21    -0.043447
    22    -0.020591
    23    -0.013334
    24     0.000320
    25    -0.021874
Sym=     6a
Ene=   -0.557374E-03
Spin= Alpha
Occup= 0.000137
     1    -0.147964
     2    -0.201966
     3    -0.209212
     4     0.041495
     5    -0.036641
     6    -0.298662
     7    -0.060650
     8     0.437952
     9    -0.353234
    10     0.616466
    11     0.273649
    12     0.726719
    13     0.279999
    14    -0.045970
    15    -0.326072
    16    -0.490449
    17     0.130879
    18    -0.490538
    19    -0.185217
    20    -0.280776
    21    -0.502925
    22     0.166248
    23     0.666334
    24    -0.854473
    25    -0.214380
Sym=     7a
Ene=   -0.582764E-02
Spin= Alpha
Occup= 0.001561
     1    -0.006553
     2    -0.020267
     3    -0.015934
     4     0.025424
     5     0.063354
     6    -0.009712
     7    -0.031622
     8    -0.180278
     9     0.028576
    10    -0.026333
    11    -0.055356
    12     0.120067
    13     0.589919
    14    -0.041773
    15    -0.652157
    16     0.001071
    17     0.001059
    18     0.005993
    19    -0.033213
    20    -0.001351
    21     0.009761
    22    -0.003068
    23    -0.015265
    24     0.259018
    25    -0.018894
Sym=     8a
Ene=   -0.965236E-03
Spin= Alpha
Occup= 0.000310
     1    -0.000118
     2     0.010216
     3    -0.024699
     4    -0.565866
     5    -0.002692
     6    -0.008212
     7    -0.371584
     8     0.052227
     9     0.030586
    10     0.033817
    11     0.014745
    12    -0.033968
    13     0.040576
    14     0.922171
    15    -0.051864
    16    -0.897155
    17     0.478756
    18    -0.809811
    19    -0.018216
    20    -0.336390
    21     0.919019
    22    -0.475446
    23    -0.829730
    24    -0.111585
    25     0.277842
Sym=     9a
Ene=   -0.143466E-02
Spin= Alpha
Occup= 0.000414
     1    -0.172454
     2    -0.163103
     3    -2.404104
     4    -0.003378
     5     0.000101
     6     0.059181
     7    -0.002778
     8    -0.002069
     9     1.026484
    10    -0.290656
    11     1.151907
    12     0.472528
    13    -0.010222
    14     0.008587
    15     0.001277
    16     1.269926
    17    -0.005073
    18     0.215948
    19    -0.009901
    20     0.299611
    21     1.281917
    22    -0.010150
    23    -0.224776
    24     0.014892
    25     0.304504
Sym=    10a
Ene=   -0.945204E-05
Spin= Alpha
Occup= 0.000001
     1     0.031204
     2    -0.319827
     3     2.939868
     4     0.000268
     5     0.000129
     6    -0.076268
     7     0.016641
     8    -0.000919
     9    -1.046531
    10     0.040690
    11    -0.364795
    12    -0.041621
    13     0.002102
    14    -0.003847
    15     0.000493
    16    -0.362617
    17    -1.198873
    18    -0.541871
    19     0.002636
    20    -0.323706
    21    -0.373911
    22    -1.223662
    23     0.548352
    24    -0.000738
    25    -0.333930
Sym=    11a
Ene=   -0.579777E-02
Spin= Alpha
Occup= 0.001561
     1     0.021773
     2     0.072285
     3     0.049826
     4     0.085825
     5     0.058767
     6     0.017988
     7    -0.129663
     8    -0.168612
     9    -0.080437
    10     0.053978
    11     0.133403
    12    -0.307508
    13    -0.556789
    14    -0.148073
    15    -0.605077
    16    -0.055278
    17     0.026553
    18    -0.065648
    19     0.245956
    20     0.047838
    21     0.012800
    22    -0.014884
    23     0.018899
    24    -0.032989
    25     0.007834
Sym=    12a
Ene=   -0.587068E-03
Spin= Alpha
Occup= 0.000164
     1     0.060505
     2     0.082239
     3     0.108202
     4    -0.010258
     5    -0.039626
     6     0.116255
     7    -0.107498
     8     0.482385
     9     0.129974
    10    -0.253992
    11    -0.126699
    12    -0.273941
    13    -0.429390
    14     0.027217
    15    -0.366673
    16     0.118610
    17    -0.051677
    18     0.266166
    19    -1.064308
    20     0.009670
    21     0.255224
    22    -0.072254
    23    -0.181432
    24    -0.083624
    25     0.186966
Sym=    13a
Ene=   -0.156718E-02
Spin= Alpha
Occup= 0.000555
     1     0.006667
     2     0.020562
     3     0.010361
     4     0.544189
     5    -0.000893
     6    -0.000643
     7    -0.924319
     8     0.013322
     9     0.010962
    10    -0.014899
    11    -0.008078
    12    -0.027407
    13    -0.011984
    14     0.519571
    15    -0.020342
    16    -0.474741
    17    -0.205324
    18     0.159455
    19    -0.022886
    20     0.399241
    21     0.495371
    22     0.200394
    23     0.153330
    24    -0.010034
    25    -0.403859
Sym=    14a
Ene=   -0.693035E-03
Spin= Alpha
Occup= 0.000149
     1    -0.159530
     2    -0.263075
     3    -0.015999
     4    -0.032619
     5     0.016895
     6    -0.312182
     7     0.036991
     8    -0.201590
     9    -0.591104
    10     0.577988
    11     0.211904
    12     0.929767
    13    -0.390611
    14     0.037532
    15     0.145604
    16    -0.692726
    17     0.179759
    18    -0.804407
    19    -0.189006
    20    -0.137681
    21    -0.663702
    22     0.147626
    23     0.642528
    24     0.667188
    25    -0.192648
Sym=    15a
Ene=   -0.137052E-04
Spin= Alpha
Occup= 0.000002
     1    -0.000147
     2     0.000560
     3    -0.013388
     4     0.120472
     5     0.001325
     6     0.001430
     7     1.438402
     8    -0.009604
     9    -0.001807
    10    -0.003454
    11     0.001512
    12     0.003327
    13    -0.002847
    14    -0.406483
    15     0.004639
    16     0.217056
    17     1.738388
    18     0.582057
    19     0.006909
    20     0.481915
    21    -0.222567
    22    -1.721057
    23     0.582270
    24     0.014007
    25    -0.466136
Sym=    16a
Ene=   -0.325574E-01
Spin= Alpha
Occup= 0.023488
     1    -0.180217
     2    -0.651067
     3    -0.114605
     4     0.630161
     5    -0.004836
     6     0.533579
     7     0.052075
     8     0.004825
     9    -0.044150
    10     0.122204
    11     0.035019
    12     0.092675
    13     0.001654
    14     0.062838
    15     0.000617
    16     0.871008
    17     0.114189
    18     0.089429
    19    -0.000061
    20     0.042893
    21    -0.019812
    22    -0.018808
    23     0.009475
    24     0.000722
    25    -0.000325
Sym=    17a
Ene=   -0.787873E-02
Spin= Alpha
Occup= 0.004553
     1     0.053865
     2     0.197726
     3     0.076822
     4    -0.318044
     5     0.001997
     6     0.019189
     7     0.610582
     8    -0.017669
     9    -0.209292
    10     0.134301
    11     0.220148
    12    -0.587409
    13     0.086849
    14     0.455191
    15    -0.043842
    16     0.170208
    17    -0.087915
    18    -0.032531
    19    -0.016236
    20     0.050353
    21    -0.320628
    22     0.127382
    23     0.239901
    24     0.051618
    25     0.138012
Sym=    18a
Ene=   -0.103458E-01
Spin= Alpha
Occup= 0.006837
     1    -0.182224
     2    -0.891455
     3     1.006678
     4    -0.000352
     5    -0.001391
     6     0.171937
     7    -0.000981
     8     0.004479
     9    -0.615646
    10    -0.324381
    11     0.788668
    12     0.171557
    13     0.026577
    14    -0.000973
    15     0.012567
    16    -0.532456
    17     0.022500
    18    -0.015984
    19    -0.011303
    20    -0.153493
    21    -0.530816
    22     0.022849
    23     0.015964
    24     0.004931
    25    -0.153720
Sym=    19a
Ene=   -0.340675E-02
Spin= Alpha
Occup= 0.001018
     1     0.478091
     2     1.640790
     3     0.531177
     4    -0.007584
     5    -0.000379
     6    -0.314618
     7     0.009867
     8     0.001407
     9     0.561833
    10    -1.391801
    11    -0.803603
    12    -0.873560
    13     0.005929
    14    -0.008619
    15     0.006114
    16     0.358323
    17     0.007725
    18    -0.175654
    19     0.004540
    20    -0.052845
    21     0.351883
    22     0.000372
    23     0.168533
    24    -0.006421
    25    -0.046458
Sym=    20a
Ene=   -0.129052E-03
Spin= Alpha
Occup= 0.000006
     1    -0.004888
     2    -0.004647
     3     0.007175
     4    -0.002167
     5     0.010546
     6    -0.013900
     7    -1.352985
     8    -0.110394
     9    -0.025733
    10     0.028521
    11     0.011435
    12     0.022665
    13    -0.001623
    14     0.398132
    15     0.068452
    16    -0.897912
    17     0.046058
    18     0.194497
    19     0.128601
    20    -0.742675
    21     0.842012
    22    -0.038529
    23     0.259153
    24     0.128373
    25     0.720339
Sym=    21a
Ene=   -0.745722E-02
Spin= Alpha
Occup= 0.003664
     1    -0.053884
     2    -0.198966
     3    -0.061535
     4    -0.259338
     5     0.014400
     6    -0.021360
     7     0.472840
     8    -0.059620
     9     0.198051
    10    -0.166205
    11    -0.247806
    12     0.655693
    13    -0.238370
    14     0.383053
    15    -0.192258
    16     0.232145
    17    -0.092993
    18     0.210987
    19     0.128598
    20    -0.142157
    21    -0.119825
    22     0.060128
    23    -0.054044
    24    -0.034079
    25    -0.057374
Sym=    22a
Ene=   -0.318863E-01
Spin= Alpha
Occup= 0.022401
     1    -0.178446
     2    -0.643261
     3    -0.121586
     4    -0.636218
     5     0.003662
     6     0.536518
     7    -0.043843
     8    -0.003285
     9    -0.048979
    10     0.122891
    11     0.034586
    12     0.093009
    13     0.001350
    14    -0.062153
    15     0.000450
    16    -0.018808
    17    -0.018879
    18    -0.008897
    19    -0.001293
    20    -0.000067
    21     0.868740
    22     0.111642
    23    -0.091054
    24     0.000361
    25     0.044804
Sym=    23a
Ene=   -0.174171E-01
Spin= Alpha
Occup= 0.013241
     1    -0.001817
     2    -0.007989
     3     0.005344
     4    -0.003632
     5    -0.963204
     6    -0.003438
     7    -0.005470
     8     0.958948
     9     0.002270
    10     0.002813
    11     0.002466
    12    -0.000216
    13     0.001304
    14    -0.003685
    15    -0.064116
    16    -0.007568
    17     0.001212
    18    -0.002383
    19     0.082941
    20    -0.000045
    21     0.006294
    22    -0.002369
    23    -0.001134
    24     0.083654
    25     0.001182
Sym=    24a
Ene=   -0.190600E-01
Spin= Alpha
Occup= 0.008859
     1    -0.484156
     2    -1.979906
     3     0.896779
     4    -0.006162
     5     0.004810
     6    -0.613092
     7     0.004831
     8    -0.004740
     9     0.554471
    10     0.635664
    11     0.479068
    12     0.461487
    13     0.000029
    14     0.002561
    15    -0.001028
    16    -0.045015
    17    -0.075138
    18    -0.088768
    19    -0.000265
    20     0.016407
    21    -0.045020
    22    -0.072091
    23     0.090842
    24    -0.000778
    25     0.018198
Sym=    25a
Ene=   -0.171203E-03
Spin= Alpha
Occup= 0.000009
     1    -0.075575
     2     0.147341
     3    -0.958600
     4     0.008683
     5     0.002323
     6    -0.301085
     7     0.048463
     8    -0.034398
     9     0.826883
    10     0.860551
    11     0.414942
    12    -0.236881
    13    -0.057737
    14    -0.028512
    15     0.030560
    16     0.328462
    17     0.072655
    18     0.140581
    19    -0.047759
    20    -0.776412
    21     0.243331
    22     0.080414
    23    -0.088804
    24     0.131371
    25    -0.809617
