p30-5 set                                                                       
ENERGY    PNOF8    /home/ion/p30-10/gnof/def2-svp.bas                                              
Number of atoms                            I                6
Charge                                     I                1
Multiplicity                               I                2
Number of electrons                        I               19
Number of alpha electrons                  I               10
Number of beta electrons                   I                9
Number of basis functions                  I               50
Number of independent functions            I               46
Number of contracted shells                I               24
Highest angular momentum                   I                2
Largest degree of contraction              I                5
Number of primitive shells                 I               44
Virial Ratio                               R      0.000000000000000E+00
Atomic numbers                             I   N=           6
           8           8           1           1           1           1
Nuclear charges                            R   N=           6
  8.00000000E+00  8.00000000E+00  1.00000000E+00  1.00000000E+00  1.00000000E+00
  1.00000000E+00
Current cartesian coordinates              R   N=          18
  2.38640471E+00  0.00000000E+00  1.34034844E-01 -2.38640471E+00  0.00000000E+00
 -1.34035052E-01  2.64946228E+00  1.46479653E+00 -9.58209127E-01  2.64946228E+00
 -1.46479653E+00 -9.58209127E-01 -2.64946220E+00  1.46479653E+00  9.58210809E-01
 -2.64946220E+00 -1.46479653E+00  9.58210809E-01
Total Energy                               R     -1.519796091681380E+02
Shell types                                I   N=          24
           0           0           0           1           1           2
           0           0           0           1           1           2
           0           0           1           0           0           1
           0           0           1           0           0           1
Number of primitives per shell             I   N=          24
           5           1           1           3           1           1
           5           1           1           3           1           1
           3           1           1           3           1           1
           3           1           1           3           1           1
Shell to atom map                          I   N=          24
           1           1           1           1           1           1
           2           2           2           2           2           2
           3           3           3           4           4           4
           5           5           5           6           6           6
Coordinates of each shell                  R   N=          72
  2.38640471E+00  0.00000000E+00  1.34034844E-01  2.38640471E+00  0.00000000E+00
  1.34034844E-01  2.38640471E+00  0.00000000E+00  1.34034844E-01  2.38640471E+00
  0.00000000E+00  1.34034844E-01  2.38640471E+00  0.00000000E+00  1.34034844E-01
  2.38640471E+00  0.00000000E+00  1.34034844E-01 -2.38640471E+00  0.00000000E+00
 -1.34035052E-01 -2.38640471E+00  0.00000000E+00 -1.34035052E-01 -2.38640471E+00
  0.00000000E+00 -1.34035052E-01 -2.38640471E+00  0.00000000E+00 -1.34035052E-01
 -2.38640471E+00  0.00000000E+00 -1.34035052E-01 -2.38640471E+00  0.00000000E+00
 -1.34035052E-01  2.64946228E+00  1.46479653E+00 -9.58209127E-01  2.64946228E+00
  1.46479653E+00 -9.58209127E-01  2.64946228E+00  1.46479653E+00 -9.58209127E-01
  2.64946228E+00 -1.46479653E+00 -9.58209127E-01  2.64946228E+00 -1.46479653E+00
 -9.58209127E-01  2.64946228E+00 -1.46479653E+00 -9.58209127E-01 -2.64946220E+00
  1.46479653E+00  9.58210809E-01 -2.64946220E+00  1.46479653E+00  9.58210809E-01
 -2.64946220E+00  1.46479653E+00  9.58210809E-01 -2.64946220E+00 -1.46479653E+00
  9.58210809E-01 -2.64946220E+00 -1.46479653E+00  9.58210809E-01 -2.64946220E+00
 -1.46479653E+00  9.58210809E-01
Primitive exponents                        R   N=          44
  2.26617678E+03  3.40870102E+02  7.73631352E+01  2.14796449E+01  6.65894331E+00
  8.09759757E-01  2.55307722E-01  1.77215043E+01  3.86355054E+00  1.04809209E+00
  2.76415444E-01  1.20000000E+00  2.26617678E+03  3.40870102E+02  7.73631352E+01
  2.14796449E+01  6.65894331E+00  8.09759757E-01  2.55307722E-01  1.77215043E+01
  3.86355054E+00  1.04809209E+00  2.76415444E-01  1.20000000E+00  1.30107010E+01
  1.96225720E+00  4.44537960E-01  1.21949620E-01  8.00000000E-01  1.30107010E+01
  1.96225720E+00  4.44537960E-01  1.21949620E-01  8.00000000E-01  1.30107010E+01
  1.96225720E+00  4.44537960E-01  1.21949620E-01  8.00000000E-01  1.30107010E+01
  1.96225720E+00  4.44537960E-01  1.21949620E-01  8.00000000E-01
Contraction coefficients                   R   N=          44
 -5.38935039E-03 -4.02347214E-02 -1.80081842E-01 -4.68288577E-01 -4.46926172E-01
  1.00000000E+00  1.00000000E+00  6.26302488E-02  3.33311385E-01  7.41486383E-01
  1.00000000E+00  1.00000000E+00 -5.38935039E-03 -4.02347214E-02 -1.80081842E-01
 -4.68288577E-01 -4.46926172E-01  1.00000000E+00  1.00000000E+00  6.26302488E-02
  3.33311385E-01  7.41486383E-01  1.00000000E+00  1.00000000E+00  3.34854848E-02
  2.34721871E-01  8.13770285E-01  1.00000000E+00  1.00000000E+00  3.34854848E-02
  2.34721871E-01  8.13770285E-01  1.00000000E+00  1.00000000E+00  3.34854848E-02
  2.34721871E-01  8.13770285E-01  1.00000000E+00  1.00000000E+00  3.34854848E-02
  2.34721871E-01  8.13770285E-01  1.00000000E+00  1.00000000E+00
Alpha Orbital Energies                     R   N=          46
 -2.09537260E+01 -2.09531779E+01 -1.41273826E+00 -1.64937736E+00 -7.81103775E-01
 -9.25909094E-01 -1.18066372E+00 -1.18069172E+00 -9.23770357E-01 -5.40443126E-01
 -3.28350114E-02 -3.51838453E-02 -3.52411934E-02 -3.31726658E-02 -2.32415481E-02
 -9.91967416E-03 -1.88985838E-02 -1.33480487E-04 -1.71353009E-04 -8.43299209E-03
 -6.74281198E-03 -7.39807353E-03 -7.70482557E-03 -1.55106116E-03 -1.80521821E-02
 -8.35315227E-03 -1.72859860E-04 -1.55675778E-04 -7.60882786E-03 -9.21170942E-04
 -6.73730073E-03 -8.01108184E-04 -3.28388756E-03 -9.01266293E-04 -2.60543236E-03
 -1.61800990E-04 -1.33625921E-04 -8.77783455E-04 -7.38915508E-03 -7.97126499E-04
 -7.64697159E-03 -2.35149743E-03 -5.75090240E-03 -1.54261747E-03 -1.15398629E-04
 -1.14540401E-04
Alpha MO coefficients                      R   N=        2300
  7.00064336E-01 -2.78101997E-02  7.22713193E-03 -3.73562115E-04 -2.93478412E-06
  1.67705735E-03  5.20131419E-05 -1.70805848E-06  3.97089138E-04  3.95242664E-03
  2.91857870E-03  3.19679340E-03  1.61277023E-06  1.77371908E-04  4.84977747E-08
  6.97843716E-01 -2.98810794E-02  6.54172162E-03  3.39227564E-04 -1.83578728E-05
 -1.27100244E-03  1.79097329E-04  1.04590018E-05 -3.99865534E-05  3.71796123E-03
  3.00757576E-03  3.31424281E-03  3.73196986E-07  1.02504490E-04 -6.32042957E-07
  1.95090540E-03 -9.39513892E-04 -2.41293989E-04 -1.12155825E-03  7.85933648E-04
  1.94789128E-03 -9.36966112E-04 -2.43243053E-04  1.12150637E-03  7.88731041E-04
  1.53072928E-03 -9.13363465E-04  2.29949690E-04 -1.02340488E-03 -7.24820171E-04
  1.56352982E-03 -8.90148325E-04  2.40002790E-04  1.01911783E-03 -7.13592375E-04
  6.98853576E-01 -2.77920726E-02  8.10145101E-03 -2.36349706E-04 -3.06535110E-06
  1.73066059E-03 -3.85569061E-04 -5.47205631E-06  3.82681340E-06  3.77999945E-03
  2.84426485E-03  3.09830363E-03 -4.93031268E-07  2.06349927E-04  2.33059563E-06
 -6.99201302E-01  2.99845826E-02 -7.48455885E-03 -3.77086837E-04  9.07024259E-06
  1.30794391E-03 -8.32171253E-04 -5.72439100E-06 -4.20654301E-04 -3.57581743E-03
 -2.92592453E-03 -3.19396599E-03  3.45832576E-06 -1.35506816E-04  8.65314761E-07
  1.58606946E-03 -9.11337407E-04 -7.37520449E-05 -1.05267634E-03  8.20880140E-04
  1.57833166E-03 -9.11110701E-04 -6.32395952E-05  1.04774358E-03  8.16472172E-04
 -1.12818304E-03  8.49557883E-04 -7.27499939E-05  9.48367992E-04  7.42556288E-04
 -1.16727709E-03  8.41235268E-04 -6.80371352E-05 -9.55142884E-04  7.49728592E-04
 -6.88439569E-04 -3.46187572E-03  4.51314029E-03  1.36104294E-02 -4.89867360E-06
  3.20210145E-03  3.71179595E-03 -1.28528049E-05 -1.94272624E-03 -5.02553302E-04
 -6.74620010E-04 -7.94148525E-04  2.08136561E-06  1.69464533E-04 -1.42110839E-07
  2.83972877E-01  5.72427076E-01  3.64753514E-01 -1.05344988E-01  2.05941760E-03
 -1.52087514E-01 -6.69601303E-02  9.70349778E-04 -1.55879707E-01  1.20167237E-02
  1.69774276E-02  4.92378040E-03 -3.16257942E-05 -3.69524304E-03  1.59533517E-04
 -3.75914204E-03  2.65217134E-03  1.19285584E-03  4.08037827E-04  2.81839655E-04
 -3.74757580E-03  2.59200369E-03  1.21937240E-03 -4.07141365E-04  3.17237423E-04
  9.80993962E-02 -1.17585043E-02 -2.65069562E-03 -1.53336493E-02 -1.62953408E-02
  9.54390920E-02 -1.23154406E-02 -2.68760952E-03  1.51184355E-02 -1.60307729E-02
  2.92163242E-01  6.24050972E-01  3.34267572E-01 -1.25303593E-02  9.50030937E-06
  1.74900424E-01 -1.07529515E-02 -6.16594564E-06  1.44318456E-01  1.27948387E-02
  2.14282273E-02  7.73778049E-03 -2.79456599E-06  5.31398112E-04 -1.33880972E-06
 -2.47010482E-03 -6.66063821E-03 -2.12582546E-03 -1.55593276E-02 -6.15347115E-05
 -1.22771582E-03 -7.13891128E-03 -4.00529762E-05 -7.75126323E-04  1.40526901E-04
 -7.90260015E-04 -7.86124394E-04 -4.62211267E-06 -1.31453922E-05 -2.69983280E-06
  8.43277182E-02 -1.36350455E-02 -2.97883540E-03 -1.30598441E-02  1.55971276E-02
  8.42990826E-02 -1.36574114E-02 -2.98961273E-03  1.30586128E-02  1.55936679E-02
 -1.56441111E-03  2.83026606E-03 -8.15235845E-04 -1.23030323E-04 -1.64045791E-04
 -1.49529685E-03  2.80475862E-03 -8.24472074E-04  1.31524619E-04 -1.66960272E-04
  4.43870140E-03  2.32650304E-02 -7.33669103E-03  1.28480388E-01 -9.31807078E-06
  2.76332881E-02  1.21862169E-01 -4.07547300E-05  2.19850625E-02 -1.04965905E-03
  4.79532901E-03  3.03582631E-03  2.56853093E-06 -4.44820888E-03 -1.45391797E-06
 -5.25173617E-02 -9.32929276E-02 -1.23321911E-01 -5.84128320E-01 -1.94029919E-03
 -6.38223369E-02 -4.64008487E-01 -8.92507564E-04 -5.48662995E-02  3.42799838E-04
  1.60228986E-03 -8.38330504E-04 -3.74439286E-05 -1.60746943E-02 -9.74426601E-05
  9.26089503E-03 -2.36350019E-02  5.19639803E-03 -5.73030529E-05  1.24743771E-03
  9.19713607E-03 -2.34977521E-02  5.17673089E-03  5.55255315E-05  1.24207658E-03
  1.44716885E-02  2.87584506E-03 -2.44991918E-02 -1.91127077E-03 -3.49705222E-03
  1.68255915E-02  3.29674470E-03 -2.43509287E-02  2.06625345E-03 -3.71933721E-03
 -4.78499739E-05  7.81416301E-04  5.88844918E-05  8.59404779E-03  2.93364089E-03
 -2.96502560E-03  9.71191336E-03 -1.23941237E-03  3.75757724E-03 -3.32929364E-04
  1.91764055E-04  3.63222354E-06  4.19328915E-04 -9.21976291E-04  1.71969995E-05
  1.62315177E-02  2.85366161E-02 -1.22942271E-01 -4.07627832E-02 -3.52516825E-01
  3.86927262E-01 -1.83970948E-02 -1.63628533E-01  2.33919368E-01 -6.35654486E-03
 -3.85351616E-04  1.42207615E-02  2.16869110E-03 -1.99921426E-03 -1.68856929E-02
  7.78174588E-03 -1.20175637E-02  1.54308070E-03 -5.97337206E-04  1.91684323E-04
  7.41452636E-04 -2.06025494E-03  4.22345975E-04  6.25448719E-04 -5.72038209E-04
 -4.13185683E-02 -1.48002548E-02 -2.84034083E-03 -1.20184779E-02  1.99583630E-02
  4.11262925E-01  7.89801476E-02  1.07632622E-02  4.16269597E-02 -1.92368676E-02
  2.60047119E-02  4.48792804E-02 -8.50365029E-02  7.59629048E-02  3.89952796E-01
 -4.10148743E-01  3.46924720E-02  1.59949739E-01 -2.03935954E-01 -7.07534761E-03
 -3.17940202E-03  1.35890010E-02  4.21389742E-03 -5.43632054E-03 -1.73688909E-02
 -5.40721763E-05 -2.17519720E-04  8.82060335E-04 -4.60639759E-04 -1.97818170E-03
  2.73138128E-03  3.95889802E-04  1.19329269E-04  8.82137508E-04 -5.42698853E-04
 -6.73872175E-06 -3.50578689E-05  2.58785375E-04 -3.53797791E-04 -1.86782303E-05
  3.99349419E-01  2.41186105E-02 -6.00751068E-03 -5.12986377E-02  2.57661824E-02
 -4.16021781E-02  9.63310000E-04  3.81686065E-03  1.32921360E-02 -2.05062580E-02
 -7.16034526E-04  1.53854435E-04 -4.12066319E-04 -1.43399939E-04  2.85930769E-04
  3.54670503E-03 -3.37949821E-03 -9.29791039E-04  1.81871319E-04 -1.54057725E-04
 -2.60055386E-02 -4.48951268E-02  8.50144925E-02 -7.59421456E-02  3.89974853E-01
  4.10102456E-01 -3.46747388E-02  1.59982087E-01  2.03920474E-01  7.07072852E-03
  3.18557697E-03 -1.36006259E-02  4.21418320E-03  5.43782394E-03 -1.73744274E-02
  5.32953605E-05  2.08220240E-04 -9.01034919E-04  4.04968133E-04 -1.96142787E-03
 -2.68550466E-03 -4.31489092E-04  1.34665327E-04 -8.72128438E-04  5.47326840E-04
  1.60835447E-06  2.69068219E-05  2.61215670E-04  3.60674578E-04 -2.83030262E-05
  4.16109391E-02 -9.52418945E-04 -3.82146227E-03  1.32786644E-02  2.05031779E-02
 -3.99390425E-01 -2.40685659E-02  5.99963728E-03 -5.12856998E-02 -2.57740269E-02
 -3.48309573E-03  3.33322258E-03  9.31238312E-04  1.50732879E-04  1.55002078E-04
  7.17223086E-04 -1.28609592E-04  4.09037209E-04 -1.36998961E-04 -2.76613233E-04
 -1.59890351E-05 -9.61853124E-04 -7.41717742E-05 -9.08632991E-03  3.00689506E-03
  2.78090835E-03 -1.01162176E-02 -1.13121883E-03 -3.80765920E-03  3.35214965E-04
 -2.20433666E-04 -2.83051655E-05  4.49474294E-04  9.38782875E-04  1.12784529E-05
 -1.41111972E-02 -2.41713016E-02  1.23653196E-01  4.26093595E-02 -3.57697774E-01
 -3.81874133E-01  2.03292899E-02 -1.65834801E-01 -2.31323986E-01  6.34955962E-03
  4.89288056E-04 -1.40330402E-02  2.16262922E-03  2.02366946E-03 -1.71187121E-02
 -7.30503171E-04  1.95841617E-03 -5.15036160E-04  5.81671844E-04  5.48548496E-04
 -7.78872005E-03  1.20724526E-02 -1.49898109E-03 -5.95414034E-04 -1.84922406E-04
 -4.11220732E-01 -7.94871257E-02 -1.06955357E-02  4.14127884E-02  1.94366440E-02
  4.80656895E-02  1.60113625E-02  3.11156195E-03 -1.14679078E-02 -2.03978118E-02
  1.61239698E-02  4.54579453E-02  7.76903747E-03 -6.95485728E-01  2.05811011E-06
 -1.31544694E-01 -3.81929193E-01 -4.21745153E-05 -7.20240722E-02 -6.77787939E-03
  2.20119788E-03  8.73670895E-03 -2.35372742E-06  1.90825829E-02  4.22136924E-07
 -1.50367942E-02 -2.60851498E-02 -5.17174828E-02 -1.74622868E-01 -4.86249444E-05
 -5.04994489E-03 -1.44951942E-01 -1.03399375E-06 -1.26472491E-02  2.92870440E-03
  3.39932792E-04  4.48787810E-04 -1.73809621E-05 -4.98748706E-03 -1.49451346E-05
 -3.39940147E-03 -9.42944832E-03 -2.25303907E-02  6.47358256E-04 -4.96644550E-03
 -3.46730508E-03 -9.41801681E-03 -2.25521900E-02 -6.37833075E-04 -4.97478153E-03
  1.44204616E-02  3.62859683E-03 -4.85544481E-03 -2.40564435E-03 -9.73558613E-04
  1.44368208E-02  3.50763102E-03 -4.85166385E-03  2.40910925E-03 -1.02011700E-03
  6.13425963E-04  5.30406470E-03 -1.22424570E-02 -1.38390952E-02 -4.17772779E-03
 -4.63376693E-03  1.52892283E-02  8.03637865E-03  7.88558190E-03 -3.09562495E-03
  2.12122118E-03  1.67798889E-04 -1.68977382E-03 -2.47256583E-03  6.75560421E-04
 -1.75720665E-01 -6.31236218E-01 -1.15026036E-01  1.32897393E-01 -6.31527746E-01
 -5.24485359E-01 -2.35426989E-02 -3.36413729E-02  6.82573399E-02  3.90347879E-02
  1.24524112E-01  9.19078706E-02 -1.52668056E-02 -1.63342299E-02  6.11661071E-02
  3.24586773E-03 -2.59842618E-03  1.45625703E-03 -2.54652093E-03  9.47302238E-04
  1.79730183E-02 -1.03646667E-02  1.62704552E-03  3.05719066E-03  8.79802553E-04
  8.61107503E-01  9.23428209E-02  2.00167655E-02 -1.00942475E-01 -4.82101479E-02
 -2.23872103E-02 -1.12415085E-02 -8.79675479E-04 -6.35047754E-03  1.78357184E-04
  1.95451589E-01  7.32878984E-01  6.06982852E-02  1.25740353E-01 -6.41002332E-01
 -5.17649565E-01 -1.82803405E-02  2.46795248E-02  8.92986227E-02 -7.70587431E-02
 -1.40438189E-01 -9.71920424E-02  1.46276288E-02  5.82265199E-03 -6.90181219E-02
  1.83495787E-03  5.20739414E-03  5.39565372E-03  4.08407293E-03 -4.77782976E-03
 -3.79806693E-03  5.48927495E-03  7.36025142E-03  3.14745862E-03  3.23380109E-04
 -1.01200554E-03 -3.61005115E-05  1.75001787E-03  2.34130021E-03 -7.27106638E-04
  1.07170658E-02 -1.42843982E-03  4.08259602E-04  3.25817639E-04  2.02244310E-03
 -8.90584006E-01 -1.99562151E-02  2.02756202E-02 -1.48199607E-01 -8.25185223E-02
 -1.22823507E-02  2.08697850E-03  2.41830600E-03  1.19465540E-03  2.08033394E-03
 -1.52366548E-03  1.01331079E-03  4.07398106E-03 -3.63485236E-03  1.12188284E-03
 -1.95002491E-01 -7.31633247E-01 -5.84674538E-02 -1.25404168E-01 -6.42400698E-01
  5.16232047E-01  1.82993744E-02  2.43570574E-02 -8.98798520E-02  7.64036474E-02
  1.40144665E-01  9.67900475E-02  1.47178145E-02 -5.83336683E-03 -6.93125212E-02
 -1.84378746E-03 -5.49687486E-03 -4.20910657E-03 -3.49193458E-03 -3.61351666E-03
  3.78322379E-03 -7.02618854E-03  5.38958019E-03 -2.40791863E-03 -6.09903603E-04
  1.40713470E-03 -4.20886756E-04  1.81598326E-03 -2.56841418E-03 -1.02209942E-03
  8.89561684E-01  2.02700785E-02 -2.01155978E-02 -1.47945762E-01  8.23289366E-02
 -1.40944897E-02  1.46335051E-03 -1.10536932E-04 -2.70984724E-04 -2.37482101E-03
  9.45121361E-05  1.55673171E-03 -2.56620120E-03 -2.94630107E-03  1.34044721E-05
  1.06465009E-02 -3.13374220E-03 -2.51321668E-03  1.69988393E-03 -2.53413446E-03
 -2.93668268E-04 -3.80038823E-03  1.20809013E-02  1.37325359E-02 -4.71505441E-03
  3.50506055E-03 -1.53766326E-02  9.68408693E-03 -6.97600049E-03  2.37219777E-03
 -2.76098796E-03 -5.98758576E-04 -9.02278312E-04  2.36739415E-03  8.26374583E-04
  1.78220773E-01  6.41562110E-01  1.12974731E-01 -1.29972194E-01 -6.35323112E-01
  5.21475385E-01  2.05788335E-02 -2.50172923E-02 -6.26584810E-02 -4.02342987E-02
 -1.28283781E-01 -9.29265166E-02 -1.26564955E-02  1.55720426E-02  6.03484417E-02
 -1.88472978E-02  1.10790601E-02 -3.32799793E-03  3.38188327E-03 -2.13899386E-03
 -2.20710939E-03  3.03465507E-03  1.01139969E-03 -3.91916320E-03 -3.84488089E-04
  1.41003563E-02  1.23697300E-02  7.13072662E-04 -7.39351686E-03  3.29514855E-03
 -8.62727452E-01 -8.79552768E-02 -2.31524231E-02 -1.01917396E-01  5.11511511E-02
  7.67989463E-02  3.15363034E-01 -1.94343252E-01 -2.80416437E-01  3.15736699E-04
  2.68263626E-02  1.92571838E-01 -1.12818814E-03  2.47928770E-02 -9.66168049E-02
 -1.99362205E-02 -3.04034405E-02 -1.64021845E-04 -8.22013103E-03 -1.71250516E-04
  1.66117968E-01  7.24284664E-01 -5.00077690E-01  8.51134503E-01  2.92470548E-03
  1.19993942E-02 -7.80270570E-01 -3.00659981E-03 -7.27195780E-02 -1.44367429E-01
 -1.10997241E-01 -1.13410271E-01 -1.22702664E-03 -3.39073325E-02  8.40261459E-04
  7.80451876E-02 -3.28467780E-02  2.94853562E-03 -1.69952510E-02  1.32753821E-02
  7.62326263E-02 -3.15198262E-02  1.63984890E-03  1.68291937E-02  1.22525694E-02
  7.77395667E-02  9.66026136E-03 -3.99828096E-02 -2.61300644E-02 -1.98347799E-02
  7.64575262E-02  1.32769144E-02 -3.87296332E-02  2.55514681E-02 -1.76982349E-02
 -1.69385422E-01 -7.23724643E-01  4.34067530E-01 -3.57175816E-02  2.71220492E-03
  3.87930945E-02  5.20721534E-02 -4.38002011E-03 -1.15286267E-01  2.87064847E-01
 -4.75353762E-01  8.96123517E-01 -4.49774681E-04 -1.00809957E-01 -3.81293598E-03
  1.62776832E-02  7.66586350E-02 -5.76316267E-02  5.47805834E-02  7.37977700E-04
 -4.10003905E-03 -7.84440474E-02 -2.20749210E-03 -4.30755051E-03 -3.04342832E-02
 -1.44292002E-02 -1.46115387E-02 -1.93718668E-03 -1.94033472E-03  7.37817070E-04
 -2.02226122E-01  7.21874595E-03  3.38592442E-02 -5.80340923E-02 -1.62877205E-01
 -2.03465332E-01  5.73922751E-03  2.90495110E-02  5.95151230E-02 -1.63927202E-01
  1.64942209E-02 -7.53931692E-04 -5.77647575E-03 -1.12145648E-03 -6.67471137E-03
  1.52635523E-02 -1.49569527E-03 -3.87433809E-03  2.32616158E-03 -4.32374560E-03
  1.89352542E-03  2.09523213E-02 -6.07441978E-02 -2.45781347E-02 -1.71381779E-03
 -4.50629045E-03  2.45824302E-02  3.11465372E-03  2.71688216E-02 -4.12135078E-03
 -1.03512717E-03  1.25953117E-03 -9.08139908E-04 -4.90715747E-03 -1.40361083E-03
  4.72844441E-01  1.94398980E+00 -9.11913881E-01 -2.61433983E-01  2.06890506E-03
 -5.84424269E-01  2.98639842E-01 -1.87744118E-03  4.97337679E-01 -5.77028504E-01
 -5.36584749E-01 -4.59899174E-01  1.38388073E-02  3.21084602E-02  6.46967023E-03
  3.54378786E-02 -3.24378720E-03 -4.64120212E-03 -6.69043021E-03  1.21311683E-03
  3.89100320E-02 -2.70477386E-03 -9.96081168E-03  7.66771305E-03 -3.15764379E-03
  1.05943498E-01  5.31602971E-02  5.22819919E-02 -7.18991022E-02 -1.23195994E-02
  1.07263890E-01  5.86802692E-02  3.82402615E-02  7.27266141E-02 -8.34087831E-03
 -6.25603258E-02  1.11663245E-01 -8.78835846E-01  3.65886942E-02  5.64833287E-02
 -1.95445229E-01 -1.36761073E-01 -9.97595370E-02  6.02791468E-01  3.22664272E-01
  5.47301165E-01 -2.49810535E-02  4.73446605E-02  1.21818786E-01 -2.82074348E-02
  2.18337546E-02  3.78250712E-02  5.54768907E-02 -2.15685450E-02  1.17520170E-02
 -2.57892538E-03  1.24382932E-01 -9.03435025E-01 -1.59114135E-01 -4.05696913E-02
 -2.06294849E-02 -1.73627491E-01  6.03522662E-02  5.51308322E-02 -2.51048136E-01
  3.25033815E-01  7.79663474E-02  7.38511139E-02  7.44856956E-02 -4.59808068E-01
  2.84039249E-01  1.33120988E-02  2.26273620E-01  2.07135109E-01 -5.42232251E-01
  6.56661842E-01 -4.15333604E-02  4.98555417E-02  2.28573684E-02 -4.14135646E-01
 -4.77115963E-01 -5.38688498E-03 -1.85763006E-01  2.79350952E-01  5.54787946E-01
 -6.65750108E-04  2.33188598E-02 -1.72189235E-01 -3.23332074E-02  1.96307923E-02
  3.41657499E-02  4.13584796E-02  4.12203616E-02  9.70769097E-03 -6.32082524E-03
 -4.57810225E-02  4.99865107E-02  4.02677093E-01  3.49534448E-02  5.16404766E-02
 -3.65934427E-02 -4.86679811E-02 -1.09732230E-01 -7.09926630E-02 -5.06510337E-02
  5.12259712E-02  4.75439055E-01 -3.00983163E-02  1.91700248E-01 -4.11900756E-02
  1.13472628E-01  3.35239708E-01  7.35844839E-02  2.69536612E-01 -6.66197509E-02
  2.30878103E-02  9.67300854E-04 -4.37459709E-01  1.36725947E-02 -4.30028671E-02
  1.12555948E-01 -1.37718599E-02  5.04444166E-01  8.36744699E-02  2.10207183E-01
 -1.40985186E-02  2.40021553E-02 -6.48400134E-01  5.29858767E-02 -1.43460629E-01
 -1.44552437E-01  5.36836157E-02 -4.85435750E-01 -2.70186959E-01 -8.92930857E-02
  6.35699478E-03  1.85704343E-02  3.09446921E-02  7.70445553E-02  3.32480120E-03
  3.53232624E-02 -6.98525078E-02 -5.00365434E-03 -6.67408624E-02 -2.99832614E-04
 -2.51664779E-02 -2.75809911E-02 -1.51374657E-03 -8.89496945E-03  2.99260590E-03
 -4.11152192E-02 -3.17265203E-01  7.40760395E-01  1.14759262E-01 -1.11911586E-01
 -2.16726392E-01 -1.95919279E-01  2.55242631E-01  5.31355866E-01  3.60716742E-01
 -5.51999123E-01  2.65275307E-01 -5.48509759E-02 -4.33120693E-02 -2.46514000E-01
 -1.42525904E-02 -7.33926247E-03  4.51339525E-03  1.94458170E-03 -3.19377140E-03
 -1.04672349E-02 -5.74756699E-03  9.87695422E-03  1.62153221E-03  3.65013228E-03
 -5.36472505E-01  8.36887347E-02 -1.15493740E-01  2.26902527E-02  1.86782175E-01
 -3.35494794E-01 -2.11415032E-02 -2.89744631E-02  6.34448627E-02  1.66737443E-01
 -2.18742747E-02 -1.57488897E-01  3.34651796E-01  1.47422411E-01  1.26356600E-01
  9.16744468E-02 -7.17475344E-02 -2.11824685E-01 -2.63270281E-01  1.46629623E-01
 -5.06539631E-02 -5.30732490E-02  5.91188513E-01  5.83632970E-01 -1.05907506E-01
  2.73738072E-02  1.31918452E-01 -1.16470939E-01  8.27727346E-02 -1.05694147E-02
 -9.94097973E-03 -1.22236621E-01 -2.12136014E-03 -2.03431557E-02 -6.00006870E-02
 -3.15888802E-02 -1.63163861E-02  4.85736951E-03  2.00299937E-02 -2.12046235E-02
 -1.15445622E-01 -9.33797767E-03  4.08255916E-02  2.41894855E-02 -2.03572129E-02
 -2.01465911E-01  1.84539545E-02 -2.14992467E-01 -8.05641810E-02 -4.77439123E-02
  6.82212015E-02 -1.25304052E-02 -2.72747360E-03 -1.19354256E-02 -1.62429092E-02
  2.61411214E-02  3.64809879E-03 -2.49887758E-03  8.83920829E-03  4.84735953E-04
 -3.33148688E-02 -5.21939673E-02 -3.34236740E-01  4.10525287E-01  2.55618954E-01
 -3.68976137E-02 -4.99501062E-01 -4.34487584E-01  2.54793949E-01 -3.57274023E-01
  1.90304833E-01  3.81033007E-01 -1.60394431E-01  2.55169940E-02 -5.11883392E-01
  1.74174176E-02  1.01673696E-01 -1.41399995E-01  8.38789101E-02 -8.40829047E-03
  3.26132520E-03 -1.36676164E-01  1.06537877E-02 -5.93500843E-02 -4.37891120E-02
 -3.31923625E-03 -1.07980283E-03 -3.33358312E-03  5.29395672E-03 -3.32989366E-03
  2.90290592E-01 -3.93513092E-02 -1.36029921E-01 -1.04674330E-01 -4.26064173E-02
  9.19829531E-02  2.78004216E-02 -1.79832047E-02 -7.88248986E-03  5.55879605E-02
  5.81340507E-02 -3.47399916E-03  7.82940616E-03 -1.47985348E-02 -1.13278852E-02
  5.10969390E-02 -1.42862196E-02  1.35912696E-02  1.20207540E-02 -1.76936075E-03
  1.00301382E-02  2.79099490E-02  3.90605856E-02  6.81518775E-02  9.39382774E-03
  3.36858255E-02 -6.73066259E-02 -2.35369094E-02 -5.96151732E-02 -4.54387206E-03
 -2.89883975E-02 -4.21428507E-02 -3.49563760E-03 -1.16593012E-02  8.70318899E-03
  2.93320333E-02  1.95022662E-02  4.60610946E-01  7.38210468E-02  3.03403619E-01
 -1.20923537E-01 -1.53595894E-01 -5.67244373E-01  4.52577344E-01  4.27617271E-01
 -1.23558331E-01 -5.05016484E-01 -5.80145767E-02  1.46299444E-01  4.34134568E-01
  1.35204844E-02 -6.97727029E-04  1.92790076E-02 -7.88970705E-04 -2.13503092E-03
 -3.29021429E-02 -1.43684313E-02 -1.62232821E-03  6.96244246E-03  2.07999455E-04
 -7.82462291E-02 -3.14773842E-02 -2.99847740E-02  4.17940977E-02  4.41317603E-02
 -4.91286955E-01  9.94808257E-02 -2.94694741E-02 -2.03712306E-01 -4.49137954E-02
 -1.50713454E-02 -7.08904282E-02  8.28560563E-02  3.70006505E-02 -3.56577443E-01
 -1.84548594E-02 -7.83804657E-02  6.94574412E-01 -1.76685661E-02  4.44874418E-02
  3.24401986E-02  1.90095202E-02  7.72795900E-02 -2.63794934E-02 -3.12243292E-01
 -1.10595259E-01 -1.28884621E-01 -1.32906023E+00 -3.70877762E-04  2.23165624E-01
 -3.65244738E-02  1.40243459E-01 -1.52761046E-01 -5.40790101E-01  6.79041066E-01
 -1.62287578E-01  3.11187246E-01 -2.41015141E-01  1.31163594E-01  6.42400129E-02
 -4.44421461E-01 -1.19157346E-01 -6.94379862E-02 -5.84531115E-02  2.39286879E-01
  3.51712079E-01  1.45725394E-01  6.62176038E-02 -1.22793386E-01 -2.71620627E-01
  6.47327566E-01  1.04229841E-01  1.86698941E-01  7.37801626E-02 -1.86999332E-02
  8.05189994E-01 -1.93531203E-01 -1.47682036E-01  3.52137105E-01 -3.10313252E-01
  4.92176365E-01  1.98098025E+00 -7.69224463E-01  5.36017098E-02 -3.90313641E-04
  6.10415360E-01 -6.34558641E-02  1.04183255E-04 -5.72365439E-01 -6.02499420E-01
 -7.09633594E-01 -4.84818948E-01  2.27002802E-04 -4.16601251E-02  2.43636275E-04
 -2.26637585E-02 -9.42421937E-02  3.09262015E-02 -1.09447126E-01 -1.65340126E-03
  5.97949384E-03  1.46167390E-01  2.18855884E-03 -3.81563583E-03  1.52886405E-02
  2.83391946E-02  3.11862850E-02  8.53756829E-04 -1.65791801E-04 -4.05318393E-04
  6.70147276E-02  4.47732771E-02 -1.28463950E-02 -1.04918759E-01 -4.02487604E-03
  6.64072028E-02  4.52214145E-02 -1.08674662E-02  1.04276709E-01 -3.65588872E-03
  1.49159062E-02 -2.56105704E-03  1.19295524E-02 -4.32075242E-05  3.95176718E-03
  1.45747852E-02 -4.73740340E-04  1.47918235E-02 -7.75161773E-04  4.10996213E-03
  2.71608168E-03  1.45829511E-02 -3.41171376E-02 -2.78505922E-02 -1.51276845E-03
 -8.57246259E-04  1.48516399E-02  1.73776471E-02  2.78461748E-02 -2.13463219E-03
 -1.28193431E-02  5.97070865E-03 -8.41849621E-05  4.12818514E-03 -1.12963941E-02
 -5.42767732E-02 -2.33324229E-01  1.51273271E-01  4.61414703E-02 -2.13379037E-02
 -1.31960514E-02 -1.55063307E-01  4.42421974E-02  6.03337765E-02 -5.82155213E-02
 -1.05304295E-02  3.02961950E-01  5.51252303E-01  6.65458106E-01  8.92497160E-02
  1.27897710E-02  3.52765319E-03 -1.76941094E-03 -1.08299376E-02 -2.65235683E-03
  5.34952119E-02 -1.66242950E-02  5.50868583E-04  1.02076269E-02  4.78231960E-03
 -9.62613625E-02  3.10960780E-03  2.20847740E-01  2.01657038E-02  6.85011016E-02
 -5.96177716E-02 -4.33077645E-03 -3.56330218E-02 -6.34116625E-03  7.34253761E-03
  1.92345538E-03  3.81643394E-02 -4.58232114E-01 -6.37551882E-02  8.89103626E-03
  9.28116841E-02  1.68776829E-02 -8.18572090E-02  1.88246294E-01  5.01175507E-02
 -1.42485211E-01 -3.61683619E-03 -3.87011063E-01  7.57174658E-02 -5.24907248E-02
  5.84899050E-02  2.30244855E-02  1.49602127E-01 -1.04640200E-02  3.83081260E-02
 -1.84618347E-01  4.62175694E-01 -1.01612553E-01  8.44940452E-02 -2.53995634E-01
 -4.24588402E-01 -7.50080521E-02  5.10707153E-02  2.82419915E-01  2.04816909E-02
  3.19748544E-01  6.25039277E-03  4.73926804E-01 -2.00084761E-01  2.88350424E-01
  2.04683370E-01  1.10908027E-03 -4.28584715E-01  1.85134968E-01  4.43764411E-02
  2.00880258E-01 -2.70494788E-02 -4.99101042E-01 -1.49847704E-01 -4.66679538E-01
  1.21452396E-01 -4.39881731E-02 -3.71744085E-01  3.11683225E-01 -3.43965367E-01
  1.22237640E-01  1.42576169E-01  1.04094824E-01 -6.16454403E-02 -6.61813808E-03
  2.48605842E-01 -7.07582953E-02 -3.41803766E-02  5.18117409E-01 -2.30807496E-01
 -5.02035319E-01 -7.38829235E-01 -2.79108241E-02  8.85490217E-02  1.92867653E-02
 -4.04390639E-02  1.05032142E-01 -7.78739889E-01 -3.49590222E-02  4.48266601E-03
  1.44267748E-01  1.96603209E-01  1.59870100E-01 -6.61882009E-01  2.50643056E-01
  4.80337806E-01 -1.90417034E-01 -1.65360439E-02  1.55806597E-01  4.89539956E-02
  4.94488193E-01 -9.51173681E-02 -8.54223662E-02 -7.33500847E-01  1.48671944E-01
  4.34541907E-01 -8.41286556E-02 -1.40353681E-01  6.88878284E-01  1.18269654E-01
  2.33522659E-01  5.36016771E-02 -1.80212433E-01 -2.25187031E-01  5.40401589E-01
  4.42671330E-01  4.20779427E-02 -1.45938691E-01  1.89721499E-01  3.62347405E-01
 -7.70832782E-03 -1.71091988E-02 -4.28759529E-02 -3.58463450E-02  1.47634840E-03
 -1.76319895E-02  3.98693120E-02 -7.62787609E-03  3.58833418E-02  1.01065364E-02
  1.78878489E-02  3.19522312E-02  8.65177900E-04  8.13456595E-03  9.10877622E-03
 -5.93873131E-02 -2.11165735E-01 -1.00439087E-01 -2.40111876E-02  2.73273678E-01
  2.65565623E-02  6.37860530E-02 -4.95674912E-01 -2.17731781E-01 -2.69849009E-01
 -1.68483135E-01  7.22506919E-01 -8.96273948E-02 -1.80664204E-01  3.85088803E-01
  2.78155095E-02  7.14383723E-03 -8.92913389E-03  2.41351623E-03 -2.92172842E-04
 -3.47492513E-03  2.24797910E-04 -5.85514550E-03 -3.19933654E-03  4.16300688E-03
  2.47448576E-01 -7.28390013E-02 -1.31995941E-02 -2.19417599E-01  1.48141661E-01
 -1.06167736E-01  4.23092498E-02  1.10996922E-02  6.40694303E-02  5.10063700E-02
  7.40853176E-02 -6.69600517E-02  1.80570539E+00  4.98838592E-02  3.02674180E-01
 -7.57655005E-02  7.99646238E-02  1.57748117E-01 -7.79414692E-01 -7.20847894E-01
  3.36268453E-01 -2.31415261E-01  1.01323899E-01 -1.40236959E-01 -3.29794639E-01
  2.11644546E-02  9.94650006E-02 -3.41369608E-01  9.67898702E-02  2.19188574E-01
 -1.04318222E-01 -1.14252654E-01  1.65062211E-01 -1.51924780E-01 -1.49823746E-03
 -1.16507582E-01 -9.30969944E-02 -2.68158092E-02  8.98824972E-02  3.41516953E-01
 -1.36440211E+00  2.44459208E-01  1.52468267E-01  6.30782131E-01 -5.46996566E-01
 -6.63250958E-01 -1.58610329E-01  5.15620139E-02  1.24100702E-01 -2.65414111E-02
 -7.87567269E-02  1.17447577E-01 -1.23893966E-01  9.50395762E-02  5.55002950E-02
  6.09312545E-01 -2.37942751E-01  1.02061860E-01  4.89922036E-01 -2.37290960E-01
  2.39834806E-02  1.65911306E-01 -3.38421016E-01 -1.50236641E-01  1.25018720E-01
 -9.28633668E-02  7.69231408E-02 -2.09001624E-01  2.69648694E-01 -1.56028646E-01
  5.27201076E-02  4.89409804E-02  5.87432331E-01 -5.86149796E-01 -1.07785049E-01
 -2.91223812E-02 -1.33666080E-01  1.15904395E-01 -8.75526696E-02 -1.42247135E-02
  1.87356254E-02  1.26522981E-01  5.90480380E-03  2.30227660E-02  6.16082010E-02
  3.14128440E-02  3.52984816E-02  1.65562783E-02 -2.63642444E-02 -1.87230531E-02
  2.04744229E-01 -2.18602521E-02  2.09537944E-01 -8.39286947E-02  4.60839126E-02
  1.21249220E-01  8.10150671E-03 -3.89767420E-02  2.60377740E-02  1.95136075E-02
 -4.01187716E-02  1.89522988E-03  6.29721099E-03  2.02043048E-02  4.04868716E-03
 -7.54173708E-02  2.07177802E-02 -3.97846179E-03 -2.57913740E-02  1.91126820E-02
  2.48192129E-02  1.05429561E-01 -2.37942338E-01  4.46824331E-03  1.38927840E-01
  3.30026616E-02 -8.36554484E-03 -1.45252025E-01  2.41121656E-01  9.07615001E-02
 -1.58191671E-01 -1.59331318E-01 -9.78879848E-02  2.69385651E-02 -2.63814813E-02
 -1.93423319E-01 -3.50064597E-01 -3.17333440E-01 -1.00544732E-01  2.43229983E-01
  3.02448742E-01 -3.40050026E-02  1.34189210E-01  4.45243517E-01  3.73825582E-01
  6.64576075E-01  9.40040095E-01 -7.60149648E-02 -1.60585274E-01  4.13960985E-01
  3.09783592E-01 -1.03748174E-02  6.58890520E-02 -3.92906431E-02 -6.65484248E-02
  2.49498684E-01 -1.16335919E-01 -2.19399438E-01  2.43612253E-01  6.17581097E-02
 -9.36759854E-01  4.22710298E-01 -1.08523614E-01  1.14021686E+00  2.29311285E-01
 -1.87498331E-01  1.26014500E-02 -2.34244187E-02 -2.93913850E-01  7.82649460E-02
  7.85592481E-02  2.53846658E-01  1.05906832E-01  8.50585637E-02  3.28541039E-03
 -4.38559068E-02 -1.63036422E-01 -7.34459837E-03  1.02618564E-01 -7.02692426E-02
 -2.81519004E-01 -1.83688508E-01  2.17160362E-02 -1.12824099E-02  1.36699728E-02
 -4.49559579E-01 -1.53688576E+00 -5.42294177E-01  7.17626662E-02 -1.40607243E-01
 -3.19731967E-01 -1.45228427E-01  2.59904171E-01  4.93377145E-01  8.51032857E-01
  1.19788292E+00  8.08053455E-01 -5.35012074E-02 -8.38292669E-03  1.32605147E-01
  1.05671352E-01  7.88562999E-03 -2.41063017E-02  2.81103763E-02 -1.11848592E-02
  9.17111320E-02  1.33877278E-02  7.93084887E-03 -4.04519524E-02  1.19708168E-02
 -4.00243262E-01 -1.12732696E-01  4.07001173E-02 -2.33650802E-01 -1.51347790E-01
 -1.27958666E-01  1.50474654E-02 -9.26985936E-03  1.52632303E-01  3.74596048E-02
 -6.79867611E-03 -5.27913625E-02  2.25057798E-01  4.68722178E-03 -2.56615306E-01
 -1.92981961E-02  1.22257281E-02 -6.69779312E-01 -1.49854658E-01 -7.91880467E-02
  9.90274593E-02  4.36068580E-02 -6.58299802E-02 -2.30967118E-02  7.90108386E-01
  4.53189839E-02  9.84496351E-02 -3.30841619E-02  2.95402157E-02  2.63590678E-01
 -8.29556563E-02  2.90033691E-02  1.35546098E-01 -1.49649385E-01 -6.37171109E-02
 -1.87079450E-01 -2.13279252E-01 -1.09441960E-01  6.99905853E-02  3.94842621E-01
  6.17498251E-01 -2.08098467E-01 -1.26183582E-01 -5.71756572E-01  9.56845180E-02
 -9.82306439E-01  2.52271739E-01  1.90059958E-01 -7.17614132E-01 -1.58749225E-01
 -1.70545452E-01  1.73743264E-01 -6.56153041E-04  2.41733482E-01  5.01328891E-02
  5.76774125E-01 -2.91298345E-01 -1.67052338E-02  6.34393459E-01 -1.71757127E-01
 -3.58867490E-01 -1.14849443E+00 -5.46084264E-01 -7.55295121E-02  3.13023415E-02
  1.72971886E-01  1.64164953E-01 -7.30548644E-02 -4.25370688E-01  6.67840117E-01
  1.04007676E+00  7.68158587E-01 -1.76478357E-02  3.04333475E-03  3.79784111E-02
 -1.76434102E-01 -6.05352762E-01 -6.42080392E-02 -6.43252050E-02  2.72725904E-01
 -6.31323796E-02  6.65699075E-02 -5.51065296E-01  2.78856246E-01  3.11194415E-01
  5.59887312E-01  3.16497516E-01  1.31548113E-01 -5.04728473E-02 -3.24698030E-01
 -2.71333700E-01  4.98572420E-02  4.91060229E-03 -4.36329560E-02 -3.14376352E-02
 -3.64383189E-01  9.47106492E-03 -1.27945214E-02  5.44335580E-02  1.09408806E-02
  7.60412975E-02  1.38321243E-01 -7.26591944E-02  6.68773926E-02  2.41021260E-01
 -5.95351554E-01 -3.72337796E-02  1.01588153E-01  7.81417406E-03 -1.50573084E-01
 -9.73589421E-02 -9.76865490E-02 -9.71587102E-03  6.04115046E-02 -1.29011252E-02
 -2.50827533E-01  1.21135055E-01 -3.18568275E-02 -4.07035261E-01  1.93963726E-01
  4.19237939E-01  6.07910165E-01 -1.48834716E-01 -1.36718017E-01 -5.42729166E-04
 -6.08486470E-02  6.18246003E-02 -5.52597618E-01 -8.62517381E-02 -2.16137627E-02
  2.13405674E-01  2.86878036E-01  1.65958383E-01 -3.78973312E-01  2.09564850E-01
  6.17639699E-01 -2.76767370E-03  6.56061399E-03  1.95271900E-01  4.93900431E-02
 -3.66639042E-01  3.72034176E-02  1.98060885E-01  6.12363695E-01 -1.08628855E-01
 -4.36081572E-01  5.42786320E-02 -1.45274345E-01 -6.86893778E-01 -2.03468239E-01
 -2.20989805E-03  6.64842229E-02 -3.57452383E-01 -1.91187417E-02  5.50876099E-01
  1.99767039E-01  5.47560032E-02 -2.72933435E-01 -5.70491909E-02  4.36787329E-01
 -5.91766210E-02  1.15313416E-01 -8.70285844E-01  3.68933539E-02 -3.29517580E-02
 -1.86478701E-01 -1.62008806E-01 -1.45466069E-01  6.10908941E-01  3.06725780E-01
  5.51823923E-01 -5.33088096E-02 -3.91350787E-02  1.45046550E-01  7.98633723E-02
  1.55968880E-02 -1.00596673E-02  1.34614803E-01 -1.49162617E-02 -9.15595206E-03
 -2.88076126E-02  7.51802719E-02  9.45481788E-01  5.94101668E-02 -5.94707155E-02
 -1.48474078E-01  4.04386318E-03 -6.52181701E-02  5.29979469E-03  2.77245438E-01
  4.29852180E-01  1.32848539E-02  2.02494532E-01 -1.69111327E-01 -4.37228126E-01
  1.91051599E-01  7.95727347E-02  1.51255610E-01  2.18992784E-02 -5.80756083E-01
 -5.97209330E-01  7.04119910E-03 -1.47597483E-01 -1.30643745E-01  3.62875566E-01
  6.06016687E-01 -4.78426378E-02  8.88690881E-02 -1.40351274E-01 -6.25298010E-01
  8.30192834E-03  6.35627118E-02 -1.96807332E-01  1.21821752E-02 -1.57618145E-01
 -9.68246596E-03 -4.78517341E-02  2.25260819E-01  1.40800618E-01  8.12861312E-02
 -1.14502039E-01 -1.30186759E-02  4.29833783E-02  6.92466250E-03 -7.60338793E-02
  6.91376909E-03  3.25439947E-02 -1.59597154E-01  6.30872510E-03  8.02211410E-02
 -1.81791406E-02 -4.55924655E-02  3.55873081E-02 -1.64298584E-01  9.24069575E-02
 -7.90608586E-02 -1.00469128E-01  5.66406237E-01 -7.20647232E-02  2.55416137E-01
  4.86614251E-02 -6.71712419E-02 -8.13118218E-02 -7.55160579E-02  1.62037323E-01
  2.67945588E-01  5.76435176E-02  3.39488421E-02 -3.90795525E-02 -8.90365531E-02
  5.48879035E-02  3.84950456E-02 -5.43721846E-01  2.66700102E-02 -1.04544763E-01
  2.54496218E-01 -7.35491191E-02  7.82713451E-01  1.98014018E-01  1.07795983E-01
 -3.29012094E-02 -5.23224829E-02 -3.28236820E-01  4.02914904E-01 -2.58532768E-01
 -3.68560189E-02 -4.89838451E-01  4.36439507E-01  2.53483249E-01 -3.62213636E-01
  1.88699229E-01  3.83612681E-01  1.58086027E-01  2.45870752E-02  5.16516968E-01
  1.60796180E-02  9.94022349E-02 -1.41912260E-01  8.18294442E-02  5.47652047E-03
  8.74492738E-03 -1.34439509E-01 -1.07514512E-02 -5.93045758E-02 -4.03898776E-02
  4.16281685E-04  3.98816862E-03 -1.35635403E-02  7.43667570E-03 -4.65624540E-04
  9.02739932E-02  2.56543669E-02 -1.75105574E-02  6.11955993E-03  5.55792886E-02
  2.84337697E-01 -3.66963896E-02 -1.34869094E-01  1.06180527E-01 -4.58983780E-02
  5.14018333E-02 -1.72746366E-02  7.83831024E-03 -8.61207846E-03 -4.22050603E-03
  5.14734030E-02  4.03342528E-03  1.21783602E-02  3.54283134E-03 -5.91616492E-03
 -9.57551732E-02 -3.59739919E-02 -1.53203962E+00 -3.82376750E-02  2.95537065E-01
  4.01400796E-02 -1.00965178E-01  1.66743542E-01  5.29334851E-01  6.19423418E-01
 -1.77738045E-01  3.74454407E-01  1.91075173E-01  1.12486168E-01 -2.70126942E-01
  9.08593894E-02  1.34911878E-01  2.42063393E-01 -2.32835260E-02  2.41317082E-01
 -1.07535833E-01  1.62031490E-01  2.92156715E-01 -2.86783724E-01 -1.34282180E-01
 -3.26967166E-01 -5.07230307E-01 -1.69651914E-01  5.69826714E-02  3.98703126E-01
  3.90632294E-01  2.00499556E-01 -7.05249257E-02  2.25478326E-01 -3.65199334E-02
  1.04718853E+00 -1.50705797E-01  3.08281475E-02  4.45566957E-01  5.98617017E-01
 -1.83405223E-01  1.06333655E-01  7.00704100E-02 -4.79311343E-03  2.04162214E-01
  7.37093608E-01 -2.94407676E-01  2.53673143E-02  6.74313792E-01 -2.62125145E-01
  1.03756578E-03  1.65844373E-02 -6.67758347E-02 -8.08038250E-02  1.32242136E-02
 -8.02608758E-03  8.26094494E-02 -4.20765434E-02  4.52690606E-02 -1.01097803E-02
  4.75674587E-03  2.10866097E-02 -1.90078779E-03  1.16237396E-02  1.87515252E-02
 -1.74996630E-02 -8.44008700E-02  9.19229569E-02 -3.84868873E-03  1.88650393E-02
  1.56699483E-02 -9.39869281E-02 -5.56374165E-02  1.41943558E-02 -1.23790768E-01
  6.08083934E-02  1.33654478E-01 -5.89930107E-01  5.64327175E-01 -1.15686377E-01
  7.48023492E-02 -1.67815462E-02  4.41100133E-04 -1.18013487E-02  1.30183295E-03
  5.34167035E-03 -1.46107628E-03 -5.30978433E-03  1.88450184E-02  5.03012161E-03
 -9.07534932E-03 -2.97089474E-03 -8.08845677E-02  1.93535913E-02 -3.06137125E-02
 -7.78985468E-02  1.19193686E-02  3.20280283E-01 -4.70270274E-02  6.23864568E-02
  2.97651274E-01  9.88967889E-01  3.31078573E-01  7.09267406E-02 -5.72022392E-03
 -1.52207643E-01 -1.45457010E-01  2.62391405E-03  3.85374835E-01 -5.16918196E-01
 -8.73845999E-01 -6.19386207E-01 -4.81197535E-03  3.80176058E-03  7.83726094E-03
  9.27998792E-03 -2.01373004E-02  2.73105755E-01  5.46691359E-02  3.89821962E-01
 -1.04281717E-02 -1.31411130E-01 -7.00887970E-01  1.65390809E-01 -2.10665518E-01
  1.88935466E-01 -4.50669239E-02  6.95638634E-02 -1.98177452E-02 -3.81957700E-01
  3.10102665E-01 -5.13563959E-03 -2.37642508E-03  4.43548022E-02  5.71744844E-03
  3.04025311E-01 -2.17320140E-02  4.01760333E-03 -5.66163942E-02  5.80998704E-03
  1.58469130E-01  1.66606079E-01 -7.17569599E-02  1.01889374E-01  3.14562210E-01
 -5.91026164E-01 -1.55940868E-01  1.72634637E-02  8.63749062E-02 -2.58202341E-01
  1.33215122E-01  5.53606245E-01 -2.53340171E-01 -5.59144970E-01 -8.50840732E-04
 -1.50254072E-01  7.31652897E-01  2.14071677E-03  3.33337719E-01 -7.10469517E-01
 -1.27624376E-01  1.81113199E-01 -3.79927346E-03  3.86856266E-01 -3.99084073E-03
 -9.75112699E-02 -4.36031028E-01  2.91565909E-01 -2.44444463E-01 -1.60272761E-03
 -8.01449482E-03  3.90993004E-01  5.14487524E-03  1.19399894E-01  3.03315381E-01
  8.46701596E-02  5.77110273E-02  3.09828308E-02 -6.02974338E-02  5.51404016E-03
  1.51785340E-01 -8.48879363E-03 -1.54275693E-02 -2.82946355E-02  1.09652078E-02
  1.55382300E-01 -7.04657035E-03 -1.10140355E-02  2.56424356E-02  1.09738599E-02
 -1.32158316E-01  2.11450820E-02  7.33960858E-03  3.38154263E-02  3.10398722E-02
 -1.26093193E-01  1.90874943E-02 -9.21148660E-03 -3.18917302E-02  2.60601548E-02
  3.86398075E-02  1.09180435E-01  9.28690261E-02  5.91890171E-02  2.67392570E-01
 -4.92528356E-02 -1.36316019E-01 -5.31413378E-01  1.18731223E-01  4.38043225E-05
 -1.72936496E-01 -1.09567436E-01 -6.93443894E-02 -2.92947520E-02  2.46778492E-01
 -1.04837275E-01 -2.67861257E-02 -1.74677065E+00  5.11526366E-03 -9.59800372E-02
 -2.42487310E-02  1.13565696E-01 -2.07410423E-01 -7.85853499E-01  8.35019970E-01
 -3.13404556E-01  3.10622307E-01  1.48685406E-01  7.39733219E-02 -2.97528771E-01
  3.93276790E-01  9.72120094E-02  3.25610797E-02  9.12275005E-02 -1.96923523E-01
 -2.36198600E-01 -9.76825715E-02 -7.61255767E-02  3.82187562E-02  1.88236442E-01
  1.28394745E+00 -1.44449541E-01  6.06550030E-02 -3.84340232E-01 -2.65899590E-01
  6.72497462E-01  7.39399006E-02  1.85236138E-01 -2.18009920E-02 -1.44389428E-01
  6.84232329E-03  6.90023289E-03  1.31219187E-02  8.12132824E-02 -6.53786746E-02
  1.00317586E-02 -5.05918005E-01  1.06409041E+00 -1.24169245E-02 -1.04213393E-01
  2.61928984E-03  1.83626699E-02  2.69557294E-02  2.71048300E-01 -2.44495229E-01
 -3.01161756E-02  1.78966864E-02 -2.93078820E-01  3.59738848E-02 -2.94849405E-02
  5.31780603E-02 -1.52578030E-01 -2.34750662E-01 -5.38036417E-02  9.55999434E-02
  1.50690287E-01  1.34162261E-01  3.54097561E-02 -3.12514151E-02 -1.11589506E-01
 -5.84224691E-01  8.31875061E-03  6.49057959E-01 -2.87262866E-01 -4.51052668E-01
  6.65870364E-01  5.88478474E-03  3.38654525E-01 -1.64318714E-01  5.85441552E-01
  2.00939144E-01 -3.00902127E-02  3.23846086E-02  1.56187332E-02 -3.78147512E-02
 -1.57288813E-01  4.69799165E-02  4.76770677E-02 -1.31032529E-01  1.83986295E-01
  2.01727268E-02 -3.78482412E-02  2.72452930E-01  9.68104843E-02  3.94396834E-02
  5.97411624E-02 -6.17835995E-01 -8.29431180E-01 -2.28255728E-01 -2.16453594E-01
 -1.46745138E-01  8.29076729E-02 -4.84860828E-02  3.09849193E-01  1.95827361E-01
 -3.03806810E-02  4.50311899E-02 -4.52554636E-01  6.25778684E-02  1.39380833E-02
  3.85938640E-02 -2.27878346E-01  1.39920299E-01 -1.36855729E-01  1.26484724E-01
  1.57589264E-01  1.04280547E-01 -1.52604798E-02 -3.74913302E-02  6.57367582E-02
  4.33645593E-01 -6.70933525E-04  5.12984988E-01  1.38920646E-01  6.63559549E-01
 -5.53895218E-01  5.94652469E-05  6.97256502E-01  1.74318804E-01 -1.67350104E-01
 -1.03284285E-02  4.16196530E-02  9.61301453E-02  5.27787029E-02  1.43165069E-01
  2.01716730E-01 -1.66334284E-02  9.18617684E-02  1.61506375E-02  2.42958714E-02
Total SCF Density                          R   N=        1275
  2.13334800E+00  3.05023729E-01  8.46670545E-01  2.04218428E-01  3.87081662E-01
  2.60532749E-01 -9.74695127E-03 -2.52639492E-02 -4.01539958E-02  5.44281594E-01
 -5.01712000E-07  1.47133533E-05 -9.10796872E-06  9.12840248E-06  6.18465553E-01
  5.99475793E-02  1.30949009E-01  2.47627573E-01 -3.12487427E-02 -2.83346646E-05
  7.57484477E-01 -8.16609536E-03 -1.86845577E-02 -2.32904070E-02  3.04147546E-01
  6.14443400E-06 -2.91696450E-03  1.84480797E-01 -1.11067082E-05 -4.54368422E-06
  2.30835756E-05  2.19429982E-05  2.44142248E-01  9.52156990E-07  9.56441950E-07
  1.03189871E-01  6.15365915E-02  1.36985006E-01  1.64701435E-01 -8.70403170E-03
 -2.10713110E-06  3.85494903E-01  1.92987836E-03  2.62299689E-06  2.16150557E-01
  1.37066699E-02 -7.84754955E-04  1.53096376E-02  1.70076141E-03 -4.02066494E-07
  1.64086151E-02  1.23548626E-03 -1.95396050E-05  1.02956520E-02  7.13990779E-03
  1.61433188E-02  1.04074490E-02  1.72283786E-02 -2.21618711E-03  4.61900189E-06
  1.27410855E-02 -7.73873316E-04  5.06905447E-07  1.08544959E-02  4.33305622E-03
  8.60476875E-03  1.11619414E-02 -1.98348553E-03  2.91325281E-03 -1.51920453E-03
 -8.69791791E-06 -2.00840149E-02 -1.24544286E-03 -1.45095036E-05 -7.51192311E-03
  2.93027249E-03  3.31137341E-03  8.46375254E-03  3.35107013E-06  9.82820913E-06
 -3.42331453E-06 -1.89574761E-06  6.21222561E-03 -1.51523309E-06  4.01577212E-06
  2.52813602E-03 -1.51250326E-07 -6.64380754E-06 -4.64625549E-06 -6.39254746E-06
  2.28192791E-03  5.42979260E-04  1.09769152E-04  3.19893001E-03 -1.59468541E-02
  2.50382605E-06  6.07231450E-03 -8.86110894E-03 -4.16298499E-06  2.68951333E-03
 -2.59748174E-05  1.97737059E-04 -2.97405500E-04 -1.50926984E-07  2.91624398E-03
  4.23996804E-06  1.34118151E-05 -4.56020358E-05 -5.47479998E-06 -2.57409991E-02
 -2.18892920E-06  7.01730552E-06 -9.80336693E-03  1.21836502E-05  1.08813057E-05
 -3.45084027E-06 -7.14186499E-07 -2.03809706E-04  3.85011292E-06  3.63078033E-03
 -2.62335781E-03 -7.52658461E-03 -1.09684728E-04  4.53343180E-03  5.35591239E-06
 -1.13223532E-04 -3.20778171E-03  1.50535208E-06 -2.08180336E-03  1.39888011E-07
 -8.56400525E-04 -7.65217739E-04 -8.57648038E-07  1.67118580E-04 -8.35951263E-06
  2.12252306E+00 -5.36923709E-03 -1.55930106E-02  3.74244649E-05  8.18920381E-03
 -1.46933143E-05 -2.81083976E-04 -5.65107207E-03  3.64358468E-05 -5.22151425E-03
 -7.33795152E-04 -1.68783644E-03 -1.54241830E-03 -1.99779755E-05  3.94548793E-04
 -3.95233873E-05  2.66528566E-01  7.36417611E-01 -5.15701220E-03 -1.47507262E-02
  4.46557356E-03  1.25150100E-02  8.60952965E-05  1.52135312E-03 -1.29264981E-02
 -1.79723604E-04 -6.81312224E-03  6.74211842E-04 -2.25657087E-03 -2.15299839E-03
 -9.35709058E-06  6.70249177E-04  9.56091404E-05  2.28018030E-01  4.07878581E-01
  3.75905663E-01 -1.62527135E-02 -5.08979029E-02 -5.81427351E-03 -3.46696405E-02
 -7.91373837E-06 -1.39619090E-02 -7.42542004E-02  1.36607691E-05 -1.65843284E-02
  1.45122099E-03 -6.29500436E-03 -5.04260907E-03 -4.03259167E-06  1.87713427E-03
  2.58890788E-06  3.03596289E-03 -8.26155201E-03  8.96487779E-02  7.49627331E-01
 -1.72327466E-05 -2.27474856E-05  4.02341361E-05  1.10462141E-05 -7.00249988E-03
  1.57918015E-05 -3.28549267E-05  2.68121519E-04 -2.16084275E-05 -2.39139867E-05
 -2.98948559E-05 -2.45570134E-05 -6.30599065E-04 -1.34314429E-06  1.20988286E-04
 -4.28264409E-05 -2.36587258E-04  2.72295793E-04  1.45585439E-04  5.15164076E-01
 -8.81512758E-04 -2.06806124E-03 -1.78656690E-03 -2.37696368E-03  9.30782401E-06
 -1.27668919E-02  5.45226671E-04 -6.41210615E-05  1.17937254E-03 -2.50559347E-04
 -1.43077408E-04  7.58892096E-06 -9.87306590E-06 -1.01221893E-03  9.91514111E-06
 -5.77894034E-02 -1.14966757E-01 -2.75276027E-01  4.17021170E-02 -1.27269827E-04
  6.51400488E-01 -1.16565562E-02 -3.75800302E-02  1.27284349E-03 -1.66450118E-02
 -2.08450938E-05 -9.72606446E-03 -5.89925302E-02  1.07197162E-04 -1.27049231E-02
  2.14327462E-03 -5.35972385E-03 -4.39551674E-03  1.25879772E-05  1.36768619E-03
 -1.09530038E-05  1.19134763E-02  6.63752369E-03  8.57899314E-02  5.66442408E-01
 -4.24824848E-05  4.95179662E-02  4.70219082E-01 -2.10213608E-05 -9.68509044E-05
  2.44976476E-05  2.37494988E-05 -1.87620167E-03  9.37318538E-06 -5.74691911E-05
  8.78740688E-04 -8.39537390E-05  1.95185224E-05  6.66010387E-05  4.33594182E-05
 -2.43826152E-04 -9.48319243E-06 -1.31460993E-04  5.61401651E-07 -2.21149149E-04
  2.43394737E-04  1.13614325E-05  2.29847787E-01 -1.70003368E-04  2.11250002E-05
  1.10219798E-01 -1.46499612E-03 -1.91095608E-03 -1.36765542E-03 -7.93984631E-04
  2.79229321E-05 -6.67062952E-03 -2.91702914E-04 -1.53974997E-04  1.56587546E-03
  1.90710446E-05 -4.20360018E-04 -4.02924625E-04 -4.51437333E-05 -6.95030884E-04
  4.09231827E-05 -6.67496533E-02 -1.39474858E-01 -2.11734192E-01  5.86529245E-02
  6.65742537E-05  4.02119412E-01  5.65506632E-02 -1.04163424E-05  2.73184343E-01
  2.37673400E-04 -9.42031654E-05  9.88241929E-04 -1.38300940E-03 -9.09266815E-06
  7.07418215E-04 -1.64559271E-03  3.95957065E-05 -8.88330521E-05 -1.00701529E-04
 -1.18328278E-04 -1.67031718E-04  8.63493287E-06  1.16376830E-04 -1.39181091E-05
  1.29664534E-02 -1.75949796E-03  1.68812216E-02 -2.99259480E-03 -3.82898582E-05
 -1.24358061E-02 -1.43566089E-03  1.00918879E-04 -9.87949158E-03  7.09449619E-03
 -3.60529577E-04 -1.11403414E-03 -2.35960796E-04  9.59439796E-04  5.82986363E-06
 -1.43806762E-04  1.65369136E-04 -4.25216105E-05 -1.66780331E-04 -7.31697308E-05
 -1.65987703E-04 -9.08836800E-05 -2.87248372E-06  7.37471327E-06  2.05058754E-05
  1.37362041E-02  3.67052021E-03  1.43504066E-02 -5.49277902E-03 -2.60491142E-07
 -6.20335931E-03 -3.28587332E-03 -2.11086667E-05 -7.52084348E-03  3.80767809E-03
  7.49746313E-03 -3.34488568E-04 -1.16407480E-03 -3.20728530E-04  5.10263434E-04
 -1.05801075E-05 -4.78670004E-04 -3.87735315E-05  2.82889187E-06 -4.60211034E-05
 -2.63294958E-06 -9.42823668E-05 -1.45837937E-05  1.22967256E-05 -3.13666186E-05
  2.86024197E-06  9.13402022E-03 -7.24788699E-03 -4.32907809E-04 -2.70704001E-03
  1.39177971E-06  1.98970695E-02 -6.18789689E-04  1.67447639E-04  9.87457513E-03
  2.58688774E-03  3.55149918E-03  7.84110713E-03  7.20101217E-06  8.29741186E-06
  7.16152497E-06  1.42030068E-05  4.07481504E-04  2.32684423E-06 -2.48094147E-05
  1.33608857E-04 -5.55161188E-06 -8.35558659E-08 -1.59836172E-05 -2.05003870E-05
  2.52047369E-05 -4.91924553E-06 -5.76693766E-05  1.76385034E-05  1.08433845E-04
 -9.44600709E-05  3.20839792E-05 -2.85292287E-03  3.13733718E-05  7.77664883E-05
 -1.11723475E-03  4.22844725E-05 -5.71450792E-05 -2.58083673E-06  6.43514298E-06
  2.41971386E-03 -3.29043409E-04 -1.13197645E-03  3.67143405E-04 -7.58968966E-04
  1.11948318E-05  3.04905830E-04 -2.25497000E-03  6.49257362E-06 -6.31408712E-05
  1.71197369E-04 -1.85016574E-04 -1.65280470E-04 -1.62150945E-06  1.04781231E-04
 -5.24423343E-07 -4.91456565E-05 -1.16269941E-03  3.04563194E-03  2.00960694E-02
  1.62823413E-05  2.55770546E-04  1.60360044E-02 -1.99245648E-05  1.51418762E-03
 -1.72891128E-04 -2.25793971E-04 -1.30248036E-04  1.05864024E-04  3.35261682E-03
 -1.08733952E-05 -4.77423517E-05  2.95061965E-05 -7.01850498E-07 -2.59213421E-04
 -8.61073413E-06  1.35599809E-05  1.88445757E-04 -3.41988604E-05  1.07270267E-05
  4.24894079E-05  2.33158550E-05 -6.08962301E-05 -5.61620812E-06 -1.30747990E-05
  3.98064607E-05  1.33395028E-04 -1.58568589E-04 -1.04127195E-05  2.30213592E-02
 -3.78029956E-05  3.35150301E-05  9.77675795E-03 -7.09580857E-05  8.38393589E-06
  1.06656418E-04 -5.01539465E-05 -4.69262852E-05  2.60278789E-05  3.30038707E-03
  6.91467406E-02  1.25102175E-01 -7.88704766E-03  5.36806995E-02  3.26582214E-01
 -2.49074431E-01  2.64397203E-02  1.38635551E-01 -1.19428248E-01 -2.80184313E-03
  3.68254609E-03  1.21278640E-02  3.91398835E-03 -4.25969149E-03 -1.64229087E-02
 -2.55618096E-03 -5.96270973E-03 -7.37014665E-03 -1.20513075E-02 -6.54348175E-03
  7.93255362E-03 -9.68971284E-03 -2.23640851E-03  4.70563073E-03 -8.74816385E-04
 -2.34406874E-04 -5.00144566E-05  2.52764673E-04 -5.62999673E-04 -3.65505737E-04
  3.51750166E-01 -9.57117626E-03 -1.60956499E-02 -1.30762053E-02  4.59094994E-03
  1.75227761E-02 -2.45268860E-02 -4.56379067E-04  7.43118880E-03 -1.47702766E-02
 -6.48476132E-04 -1.13238138E-03  1.54249016E-04  1.84553034E-04 -2.34519840E-04
 -7.47109033E-04  3.62044545E-03  6.71855073E-03  1.19912067E-02  2.94066555E-02
  6.87202987E-03 -8.08576405E-03  2.39384418E-02  3.27852491E-03 -4.51740247E-03
  2.35914749E-04  1.13191160E-04 -2.59034449E-04  2.12810427E-05  8.13852395E-04
  3.59823514E-04  1.62427312E-02  3.14192789E-03 -2.55003887E-03 -4.51508597E-03
 -1.57746288E-03  1.65759485E-02 -7.23578212E-03  3.67456368E-03  1.01132463E-02
 -3.11176591E-03  1.89702142E-03  2.42144913E-04 -2.23236128E-04 -3.53090176E-04
  3.93068763E-04 -7.84474222E-04  4.75833955E-04  2.88299143E-04  1.00982232E-03
  4.49992489E-04 -2.38245198E-03 -6.62253583E-04  6.34964176E-04 -1.68269486E-03
 -3.66227537E-04  3.83764286E-04  6.93102589E-06  6.39307073E-05  3.47172170E-05
  8.73798237E-06 -7.96225988E-05 -5.22657773E-05 -5.88707204E-03 -2.46038354E-04
  9.31206947E-04 -1.36114419E-02 -2.08020904E-02  3.40757717E-03 -9.39128108E-03
 -2.71099398E-02  4.54511139E-02 -4.41666774E-03 -1.17645360E-02  2.26364988E-02
  7.86120101E-04 -7.01006444E-05 -2.33270734E-03 -3.63768743E-04  8.96132011E-04
  1.54470525E-03  1.42352876E-04  4.66228755E-04  6.27610977E-04  2.90896346E-04
  1.62671846E-04 -1.28290757E-03  1.88639680E-04 -8.57275235E-06 -7.83127074E-04
  1.57411317E-04  4.04659814E-05 -2.04357761E-07 -2.50142573E-05  3.99612588E-05
  8.48618432E-06 -4.49180412E-02 -2.05096611E-03  6.91330088E-04  6.79363903E-03
  1.12664524E-02  1.88005126E-02  8.64961752E-03  3.87266240E-03  3.41396376E-02
  2.75080793E-03  2.26179801E-03  1.49077719E-02  2.90468052E-03  3.55472013E-04
  1.16536784E-03  7.36840106E-06  5.10502992E-04 -1.66883513E-04 -1.54408005E-03
 -1.86243144E-05  6.49802701E-05  1.19487759E-04 -9.66287826E-04 -6.83708889E-04
 -4.99116365E-04 -7.47991325E-04 -2.49286713E-04 -3.63611387E-04 -7.34071005E-06
 -2.74766157E-05 -5.40741786E-05  2.79060496E-06 -4.03611539E-05 -3.36065473E-05
  2.65493135E-02  6.89612174E-04 -4.94856557E-04 -2.86448674E-03  3.12232534E-03
  6.91309073E-02  1.25119028E-01 -7.82568364E-03  5.37227828E-02 -3.26642595E-01
 -2.49113740E-01  2.64318587E-02 -1.38716981E-01 -1.19454950E-01 -2.82619135E-03
  3.67298182E-03  1.21237014E-02 -3.91382097E-03 -4.27059306E-03  1.64663264E-02
 -2.55425327E-03 -5.90956108E-03 -7.58523087E-03 -1.19933653E-02  6.53501982E-03
  7.84395416E-03 -9.50832222E-03  2.05100506E-03  4.53691753E-03 -8.27775929E-04
 -2.97132574E-04 -2.71783353E-05 -2.62203749E-04 -5.55579946E-04  2.90773243E-04
 -5.06728201E-02 -3.98415936E-03  3.07911273E-03 -8.45136930E-03 -1.52669070E-02
  3.51679958E-01 -9.57901098E-03 -1.60969883E-02 -1.31594037E-02  4.59403319E-03
 -1.74857307E-02 -2.45009554E-02 -4.45974619E-04 -7.38534484E-03 -1.47216444E-02
 -6.40347527E-04 -1.13853652E-03  1.60285298E-04 -1.80134194E-04 -2.33030546E-04
  7.40733074E-04  3.61261296E-03  6.72094025E-03  1.18789878E-02  2.93212946E-02
 -6.79385000E-03 -8.10665372E-03  2.38766072E-02 -3.21572361E-03 -4.57156894E-03
  2.52142561E-04  1.07763806E-04 -2.46356286E-04 -7.32792289E-06  8.03038680E-04
 -3.46143320E-04 -3.95024681E-03  1.73419082E-03  1.70831283E-04 -4.93418893E-04
 -1.29106929E-03  1.62538194E-02  3.12289075E-03 -2.53843551E-03 -4.48904836E-03
 -1.66051791E-03  1.65943344E-02  7.22235176E-03  3.67010045E-03  1.00948954E-02
  3.12307020E-03  1.90768840E-03  2.45634924E-04 -2.38564633E-04 -3.47843723E-04
 -3.90962330E-04 -7.86278182E-04 -4.82376063E-04  2.69868501E-04  9.45189318E-04
  5.45534849E-04 -2.36871761E-03  6.87294395E-04  5.37631851E-04 -1.63287975E-03
  3.91670185E-04  2.13463837E-04  1.84180714E-05  3.82688141E-05  1.07748856E-05
 -4.96055806E-06 -7.10193439E-05  6.31659624E-05  3.08557969E-03  1.91539519E-04
  4.53021671E-04 -1.89586403E-04  4.54546162E-04 -5.84617796E-03 -2.35543163E-04
  9.44374695E-04  1.36034713E-02  2.07837965E-02 -3.32889130E-03  9.38597938E-03
 -2.70912985E-02 -4.54528945E-02  4.41571811E-03 -1.17836824E-02 -2.26710232E-02
 -8.05363671E-04  8.39699283E-05  2.32944146E-03 -3.70704824E-04 -8.99977585E-04
  1.55794408E-03 -1.29116753E-04 -4.41969850E-04 -6.16192018E-04 -2.86851270E-04
  1.35726409E-04  1.30217077E-03 -2.06794578E-04 -2.30867906E-05  8.29935880E-04
 -1.67142861E-04 -4.14817362E-05 -6.85563016E-06 -2.80485327E-05 -3.52999914E-05
 -1.82862653E-06  8.43626144E-03  4.87609547E-04  2.07068412E-04 -2.97213950E-03
 -1.08149047E-03  4.48431977E-02  2.05294223E-03 -6.97451886E-04  6.78351757E-03
  1.12653907E-02  1.88072421E-02  8.66572256E-03  3.88293257E-03 -3.41532850E-02
  2.75036289E-03  2.25851571E-03 -1.49095328E-02  2.88291607E-03  3.47149951E-04
  1.16482317E-03  4.64955663E-06 -5.07064903E-04 -1.67389071E-04  1.55540854E-03
  3.33555292E-07  1.97572084E-05  3.13847863E-04 -9.61715302E-04  6.80372932E-04
 -5.32768775E-04 -7.68357799E-04  2.60007004E-04 -3.72947312E-04 -2.87781477E-05
 -1.53786673E-05 -7.58993848E-05 -7.62937960E-06 -3.46061398E-05  2.61739431E-05
 -1.52816849E-02 -1.29627319E-03  4.43052502E-04  1.08236516E-03 -1.55612318E-03
  2.65307129E-02  7.01130638E-04 -4.67298184E-04  2.84249866E-03  3.12970503E-03
  6.78665478E-05 -1.68388310E-04 -1.15798247E-03  2.93691938E-03 -5.83073493E-03
 -5.19740867E-03  6.59325302E-03 -1.78012871E-04  6.32040180E-04 -6.34478071E-04
  2.21926397E-04  2.94031446E-04 -4.25877735E-04 -5.41235480E-04  1.58597215E-04
  6.52054837E-02  1.18599209E-01 -3.03684729E-02 -6.78680746E-02  3.07939318E-01
  2.37289176E-01 -4.40273775E-02  1.45905708E-01  1.35182138E-01 -3.05181524E-03
  4.72579509E-03  1.20894236E-02 -2.23291144E-03 -3.19236453E-03  1.66400662E-02
 -1.50443619E-03 -9.45441544E-04  3.44053022E-04 -3.60730083E-04 -6.37973864E-04
  8.88330329E-03 -9.89062399E-03  1.15367515E-03  6.87210379E-04  3.67545846E-04
  3.75457800E-01  1.51037217E-03  3.82082909E-03  2.23976211E-03 -1.60563362E-03
  2.04634674E-03  2.79406392E-03  3.80618924E-04  1.37279255E-03  2.50944334E-03
  2.07482105E-05  2.22459100E-04  3.43161717E-06 -8.20453378E-05 -5.78197006E-05
 -1.73052109E-04 -7.77805672E-03 -1.10782492E-02 -2.55465483E-02 -6.81359923E-03
  6.49291081E-02  5.05656606E-02 -4.37124284E-03  3.07689857E-02  3.32451279E-02
 -1.21909806E-03 -6.35020142E-04  1.56128320E-03 -4.13559477E-04 -3.04313696E-04
  3.09324938E-03  9.03002791E-04 -2.87779764E-04 -8.49849905E-05 -1.14329283E-04
  1.36153548E-04 -7.88899948E-04 -2.31771812E-03  1.82829950E-04 -1.78089117E-04
 -7.80615127E-05  6.48241804E-02  1.36365698E-02 -6.00121737E-04 -2.39527362E-03
 -6.79569166E-05 -2.79356624E-03  2.91460128E-04 -9.20300019E-06 -4.12080625E-03
  2.67267483E-04 -2.98879103E-04  6.61558873E-05 -3.04408518E-04 -2.32307578E-04
  3.42057333E-06  1.21041201E-04 -4.70751627E-05  1.72370360E-03  1.97261226E-03
  1.79469184E-03  2.84112623E-02  9.25805987E-03  9.41686217E-03  2.39704242E-02
  4.50069536E-03  7.06004287E-03 -3.92379874E-04 -3.44383231E-05  3.01251064E-04
  3.85492256E-04  1.20226769E-03  6.17926790E-04 -8.95104513E-04  1.22878807E-03
 -1.58053343E-04  6.32971963E-05 -4.76401576E-05 -1.05594486E-03  9.31286350E-04
 -1.10965222E-04 -1.29547812E-04 -9.89004144E-05  8.25790877E-03  1.64892006E-03
  1.92907853E-03 -2.34181153E-04 -4.07088072E-04 -5.06834347E-05 -1.15415426E-04
  1.74284884E-04  5.84661372E-04 -7.33316498E-04 -1.66102697E-05 -2.05958862E-04
  7.11466881E-05 -2.38735233E-05 -6.47491982E-05  2.48905564E-05  5.70855006E-05
 -2.65079854E-05 -1.26066004E-02 -1.94111939E-02  4.06292092E-03  9.75420558E-03
 -1.94080046E-02 -3.39741645E-02  6.41766575E-03 -9.37837154E-03 -1.93632135E-02
  6.51031639E-04 -3.36073663E-04 -2.04226133E-03  1.65614196E-04  5.95598386E-04
 -1.24182668E-03 -4.17772454E-04  4.45325130E-04 -4.00495407E-05  2.78341556E-05
  5.12360098E-05 -7.53667122E-04  1.09390801E-03 -1.54558926E-04 -6.27426799E-05
 -6.68768230E-05 -3.82933676E-02 -5.72028727E-03 -7.39255922E-04  5.15729383E-03
 -7.42743833E-05 -2.07286529E-04 -2.79317813E-04 -5.52945819E-04  5.38200947E-04
 -3.36830153E-04 -6.06012580E-04  9.69454007E-05 -1.36277821E-04 -3.16662720E-06
 -7.05870236E-05 -4.28020983E-05  2.53635030E-05  1.31039579E-05 -3.00284830E-05
 -1.06998968E-02 -1.76233387E-02 -9.56181016E-03  7.29985767E-03 -2.67009653E-02
  6.47638644E-03  5.70965167E-03 -1.32147557E-02  6.22444142E-03 -3.91590148E-04
 -1.11046733E-03  2.72725192E-04  2.72204715E-04  2.16708350E-04 -1.38276581E-03
  5.26173977E-04 -2.68585028E-04 -7.31977135E-06 -2.28996880E-05  3.20474624E-05
 -3.78933042E-04  4.65019159E-04 -7.61270183E-05  2.14257383E-05 -5.11583781E-05
 -2.20595074E-02 -3.18647569E-03 -3.54855581E-04  1.88674237E-03  2.64140425E-03
  4.45651645E-05 -2.44152923E-04 -1.07966820E-03  2.91445099E-03  5.79161539E-03
 -5.21229158E-03  6.64045589E-03  3.52696441E-04  5.27356751E-04 -6.17826858E-04
  3.08833099E-04  3.32912762E-04  4.45444855E-04 -5.46652947E-04 -2.71013394E-04
  6.51498693E-02  1.18227447E-01 -3.05552678E-02 -6.78645730E-02 -3.08065328E-01
  2.37214570E-01 -4.37740139E-02 -1.46354246E-01  1.35040484E-01 -2.89218916E-03
  4.77564231E-03  1.22295779E-02  2.26163470E-03 -3.22866918E-03 -1.64645534E-02
  8.71947660E-03 -1.00007409E-02  1.15301471E-03 -7.13331558E-04  4.51688923E-04
 -1.46043548E-03 -9.45679203E-04  3.33414021E-04  3.75547278E-04 -7.08519375E-04
 -5.19982192E-02 -2.19589907E-02 -4.39659416E-03 -8.95639726E-03  1.39822610E-02
  3.76195990E-01  1.50288691E-03  3.78376033E-03  2.10462008E-03 -1.57428011E-03
 -2.06942602E-03  2.83796548E-03  4.20409528E-04 -1.44286517E-03  2.55699164E-03
  6.06599669E-05  2.62838855E-04  4.38572950E-05  7.05996861E-05 -5.77014536E-05
  1.85002582E-04 -7.73691917E-03 -1.09845904E-02 -2.57332436E-02 -6.66906318E-03
 -6.49050929E-02  5.03557606E-02 -4.24334298E-03 -3.08977945E-02  3.30075765E-02
 -1.22530782E-03 -4.98127520E-04  1.50475186E-03  4.15397340E-04 -2.84648481E-04
 -3.12289772E-03 -7.83401430E-04 -2.32298795E-03  2.21343379E-04  1.70971821E-04
 -5.87989548E-05  8.31209607E-04 -3.04848012E-04 -1.51974723E-04  1.44647417E-04
  1.33543772E-04 -2.18335218E-02 -4.60820905E-03 -8.85606196E-04 -2.96306723E-04
  4.02159886E-03  6.47100838E-02  1.35505261E-02 -5.84488059E-04 -2.38716318E-03
 -1.38554126E-04 -2.79703212E-03 -2.90311913E-04 -3.19933593E-06 -4.05891618E-03
 -3.00955028E-04 -3.21011619E-04  7.82207206E-05 -2.73890055E-04 -2.00398739E-04
 -4.95043883E-06  1.30272332E-04  5.91018830E-05  1.71340198E-03  1.78726045E-03
  2.24960652E-03  2.83768554E-02 -9.22884784E-03  9.39092739E-03  2.37188707E-02
 -4.53620629E-03  7.13671211E-03 -4.28539430E-04 -7.39433769E-05  3.42059163E-04
 -3.96670488E-04  1.28576895E-03 -6.14176505E-04 -1.03122744E-03  9.26032720E-04
 -1.24888414E-04  1.23294892E-04 -1.16870155E-04 -9.38781535E-04  1.20357235E-03
 -1.63969332E-04 -4.40127894E-05 -4.01162981E-05 -4.54827865E-03 -9.09545482E-04
  8.78855585E-04  1.51214370E-04  7.24710648E-04  8.07690524E-03  1.71636878E-03
  2.12805052E-03  2.29574589E-04  4.20100341E-04  1.66411615E-04  1.18482908E-04
  1.76318563E-04 -6.01805427E-04  7.42388098E-04  6.82252928E-05  1.57881405E-04
 -1.14405508E-04  1.11949705E-05  3.56554261E-05  6.73675666E-05 -5.94842840E-05
 -4.93142649E-05  1.25798052E-02  1.93597586E-02 -4.12550338E-03 -9.75285980E-03
 -1.93397279E-02  3.40365934E-02 -6.38667376E-03 -9.17731242E-03  1.94365602E-02
 -6.44408730E-04  3.05331946E-04  2.06171586E-03  1.72038009E-04 -6.01053668E-04
 -1.21191284E-03  6.88402169E-04 -1.09820033E-03  6.59287698E-05 -6.54652517E-05
  2.08800714E-05  4.20056932E-04 -4.40953136E-04  1.49432536E-04 -9.07347168E-06
 -3.48178029E-05  8.99154212E-03  3.29990818E-04 -1.66964683E-04 -2.54978416E-03
  7.47888377E-04  3.83881615E-02  5.70959268E-03  6.79436708E-04  5.10689636E-03
 -7.23942461E-05 -2.96224140E-04 -3.05998818E-04 -5.46780072E-04 -5.11997632E-04
 -3.26155254E-04 -5.72674895E-04 -1.47600652E-04 -1.36601980E-04  4.68889215E-05
  3.84901906E-06  1.62378739E-05 -3.45583807E-05  1.24505706E-05  5.35742288E-05
 -1.06666188E-02 -1.75090792E-02 -9.84368360E-03  7.31236961E-03  2.67140784E-02
  6.51802659E-03  5.71201171E-03  1.32560723E-02  6.16977354E-03 -3.83842773E-04
 -9.40666305E-04  2.44213483E-04 -2.84391523E-04  2.56629395E-04  1.28883558E-03
 -3.66583275E-04  4.76319239E-04 -7.05061412E-05 -3.02540511E-05 -6.53864013E-05
  4.63710144E-04 -2.88128245E-04 -3.43510641E-05  5.56821804E-05  4.35154119E-05
  1.42153147E-02  4.07413242E-03  6.95888056E-04 -7.41533660E-04 -9.44929997E-04
 -2.20288937E-02 -3.25835600E-03 -2.08092491E-04 -1.88072605E-03  2.52658939E-03
Natural orbital occupancies                R   N=          46
  9.99984400E-01  9.99984199E-01  9.93719234E-01  9.93001751E-01  9.89899916E-01
  9.85810694E-01  9.85739266E-01  9.85738383E-01  9.85604413E-01  5.00000000E-01
  1.04721333E-02  1.09465058E-02  1.09736943E-02  1.06186760E-02  8.64224437E-03
  2.03187768E-03  3.97238812E-03  3.62479032E-06  4.65006983E-06  2.04299842E-03
  1.44010724E-03  1.71391085E-03  1.78940844E-03  3.60616353E-04  3.65556858E-03
  1.63529570E-03  4.66368742E-06  4.18497102E-06  1.70616819E-03  1.68180563E-04
  1.43794718E-03  1.43051343E-04  6.03681571E-04  1.51740849E-04  3.95514564E-04
  4.36584605E-06  3.64000568E-06  1.74287198E-04  1.70682379E-03  1.35181221E-04
  1.63817037E-03  4.93541267E-04  1.15906170E-03  2.77567868E-04  3.14644095E-06
  3.12466828E-06
Dipole Moment                              R   N=           3
  1.92322869E+00  4.89102554E-04 -8.81380090E-02
