[Molden Format]
p30-5 set                                                                       
[Atoms] AU
 O        1     8        0.0000        0.0000        0.7278
 H        2     1       -1.5365        0.0000       -0.3639
 H        3     1        1.5365        0.0000       -0.3639
[GTO]
    1 0
s    5 1.00
    2266.176778500000 -0.538935039217E-02
     340.870101910000 -0.402347213890E-01
      77.363135167000 -0.180081842055E+00
      21.479644940000 -0.468288576577E+00
       6.658943312400 -0.446926171602E+00
s    1 1.00
       0.809759756680  0.100000000000E+01
s    1 1.00
       0.255307722340  0.100000000000E+01
p    3 1.00
      17.721504317000  0.626302487632E-01
       3.863550544000  0.333311384824E+00
       1.048092088300  0.741486383081E+00
p    1 1.00
       0.276415444110  0.100000000000E+01
d    1 1.00
       1.200000000000  0.100000000000E+01
 
    2 0
s    3 1.00
      13.010701000000  0.334854848130E-01
       1.962257200000  0.234721870881E+00
       0.444537960000  0.813770285260E+00
s    1 1.00
       0.121949620000  0.100000000000E+01
p    1 1.00
       0.800000000000  0.100000000000E+01
 
    3 0
s    3 1.00
      13.010701000000  0.334854848130E-01
       1.962257200000  0.234721870881E+00
       0.444537960000  0.813770285260E+00
s    1 1.00
       0.121949620000  0.100000000000E+01
p    1 1.00
       0.800000000000  0.100000000000E+01
 
[MO]
Sym=     1a
Ene=   -0.211470E+02
Spin= Alpha
Occup= 1.999980
     1     0.989191
     2    -0.039107
     3     0.010804
     4     0.000027
     5     0.000003
     6     0.002356
     7     0.000024
     8    -0.000003
     9     0.000161
    10     0.004124
    11     0.005567
    12     0.004540
    13     0.000004
    14    -0.000010
    15    -0.000000
    16     0.002307
    17    -0.001359
    18     0.001473
    19     0.000006
    20     0.001047
    21     0.002320
    22    -0.001357
    23    -0.001477
    24    -0.000000
    25     0.001053
Sym=     2a
Ene=   -0.167258E+01
Spin= Alpha
Occup= 1.985119
     1     0.291370
     2     0.624540
     3     0.338376
     4    -0.005219
     5     0.000085
     6     0.190375
     7    -0.002301
     8     0.000090
     9     0.146032
    10     0.021625
    11     0.013891
    12     0.006798
    13     0.000009
    14     0.000242
    15     0.000003
    16     0.078072
    17    -0.012718
    18     0.012814
    19    -0.000019
    20     0.015329
    21     0.072422
    22    -0.012992
    23    -0.012266
    24     0.000010
    25     0.014732
Sym=     3a
Ene=   -0.121383E+01
Spin= Alpha
Occup= 1.971007
     1    -0.029819
     2    -0.052267
     3     0.063683
     4     0.388644
     5     0.000237
     6     0.422557
     7     0.159270
     8     0.000187
     9     0.216679
    10     0.002990
    11     0.008310
    12    -0.014538
    13     0.000003
    14    -0.016985
    15    -0.000020
    16    -0.387624
    17    -0.021587
    18    -0.052667
    19    -0.000017
    20    -0.024469
    21     0.047754
    22    -0.001830
    23     0.010529
    24    -0.000019
    25     0.020987
Sym=     4a
Ene=   -0.121935E+01
Spin= Alpha
Occup= 1.970893
     1     0.033429
     2     0.060397
     3    -0.059066
     4     0.391650
     5    -0.000041
     6    -0.416756
     7     0.160645
     8     0.000012
     9    -0.213021
    10    -0.002627
    11    -0.008024
    12     0.014534
    13    -0.000005
    14    -0.017140
    15     0.000004
    16    -0.049556
    17     0.001515
    18     0.010242
    19    -0.000011
    20    -0.020931
    21     0.388927
    22     0.021575
    23    -0.052716
    24     0.000006
    25     0.024807
Sym=     5a
Ene=   -0.581352E+00
Spin= Alpha
Occup= 1.000000
     1    -0.000052
     2    -0.000184
     3     0.000087
     4    -0.000156
     5     0.722632
     6    -0.000185
     7    -0.000052
     8     0.401998
     9    -0.000124
    10    -0.000010
    11    -0.000022
    12    -0.000006
    13    -0.000030
    14     0.000007
    15    -0.020943
    16     0.000097
    17    -0.000056
    18     0.000039
    19     0.022397
    20     0.000007
    21    -0.000050
    22     0.000079
    23     0.000017
    24     0.022214
    25    -0.000017
Sym=     6a
Ene=   -0.358079E-01
Spin= Alpha
Occup= 0.022198
     1     0.203587
     2     0.763043
     3     0.019387
     4     0.634964
     5     0.000237
     6    -0.514050
     7    -0.032274
     8    -0.000058
     9     0.103950
    10    -0.151015
    11    -0.082743
    12    -0.098889
    13    -0.000364
    14     0.064138
    15    -0.000103
    16     0.006363
    17    -0.002194
    18     0.005055
    19     0.000008
    20    -0.001434
    21    -0.862639
    22    -0.017666
    23     0.148328
    24    -0.000437
    25    -0.079768
Sym=     7a
Ene=   -0.696709E-02
Spin= Alpha
Occup= 0.003273
     1     0.006037
     2     0.030967
     3    -0.033314
     4     0.012410
     5    -0.587983
     6    -0.008325
     7    -0.015243
     8     0.610315
     9     0.017684
    10     0.021555
    11    -0.012798
    12    -0.029810
    13    -0.538649
    14    -0.021608
    15    -0.363083
    16     0.016512
    17    -0.001069
    18    -0.008065
    19     0.256518
    20     0.016163
    21     0.018567
    22     0.000287
    23     0.000943
    24    -0.038146
    25     0.003334
Sym=     8a
Ene=   -0.182454E-01
Spin= Alpha
Occup= 0.007280
     1    -0.501791
     2    -2.035930
     3     0.821751
     4     0.007465
     5    -0.000776
     6    -0.598554
     7    -0.014529
     8     0.002418
     9     0.551482
    10     0.675398
    11     0.659292
    12     0.476437
    13     0.001685
    14     0.001486
    15     0.000643
    16    -0.101603
    17    -0.038503
    18    -0.095644
    19    -0.003849
    20    -0.005029
    21    -0.090400
    22    -0.037727
    23     0.097367
    24    -0.000385
    25    -0.003267
Sym=     9a
Ene=   -0.111787E-03
Spin= Alpha
Occup= 0.000006
     1     0.080197
     2    -0.088612
     3     0.859732
     4    -0.012017
     5     0.009622
     6     0.276571
     7    -0.461840
     8    -0.057515
     9    -0.681854
    10    -0.770067
    11    -0.391364
    12     0.066263
    13     0.004376
    14     0.128162
    15     0.033131
    16    -0.541002
    17    -0.054220
    18     0.003886
    19     0.071974
    20     0.499385
    21     0.035000
    22    -0.050671
    23     0.029340
    24     0.059287
    25     1.022127
Sym=    10a
Ene=   -0.700100E-02
Spin= Alpha
Occup= 0.003140
     1     0.014114
     2     0.171042
     3    -0.534362
     4     0.252794
     5     0.189922
     6    -0.123967
     7    -0.424676
     8    -0.185244
     9     0.436517
    10     0.203024
    11    -0.490341
    12     0.308170
    13    -0.248261
    14    -0.491238
    15     0.173421
    16     0.205814
    17    -0.002602
    18     0.046980
    19     0.020702
    20     0.077860
    21     0.374432
    22    -0.036087
    23    -0.135996
    24    -0.118694
    25     0.008270
Sym=    11a
Ene=   -0.703187E-02
Spin= Alpha
Occup= 0.003117
     1    -0.002427
     2     0.111316
     3    -0.529286
     4    -0.280435
     5    -0.004441
     6    -0.135998
     7     0.452951
     8     0.006829
     9     0.451222
    10     0.180608
    11    -0.508921
    12     0.435830
    13    -0.009261
    14     0.551660
    15    -0.006075
    16     0.362971
    17    -0.033363
    18     0.148538
    19     0.003670
    20    -0.022615
    21     0.200570
    22    -0.002108
    23    -0.036041
    24    -0.008577
    25     0.082266
Sym=    12a
Ene=   -0.967387E-02
Spin= Alpha
Occup= 0.003899
     1     0.157284
     2     0.674174
     3    -0.382228
     4    -0.020958
     5     0.011461
     6    -0.079449
     7     0.044234
     8    -0.016016
     9     0.133008
    10     0.476872
    11    -0.194186
    12    -0.931148
    13     0.049478
    14     0.047192
    15    -0.000838
    16     0.186499
    17    -0.006958
    18    -0.062286
    19    -0.006311
    20     0.161484
    21     0.163049
    22     0.000108
    23     0.065544
    24     0.012786
    25     0.153087
Sym=    13a
Ene=   -0.128275E-03
Spin= Alpha
Occup= 0.000007
     1     0.107208
     2     0.102201
     3     0.262225
     4     0.036333
     5     0.023286
     6     0.252091
     7     1.166377
     8    -0.136547
     9     0.192287
    10    -0.560034
    11    -0.253187
    12    -0.514575
    13    -0.010365
    14    -0.372720
    15     0.080819
    16     0.998559
    17    -0.064798
    18     0.573123
    19     0.145409
    20     0.883669
    21    -0.502678
    22    -0.066026
    23    -0.542861
    24     0.164979
    25    -0.339942
Sym=    14a
Ene=   -0.685943E-02
Spin= Alpha
Occup= 0.003035
     1    -0.001429
     2    -0.053755
     3     0.215995
     4    -0.110182
     5     0.344820
     6     0.053951
     7     0.186467
     8    -0.324243
     9    -0.185592
    10    -0.075989
    11     0.224324
    12    -0.178840
    13    -0.586505
    14     0.218388
    15     0.406752
    16    -0.076793
    17    -0.003134
    18    -0.018827
    19     0.059749
    20    -0.025312
    21    -0.152290
    22     0.016500
    23     0.063122
    24    -0.262321
    25     0.004365
Sym=    15a
Ene=   -0.357941E-01
Spin= Alpha
Occup= 0.022178
     1    -0.197134
     2    -0.737666
     3    -0.023080
     4     0.651075
     5     0.000515
     6     0.503908
     7    -0.029874
     8    -0.001447
     9    -0.104725
    10     0.146966
    11     0.080471
    12     0.096740
    13     0.000126
    14     0.069910
    15     0.000017
    16     0.864080
    17     0.015119
    18     0.148964
    19     0.000308
    20     0.079562
    21    -0.031731
    22     0.003590
    23     0.007065
    24     0.002035
    25    -0.004436
Sym=    16a
Ene=   -0.576348E-02
Spin= Alpha
Occup= 0.002429
     1    -0.002680
     2    -0.010667
     3     0.007846
     4    -0.009670
     5     0.548303
     6     0.001638
     7     0.013249
     8    -0.705735
     9    -0.011008
    10    -0.004757
    11     0.022131
    12    -0.002347
    13    -0.131041
    14     0.015258
    15    -0.755151
    16    -0.006115
    17     0.003308
    18    -0.009819
    19     0.053947
    20     0.000126
    21    -0.007464
    22    -0.000287
    23     0.000805
    24     0.011581
    25    -0.000367
Sym=    17a
Ene=   -0.107193E-03
Spin= Alpha
Occup= 0.000006
     1     0.003965
     2     0.032222
     3    -0.050586
     4     0.044660
     5     0.110868
     6    -0.022229
     7    -0.326526
     8    -0.657451
     9     0.141539
    10     0.089649
    11     0.009884
    12    -0.111622
    13     0.112378
    14     0.037675
    15     0.382687
    16    -0.126569
    17    -0.009626
    18     0.183065
    19     0.892314
    20    -0.303872
    21     0.228024
    22     0.002673
    23     0.026738
    24     0.605911
    25     0.031917
Sym=    18a
Ene=   -0.120959E-02
Spin= Alpha
Occup= 0.000518
     1    -0.035117
     2    -0.203289
     3     0.431595
     4     0.478075
     5     0.000958
     6     0.015022
     7    -1.014556
     8     0.000062
     9    -0.331750
    10     0.258898
    11    -0.128377
    12     0.089134
    13    -0.009807
    14     0.464434
    15    -0.000830
    16    -0.952299
    17    -0.147729
    18    -0.018764
    19    -0.013767
    20     0.297708
    21     0.229567
    22     0.199829
    23     0.185463
    24     0.010262
    25    -0.416396
Sym=    19a
Ene=   -0.525316E-03
Spin= Alpha
Occup= 0.000188
     1    -0.129804
     2    -0.236770
     3    -0.204754
     4     0.230212
     5     0.022430
     6    -0.178576
     7     0.817426
     8    -0.129344
     9    -0.474156
    10     0.410328
    11     0.220833
    12     0.749379
    13    -0.111966
    14    -0.600122
    15     0.081069
    16     0.362345
    17    -0.048092
    18    -0.214098
    19     0.019030
    20     0.426564
    21    -1.146026
    22     0.314821
    23     1.073769
    24     0.274274
    25    -0.375129
Sym=    20a
Ene=   -0.305109E-02
Spin= Alpha
Occup= 0.000901
     1    -0.477252
     2    -1.583139
     3    -0.563169
     4    -0.066809
     5    -0.003613
     6     0.265097
     7     0.096199
     8     0.012339
     9    -0.605720
    10     1.402872
    11     0.864640
    12     0.928620
    13     0.000430
    14    -0.047019
    15    -0.007585
    16    -0.412181
    17     0.063602
    18     0.079291
    19    -0.007617
    20    -0.093532
    21    -0.508586
    22     0.001946
    23    -0.100774
    24    -0.015393
    25     0.043912
Sym=    21a
Ene=   -0.189734E-05
Spin= Alpha
Occup= 0.000000
     1     0.031551
     2    -0.383668
     3     2.791724
     4    -0.006850
     5     0.001937
     6    -0.027746
     7    -0.172316
     8    -0.011839
     9    -0.906385
    10     0.009832
    11    -0.356215
    12    -0.101218
    13    -0.003868
    14     0.040360
    15     0.006536
    16    -0.219295
    17    -1.498328
    18    -0.581328
    19     0.007993
    20    -0.274921
    21    -0.263568
    22    -0.917125
    23     0.409952
    24     0.019154
    25    -0.207290
Sym=    22a
Ene=   -0.555694E-03
Spin= Alpha
Occup= 0.000216
     1     0.070400
     2     0.145915
     3    -0.012983
     4     0.345556
     5    -0.019093
     6     0.107280
     7    -0.173968
     8     0.098104
     9     0.348150
    10    -0.242312
    11    -0.070041
    12    -0.443742
    13    -0.258731
    14    -0.418918
    15    -0.059283
    16     0.487661
    17    -0.269708
    18     1.076487
    19    -0.400511
    20    -0.088033
    21     0.118336
    22     0.108139
    23     0.258973
    24     0.185198
    25     0.055587
Sym=    23a
Ene=   -0.609798E-03
Spin= Alpha
Occup= 0.000237
     1     0.048400
     2     0.020744
     3     0.685244
     4     0.172439
     5    -0.019029
     6    -0.003676
     7     0.217673
     8     0.151016
     9    -0.244774
    10     0.038620
    11    -0.314285
    12    -0.151664
    13     0.535512
    14    -0.348384
    15    -0.109793
    16     0.012229
    17    -0.141285
    18     0.301378
    19     0.420494
    20    -0.001443
    21    -0.623920
    22     0.111846
    23     0.416954
    24    -0.788615
    25    -0.156596
Sym=    24a
Ene=   -0.104253E-02
Spin= Alpha
Occup= 0.000374
     1    -0.134622
     2    -0.040155
     3    -2.229951
     4     0.143985
     5    -0.003123
     6     0.078838
     7    -0.198843
     8     0.021145
     9     0.900509
    10    -0.314509
    11     1.040230
    12     0.357887
    13     0.172702
    14     0.042049
    15    -0.015520
    16     1.074279
    17    -0.076359
    18     0.431279
    19     0.159198
    20     0.421025
    21     1.236223
    22     0.044289
    23    -0.249247
    24    -0.209141
    25     0.235077
Sym=    25a
Ene=   -0.311104E-05
Spin= Alpha
Occup= 0.000000
     1    -0.003170
     2     0.069039
     3    -0.492109
     4    -0.065895
     5     0.001064
     6     0.012181
     7    -1.262264
     8    -0.005571
     9     0.181062
    10    -0.011832
    11     0.060682
    12    -0.005239
    13    -0.003103
    14     0.299349
    15     0.002925
    16     0.018233
    17    -1.459184
    18    -0.370871
    19     0.002012
    20    -0.344440
    21     0.104321
    22     1.869347
    23    -0.600943
    24     0.010123
    25     0.425648
