[Molden Format]
p30-5 set                                                                       
[Atoms] AU
 N        1     7        0.0000        0.0000        0.0000
 H        2     1        0.9626       -1.6673        0.0000
 H        3     1        0.9626        1.6673        0.0000
 H        4     1       -1.9253        0.0000        0.0000
[GTO]
    1 0
s    5 1.00
    1712.841585300000 -0.544779958049E-02
     257.648126770000 -0.406271746324E-01
      58.458245853000 -0.181119622506E+00
      16.198367905000 -0.468439755632E+00
       5.005260080900 -0.446168462892E+00
s    1 1.00
       0.587318565710  0.100000000000E+01
s    1 1.00
       0.187645922530  0.100000000000E+01
p    3 1.00
      13.571470233000 -0.588481169695E-01
       2.925737287400 -0.320246247625E+00
       0.799277507540 -0.753282265204E+00
p    1 1.00
       0.219543480340  0.100000000000E+01
d    1 1.00
       1.000000000000  0.100000000000E+01
 
    2 0
s    3 1.00
      13.010701000000  0.334854848130E-01
       1.962257200000  0.234721870881E+00
       0.444537960000  0.813770285260E+00
s    1 1.00
       0.121949620000  0.100000000000E+01
p    1 1.00
       0.800000000000  0.100000000000E+01
 
    3 0
s    3 1.00
      13.010701000000  0.334854848130E-01
       1.962257200000  0.234721870881E+00
       0.444537960000  0.813770285260E+00
s    1 1.00
       0.121949620000  0.100000000000E+01
p    1 1.00
       0.800000000000  0.100000000000E+01
 
    4 0
s    3 1.00
      13.010701000000  0.334854848130E-01
       1.962257200000  0.234721870881E+00
       0.444537960000  0.813770285260E+00
s    1 1.00
       0.121949620000  0.100000000000E+01
p    1 1.00
       0.800000000000  0.100000000000E+01
 
[MO]
Sym=     1a
Ene=   -0.160243E+02
Spin= Alpha
Occup= 1.999965
     1     0.989636
     2    -0.041126
     3     0.016876
     4    -0.000004
     5    -0.000052
     6    -0.000002
     7    -0.000033
     8     0.000052
     9     0.000000
    10     0.000503
    11     0.000509
    12     0.003688
    13     0.000002
    14     0.000000
    15     0.000001
    16     0.003831
    17    -0.002655
    18    -0.001373
    19     0.002380
    20    -0.000000
    21     0.004035
    22    -0.002632
    23    -0.001379
    24    -0.002394
    25     0.000000
    26     0.004081
    27    -0.002631
    28     0.002765
    29    -0.000002
    30    -0.000002
Sym=     2a
Ene=   -0.127010E+01
Spin= Alpha
Occup= 1.975595
     1     0.173852
     2     0.356421
     3     0.138324
     4     0.382166
     5     0.010424
     6    -0.000001
     7    -0.160160
     8    -0.004389
     9    -0.000001
    10     0.025927
    11     0.006395
    12     0.005461
    13    -0.000239
    14     0.000001
    15    -0.000000
    16    -0.018493
    17    -0.010226
    18    -0.010671
    19    -0.003232
    20    -0.000001
    21    -0.031348
    22    -0.011387
    23    -0.009727
    24     0.004146
    25     0.000001
    26     0.391291
    27     0.026963
    28     0.041784
    29    -0.000341
    30     0.000002
Sym=     3a
Ene=   -0.121219E+01
Spin= Alpha
Occup= 1.972917
     1     0.145797
     2     0.298929
     3     0.115556
     4    -0.232462
     5    -0.353134
     6    -0.000000
     7     0.097577
     8     0.147963
     9    -0.000001
    10     0.007646
    11     0.019401
    12     0.004607
    13     0.010518
    14     0.000000
    15    -0.000000
    16    -0.042130
    17    -0.010942
    18     0.010794
    19     0.005708
    20     0.000000
    21     0.402287
    22     0.029348
    23    -0.020337
    24    -0.036921
    25     0.000001
    26    -0.072691
    27    -0.013648
    28    -0.003443
    29     0.011371
    30     0.000001
Sym=     4a
Ene=   -0.119534E+01
Spin= Alpha
Occup= 1.972388
     1     0.137418
     2     0.281160
     3     0.108916
     4    -0.237470
     5     0.362753
     6    -0.000000
     7     0.099811
     8    -0.152285
     9    -0.000001
    10     0.006702
    11     0.018713
    12     0.004375
    13    -0.010700
    14    -0.000001
    15    -0.000001
    16     0.403611
    17     0.029505
    18    -0.020451
    19     0.037050
    20    -0.000000
    21    -0.051870
    22    -0.011339
    23     0.011621
    24    -0.004788
    25     0.000001
    26    -0.081971
    27    -0.014001
    28    -0.004601
    29    -0.011688
    30     0.000001
Sym=     5a
Ene=   -0.476801E+00
Spin= Alpha
Occup= 1.000000
     1    -0.000000
     2    -0.000007
     3    -0.000002
     4     0.000002
     5     0.000000
     6     0.685549
     7     0.000004
     8    -0.000009
     9    -0.431285
    10     0.000003
    11    -0.000000
    12     0.000003
    13     0.000001
    14     0.000200
    15     0.000018
    16    -0.000001
    17    -0.000006
    18     0.000000
    19    -0.000000
    20    -0.020626
    21     0.000003
    22     0.000003
    23    -0.000005
    24    -0.000001
    25    -0.020494
    26     0.000002
    27     0.000004
    28     0.000001
    29     0.000003
    30    -0.020602
Sym=     6a
Ene=   -0.271334E-01
Spin= Alpha
Occup= 0.016701
     1     0.258802
     2     1.070614
     3    -0.142052
     4    -0.439581
     5     0.732120
     6     0.000006
     7    -0.013904
     8     0.012585
     9     0.000006
    10    -0.158693
    11    -0.202310
    12    -0.161601
    13     0.043490
    14    -0.000003
    15    -0.000000
    16    -0.946472
    17     0.001799
    18     0.082843
    19    -0.145433
    20    -0.000009
    21     0.027558
    22     0.026922
    23     0.013301
    24    -0.019818
    25    -0.000001
    26     0.039384
    27     0.025878
    28     0.013200
    29    -0.022103
    30     0.000007
Sym=     7a
Ene=   -0.797070E-02
Spin= Alpha
Occup= 0.004154
     1    -0.156544
     2    -0.800447
     3     0.959549
     4     0.172293
     5     0.279289
     6     0.000023
     7     0.326879
     8     0.531580
     9     0.000024
    10     0.298596
    11    -0.150804
    12     0.512534
    13    -0.455295
    14    -0.000001
    15     0.000007
    16    -0.190179
    17    -0.057033
    18     0.102498
    19    -0.012122
    20     0.000003
    21    -0.481182
    22    -0.031719
    23     0.086767
    24     0.140688
    25     0.000005
    26    -0.176440
    27    -0.055111
    28    -0.064234
    29     0.085678
    30     0.000000
Sym=     8a
Ene=   -0.297825E-01
Spin= Alpha
Occup= 0.018744
     1     0.302470
     2     1.256948
     3    -0.209638
     4     0.797778
     5     0.030220
     6     0.000000
     7     0.015707
     8     0.005394
     9    -0.000001
    10    -0.255332
    11    -0.174627
    12    -0.190587
    13     0.003582
    14     0.000003
    15    -0.000000
    16    -0.030838
    17     0.029384
    18    -0.020140
    19    -0.006211
    20    -0.000001
    21     0.001636
    22     0.031746
    23    -0.022456
    24     0.002049
    25     0.000001
    26    -0.930331
    27     0.005382
    28    -0.160925
    29    -0.000713
    30     0.000002
Sym=     9a
Ene=   -0.124121E-03
Spin= Alpha
Occup= 0.000009
     1     0.008863
     2     0.002031
     3     0.004441
     4    -0.173651
     5     0.313598
     6     0.000005
     7    -0.479803
     8     0.903856
     9     0.000014
    10    -0.286945
    11     0.172810
    12    -0.007734
    13    -0.480479
    14     0.000000
    15     0.000007
    16     0.340227
    17     0.117901
    18     0.185805
    19    -0.366666
    20    -0.000005
    21    -0.138917
    22    -0.071040
    23     0.534324
    24    -0.631224
    25    -0.000017
    26    -0.113430
    27    -0.059435
    28     0.270124
    29    -0.811060
    30    -0.000010
Sym=    10a
Ene=   -0.770564E-02
Spin= Alpha
Occup= 0.003864
     1     0.165318
     2     0.831737
     3    -0.946841
     4    -0.168789
     5     0.288319
     6    -0.000011
     7    -0.313331
     8     0.533381
     9    -0.000011
    10    -0.314089
    11     0.131802
    12    -0.534800
    13    -0.457133
    14    -0.000004
    15    -0.000002
    16     0.471274
    17     0.032155
    18    -0.083319
    19     0.142464
    20    -0.000004
    21     0.191801
    22     0.054400
    23    -0.102728
    24    -0.014471
    25    -0.000003
    26     0.186458
    27     0.054341
    28     0.064246
    29     0.084776
    30     0.000001
Sym=    11a
Ene=   -0.611410E-02
Spin= Alpha
Occup= 0.002971
     1     0.000003
     2     0.000017
     3     0.000001
     4    -0.000007
     5     0.000006
     6     0.149154
     7     0.000008
     8    -0.000002
     9     0.123584
    10    -0.000001
    11     0.000003
    12    -0.000022
    13    -0.000005
    14     0.540421
    15     0.536780
    16    -0.000011
    17    -0.000003
    18    -0.000006
    19    -0.000013
    20    -0.054804
    21    -0.000006
    22     0.000005
    23    -0.000010
    24     0.000002
    25     0.358238
    26    -0.000000
    27     0.000009
    28    -0.000000
    29    -0.000006
    30    -0.173785
Sym=    12a
Ene=   -0.805774E-02
Spin= Alpha
Occup= 0.004127
     1     0.172254
     2     0.863217
     3    -0.959808
     4     0.320733
     5    -0.003677
     6     0.000026
     7     0.611106
     8    -0.004559
     9     0.000025
    10     0.361145
    11    -0.556180
    12    -0.544511
    13     0.005878
    14    -0.000006
    15     0.000005
    16     0.182453
    17     0.056984
    18     0.039316
    19     0.097241
    20    -0.000001
    21     0.182315
    22     0.059090
    23     0.041961
    24    -0.096914
    25     0.000005
    26     0.472637
    27     0.036992
    28     0.159058
    29    -0.000436
    30     0.000010
Sym=    13a
Ene=   -0.146879E-03
Spin= Alpha
Occup= 0.000010
     1    -0.000000
     2     0.000004
     3    -0.000018
     4     0.000005
     5     0.000017
     6    -0.085889
     7    -0.000009
     8     0.000057
     9    -0.821357
    10     0.000005
    11     0.000005
    12     0.000008
    13    -0.000001
    14     0.025943
    15    -0.051349
    16     0.000015
    17     0.000035
    18    -0.000002
    19    -0.000012
    20     0.575184
    21    -0.000012
    22    -0.000023
    23     0.000012
    24    -0.000016
    25     0.674026
    26    -0.000004
    27    -0.000002
    28    -0.000017
    29    -0.000009
    30     0.761770
Sym=    14a
Ene=   -0.553525E-02
Spin= Alpha
Occup= 0.002728
     1    -0.000003
     2    -0.000014
     3    -0.000018
     4    -0.000013
     5    -0.000018
     6     0.581457
     7    -0.000022
     8    -0.000016
     9     0.607279
    10    -0.000016
    11     0.000021
    12     0.000013
    13     0.000009
    14    -0.506256
    15     0.373969
    16     0.000016
    17    -0.000008
    18    -0.000010
    19    -0.000002
    20    -0.173938
    21     0.000002
    22     0.000016
    23    -0.000000
    24     0.000004
    25     0.091796
    26    -0.000001
    27     0.000001
    28     0.000005
    29     0.000005
    30     0.235643
Sym=    15a
Ene=   -0.294608E-01
Spin= Alpha
Occup= 0.018877
     1    -0.287192
     2    -1.190188
     3     0.183322
     4     0.432362
     5     0.685460
     6     0.000000
     7     0.016723
     8     0.007454
     9     0.000001
    10     0.179269
    11     0.220908
    12     0.173113
    13     0.038812
    14    -0.000001
    15     0.000000
    16     0.019114
    17    -0.028755
    18    -0.015271
    19    -0.014100
    20     0.000000
    21     0.936188
    22     0.000800
    23    -0.077908
    24    -0.136415
    25    -0.000000
    26    -0.007633
    27    -0.030276
    28    -0.009593
    29    -0.021407
    30     0.000002
Sym=    16a
Ene=   -0.948967E-03
Spin= Alpha
Occup= 0.000383
     1    -0.037877
     2    -0.114622
     3    -0.146537
     4     0.055703
     5     0.126391
     6    -0.000002
     7     0.017845
     8    -1.396179
     9    -0.000003
    10     0.088180
    11     0.072754
    12     0.112711
    13    -0.962101
    14     0.000005
    15     0.000001
    16    -1.119150
    17     0.063082
    18    -0.007489
    19    -0.424957
    20    -0.000004
    21     1.173885
    22    -0.062247
    23     0.003761
    24    -0.490900
    25    -0.000002
    26     0.000070
    27     0.035337
    28    -0.060894
    29     0.229857
    30     0.000007
Sym=    17a
Ene=   -0.121886E-03
Spin= Alpha
Occup= 0.000009
     1    -0.000531
     2    -0.001711
     3    -0.015077
     4    -0.330554
     5    -0.170871
     6     0.000002
     7    -0.915877
     8    -0.496561
     9    -0.000004
    10    -0.409842
    11     0.404250
    12     0.007494
    13     0.256967
    14     0.000011
    15     0.000008
    16     0.013536
    17     0.003232
    18     0.789265
    19     0.435930
    20     0.000004
    21     0.283038
    22     0.103829
    23     0.612768
    24     0.097206
    25     0.000004
    26    -0.280592
    27    -0.103169
    28     0.421007
    29     0.447932
    30     0.000008
Sym=    18a
Ene=   -0.552273E-02
Spin= Alpha
Occup= 0.002867
     1     0.000004
     2     0.000015
     3    -0.000019
     4    -0.000012
     5    -0.000002
     6     0.735947
     7    -0.000027
     8    -0.000010
     9     0.721869
    10    -0.000005
    11     0.000004
    12    -0.000007
    13     0.000000
    14     0.265359
    15    -0.388663
    16     0.000006
    17    -0.000003
    18    -0.000008
    19    -0.000004
    20     0.330228
    21     0.000012
    22     0.000009
    23    -0.000002
    24    -0.000000
    25     0.008243
    26    -0.000011
    27     0.000004
    28    -0.000001
    29     0.000002
    30    -0.013699
Sym=    19a
Ene=   -0.964904E-03
Spin= Alpha
Occup= 0.000392
     1     0.077551
     2     0.147005
     3     1.178876
     4     0.063031
     5    -0.119966
     6    -0.000007
     7    -1.152392
     8     0.185315
     9    -0.000007
    10     0.763872
    11    -0.603398
    12    -0.654489
    13     0.130604
    14    -0.000012
    15    -0.000003
    16     0.289526
    17    -0.108463
    18    -0.297885
    19    -0.017227
    20    -0.000002
    21    -0.095053
    22    -0.030535
    23     0.275959
    24     0.030062
    25     0.000006
    26    -1.519302
    27     0.004410
    28    -0.498915
    29     0.151209
    30    -0.000007
Sym=    20a
Ene=   -0.107344E-02
Spin= Alpha
Occup= 0.000463
     1    -0.000945
     2     0.019947
     3    -0.210034
     4    -0.008822
     5     0.755316
     6     0.000003
     7    -0.058271
     8     0.382757
     9     0.000020
    10    -0.018194
    11    -0.094565
    12     0.104232
    13     0.068822
    14     0.000019
    15    -0.000005
    16     0.045147
    17     0.298604
    18     0.285825
    19    -0.571976
    20    -0.000029
    21     0.201260
    22    -0.289436
    23    -0.343497
    24    -0.629778
    25    -0.000018
    26     0.045204
    27     0.003592
    28     0.036611
    29     0.536004
    30     0.000007
Sym=    21a
Ene=   -0.404273E-05
Spin= Alpha
Occup= 0.000000
     1     0.002016
     2    -0.010673
     3     0.152099
     4    -0.082999
     5     0.072191
     6    -0.000007
     7     1.475148
     8    -1.212958
     9    -0.000011
    10    -0.192636
    11     0.198757
    12    -0.020984
    13    -0.186168
    14    -0.000000
    15    -0.000005
    16    -0.282668
    17    -2.092345
    18     0.261163
    19    -0.623865
    20     0.000004
    21     0.035541
    22     0.315983
    23    -0.256389
    24     0.033235
    25     0.000008
    26     0.217133
    27     1.632303
    28     0.514768
    29     0.152861
    30     0.000009
Sym=    22a
Ene=   -0.100584E-02
Spin= Alpha
Occup= 0.000417
     1     0.005498
     2     0.016343
     3     0.019609
     4     0.482451
     5     0.252399
     6     0.000007
     7    -0.578969
     8    -0.331615
     9     0.000009
    10     0.402803
    11    -0.436165
    12    -0.010212
    13    -0.275061
    14    -0.000009
    15     0.000002
    16     0.015211
    17    -0.013548
    18     0.520786
    19     0.334737
    20     0.000001
    21     0.775927
    22    -0.218298
    23    -0.554210
    24    -0.430509
    25     0.000004
    26    -0.786476
    27     0.222877
    28    -0.675952
    29    -0.283337
    30    -0.000003
Sym=    23a
Ene=   -0.104065E-02
Spin= Alpha
Occup= 0.000442
     1     0.033090
     2     0.034998
     3     0.781151
     4    -0.627492
     5     0.212298
     6    -0.000002
     7    -0.083597
     8    -0.338907
     9    -0.000010
    10     0.048266
    11     0.186654
    12    -0.422460
    13    -0.285540
    14     0.000002
    15     0.000002
    16    -0.830592
    17     0.210961
    18     0.420839
    19    -0.638361
    20     0.000007
    21    -0.087392
    22     0.026043
    23    -0.368245
    24     0.451793
    25    -0.000006
    26    -0.049509
    27    -0.301355
    28     0.574279
    29    -0.178728
    30     0.000020
Sym=    24a
Ene=   -0.105617E-02
Spin= Alpha
Occup= 0.000425
     1     0.084414
     2     0.121667
     3     1.691307
     4     0.249396
     5     0.080177
     6     0.000008
     7     0.770567
     8     0.009116
     9     0.000011
    10    -0.206624
    11     0.648192
    12    -0.934519
    13    -0.005767
    14     0.000007
    15    -0.000004
    16    -0.997559
    17    -0.062748
    18     0.275714
    19    -0.191748
    20    -0.000009
    21    -0.940315
    22    -0.126102
    23     0.189293
    24     0.048402
    25    -0.000013
    26    -0.109573
    27     0.030404
    28    -0.392662
    29     0.057051
    30     0.000014
Sym=    25a
Ene=   -0.931602E-04
Spin= Alpha
Occup= 0.000006
     1     0.198788
     2    -0.038879
     3     0.681625
     4     0.006067
     5    -0.010538
     6     0.000000
     7     0.045491
     8    -0.076099
     9    -0.000006
    10    -1.150668
    11    -1.152144
    12    -0.452571
    13    -0.000274
    14     0.000003
    15     0.000002
    16     0.359018
    17    -0.116971
    18    -0.487108
    19     0.835597
    20     0.000007
    21     0.433797
    22    -0.101392
    23    -0.508675
    24    -0.811793
    25     0.000002
    26     0.431837
    27    -0.098243
    28     0.959709
    29     0.036546
    30     0.000010
Sym=    26a
Ene=   -0.379329E-02
Spin= Alpha
Occup= 0.001034
     1    -0.674388
     2    -2.625225
     3    -0.098125
     4     0.013485
     5     0.009390
     6    -0.000000
     7    -0.038331
     8     0.081054
     9    -0.000001
    10     1.655222
    11     1.592793
    12     1.008210
    13     0.042009
    14    -0.000000
    15     0.000000
    16    -0.279367
    17    -0.011841
    18     0.000159
    19     0.010277
    20     0.000002
    21    -0.389073
    22    -0.015065
    23     0.005197
    24     0.010637
    25     0.000002
    26    -0.401915
    27    -0.005566
    28    -0.028783
    29     0.000516
    30     0.000000
Sym=    27a
Ene=   -0.636500E-03
Spin= Alpha
Occup= 0.000248
     1    -0.000005
     2    -0.000020
     3    -0.000015
     4     0.000004
     5    -0.000028
     6     0.033444
     7    -0.000021
     8     0.000006
     9     0.114962
    10     0.000016
    11    -0.000011
    12     0.000016
    13     0.000005
    14     0.680383
    15    -0.334577
    16     0.000035
    17    -0.000005
    18    -0.000017
    19     0.000026
    20    -0.755226
    21     0.000000
    22     0.000010
    23     0.000007
    24     0.000015
    25    -0.139345
    26    -0.000014
    27    -0.000000
    28    -0.000008
    29    -0.000019
    30     0.681182
Sym=    28a
Ene=   -0.673876E-03
Spin= Alpha
Occup= 0.000262
     1    -0.000001
     2     0.000003
     3    -0.000026
     4     0.000009
     5    -0.000006
     6    -0.006681
     7    -0.000003
     8     0.000001
     9    -0.023531
    10     0.000018
    11    -0.000010
    12     0.000009
    13     0.000008
    14     0.328312
    15     0.704646
    16     0.000017
    17    -0.000005
    18    -0.000012
    19     0.000009
    20     0.479723
    21     0.000003
    22     0.000004
    23    -0.000001
    24     0.000005
    25    -0.814306
    26    -0.000013
    27     0.000015
    28    -0.000016
    29     0.000003
    30     0.378716
Sym=    29a
Ene=   -0.394483E-05
Spin= Alpha
Occup= 0.000000
     1     0.001151
     2    -0.003353
     3     0.055139
     4    -0.065633
     5    -0.086608
     6     0.000005
     7     1.231912
     8     1.465507
     9     0.000009
    10    -0.167727
    11     0.164725
    12    -0.007926
    13     0.223926
    14    -0.000001
    15     0.000001
    16     0.091249
    17     0.741702
    18    -0.315787
    19     0.094595
    20    -0.000005
    21    -0.290732
    22    -2.168997
    23     0.310069
    24     0.619601
    25    -0.000003
    26     0.192715
    27     1.374898
    28     0.436148
    29    -0.185836
    30    -0.000004
Sym=    30a
Ene=    0.000000E+00
Spin= Alpha
Occup= 0.000000
     1     0.050581
     2    -0.322995
     3     3.667559
     4     0.002244
     5    -0.001055
     6     0.000004
     7    -0.065977
     8     0.015647
     9     0.000002
    10    -0.058141
    11    -0.069193
    12    -0.413917
    13    -0.001780
    14     0.000003
    15     0.000004
    16    -0.103747
    17    -1.155326
    18     0.167635
    19    -0.276284
    20     0.000002
    21    -0.093231
    22    -1.208528
    23     0.176404
    24     0.286756
    25     0.000000
    26    -0.102056
    27    -1.312631
    28    -0.362663
    29    -0.003420
    30     0.000003
