[Molden Format]
p30-5 set                                                                       
[Atoms] AU
 O        1     8        0.0000        0.0000        0.7444
 H        2     1       -1.4268        0.0000       -0.3722
 H        3     1        1.4268        0.0000       -0.3722
[GTO]
    1 0
s    5 1.00
    2266.176778500000 -0.538935039217E-02
     340.870101910000 -0.402347213890E-01
      77.363135167000 -0.180081842055E+00
      21.479644940000 -0.468288576577E+00
       6.658943312400 -0.446926171602E+00
s    1 1.00
       0.809759756680  0.100000000000E+01
s    1 1.00
       0.255307722340  0.100000000000E+01
p    3 1.00
      17.721504317000  0.626302487632E-01
       3.863550544000  0.333311384824E+00
       1.048092088300  0.741486383081E+00
p    1 1.00
       0.276415444110  0.100000000000E+01
d    1 1.00
       1.200000000000  0.100000000000E+01
 
    2 0
s    3 1.00
      13.010701000000  0.334854848130E-01
       1.962257200000  0.234721870881E+00
       0.444537960000  0.813770285260E+00
s    1 1.00
       0.121949620000  0.100000000000E+01
p    1 1.00
       0.800000000000  0.100000000000E+01
 
    3 0
s    3 1.00
      13.010701000000  0.334854848130E-01
       1.962257200000  0.234721870881E+00
       0.444537960000  0.813770285260E+00
s    1 1.00
       0.121949620000  0.100000000000E+01
p    1 1.00
       0.800000000000  0.100000000000E+01
 
[MO]
Sym=     1a
Ene=   -0.205842E+02
Spin= Alpha
Occup= 1.999981
     1     0.987665
     2    -0.042797
     3     0.009290
     4     0.000005
     5    -0.000156
     6     0.002096
     7     0.000014
     8    -0.000181
     9    -0.000140
    10     0.004171
    11     0.005241
    12     0.004561
    13    -0.000001
    14    -0.000002
    15     0.000009
    16     0.002167
    17    -0.001296
    18     0.001475
    19    -0.000011
    20     0.001125
    21     0.002249
    22    -0.001286
    23    -0.001483
    24    -0.000007
    25     0.001142
Sym=     2a
Ene=   -0.123446E+01
Spin= Alpha
Occup= 1.987815
     1     0.289200
     2     0.577067
     3     0.378183
     4    -0.005743
     5     0.040755
     6     0.132556
     7    -0.002765
     8     0.031670
     9     0.146048
    10     0.016839
    11     0.010716
    12     0.005394
    13    -0.000004
    14     0.000181
    15    -0.001228
    16     0.100434
    17    -0.011121
    18     0.014924
    19     0.001881
    20     0.016662
    21     0.092924
    22    -0.012863
    23    -0.014412
    24     0.001885
    25     0.015910
Sym=     3a
Ene=   -0.534691E+00
Spin= Alpha
Occup= 1.979396
     1     0.017394
     2     0.035372
     3     0.034170
     4    -0.000411
     5    -0.629566
     6     0.033810
     7    -0.000170
     8    -0.496279
     9     0.025030
    10     0.000966
    11     0.001047
    12    -0.000834
    13    -0.000038
    14     0.000018
    15     0.018846
    16    -0.006097
    17    -0.003026
    18    -0.000844
    19    -0.029297
    20     0.001209
    21    -0.006709
    22    -0.003150
    23     0.000874
    24    -0.029373
    25     0.001150
Sym=     4a
Ene=   -0.732366E+00
Spin= Alpha
Occup= 1.972698
     1    -0.014689
     2    -0.024929
     3     0.141146
     4    -0.349808
     5     0.021250
     6     0.377959
     7    -0.154413
     8     0.016478
     9     0.224518
    10     0.000423
    11     0.006362
    12    -0.014939
    13     0.000031
    14     0.018068
    15    -0.000648
    16     0.044038
    17     0.021210
    18    -0.013178
    19     0.000964
    20     0.021470
    21    -0.427812
    22    -0.098182
    23     0.040613
    24     0.001009
    25    -0.019092
Sym=     5a
Ene=   -0.725597E+00
Spin= Alpha
Occup= 1.971868
     1    -0.010081
     2    -0.015483
     3     0.147447
     4     0.349118
     5     0.021213
     6     0.381259
     7     0.154337
     8     0.016438
     9     0.227648
    10     0.000680
    11     0.006505
    12    -0.014921
    13    -0.000021
    14    -0.018043
    15    -0.000637
    16    -0.425750
    17    -0.097651
    18    -0.040638
    19     0.001010
    20    -0.018940
    21     0.044520
    22     0.020741
    23     0.013034
    24     0.000974
    25     0.021664
Sym=     6a
Ene=   -0.311496E-01
Spin= Alpha
Occup= 0.021010
     1    -0.179215
     2    -0.647979
     3    -0.113769
     4     0.647899
     5     0.006869
     6     0.525628
     7     0.043180
     8    -0.006379
     9    -0.047153
    10     0.125627
    11     0.039005
    12     0.097256
    13     0.000209
    14     0.065750
    15    -0.000115
    16     0.866506
    17     0.109903
    18     0.093513
    19    -0.001470
    20     0.044770
    21    -0.035190
    22    -0.019566
    23     0.010217
    24    -0.000354
    25    -0.002686
Sym=     7a
Ene=   -0.323814E-01
Spin= Alpha
Occup= 0.022624
     1    -0.189870
     2    -0.690004
     3    -0.102078
     4    -0.621844
     5     0.007201
     6     0.535105
     7    -0.049707
     8    -0.006708
     9    -0.039868
    10     0.131277
    11     0.041870
    12     0.100971
    13    -0.000016
    14    -0.058890
    15    -0.000303
    16    -0.008640
    17    -0.016267
    18    -0.009914
    19    -0.000457
    20    -0.000014
    21     0.867092
    22     0.114765
    23    -0.089282
    24    -0.001444
    25     0.045330
Sym=     8a
Ene=   -0.982458E-02
Spin= Alpha
Occup= 0.005748
     1    -0.161461
     2    -0.800956
     3     0.947932
     4    -0.017367
     5     0.002992
     6     0.186844
     7     0.030280
     8    -0.010856
     9    -0.622440
    10    -0.349452
    11     0.796797
    12     0.120448
    13    -0.002810
    14     0.014579
    15    -0.031417
    16    -0.501797
    17     0.025572
    18    -0.020218
    19     0.009545
    20    -0.151969
    21    -0.524406
    22     0.026602
    23     0.019966
    24     0.007027
    25    -0.142225
Sym=     9a
Ene=   -0.818637E-02
Spin= Alpha
Occup= 0.003335
     1     0.005594
     2     0.023727
     3    -0.017410
     4     0.009783
     5     0.064229
     6    -0.006082
     7    -0.013884
     8    -0.189247
     9     0.024788
    10    -0.021979
    11    -0.055296
    12     0.051922
    13     0.551841
    14    -0.021750
    15    -0.684328
    16     0.008945
    17     0.001418
    18     0.005368
    19    -0.030717
    20    -0.003179
    21     0.012864
    22    -0.002105
    23    -0.009948
    24     0.273434
    25    -0.006515
Sym=    10a
Ene=   -0.180980E-03
Spin= Alpha
Occup= 0.000010
     1     0.079645
     2    -0.128802
     3     0.991545
     4    -0.028175
     5    -0.005321
     6     0.278856
     7    -0.025603
     8     0.039930
     9    -0.834832
    10    -0.875318
    11    -0.423456
    12     0.245164
    13     0.014350
    14     0.018126
    15    -0.025214
    16    -0.329846
    17    -0.071016
    18    -0.166985
    19    -0.024885
    20     0.747228
    21    -0.271935
    22    -0.083263
    23     0.126637
    24    -0.064037
    25     0.828860
Sym=    11a
Ene=   -0.734702E-02
Spin= Alpha
Occup= 0.003538
     1     0.055451
     2     0.211508
     3     0.059199
     4     0.311542
     5     0.004530
     6     0.008595
     7    -0.570307
     8    -0.009072
     9    -0.191317
    10     0.156381
    11     0.244427
    12    -0.644306
    13     0.005534
    14    -0.441593
    15    -0.024574
    16    -0.279582
    17     0.115503
    18    -0.239038
    19    -0.000112
    20     0.145418
    21     0.152804
    22    -0.062756
    23     0.051426
    24     0.008723
    25     0.036073
Sym=    12a
Ene=   -0.753800E-02
Spin= Alpha
Occup= 0.003670
     1     0.060457
     2     0.231525
     3     0.033671
     4    -0.280653
     5     0.004971
     6     0.007345
     7     0.517526
     8    -0.018383
     9    -0.174067
    10     0.183924
    11     0.227453
    12    -0.680046
    13     0.022089
    14     0.435032
    15    -0.050081
    16     0.154754
    17    -0.074768
    18    -0.044308
    19     0.002143
    20     0.060830
    21    -0.236221
    22     0.112254
    23     0.234869
    24     0.026560
    25     0.147316
Sym=    13a
Ene=   -0.173384E-01
Spin= Alpha
Occup= 0.013088
     1     0.058674
     2     0.251391
     3    -0.152105
     4    -0.001262
     5    -0.954110
     6     0.097259
     7    -0.001255
     8     0.954670
     9    -0.081845
    10    -0.065339
    11    -0.051057
    12    -0.048787
    13     0.005879
    14    -0.000617
    15    -0.056828
    16     0.013006
    17     0.011170
    18     0.010744
    19     0.074254
    20    -0.001455
    21     0.017016
    22     0.009650
    23    -0.012332
    24     0.080436
    25    -0.000787
Sym=    14a
Ene=   -0.184527E-01
Spin= Alpha
Occup= 0.007889
     1    -0.489148
     2    -1.998253
     3     0.906544
     4     0.013688
     5    -0.136031
     6    -0.609417
     7    -0.004406
     8     0.134507
     9     0.529102
    10     0.640187
    11     0.505652
    12     0.482577
    13     0.004711
    14    -0.000868
    15    -0.009782
    16    -0.069702
    17    -0.070524
    18    -0.084794
    19     0.012233
    20     0.007867
    21    -0.081492
    22    -0.067146
    23     0.089524
    24     0.014988
    25     0.000850
Sym=    15a
Ene=   -0.610466E-05
Spin= Alpha
Occup= 0.000000
     1     0.004030
     2    -0.026546
     3     0.272378
     4     0.133870
     5     0.000392
     6    -0.006960
     7     1.414552
     8    -0.003241
     9    -0.102997
    10     0.000584
    11    -0.041622
    12    -0.002356
    13    -0.004442
    14    -0.399610
    15     0.001915
    16     0.167549
    17     1.616463
    18     0.533792
    19    -0.001941
    20     0.456198
    21    -0.257240
    22    -1.818429
    23     0.639328
    24     0.009189
    25    -0.506807
Sym=    16a
Ene=   -0.738908E-02
Spin= Alpha
Occup= 0.003301
     1    -0.003428
     2    -0.016049
     3     0.021934
     4    -0.001001
     5    -0.046861
     6     0.005442
     7    -0.000447
     8     0.182207
     9    -0.022942
    10    -0.002589
    11     0.029119
    12    -0.010049
    13     0.581895
    14     0.001915
    15     0.576439
    16    -0.016334
    17     0.000280
    18    -0.004495
    19    -0.368682
    20    -0.002490
    21    -0.015820
    22     0.004038
    23     0.006760
    24     0.086716
    25    -0.000971
Sym=    17a
Ene=   -0.156921E-02
Spin= Alpha
Occup= 0.000724
     1     0.044741
     2     0.228355
     3    -0.450750
     4    -0.594213
     5    -0.001933
     6    -0.015482
     7     0.795913
     8     0.004929
     9     0.389828
    10    -0.290684
    11     0.126970
    12    -0.135621
    13     0.055403
    14    -0.341804
    15     0.004046
    16     0.714422
    17     0.265444
    18    -0.162141
    19     0.054384
    20    -0.388835
    21     0.125848
    22    -0.336175
    23    -0.338508
    24    -0.061173
    25     0.496362
Sym=    18a
Ene=   -0.106754E-02
Spin= Alpha
Occup= 0.000508
     1     0.004857
     2     0.009929
     3    -0.023462
     4    -0.002373
     5    -0.004697
     6     0.013403
     7    -0.135723
     8     0.013302
     9     0.046389
    10    -0.010878
    11     0.009096
    12    -0.055038
    13     0.698324
    14     0.155202
    15     0.041631
    16    -0.104611
    17     0.027806
    18    -0.025799
    19     0.702901
    20     0.004497
    21     0.198641
    22    -0.051104
    23    -0.108544
    24    -0.720005
    25    -0.013612
Sym=    19a
Ene=   -0.110866E-02
Spin= Alpha
Occup= 0.000392
     1    -0.085873
     2    -0.165809
     3    -0.116410
     4    -0.476135
     5     0.000230
     6    -0.112580
     7    -0.456449
     8     0.031462
     9    -0.190182
    10     0.330799
    11     0.137843
    12     0.366503
    13    -0.073183
    14     0.934949
    15    -0.034448
    16    -1.171176
    17     0.516467
    18    -1.004572
    19    -0.116681
    20    -0.340859
    21     0.664893
    22    -0.348846
    23    -0.524098
    24     0.033243
    25     0.149888
Sym=    20a
Ene=   -0.547608E-05
Spin= Alpha
Occup= 0.000000
     1     0.031740
     2    -0.301658
     3     2.963350
     4    -0.006288
     5     0.000872
     6    -0.105873
     7    -0.142588
     8    -0.001838
     9    -1.071133
    10     0.063480
    11    -0.376853
    12    -0.015703
    13    -0.001541
    14     0.044854
    15     0.000168
    16    -0.449852
    17    -1.340422
    18    -0.641527
    19    -0.001310
    20    -0.390924
    21    -0.381596
    22    -1.048333
    23     0.542372
    24     0.002992
    25    -0.310868
Sym=    21a
Ene=   -0.817198E-03
Spin= Alpha
Occup= 0.000283
     1     0.238210
     2     0.407284
     3     0.189254
     4    -0.069811
     5    -0.002325
     6     0.406026
     7    -0.146517
     8    -0.022212
     9     0.697604
    10    -0.960768
    11    -0.344264
    12    -1.177814
    13    -0.052380
    14     0.277080
    15     0.014765
    16     0.646909
    17    -0.176271
    18     0.672198
    19    -0.028025
    20     0.325384
    21     1.144483
    22    -0.357386
    23    -1.083914
    24     0.091871
    25     0.288126
Sym=    22a
Ene=   -0.661397E-03
Spin= Alpha
Occup= 0.000284
     1     0.013456
     2     0.029084
     3     0.039628
     4     0.021312
     5    -0.051622
     6     0.005383
     7    -0.042202
     8     0.680049
     9     0.050817
    10     0.003561
    11    -0.028399
    12    -0.097795
    13    -0.024054
    14    -0.018020
    15    -0.540736
    16     0.021570
    17    -0.022016
    18     0.098190
    19    -0.806518
    20    -0.057045
    21     0.029458
    22    -0.002639
    23    -0.003129
    24    -0.824223
    25    -0.011699
Sym=    23a
Ene=   -0.328272E-02
Spin= Alpha
Occup= 0.001259
     1     0.447989
     2     1.583711
     3     0.477816
     4     0.072124
     5    -0.013562
     6    -0.363643
     7    -0.132532
     8     0.016343
     9     0.519244
    10    -1.257177
    11    -0.779072
    12    -0.750536
    13    -0.009827
    14     0.087524
    15     0.004122
    16     0.182135
    17     0.027629
    18    -0.228913
    19    -0.006207
    20    -0.044473
    21     0.325622
    22     0.089765
    23     0.259539
    24     0.002934
    25    -0.147038
Sym=    24a
Ene=   -0.155288E-02
Spin= Alpha
Occup= 0.000569
     1    -0.190092
     2    -0.202315
     3    -2.333365
     4     0.141304
     5     0.004636
     6     0.018931
     7    -0.186466
     8     0.013599
     9     0.932708
    10    -0.191915
    11     1.141201
    12     0.572493
    13    -0.014981
    14     0.074403
    15    -0.020676
    16     1.096254
    17    -0.062566
    18     0.201247
    19    -0.040930
    20     0.367863
    21     1.236176
    22     0.061705
    23    -0.061370
    24    -0.008222
    25     0.167191
Sym=    25a
Ene=   -0.153837E-03
Spin= Alpha
Occup= 0.000008
     1    -0.008746
     2    -0.014991
     3     0.009848
     4    -0.022188
     5    -0.002807
     6    -0.016879
     7     1.404953
     8     0.036727
     9    -0.049625
    10     0.022627
    11     0.010443
    12     0.064180
    13     0.007603
    14    -0.417913
    15    -0.026411
    16     0.856200
    17    -0.031921
    18    -0.287709
    19    -0.033946
    20     0.722469
    21    -0.941532
    22     0.043574
    23    -0.181109
    24    -0.053787
    25    -0.719388
