[Molden Format]
p30-5 set                                                                       
[Atoms] AU
 AL       1    13        0.0000        0.0000        0.0000
 F        2     9        0.0000        3.0836        0.0000
 F        3     9        2.6705       -1.5418        0.0000
 F        4     9       -2.6705       -1.5418        0.0000
[GTO]
    1 0
s    5 1.00
    5887.572703000000  0.565197896170E-02
     885.612259960000  0.422182534268E-01
     201.136048990000  0.189187196726E+00
      56.284974674000  0.480435911881E+00
      17.229551243000  0.425872684294E+00
s    3 1.00
      29.340249922000  0.885686032394E-01
       3.043963042000 -0.543157066723E+00
       1.128553951800 -0.529385510294E+00
s    1 1.00
       0.142341751600  0.100000000000E+01
s    1 1.00
       0.054400192313  0.100000000000E+01
p    5 1.00
     145.119188090000  0.107263778593E-01
      33.717894833000  0.741036235460E-01
      10.369863083000  0.261296213060E+00
       3.513561603600  0.480201235327E+00
       1.198005027300  0.384382240624E+00
p    1 1.00
       0.265830059130  0.100000000000E+01
p    1 1.00
       0.071003361994  0.100000000000E+01
d    1 1.00
       0.300000000000  0.100000000000E+01

    2 0
s    5 1.00
    2894.832599000000 -0.534932117607E-02
     435.419391200000 -0.399677343716E-01
      98.843328866000 -0.179412617888E+00
      27.485198001000 -0.468324686869E+00
       8.540549817100 -0.447241605328E+00
s    1 1.00
       1.065457803800  0.100000000000E+01
s    1 1.00
       0.332473467480  0.100000000000E+01
p    3 1.00
      22.696633924000 -0.647821482412E-01
       4.987233925700 -0.340357853553E+00
       1.349161395400 -0.734858153660E+00
p    1 1.00
       0.348298819770  0.100000000000E+01
d    1 1.00
       1.400000000000  0.100000000000E+01

    3 0
s    5 1.00
    2894.832599000000 -0.534932117607E-02
     435.419391200000 -0.399677343716E-01
      98.843328866000 -0.179412617888E+00
      27.485198001000 -0.468324686869E+00
       8.540549817100 -0.447241605328E+00
s    1 1.00
       1.065457803800  0.100000000000E+01
s    1 1.00
       0.332473467480  0.100000000000E+01
p    3 1.00
      22.696633924000 -0.647821482412E-01
       4.987233925700 -0.340357853553E+00
       1.349161395400 -0.734858153660E+00
p    1 1.00
       0.348298819770  0.100000000000E+01
d    1 1.00
       1.400000000000  0.100000000000E+01

    4 0
s    5 1.00
    2894.832599000000 -0.534932117607E-02
     435.419391200000 -0.399677343716E-01
      98.843328866000 -0.179412617888E+00
      27.485198001000 -0.468324686869E+00
       8.540549817100 -0.447241605328E+00
s    1 1.00
       1.065457803800  0.100000000000E+01
s    1 1.00
       0.332473467480  0.100000000000E+01
p    3 1.00
      22.696633924000 -0.647821482412E-01
       4.987233925700 -0.340357853553E+00
       1.349161395400 -0.734858153660E+00
p    1 1.00
       0.348298819770  0.100000000000E+01
d    1 1.00
       1.400000000000  0.100000000000E+01

[MO]
Sym=     1a
Ene=   -0.585620E+02
Spin= Alpha
Occup= 1.999999
     1     0.994891
     2    -0.025817
     3    -0.040241
     4     0.006686
     5     0.000001
     6    -0.000021
     7    -0.000001
     8     0.000003
     9     0.000012
    10    -0.000000
    11    -0.000001
    12    -0.000000
    13     0.000000
    14     0.012783
    15     0.012794
    16     0.012975
    17    -0.000000
    18     0.000000
    19     0.000000
    20     0.000050
    21    -0.000239
    22     0.000762
    23     0.000008
    24    -0.000055
    25    -0.000000
    26     0.000005
    27     0.000068
    28    -0.000000
    29    -0.000132
    30    -0.000069
    31    -0.000138
    32     0.000003
    33    -0.000000
    34    -0.000000
    35     0.000056
    36    -0.000218
    37     0.000747
    38    -0.000053
    39     0.000029
    40    -0.000000
    41     0.000043
    42    -0.000027
    43     0.000000
    44    -0.000084
    45    -0.000112
    46    -0.000140
    47    -0.000028
    48     0.000000
    49     0.000001
    50     0.000053
    51    -0.000240
    52     0.000775
    53     0.000050
    54     0.000031
    55     0.000001
    56    -0.000043
    57    -0.000023
    58     0.000001
    59    -0.000087
    60    -0.000110
    61    -0.000141
    62     0.000024
    63    -0.000001
    64    -0.000000
Sym=     2a
Ene=   -0.263336E+02
Spin= Alpha
Occup= 1.999981
     1    -0.000010
     2    -0.000086
     3     0.000365
     4     0.000159
     5     0.000042
     6    -0.000371
     7    -0.000000
     8     0.000199
     9    -0.001202
    10    -0.000001
    11     0.000203
    12    -0.000999
    13     0.000001
    14     0.000687
    15    -0.000337
    16    -0.000124
    17    -0.000142
    18    -0.000001
    19    -0.000000
    20     0.649399
    21    -0.026718
    22     0.006195
    23     0.000062
    24    -0.000249
    25    -0.000002
    26    -0.000116
    27    -0.001177
    28     0.000003
    29     0.003782
    30     0.004048
    31     0.003826
    32     0.000002
    33     0.000000
    34    -0.000001
    35    -0.638381
    36     0.027134
    37    -0.005525
    38     0.000268
    39    -0.000072
    40     0.000001
    41     0.001202
    42    -0.000558
    43    -0.000000
    44    -0.003908
    45    -0.003789
    46    -0.003738
    47     0.000120
    48    -0.000001
    49    -0.000000
    50    -0.382029
    51     0.015751
    52    -0.003815
    53    -0.000229
    54    -0.000001
    55    -0.000005
    56    -0.000762
    57    -0.000199
    58     0.000006
    59    -0.002324
    60    -0.002253
    61    -0.002213
    62    -0.000073
    63     0.000001
    64     0.000000
Sym=     3a
Ene=   -0.263326E+02
Spin= Alpha
Occup= 1.999974
     1    -0.000012
     2    -0.000084
     3     0.000377
     4     0.000167
     5     0.000339
     6     0.000128
     7     0.000002
     8     0.001199
     9     0.000309
    10    -0.000002
    11     0.001007
    12     0.000219
    13    -0.000002
    14     0.000059
    15     0.000295
    16    -0.000133
    17    -0.000587
    18     0.000001
    19     0.000000
    20    -0.314977
    21     0.012989
    22    -0.003129
    23    -0.000171
    24     0.000174
    25     0.000001
    26    -0.000137
    27     0.000650
    28    -0.000001
    29    -0.001824
    30    -0.001942
    31    -0.001825
    32    -0.000002
    33     0.000000
    34     0.000000
    35    -0.694736
    36     0.029545
    37    -0.006004
    38     0.000225
    39    -0.000200
    40     0.000000
    41     0.001197
    42    -0.000825
    43    -0.000000
    44    -0.004261
    45    -0.004128
    46    -0.004072
    47     0.000135
    48     0.000000
    49    -0.000000
    50     0.627061
    51    -0.025834
    52     0.006016
    53     0.000178
    54     0.000193
    55     0.000008
    56     0.000980
    57     0.000568
    58    -0.000009
    59     0.003864
    60     0.003728
    61     0.003698
    62     0.000130
    63    -0.000001
    64    -0.000000
Sym=     4a
Ene=   -0.263307E+02
Spin= Alpha
Occup= 1.999973
     1     0.000069
     2     0.000431
     3    -0.001979
     4    -0.000509
     5     0.000139
     6    -0.000081
     7     0.000001
     8     0.000324
     9    -0.000208
    10    -0.000002
    11     0.000248
    12    -0.000168
    13    -0.000001
    14    -0.000617
    15    -0.000768
    16     0.000585
    17    -0.000150
    18     0.000001
    19     0.000001
    20     0.674389
    21    -0.027872
    22     0.006917
    23     0.000071
    24    -0.000427
    25    -0.000003
    26    -0.000152
    27    -0.001531
    28     0.000003
    29     0.003884
    30     0.004114
    31     0.003851
    32     0.000006
    33    -0.000000
    34    -0.000000
    35     0.290250
    36    -0.012419
    37     0.002906
    38    -0.000210
    39     0.000123
    40    -0.000000
    41    -0.000728
    42     0.000436
    43     0.000001
    44     0.001721
    45     0.001677
    46     0.001608
    47    -0.000045
    48    -0.000000
    49     0.000000
    50     0.660738
    51    -0.027332
    52     0.006816
    53     0.000334
    54     0.000269
    55     0.000009
    56     0.001280
    57     0.000726
    58    -0.000010
    59     0.003985
    60     0.003866
    61     0.003774
    62     0.000112
    63    -0.000001
    64    -0.000000
Sym=     5a
Ene=   -0.497315E+01
Spin= Alpha
Occup= 1.999378
     1     0.285418
     2     1.025443
     3    -0.029014
     4     0.011051
     5     0.002737
     6     0.010447
     7    -0.000000
     8     0.000097
     9     0.000675
    10     0.000005
    11    -0.000022
    12    -0.000046
    13     0.000007
    14    -0.002647
    15    -0.002394
    16    -0.001044
    17     0.000041
    18    -0.000008
    19    -0.000003
    20    -0.000499
    21    -0.000161
    22     0.001393
    23    -0.000033
    24    -0.000287
    25     0.000005
    26     0.000160
    27     0.000624
    28    -0.000009
    29     0.000499
    30    -0.001610
    31     0.000468
    32     0.000019
    33    -0.000004
    34    -0.000001
    35    -0.000469
    36     0.000086
    37     0.001352
    38    -0.000438
    39     0.000241
    40     0.000011
    41     0.000393
    42    -0.000264
    43    -0.000012
    44    -0.001099
    45     0.000022
    46     0.000468
    47     0.001114
    48     0.000001
    49     0.000004
    50    -0.000473
    51    -0.000096
    52     0.001738
    53     0.000303
    54     0.000181
    55    -0.000060
    56    -0.000355
    57    -0.000166
    58     0.000066
    59    -0.001150
    60     0.000019
    61     0.000448
    62    -0.001150
    63    -0.000004
    64    -0.000002
Sym=     6a
Ene=   -0.329097E+01
Spin= Alpha
Occup= 1.998258
     1     0.000706
     2     0.002486
     3    -0.000299
     4     0.000027
     5    -0.521861
     6    -0.102655
     7    -0.830495
     8    -0.026149
     9    -0.005141
    10    -0.035493
    11     0.002687
    12     0.000566
    13     0.005202
    14     0.000485
    15    -0.000547
    16     0.000044
    17     0.002998
    18    -0.000013
    19     0.000106
    20    -0.000476
    21    -0.000765
    22     0.000275
    23     0.000421
    24    -0.000602
    25     0.000088
    26    -0.000111
    27    -0.000088
    28    -0.000050
    29     0.000086
    30    -0.000394
    31     0.000084
    32     0.000343
    33    -0.000014
    34     0.000472
    35    -0.001221
    36    -0.001687
    37     0.001970
    38    -0.001794
    39     0.001128
    40    -0.000313
    41    -0.000258
    42     0.000149
    43    -0.000202
    44    -0.000936
    45    -0.000346
    46     0.000263
    47     0.001029
    48     0.000404
    49    -0.000230
    50     0.001604
    51     0.002381
    52    -0.002532
    53    -0.001961
    54    -0.001196
    55    -0.000271
    56    -0.000497
    57    -0.000236
    58    -0.000233
    59     0.001301
    60     0.000341
    61    -0.000309
    62     0.001195
    63    -0.000416
    64    -0.000241
Sym=     7a
Ene=   -0.329094E+01
Spin= Alpha
Occup= 1.998243
     1    -0.001131
     2    -0.003992
     3     0.000428
     4    -0.000034
     5     0.810756
     6     0.170784
     7    -0.533110
     8     0.040636
     9     0.008432
    10    -0.022743
    11    -0.004177
    12    -0.000927
    13     0.003362
    14    -0.000773
    15     0.000904
    16    -0.000058
    17    -0.004663
    18    -0.000026
    19     0.000054
    20     0.000797
    21     0.001281
    22    -0.000421
    23    -0.000659
    24     0.000996
    25     0.000060
    26     0.000178
    27     0.000074
    28    -0.000039
    29    -0.000140
    30     0.000676
    31    -0.000132
    32    -0.000534
    33    -0.000005
    34     0.000305
    35     0.001879
    36     0.002605
    37    -0.003072
    38     0.002786
    39    -0.001738
    40    -0.000225
    41     0.000452
    42    -0.000225
    43    -0.000122
    44     0.001425
    45     0.000540
    46    -0.000403
    47    -0.001589
    48     0.000261
    49    -0.000147
    50    -0.002513
    51    -0.003742
    52     0.003961
    53     0.003125
    54     0.001909
    55    -0.000305
    56     0.000721
    57     0.000359
    58    -0.000026
    59    -0.002055
    60    -0.000524
    61     0.000472
    62    -0.001872
    63    -0.000266
    64    -0.000153
Sym=     8a
Ene=   -0.328928E+01
Spin= Alpha
Occup= 1.997619
     1    -0.002733
     2    -0.009788
     3     0.000442
     4    -0.000110
     5    -0.199124
     6     0.963430
     7     0.005980
     8    -0.010097
     9     0.048624
    10     0.000306
    11     0.000917
    12    -0.004840
    13    -0.000040
    14    -0.005031
    15     0.005101
    16    -0.000065
    17     0.001164
    18    -0.000010
    19     0.000002
    20     0.005883
    21     0.010160
    22    -0.000934
    23    -0.000544
    24     0.005184
    25    -0.000008
    26     0.000255
    27     0.000347
    28    -0.000002
    29    -0.000584
    30     0.004000
    31    -0.000529
    32     0.000100
    33    -0.000002
    34    -0.000001
    35    -0.002230
    36    -0.003292
    37     0.003003
    38    -0.003398
    39     0.001677
    40     0.000009
    41    -0.000216
    42     0.000249
    43    -0.000027
    44    -0.002183
    45     0.000035
    46     0.000395
    47     0.001248
    48    -0.000000
    49     0.000001
    50    -0.001161
    51    -0.001814
    52     0.001276
    53     0.001512
    54     0.000447
    55    -0.000040
    56     0.000023
    57     0.000443
    58     0.000025
    59    -0.001325
    60     0.000334
    61     0.000188
    62    -0.000372
    63     0.000000
    64     0.000000
Sym=     9a
Ene=   -0.155233E+01
Spin= Alpha
Occup= 1.993302
     1    -0.006470
     2    -0.033246
     3    -0.018513
     4    -0.007511
     5    -0.039796
     6    -0.022579
     7     0.000237
     8     0.026931
     9     0.014287
    10    -0.000383
    11     0.011817
    12     0.005407
    13    -0.000263
    14    -0.011416
    15     0.011085
    16     0.010123
    17    -0.019076
    18     0.000289
    19     0.000170
    20     0.000078
    21     0.001703
    22    -0.008266
    23    -0.000254
    24    -0.000273
    25    -0.000008
    26     0.000600
    27     0.006244
    28     0.000024
    29     0.000761
    30    -0.000553
    31     0.000667
    32    -0.000461
    33     0.000001
    34     0.000004
    35    -0.000334
    36     0.000824
    37    -0.009051
    38    -0.000538
    39     0.000267
    40    -0.000020
    41     0.005264
    42    -0.002358
    43     0.000030
    44    -0.000488
    45     0.000815
    46     0.000657
    47     0.000414
    48     0.000005
    49    -0.000000
    50    -0.304009
    51    -0.607392
    52    -0.441697
    53    -0.062099
    54    -0.017987
    55     0.003200
    56     0.046627
    57     0.014383
    58    -0.002319
    59    -0.009646
    60    -0.007030
    61    -0.005610
    62    -0.003377
    63    -0.000088
    64    -0.000044
Sym=    10a
Ene=   -0.155197E+01
Spin= Alpha
Occup= 1.992914
     1     0.006731
     2     0.034531
     3     0.019763
     4     0.007109
     5    -0.001679
     6    -0.055210
     7     0.000024
     8     0.003156
     9     0.030554
    10    -0.000065
    11     0.003523
    12     0.012578
    13    -0.000058
    14    -0.019786
    15     0.020424
    16    -0.010126
    17     0.004636
    18    -0.000001
    19    -0.000071
    20     0.303694
    21     0.606845
    22     0.440691
    23    -0.040918
    24    -0.059186
    25     0.000650
    26     0.029313
    27     0.044438
    28    -0.000470
    29     0.004851
    30     0.011871
    31     0.005168
    32    -0.001179
    33     0.000002
    34     0.000023
    35     0.000203
    36    -0.001049
    37     0.008103
    38     0.000444
    39     0.000060
    40    -0.000010
    41    -0.005720
    42     0.003065
    43     0.000004
    44     0.000025
    45    -0.000046
    46    -0.000606
    47    -0.000924
    48     0.000001
    49    -0.000001
    50    -0.000038
    51    -0.001700
    52     0.008670
    53    -0.000699
    54    -0.000587
    55    -0.000003
    56     0.004248
    57     0.003810
    58     0.000002
    59    -0.000266
    60    -0.000215
    61    -0.000711
    62     0.000857
    63    -0.000001
    64    -0.000001
Sym=    11a
Ene=   -0.151689E+01
Spin= Alpha
Occup= 1.989437
     1     0.003951
     2     0.018209
     3    -0.002460
     4     0.011130
     5    -0.028968
     6     0.017403
     7     0.000003
     8     0.012893
     9    -0.007451
    10    -0.000007
    11     0.011203
    12    -0.006560
    13     0.000004
    14     0.006138
    15    -0.007589
    16    -0.008435
    17    -0.013884
    18     0.000000
    19    -0.000009
    20    -0.000188
    21    -0.001385
    22     0.006920
    23     0.000615
    24     0.001226
    25     0.000004
    26    -0.000606
    27    -0.005130
    28     0.000001
    29    -0.000612
    30     0.000328
    31    -0.000468
    32    -0.000271
    33     0.000000
    34    -0.000001
    35     0.304744
    36     0.607279
    37     0.442027
    38    -0.107918
    39     0.063178
    40    -0.000048
    41     0.075429
    42    -0.044174
    43     0.000040
    44     0.008581
    45     0.006803
    46     0.006188
    47    -0.001762
    48     0.000003
    49    -0.000005
    50    -0.000080
    51    -0.001146
    52     0.007133
    53    -0.000887
    54    -0.001057
    55     0.000011
    56     0.004319
    57     0.003036
    58    -0.000005
    59     0.000314
    60    -0.000582
    61    -0.000467
    62     0.000339
    63     0.000000
    64     0.000000
Sym=    12a
Ene=   -0.692016E+00
Spin= Alpha
Occup= 1.984934
     1    -0.000493
     2    -0.003062
     3    -0.005289
     4     0.001645
     5    -0.020300
     6     0.030494
     7    -0.000036
     8     0.025570
     9    -0.035689
    10     0.000067
    11     0.025176
    12    -0.045193
    13     0.000041
    14    -0.053377
    15     0.052715
    16     0.000083
    17     0.034035
    18    -0.000034
    19    -0.000035
    20     0.003898
    21     0.006944
    22     0.010965
    23     0.010297
    24     0.008885
    25     0.000008
    26    -0.015450
    27     0.006203
    28    -0.000023
    29    -0.001138
    30    -0.001805
    31    -0.000444
    32     0.000246
    33     0.000003
    34    -0.000002
    35    -0.003329
    36    -0.005844
    37    -0.009936
    38    -0.011419
    39    -0.005069
    40    -0.000011
    41     0.002219
    42     0.016379
    43     0.000022
    44     0.001359
    45     0.001501
    46     0.000574
    47    -0.000788
    48    -0.000003
    49    -0.000003
    50     0.006907
    51     0.014094
    52     0.012418
    53    -0.307121
    54     0.568721
    55    -0.000480
    56     0.220390
    57    -0.406043
    58     0.000349
    59     0.011816
    60    -0.011960
    61     0.000215
    62    -0.008367
    63     0.000012
    64     0.000004
Sym=    13a
Ene=   -0.694457E+00
Spin= Alpha
Occup= 1.984180
     1    -0.005367
     2    -0.032510
     3    -0.050361
     4     0.012662
     5     0.035571
     6     0.025705
     7     0.000102
     8    -0.041653
     9    -0.035895
    10    -0.000159
    11    -0.052290
    12     0.005278
    13    -0.000116
    14     0.011747
    15    -0.014964
    16     0.003368
    17    -0.068462
    18     0.000007
    19    -0.000143
    20     0.017336
    21     0.036968
    22     0.040254
    23     0.624396
    24    -0.149882
    25     0.001426
    26    -0.450211
    27     0.098677
    28    -0.001039
    29     0.001810
    30    -0.004474
    31     0.001808
    32     0.015666
    33     0.000001
    34     0.000037
    35     0.004230
    36     0.008392
    37     0.009947
    38     0.003282
    39    -0.013616
    40    -0.000028
    41     0.012873
    42     0.008795
    43     0.000032
    44    -0.002005
    45    -0.000959
    46    -0.000253
    47     0.000808
    48     0.000001
    49    -0.000001
    50    -0.002988
    51    -0.003940
    52    -0.012326
    53    -0.000923
    54     0.008849
    55    -0.000010
    56     0.013177
    57    -0.011313
    58    -0.000004
    59     0.002169
    60     0.000825
    61     0.000988
    62    -0.000118
    63    -0.000002
    64    -0.000001
Sym=    14a
Ene=   -0.694303E+00
Spin= Alpha
Occup= 1.979542
     1     0.000145
     2     0.000860
     3     0.001122
     4    -0.000309
     5     0.017110
     6     0.031660
     7     0.002511
     8    -0.020216
     9    -0.037437
    10    -0.004012
    11    -0.027800
    12    -0.049139
    13    -0.002767
    14    -0.055147
    15     0.055183
    16    -0.000041
    17    -0.037016
    18    -0.003091
    19     0.001774
    20     0.004180
    21     0.006886
    22     0.012856
    23    -0.010968
    24     0.006717
    25    -0.000430
    26     0.017961
    27     0.006128
    28     0.000538
    29    -0.001018
    30    -0.002202
    31    -0.000743
    32    -0.000494
    33    -0.000007
    34     0.000031
    35    -0.000080
    36    -0.000146
    37    -0.000842
    38     0.324496
    39     0.553101
    40     0.034271
    41    -0.234328
    42    -0.400133
    43    -0.025116
    44     0.012475
    45    -0.012321
    46    -0.000007
    47     0.008114
    48     0.000792
    49    -0.000460
    50    -0.003921
    51    -0.006441
    52    -0.012046
    53     0.011731
    54    -0.005341
    55    -0.000407
    56    -0.003011
    57     0.017460
    58     0.000513
    59     0.001544
    60     0.001649
    61     0.000697
    62     0.000785
    63    -0.000030
    64    -0.000011
Sym=    15a
Ene=   -0.690619E+00
Spin= Alpha
Occup= 1.978652
     1    -0.001796
     2    -0.010864
     3    -0.016758
     4     0.004033
     5    -0.007469
     6    -0.004406
     7     0.047036
     8     0.010788
     9     0.006331
    10    -0.075714
    11    -0.001246
    12    -0.000655
    13    -0.052440
    14    -0.002792
    15     0.001709
    16     0.001182
    17    -0.004675
    18     0.057773
    19     0.033158
    20     0.000374
    21     0.001063
    22    -0.000262
    23     0.000563
    24     0.001164
    25    -0.008085
    26     0.000279
    27     0.000063
    28     0.010202
    29     0.000117
    30    -0.000090
    31     0.000128
    32    -0.000107
    33     0.000123
    34     0.000578
    35     0.000340
    36     0.000999
    37    -0.000299
    38     0.001299
    39    -0.000073
    40    -0.008210
    41     0.000193
    42     0.000139
    43     0.010382
    44    -0.000124
    45     0.000140
    46     0.000128
    47     0.000051
    48     0.000559
    49    -0.000189
    50     0.000974
    51     0.002525
    52     0.006528
    53     0.040968
    54     0.022569
    55     0.632657
    56    -0.026948
    57    -0.014783
    58    -0.465374
    59    -0.001113
    60    -0.000001
    61     0.000489
    62    -0.001063
    63    -0.014689
    64    -0.008470
Sym=    16a
Ene=   -0.694348E+00
Spin= Alpha
Occup= 1.978479
     1     0.000233
     2     0.001400
     3     0.002089
     4    -0.000472
     5    -0.002011
     6    -0.001114
     7     0.046836
     8     0.002598
     9     0.001231
    10    -0.075249
    11     0.001392
    12     0.002761
    13    -0.051755
    14     0.003389
    15    -0.003242
    16    -0.000172
    17     0.001352
    18    -0.057742
    19     0.033051
    20    -0.000279
    21    -0.000521
    22    -0.000668
    23     0.000726
    24    -0.000497
    25    -0.008525
    26    -0.000979
    27    -0.000351
    28     0.010478
    29     0.000040
    30     0.000131
    31     0.000023
    32     0.000013
    33    -0.000110
    34     0.000556
    35     0.000409
    36     0.000730
    37    -0.000021
    38    -0.012226
    39    -0.032928
    40     0.634798
    41     0.009198
    42     0.023602
    43    -0.465127
    44    -0.000517
    45     0.000678
    46    -0.000059
    47    -0.000588
    48     0.014712
    49    -0.008523
    50     0.000173
    51     0.000227
    52     0.000743
    53    -0.000327
    54     0.000402
    55    -0.008256
    56     0.000117
    57    -0.001029
    58     0.010383
    59    -0.000071
    60    -0.000111
    61    -0.000053
    62    -0.000038
    63    -0.000543
    64    -0.000196
Sym=    17a
Ene=   -0.687270E+00
Spin= Alpha
Occup= 1.976643
     1     0.000190
     2     0.001151
     3     0.001762
     4    -0.000444
     5    -0.000043
     6    -0.000973
     7     0.046448
     8     0.000048
     9     0.001373
    10    -0.073338
    11     0.000009
    12    -0.000169
    13    -0.051148
    14    -0.000457
    15     0.000565
    16    -0.000142
    17     0.000002
    18    -0.000127
    19    -0.065433
    20    -0.000259
    21    -0.000591
    22    -0.000934
    23    -0.000094
    24     0.005330
    25     0.636129
    26     0.000077
    27    -0.003491
    28    -0.466608
    29    -0.000061
    30     0.000180
    31    -0.000060
    32    -0.000003
    33     0.000008
    34     0.016987
    35    -0.000036
    36    -0.000106
    37     0.000037
    38    -0.000054
    39     0.000093
    40    -0.008016
    41    -0.000016
    42     0.000055
    43     0.009620
    44    -0.000003
    45     0.000004
    46    -0.000015
    47    -0.000017
    48     0.000444
    49    -0.000380
    50    -0.000030
    51    -0.000098
    52     0.000078
    53     0.000256
    54     0.000205
    55    -0.008550
    56    -0.000117
    57    -0.000017
    58     0.010050
    59    -0.000009
    60     0.000000
    61    -0.000012
    62     0.000014
    63    -0.000435
    64    -0.000358
Sym=    18a
Ene=   -0.761528E+00
Spin= Alpha
Occup= 1.976054
     1    -0.024659
     2    -0.148013
     3    -0.226720
     4     0.052846
     5    -0.104301
     6    -0.061924
     7    -0.003626
     8     0.147393
     9     0.086903
    10     0.006002
    11    -0.015438
    12    -0.007598
    13     0.004070
    14    -0.037649
    15     0.022989
    16     0.016506
    17    -0.064259
    18    -0.004484
    19    -0.002599
    20     0.005019
    21     0.014268
    22    -0.003863
    23     0.008196
    24     0.016485
    25     0.000459
    26     0.003254
    27     0.000080
    28    -0.000650
    29     0.001580
    30    -0.001158
    31     0.001719
    32    -0.001451
    33    -0.000009
    34    -0.000051
    35     0.004671
    36     0.013540
    37    -0.004034
    38     0.018738
    39    -0.000882
    40     0.000499
    41     0.001694
    42     0.001377
    43    -0.000710
    44    -0.001674
    45     0.001881
    46     0.001684
    47     0.000683
    48    -0.000048
    49     0.000015
    50    -0.006641
    51    -0.006299
    52     0.059220
    53     0.538283
    54     0.290273
    55    -0.047909
    56    -0.352056
    57    -0.188543
    58     0.035224
    59    -0.015542
    60    -0.000253
    61     0.006357
    62    -0.014345
    63     0.001152
    64     0.000662
Sym=    19a
Ene=   -0.762684E+00
Spin= Alpha
Occup= 1.975392
     1     0.024030
     2     0.144067
     3     0.219659
     4    -0.050786
     5     0.008799
     6    -0.120508
     7    -0.000392
     8    -0.010444
     9     0.166754
    10     0.000638
    11    -0.014176
    12    -0.015590
    13     0.000452
    14    -0.054633
    15     0.068784
    16    -0.016597
    17    -0.018238
    18     0.000007
    19     0.000596
    20     0.008807
    21     0.010883
    22    -0.053940
    23     0.151613
    24     0.596605
    25    -0.005202
    26    -0.109149
    27    -0.387953
    28     0.003820
    29    -0.006647
    30     0.022013
    31    -0.006242
    32     0.004016
    33    -0.000001
    34    -0.000146
    35    -0.003564
    36    -0.011607
    37     0.007469
    38    -0.009818
    39     0.012835
    40     0.000049
    41     0.003818
    42     0.004335
    43    -0.000054
    44    -0.001072
    45    -0.000026
    46    -0.001832
    47    -0.001961
    48    -0.000006
    49     0.000006
    50    -0.006058
    51    -0.015994
    52     0.000835
    53     0.009621
    54     0.019193
    55     0.000170
    56     0.002238
    57     0.000183
    58    -0.000154
    59    -0.000066
    60     0.000451
    61    -0.001533
    62     0.002116
    63     0.000001
    64     0.000001
Sym=    20a
Ene=   -0.803709E+00
Spin= Alpha
Occup= 1.975383
     1    -0.025178
     2    -0.150297
     3    -0.224841
     4     0.049362
     5     0.109720
     6    -0.063452
     7     0.000480
     8    -0.149657
     9     0.085572
    10    -0.000813
    11     0.011428
    12    -0.006746
    13    -0.000535
    14    -0.040343
    15     0.025417
    16     0.017700
    17     0.064919
    18    -0.000613
    19     0.000311
    20     0.005397
    21     0.015120
    22    -0.004007
    23    -0.010934
    24     0.016958
    25    -0.000052
    26    -0.000629
    27     0.000919
    28     0.000092
    29     0.001584
    30    -0.001226
    31     0.001743
    32     0.001384
    33     0.000003
    34     0.000006
    35    -0.036883
    36    -0.065525
    37     0.013701
    38    -0.522428
    39     0.306259
    40     0.006387
    41     0.338668
    42    -0.199091
    43    -0.004682
    44    -0.015633
    45    -0.000969
    46     0.006189
    47     0.014940
    48     0.000152
    49    -0.000091
    50     0.005095
    51     0.014489
    52    -0.004546
    53    -0.019612
    54    -0.000275
    55    -0.000170
    56    -0.001745
    57     0.001959
    58     0.000172
    59    -0.001605
    60     0.002002
    61     0.001756
    62    -0.000654
    63    -0.000001
    64     0.000001
Sym=    21a
Ene=   -0.373842E-01
Spin= Alpha
Occup= 0.021398
     1     0.051738
     2     0.419113
     3     1.238807
     4    -0.223803
     5    -0.218123
     6     0.117617
     7    -0.001207
     8     0.654053
     9    -0.346782
    10     0.002815
    11    -0.035921
    12     0.016899
    13     0.000546
    14    -0.175225
    15    -0.363122
    16    -0.321205
    17    -0.208818
    18     0.000809
    19    -0.000462
    20    -0.003715
    21    -0.024271
    22     0.100668
    23     0.086310
    24    -0.028684
    25     0.000437
    26     0.016688
    27    -0.052862
    28    -0.000473
    29    -0.003387
    30    -0.001845
    31    -0.007835
    32    -0.014693
    33     0.000169
    34    -0.000053
    35    -0.202312
    36    -0.700864
    37    -0.081225
    38    -0.612109
    39     0.363582
    40     0.006848
    41    -0.183075
    42     0.116291
    43     0.005789
    44     0.166728
    45     0.123450
    46     0.107681
    47    -0.044846
    48    -0.000507
    49     0.000328
    50     0.000760
    51    -0.010937
    52     0.115117
    53     0.067473
    54    -0.098100
    55     0.001723
    56     0.074573
    57    -0.018997
    58     0.000970
    59     0.007560
    60    -0.018388
    61    -0.009472
    62    -0.009137
    63     0.000183
    64     0.000048
Sym=    22a
Ene=   -0.351287E-01
Spin= Alpha
Occup= 0.020647
     1     0.049601
     2     0.402864
     3     1.192207
     4    -0.223954
     5     0.011798
     6    -0.248661
     7    -0.001488
     8    -0.016520
     9     0.742536
    10     0.003849
    11    -0.022370
    12    -0.056115
    13     0.000297
    14    -0.475235
    15    -0.050585
    16    -0.306308
    17    -0.051881
    18    -0.000409
    19     0.001116
    20    -0.159273
    21    -0.526154
    22    -0.168899
    23    -0.108752
    24    -0.748102
    25     0.005286
    26    -0.077874
    27    -0.266936
    28     0.003848
    29     0.061945
    30     0.172992
    31     0.070757
    32     0.015382
    33    -0.000115
    34    -0.000665
    35     0.008450
    36     0.020000
    37     0.088116
    38    -0.006685
    39     0.007596
    40     0.000487
    41    -0.070391
    42    -0.013036
    43    -0.000412
    44    -0.015082
    45    -0.002879
    46    -0.012756
    47    -0.006889
    48    -0.000050
    49     0.000058
    50    -0.003061
    51    -0.022654
    52     0.117752
    53    -0.080744
    54     0.130921
    55     0.002082
    56    -0.006061
    57     0.090130
    58     0.001072
    59    -0.020984
    60     0.015230
    61    -0.007185
    62     0.007765
    63     0.000098
    64     0.000108
Sym=    23a
Ene=   -0.346760E-01
Spin= Alpha
Occup= 0.020559
     1    -0.049722
     2    -0.405876
     3    -1.208266
     4     0.230933
     5    -0.218053
     6    -0.128287
     7    -0.008218
     8     0.658732
     9     0.388978
    10     0.019858
    11    -0.057743
    12    -0.039786
    13     0.002482
    14     0.147525
    15     0.394814
    16     0.309955
    17    -0.237283
    18    -0.008855
    19    -0.004899
    20    -0.003972
    21    -0.002169
    22    -0.112434
    23     0.057397
    24    -0.016810
    25     0.003319
    26     0.005540
    27     0.039860
    28    -0.001758
    29     0.004965
    30     0.008439
    31     0.010242
    32    -0.011541
    33    -0.000370
    34    -0.000369
    35    -0.008599
    36    -0.022573
    37    -0.095521
    38     0.009050
    39     0.015432
    40     0.000787
    41     0.027062
    42    -0.057575
    43    -0.004376
    44     0.001693
    45     0.017228
    46     0.013268
    47    -0.006521
    48    -0.000304
    49    -0.000225
    50     0.149403
    51     0.483649
    52     0.204828
    53    -0.675552
    54    -0.383593
    55     0.052496
    56    -0.250807
    57    -0.134522
    58     0.044479
    59    -0.138583
    60    -0.082284
    61    -0.063978
    62    -0.056765
    63     0.004694
    64     0.002711
Sym=    24a
Ene=   -0.216999E-01
Spin= Alpha
Occup= 0.012969
     1    -0.000205
     2    -0.001766
     3    -0.004268
     4     0.000834
     5     0.000576
     6     0.001809
     7    -0.090051
     8    -0.001828
     9    -0.005372
    10     0.204656
    11    -0.000033
    12     0.000899
    13     0.018725
    14     0.004514
    15    -0.000509
    16     0.001450
    17     0.000082
    18    -0.000449
    19     0.157560
    20     0.000109
    21    -0.000142
    22     0.002505
    23    -0.002522
    24     0.006657
    25     0.906573
    26    -0.002283
    27     0.004343
    28     0.831844
    29     0.000567
    30    -0.000693
    31     0.000232
    32     0.000233
    33     0.001086
    34    -0.089437
    35    -0.000104
    36    -0.000173
    37    -0.001250
    38     0.000367
    39     0.001236
    40    -0.064947
    41     0.001231
    42     0.001121
    43    -0.115897
    44     0.000188
    45     0.000017
    46     0.000373
    47    -0.000210
    48     0.010534
    49     0.004716
    50    -0.000483
    51    -0.001355
    52    -0.001901
    53     0.000660
    54     0.001281
    55    -0.064128
    56    -0.001069
    57    -0.000069
    58    -0.115524
    59     0.000466
    60     0.000477
    61     0.000248
    62     0.000146
    63    -0.009974
    64     0.003411
Sym=    25a
Ene=   -0.254454E-01
Spin= Alpha
Occup= 0.017529
     1     0.000296
     2     0.002327
     3     0.006588
     4    -0.001313
     5    -0.003425
     6    -0.001782
     7     0.118071
     8     0.008354
     9     0.001325
    10    -0.278403
    11     0.001688
    12     0.004504
    13    -0.032718
    14     0.009119
    15    -0.011754
    16    -0.001734
    17     0.003385
    18    -0.145936
    19     0.071026
    20    -0.000318
    21    -0.000621
    22     0.001461
    23     0.005208
    24     0.001713
    25    -0.024551
    26     0.000448
    27     0.001560
    28     0.048979
    29     0.000596
    30    -0.000499
    31    -0.000028
    32    -0.000866
    33    -0.008431
    34     0.003095
    35    -0.001704
    36    -0.005895
    37    -0.001052
    38     0.018558
    39     0.044030
    40    -0.890591
    41     0.019642
    42     0.037783
    43    -0.785275
    44    -0.001549
    45     0.004368
    46     0.000967
    47    -0.002682
    48     0.073038
    49    -0.043513
    50     0.000628
    51     0.001535
    52     0.000380
    53    -0.003278
    54     0.006960
    55     0.025476
    56     0.000116
    57     0.003916
    58     0.095685
    59    -0.000772
    60     0.000168
    61    -0.000204
    62     0.001013
    63    -0.002463
    64     0.006683
Sym=    26a
Ene=   -0.253476E-01
Spin= Alpha
Occup= 0.017371
     1    -0.002676
     2    -0.021993
     3    -0.063872
     4     0.012648
     5    -0.013005
     6    -0.007686
     7     0.117736
     8     0.038294
     9     0.022494
    10    -0.277879
    11    -0.004406
    12    -0.002992
    13    -0.032942
    14     0.007824
    15     0.023873
    16     0.016922
    17    -0.015065
    18     0.146252
    19     0.071151
    20    -0.000718
    21    -0.001680
    22    -0.007323
    23     0.001985
    24    -0.003265
    25    -0.023259
    26    -0.000315
    27     0.001654
    28     0.050071
    29     0.000494
    30     0.001106
    31     0.000889
    32    -0.000561
    33     0.009016
    34     0.003395
    35    -0.000901
    36    -0.002468
    37    -0.006610
    38    -0.001974
    39    -0.000205
    40     0.028337
    41     0.000886
    42    -0.004681
    43     0.098031
    44     0.000561
    45     0.001104
    46     0.001177
    47    -0.000466
    48     0.003033
    49     0.007627
    50     0.005182
    51     0.014014
    52     0.018666
    53    -0.044420
    54    -0.025303
    55    -0.891148
    56    -0.021901
    57    -0.011935
    58    -0.784082
    59    -0.005642
    60    -0.002004
    61    -0.001824
    62    -0.003495
    63    -0.072109
    64    -0.043069
Sym=    27a
Ene=   -0.241365E-01
Spin= Alpha
Occup= 0.016159
     1    -0.000698
     2    -0.006592
     3    -0.024815
     4     0.004935
     5     0.016673
     6     0.034414
     7     0.005452
     8    -0.008770
     9    -0.027241
    10    -0.012559
    11    -0.037925
    12    -0.076319
    13    -0.001373
    14    -0.181177
    15     0.193572
    16     0.007147
    17    -0.111520
    18    -0.008136
    19     0.003624
    20    -0.001414
    21    -0.014306
    22    -0.022997
    23    -0.079629
    24    -0.054691
    25    -0.000054
    26    -0.005153
    27    -0.041612
    28     0.003242
    29    -0.006792
    30     0.017557
    31     0.003878
    32     0.013462
    33    -0.000508
    34     0.000021
    35     0.000443
    36     0.002729
    37    -0.001665
    38    -0.440656
    39    -0.774616
    40    -0.048161
    41    -0.402162
    42    -0.707590
    43    -0.043337
    44     0.057870
    45    -0.058767
    46    -0.000045
    47     0.040534
    48     0.003861
    49    -0.002359
    50     0.005139
    51     0.027000
    52     0.020555
    53     0.029472
    54    -0.151740
    55     0.003753
    56     0.002914
    57    -0.068926
    58     0.006763
    59    -0.001312
    60    -0.016293
    61    -0.005589
    62    -0.023692
    63     0.000166
    64     0.000539
Sym=    28a
Ene=   -0.122556E-01
Spin= Alpha
Occup= 0.005705
     1     0.012406
     2     0.144031
     3     0.682580
     4    -0.153967
     5    -0.008129
     6    -0.042838
     7    -0.000156
     8     0.030637
     9     0.352189
    10     0.000639
    11    -0.001584
    12    -0.050659
    13    -0.000233
    14    -0.431910
    15     0.078299
    16    -0.204560
    17     0.167674
    18    -0.000414
    19     0.000383
    20     0.018141
    21     0.155163
    22    -0.396685
    23    -0.375317
    24     0.046038
    25    -0.000005
    26    -0.508604
    27     0.308040
    28    -0.000253
    29    -0.280594
    30     0.388521
    31    -0.101727
    32    -0.329889
    33    -0.002811
    34    -0.000790
    35     0.010853
    36     0.018347
    37     0.150210
    38     0.153316
    39     0.075811
    40    -0.000584
    41     0.092066
    42     0.179400
    43    -0.000493
    44    -0.030213
    45    -0.003664
    46    -0.009292
    47     0.025867
    48    -0.000317
    49    -0.000872
    50     0.018108
    51     0.058136
    52     0.031238
    53     0.309209
    54    -0.513601
    55    -0.000517
    56     0.342654
    57    -0.451851
    58    -0.000732
    59     0.052200
    60    -0.099245
    61    -0.007913
    62    -0.040017
    63     0.000440
    64     0.000005
Sym=    29a
Ene=   -0.990005E-02
Spin= Alpha
Occup= 0.004280
     1    -0.033367
     2    -0.393345
     3    -1.773406
     4     0.354578
     5    -0.051809
     6    -0.028640
     7     0.004224
     8     0.451942
     9     0.248848
    10    -0.015115
    11    -0.040716
    12    -0.022478
    13     0.003992
    14     0.426111
    15     0.661018
    16     0.525983
    17    -0.243590
    18     0.008245
    19     0.004451
    20     0.010102
    21     0.054397
    22    -0.137625
    23     0.006234
    24    -0.035324
    25     0.002525
    26     0.033766
    27     0.075960
    28     0.003587
    29    -0.006417
    30    -0.015261
    31    -0.023680
    32    -0.006056
    33     0.004483
    34     0.000397
    35     0.007231
    36     0.047058
    37    -0.148922
    38    -0.012384
    39     0.029054
    40     0.002818
    41     0.108975
    42    -0.006307
    43     0.003714
    44    -0.013155
    45    -0.010388
    46    -0.009788
    47    -0.004077
    48     0.000913
    49     0.002868
    50    -0.046635
    51    -0.295846
    52     0.521092
    53     0.238861
    54     0.116047
    55     0.009693
    56     0.563701
    57     0.301184
    58     0.018461
    59    -0.179715
    60     0.530842
    61    -0.258772
    62    -0.699315
    63    -0.042824
    64    -0.021200
Sym=    30a
Ene=   -0.222947E-01
Spin= Alpha
Occup= 0.007503
     1     0.009584
     2     0.089091
     3     0.243916
     4    -0.070323
     5    -0.022729
     6     0.014985
     7    -0.000433
     8    -0.001287
     9    -0.010833
    10     0.001528
    11    -0.038655
    12     0.022925
    13    -0.000311
    14    -0.109005
    15    -0.093290
    16    -0.052976
    17     0.014395
    18     0.000064
    19     0.000224
    20    -0.000664
    21     0.000703
    22    -0.002006
    23     0.009232
    24     0.018911
    25    -0.000385
    26     0.012799
    27     0.013299
    28    -0.000792
    29     0.004512
    30    -0.001491
    31     0.006216
    32    -0.007328
    33    -0.000283
    34     0.000123
    35     0.532644
    36     2.006682
    37    -0.546497
    38    -0.371518
    39     0.219362
    40    -0.000411
    41    -0.439464
    42     0.262118
    43    -0.000720
    44    -0.589817
    45    -0.594651
    46    -0.604325
    47    -0.003689
    48    -0.000381
    49    -0.000064
    50     0.004978
    51     0.023022
    52    -0.012507
    53    -0.003998
    54    -0.040043
    55    -0.000149
    56    -0.003535
    57    -0.044398
    58    -0.000384
    59    -0.001229
    60    -0.010661
    61    -0.001302
    62    -0.009661
    63    -0.000189
    64    -0.000117
Sym=    31a
Ene=   -0.102409E-01
Spin= Alpha
Occup= 0.003688
     1    -0.004995
     2    -0.056918
     3    -0.270553
     4     0.052242
     5     0.020391
     6     0.007081
     7    -0.001058
     8    -0.089298
     9    -0.051598
    10     0.003804
    11     0.031025
    12     0.009473
    13    -0.001011
    14     0.014678
    15     0.098190
    16     0.091176
    17    -0.146690
    18     0.000402
    19     0.002393
    20    -0.015947
    21    -0.067587
    22     0.032166
    23    -0.048279
    24    -0.092057
    25    -0.002691
    26     0.026077
    27    -0.136284
    28    -0.005061
    29    -0.058103
    30    -0.045910
    31     0.171491
    32     0.822368
    33     0.008563
    34    -0.015896
    35    -0.000616
    36    -0.008016
    37    -0.001044
    38     0.069643
    39     0.116351
    40    -0.001316
    41     0.110197
    42     0.193036
    43    -0.001764
    44    -0.017296
    45     0.022462
    46    -0.012594
    47    -0.002049
    48     0.001017
    49     0.000869
    50     0.023590
    51     0.078610
    52     0.044257
    53     0.182420
    54    -0.378882
    55    -0.000465
    56     0.220751
    57    -0.416892
    58    -0.000533
    59     0.044160
    60    -0.134014
    61    -0.004308
    62    -0.052725
    63     0.000768
    64     0.000057
Sym=    32a
Ene=   -0.960387E-02
Spin= Alpha
Occup= 0.003530
     1    -0.000033
     2    -0.000207
     3     0.002184
     4    -0.000104
     5     0.013261
     6    -0.021289
     7     0.001787
     8    -0.062102
     9     0.095889
    10    -0.006410
    11     0.015917
    12    -0.027508
    13     0.001687
    14     0.157418
    15    -0.150909
    16    -0.003472
    17    -0.100703
    18     0.004124
    19     0.002895
    20     0.002710
    21     0.009502
    22     0.038058
    23     0.018183
    24     0.035755
    25     0.000666
    26     0.067683
    27     0.027796
    28     0.000648
    29     0.047674
    30    -0.007636
    31    -0.046703
    32    -0.011919
    33    -0.001067
    34     0.000037
    35    -0.007553
    36    -0.025474
    37    -0.041214
    38    -0.044393
    39    -0.005718
    40     0.001326
    41    -0.061765
    42    -0.052846
    43     0.001717
    44     0.028385
    45     0.003297
    46    -0.001988
    47     0.001985
    48     0.002632
    49     0.005157
    50     0.007158
    51     0.026949
    52    -0.009433
    53     0.118403
    54    -0.207043
    55     0.005739
    56     0.185907
    57    -0.332886
    58     0.010356
    59    -0.700816
    60     0.664409
    61     0.007838
    62     0.462444
    63    -0.028303
    64    -0.010621
Sym=    33a
Ene=   -0.657153E-02
Spin= Alpha
Occup= 0.001243
     1     0.078856
     2     0.950005
     3     4.101607
     4    -0.679228
     5     0.003810
     6    -0.002357
     7     0.003362
     8    -0.015889
     9     0.007993
    10    -0.012059
    11     0.000999
    12    -0.004959
    13     0.002899
    14    -1.292596
    15    -1.296751
    16    -1.345698
    17     0.000735
    18     0.014031
    19    -0.005491
    20     0.019257
    21     0.123943
    22    -0.142171
    23    -0.012010
    24     0.173236
    25     0.008374
    26    -0.010359
    27     0.239945
    28     0.015151
    29     0.547694
    30    -0.169423
    31    -0.418097
    32     0.058060
    33     0.322365
    34     0.051530
    35     0.025529
    36     0.142280
    37    -0.131801
    38     0.156080
    39    -0.076070
    40    -0.002964
    41     0.204412
    42    -0.099240
    43    -0.007411
    44    -0.205955
    45     0.021333
    46     0.114890
    47     0.233457
    48     0.009308
    49    -0.004766
    50     0.030560
    51     0.158063
    52    -0.129852
    53    -0.113021
    54    -0.135337
    55     0.008465
    56    -0.164204
    57    -0.173147
    58     0.015431
    59    -0.190218
    60    -0.031603
    61     0.116578
    62    -0.258568
    63     0.008351
    64     0.014120
Sym=    34a
Ene=   -0.645213E-02
Spin= Alpha
Occup= 0.001185
     1     0.048276
     2     0.582766
     3     2.497575
     4    -0.413124
     5     0.003888
     6     0.000124
     7    -0.009050
     8    -0.023718
     9     0.007211
    10     0.032400
    11     0.001497
    12     0.001291
    13    -0.007050
    14    -0.827568
    15    -0.810451
    16    -0.804867
    17     0.009373
    18    -0.037611
    19    -0.009739
    20     0.013091
    21     0.075905
    22    -0.069588
    23     0.010154
    24     0.110780
    25    -0.010092
    26     0.012418
    27     0.142194
    28    -0.015853
    29    -0.131062
    30    -0.158365
    31     0.253612
    32    -0.009194
    33    -0.643603
    34    -0.120255
    35     0.010870
    36     0.064303
    37    -0.048470
    38     0.082591
    39    -0.049795
    40     0.003161
    41     0.090820
    42    -0.052358
    43     0.009106
    44    -0.079423
    45     0.060942
    46    -0.002191
    47     0.147300
    48    -0.292327
    49    -0.453492
    50     0.015213
    51     0.080180
    52    -0.059367
    53    -0.097914
    54    -0.028911
    55    -0.022398
    56    -0.125202
    57    -0.040041
    58    -0.045368
    59    -0.141232
    60     0.036971
    61     0.050989
    62    -0.134950
    63    -0.068632
    64    -0.048374
Sym=    35a
Ene=   -0.646390E-02
Spin= Alpha
Occup= 0.001189
     1     0.049928
     2     0.603702
     3     2.568306
     4    -0.425455
     5     0.000285
     6     0.000009
     7     0.003393
     8    -0.001563
     9     0.015836
    10    -0.012165
    11     0.000416
    12     0.002996
    13     0.002474
    14    -0.891451
    15    -0.859695
    16    -0.809997
    17     0.003812
    18     0.016496
    19     0.017687
    20     0.015480
    21     0.079748
    22    -0.050075
    23     0.023598
    24     0.119956
    25    -0.004467
    26     0.025635
    27     0.143842
    28    -0.009828
    29    -0.505823
    30    -0.197612
    31     0.649722
    32    -0.050097
    33     0.102838
    34     0.031728
    35     0.011430
    36     0.062317
    37    -0.028842
    38     0.075744
    39    -0.058337
    40     0.000633
    41     0.074494
    42    -0.058752
    43     0.000838
    44    -0.114388
    45    -0.004352
    46     0.090865
    47     0.091045
    48     0.279078
    49     0.467811
    50     0.007200
    51     0.047442
    52    -0.029571
    53    -0.119458
    54     0.014293
    55     0.012536
    56    -0.126642
    57     0.021814
    58     0.025534
    59    -0.136477
    60     0.092390
    61     0.031832
    62    -0.107615
    63     0.033012
    64     0.014883
Sym=    36a
Ene=   -0.248815E-02
Spin= Alpha
Occup= 0.000355
     1     0.003727
     2     0.045793
     3     0.176030
     4    -0.020418
     5     0.115483
     6    -0.224073
     7     0.034404
     8    -0.745013
     9     1.366556
    10    -0.123171
    11     0.083322
    12    -0.165808
    13     0.022236
    14    -0.420239
    15     0.266914
    16    -0.068229
    17     0.219570
    18     0.000791
    19     0.001560
    20     0.252549
    21     0.824489
    22    -0.067001
    23     0.046276
    24     0.247427
    25     0.021667
    26     0.088303
    27     0.925644
    28     0.046159
    29    -0.401548
    30    -0.886902
    31    -0.441832
    32    -0.049749
    33     0.002536
    34    -0.029490
    35    -0.208844
    36    -0.712433
    37     0.195494
    38    -0.225742
    39     0.075657
    40     0.025608
    41    -0.834764
    42     0.370629
    43     0.051220
    44     0.736418
    45     0.367706
    46     0.316379
    47    -0.235386
    48    -0.027521
    49     0.014813
    50    -0.032760
    51    -0.080963
    52    -0.091401
    53     0.063502
    54    -0.097638
    55     0.025330
    56     0.133484
    57    -0.163961
    58     0.051370
    59     0.192655
    60    -0.024845
    61     0.082144
    62    -0.067438
    63     0.029419
    64     0.016852
Sym=    37a
Ene=   -0.121295E-03
Spin= Alpha
Occup= 0.000005
     1     0.016653
     2     0.373714
     3     0.294090
     4     0.191322
     5    -0.004845
     6     0.001282
     7     0.003032
     8     0.034972
     9    -0.003789
    10    -0.010971
    11    -0.007227
    12     0.003707
    13     0.005148
    14    -1.827588
    15    -1.825920
    16    -0.556172
    17    -0.027153
    18    -0.022857
    19    -0.430474
    20     0.044826
    21    -0.297556
    22     1.760266
    23    -0.003360
    24    -0.204440
    25     0.073720
    26     0.001055
    27    -1.148785
    28     0.246232
    29    -0.296884
    30    -0.070296
    31    -0.369595
    32    -0.003534
    33     0.004909
    34    -0.114011
    35     0.048301
    36    -0.295126
    37     1.782564
    38    -0.169159
    39     0.098854
    40    -0.032209
    41    -0.966706
    42     0.563108
    43    -0.108557
    44    -0.147291
    45    -0.253064
    46    -0.390171
    47    -0.109515
    48     0.058623
    49     0.001438
    50     0.045959
    51    -0.300139
    52     1.789668
    53     0.177179
    54     0.105742
    55    -0.040242
    56     1.011313
    57     0.584912
    58    -0.132570
    59    -0.125533
    60    -0.239571
    61    -0.382919
    62     0.115851
    63    -0.068821
    64    -0.003719
Sym=    38a
Ene=   -0.126432E-03
Spin= Alpha
Occup= 0.000005
     1     0.000945
     2     0.020887
     3     0.018584
     4     0.010222
     5    -0.000241
     6     0.000322
     7    -0.001735
     8     0.000772
     9    -0.003484
    10     0.006160
    11    -0.000627
    12     0.000555
    13    -0.001982
    14    -0.096542
    15    -0.104090
    16    -0.031119
    17     0.000230
    18     1.128706
    19     0.078035
    20     0.002341
    21    -0.017083
    22     0.099000
    23    -0.000320
    24    -0.011315
    25    -0.013471
    26    -0.000505
    27    -0.065284
    28    -0.045500
    29    -0.016125
    30    -0.002823
    31    -0.020703
    32     0.000018
    33    -0.092756
    34     0.022566
    35     0.002758
    36    -0.015677
    37     0.097023
    38    -0.009139
    39     0.004973
    40    -0.170595
    41    -0.052729
    42     0.028921
    43    -0.546257
    44    -0.008098
    45    -0.015267
    46    -0.020689
    47    -0.005586
    48     0.191352
    49    -0.170989
    50     0.002618
    51    -0.015372
    52     0.094422
    53     0.009035
    54     0.004992
    55     0.181486
    56     0.052870
    57     0.029201
    58     0.585887
    59    -0.007173
    60    -0.013747
    61    -0.020302
    62     0.005855
    63     0.216523
    64     0.174428
Sym=    39a
Ene=   -0.224648E-03
Spin= Alpha
Occup= 0.000010
     1    -0.000576
     2    -0.008544
     3    -0.025395
     4     0.001852
     5    -0.056275
     6     0.047970
     7     0.000537
     8     0.787536
     9    -0.680413
    10    -0.001900
    11    -0.094004
    12     0.086736
    13     0.000165
    14     1.075819
    15    -1.033734
    16     0.014956
    17    -1.373726
    18    -0.000782
    19    -0.001986
    20    -0.001436
    21    -0.161912
    22     0.871232
    23     0.155026
    24    -0.003225
    25     0.000516
    26     0.568633
    27    -0.608196
    28     0.001712
    29    -0.172845
    30     0.188833
    31    -0.078725
    32    -0.279319
    33    -0.000214
    34    -0.000942
    35     0.007377
    36     0.255989
    37    -1.291046
    38     0.000750
    39    -0.052723
    40     0.000512
    41     0.742040
    42    -0.613043
    43     0.000861
    44    -0.104540
    45     0.044408
    46     0.105017
    47     0.293120
    48     0.000132
    49     0.000841
    50    -0.001763
    51    -0.080354
    52     0.414419
    53     0.118696
    54    -0.186147
    55     0.000208
    56     0.637456
    57    -0.498250
    58     0.000005
    59     0.312054
    60    -0.297536
    61    -0.033099
    62    -0.090919
    63    -0.000049
    64     0.000122
Sym=    40a
Ene=   -0.231124E-04
Spin= Alpha
Occup= 0.000000
     1    -0.006375
     2    -0.105730
     3    -0.772409
     4     0.041341
     5     0.000020
     6    -0.000811
     7    -0.000144
     8     0.002690
     9     0.007542
    10     0.000547
    11     0.003568
    12    -0.005263
    13    -0.000502
    14    -0.574261
    15    -0.561265
    16     1.323763
    17    -0.001838
    18     0.000190
    19    -0.002278
    20    -0.004323
    21    -0.106839
    22     0.514245
    23     0.002228
    24     0.037822
    25     0.000191
    26     0.002576
    27    -0.233080
    28     0.001045
    29     0.024945
    30     0.078498
    31    -0.111032
    32     0.000140
    33    -0.000190
    34    -0.000543
    35    -0.005309
    36    -0.105023
    37     0.499847
    38     0.029660
    39    -0.016497
    40    -0.000345
    41    -0.209394
    42     0.123977
    43    -0.000892
    44     0.075551
    45     0.057278
    46    -0.121209
    47    -0.020514
    48     0.001373
    49     0.001672
    50    -0.003246
    51    -0.107833
    52     0.533266
    53    -0.032987
    54    -0.016296
    55     0.000366
    56     0.207708
    57     0.125914
    58     0.000101
    59     0.063395
    60     0.048087
    61    -0.132483
    62     0.020640
    63    -0.000518
    64    -0.000163
Sym=    41a
Ene=   -0.848517E-02
Spin= Alpha
Occup= 0.003219
     1    -0.000089
     2    -0.001217
     3    -0.004191
     4     0.000742
     5     0.000323
     6     0.000906
     7     0.066418
     8    -0.002532
     9    -0.004978
    10    -0.239334
    11     0.000451
    12     0.000939
    13     0.064716
    14    -0.000028
    15     0.006498
    16     0.001397
    17    -0.001228
    18    -0.130391
    19     0.071341
    20    -0.000682
    21    -0.002184
    22    -0.001556
    23     0.000465
    24    -0.001568
    25     0.036409
    26     0.001378
    27    -0.001685
    28     0.051023
    29     0.001772
    30     0.001676
    31     0.000085
    32    -0.000395
    33    -0.024214
    34    -0.027669
    35     0.000422
    36     0.001479
    37    -0.000362
    38     0.000971
    39     0.002740
    40     0.183718
    41     0.003049
    42     0.005175
    43     0.330736
    44     0.013518
    45    -0.009152
    46    -0.006757
    47     0.016355
    48     0.789402
    49    -0.466827
    50     0.000604
    51     0.002660
    52    -0.001866
    53    -0.002453
    54     0.000124
    55     0.041947
    56    -0.005275
    57     0.000426
    58     0.054753
    59    -0.002714
    60    -0.000520
    61     0.000582
    62     0.000418
    63     0.029021
    64     0.009885
Sym=    42a
Ene=   -0.955477E-02
Spin= Alpha
Occup= 0.003962
     1     0.021457
     2     0.252410
     3     1.237214
     4    -0.266964
     5     0.005849
     6    -0.055046
     7    -0.001508
     8    -0.024020
     9     0.513269
    10     0.005434
    11     0.009886
    12    -0.056879
    13    -0.001382
    14    -0.480905
    15    -0.108527
    16    -0.391475
    17    -0.101630
    18     0.000179
    19     0.003289
    20    -0.012360
    21     0.104248
    22    -0.559869
    23     0.162951
    24     0.336950
    25    -0.003952
    26     0.237256
    27     0.739407
    28    -0.007062
    29    -0.322437
    30     0.775360
    31    -0.259517
    32     0.268877
    33    -0.001340
    34    -0.015377
    35    -0.016580
    36    -0.069103
    37     0.058828
    38    -0.063789
    39    -0.019023
    40    -0.000722
    41    -0.120805
    42     0.032631
    43    -0.001115
    44     0.035830
    45     0.018182
    46     0.020128
    47    -0.015589
    48     0.000420
    49    -0.000627
    50    -0.021849
    51    -0.095381
    52     0.129273
    53    -0.160984
    54     0.239171
    55    -0.000571
    56    -0.082872
    57     0.300713
    58    -0.000788
    59    -0.009617
    60     0.078007
    61     0.022158
    62     0.020295
    63    -0.002190
    64    -0.000948
Sym=    43a
Ene=   -0.862512E-02
Spin= Alpha
Occup= 0.003387
     1     0.000553
     2     0.006321
     3     0.028537
     4    -0.003855
     5     0.000776
     6    -0.001028
     7    -0.071421
     8     0.000433
     9     0.007957
    10     0.256974
    11     0.001013
    12    -0.001029
    13    -0.067790
    14    -0.001388
    15    -0.005867
    16    -0.013154
    17    -0.008663
    18    -0.136042
    19    -0.076929
    20     0.000988
    21     0.005626
    22    -0.008098
    23     0.001679
    24     0.003840
    25    -0.039642
    26     0.005183
    27     0.009570
    28    -0.056191
    29     0.005799
    30    -0.004217
    31    -0.004605
    32    -0.000418
    33    -0.045520
    34     0.010922
    35    -0.000011
    36     0.001796
    37    -0.008923
    38     0.001039
    39     0.000408
    40    -0.046041
    41     0.004619
    42    -0.001647
    43    -0.062112
    44     0.001813
    45     0.003574
    46    -0.003863
    47     0.003835
    48     0.003393
    49    -0.043444
    50     0.001706
    51     0.004880
    52     0.004051
    53     0.006908
    54    -0.006547
    55    -0.188705
    56     0.011042
    57    -0.010192
    58    -0.342372
    59    -0.018098
    60     0.064692
    61    -0.056911
    62    -0.023173
    63     0.799418
    64     0.426033
Sym=    44a
Ene=   -0.188436E-01
Spin= Alpha
Occup= 0.010387
     1     0.004661
     2     0.040512
     3     0.122558
     4    -0.028514
     5    -0.000890
     6    -0.039894
     7    -0.000133
     8    -0.083188
     9     0.154245
    10     0.000252
    11     0.062477
    12    -0.037130
    13    -0.000047
    14    -0.173820
    15     0.098206
    16    -0.034408
    17     0.258253
    18     0.000261
    19     0.000797
    20    -0.026427
    21    -0.080688
    22    -0.080487
    23     0.822354
    24    -0.153446
    25     0.003747
    26     0.767615
    27    -0.059735
    28     0.003621
    29    -0.007332
    30     0.070083
    31     0.014287
    32    -0.089872
    33    -0.000353
    34    -0.000498
    35     0.033124
    36     0.113405
    37     0.095010
    38     0.112564
    39    -0.091079
    40    -0.000149
    41     0.009326
    42    -0.074480
    43    -0.000189
    44    -0.051450
    45    -0.023493
    46    -0.028469
    47     0.028082
    48    -0.000144
    49    -0.000227
    50    -0.001823
    51    -0.006687
    52    -0.034836
    53     0.220691
    54    -0.236356
    55    -0.001791
    56     0.163480
    57    -0.171563
    58    -0.001802
    59     0.044358
    60    -0.032944
    61     0.002679
    62    -0.005303
    63    -0.000079
    64    -0.000082
Sym=    45a
Ene=   -0.925297E-02
Spin= Alpha
Occup= 0.003992
     1     0.022077
     2     0.253190
     3     1.227445
     4    -0.250624
     5    -0.049329
     6     0.025329
     7     0.000213
     8     0.376166
     9    -0.196233
    10    -0.000772
    11    -0.054274
    12     0.029116
    13     0.000139
    14    -0.176287
    15    -0.305579
    16    -0.422972
    17    -0.139588
    18     0.003782
    19     0.005624
    20    -0.002537
    21    -0.000199
    22    -0.010294
    23    -0.004799
    24     0.024233
    25    -0.001788
    26    -0.004240
    27     0.004663
    28    -0.004188
    29     0.037553
    30    -0.002352
    31    -0.009329
    32     0.010721
    33     0.002569
    34     0.001106
    35     0.051700
    36     0.297159
    37    -0.465621
    38     0.180444
    39    -0.104606
    40    -0.000349
    41     0.477869
    42    -0.277409
    43    -0.000554
    44     0.441726
    45     0.369300
    46    -0.946317
    47    -0.077968
    48     0.039887
    49     0.076301
    50    -0.005163
    51    -0.012926
    52     0.006254
    53    -0.016151
    54    -0.008374
    55     0.002473
    56     0.015874
    57     0.008207
    58     0.005459
    59    -0.000351
    60     0.015099
    61     0.023875
    62    -0.014456
    63     0.000106
    64     0.000189
Sym=    46a
Ene=   -0.923237E-02
Spin= Alpha
Occup= 0.003977
     1     0.022980
     2     0.265692
     3     1.285958
     4    -0.258902
     5     0.049381
     6     0.025991
     7     0.003404
     8    -0.378176
     9    -0.202576
    10    -0.012378
    11     0.052180
    12     0.028245
    13     0.003296
    14    -0.194241
    15    -0.327145
    16    -0.444167
    17     0.135200
    18     0.005852
    19     0.003576
    20    -0.007710
    21    -0.016877
    22    -0.012089
    23     0.000896
    24     0.023315
    25     0.001808
    26     0.002054
    27    -0.000527
    28     0.002634
    29     0.055213
    30     0.003701
    31    -0.004709
    32     0.004632
    33    -0.001325
    34    -0.000799
    35    -0.004960
    36    -0.009390
    37    -0.003251
    38     0.026017
    39    -0.000193
    40     0.002065
    41    -0.001941
    42     0.018480
    43     0.003004
    44     0.002878
    45     0.014220
    46     0.026636
    47     0.012471
    48    -0.002468
    49    -0.001805
    50     0.043281
    51     0.266087
    52    -0.458466
    53    -0.177452
    54    -0.136186
    55     0.010075
    56    -0.475151
    57    -0.313283
    58     0.017197
    59     0.449529
    60     0.379482
    61    -0.936237
    62     0.072231
    63    -0.033913
    64    -0.023358
Sym=    47a
Ene=   -0.968736E-02
Spin= Alpha
Occup= 0.004300
     1     0.030796
     2     0.359043
     3     1.625249
     4    -0.332354
     5    -0.060559
     6     0.031444
     7     0.001204
     8     0.504269
     9    -0.264913
    10    -0.004327
    11    -0.048005
    12     0.025501
    13     0.001060
    14    -0.364425
    15    -0.601893
    16    -0.474450
    17    -0.259008
    18    -0.003360
    19    -0.003257
    20    -0.006932
    21    -0.047443
    22     0.147627
    23     0.009541
    24     0.023941
    25     0.002156
    26     0.035011
    27    -0.089812
    28     0.004552
    29     0.009569
    30     0.013765
    31     0.000254
    32    -0.003591
    33     0.002101
    34    -0.000429
    35     0.068262
    36     0.376567
    37    -0.552708
    38     0.226244
    39    -0.126180
    40     0.002043
    41     0.577874
    42    -0.327375
    43     0.003710
    44     0.138973
    45    -0.557392
    46     0.228167
    47    -0.697531
    48    -0.028865
    49    -0.063104
    50    -0.008252
    51    -0.057617
    52     0.173645
    53     0.002271
    54    -0.038339
    55    -0.000384
    56     0.134089
    57     0.005908
    58    -0.001575
    59     0.014856
    60     0.006473
    61     0.008003
    62    -0.012936
    63    -0.001019
    64    -0.000500
Sym=    48a
Ene=   -0.238571E-01
Spin= Alpha
Occup= 0.010115
     1    -0.011175
     2    -0.120499
     3    -0.468511
     4     0.133944
     5    -0.005344
     6     0.011168
     7    -0.000271
     8     0.030718
     9    -0.044718
    10     0.001220
    11     0.000713
    12     0.058424
    13    -0.000479
    14     0.132753
    15     0.160157
    16     0.114096
    17     0.020586
    18     0.000126
    19    -0.000840
    20    -0.523119
    21    -2.046929
    22     0.786937
    23    -0.018372
    24     0.308850
    25    -0.002206
    26    -0.035924
    27     0.349747
    28    -0.002141
    29     0.548091
    30     0.451657
    31     0.547106
    32    -0.021514
    33     0.000209
    34     0.001067
    35     0.000661
    36    -0.000753
    37     0.006055
    38    -0.003517
    39    -0.012096
    40    -0.000031
    41    -0.000029
    42    -0.028818
    43    -0.000355
    44     0.000275
    45    -0.008912
    46    -0.002340
    47     0.009208
    48     0.000170
    49    -0.000143
    50     0.001146
    51    -0.004590
    52     0.019105
    53     0.049534
    54    -0.044533
    55    -0.000306
    56     0.054852
    57    -0.045963
    58    -0.000565
    59     0.009057
    60    -0.016760
    61    -0.005425
    62    -0.004841
    63    -0.000129
    64    -0.000142
Sym=    49a
Ene=   -0.244035E-01
Spin= Alpha
Occup= 0.010786
     1     0.007041
     2     0.076533
     3     0.285251
     4    -0.098506
     5    -0.002783
     6    -0.003818
     7     0.000943
     8     0.029318
     9     0.025549
    10    -0.002268
    11     0.047799
    12     0.029036
    13    -0.000193
    14    -0.110389
    15    -0.083560
    16    -0.055705
    17    -0.039813
    18     0.002099
    19     0.001229
    20     0.000246
    21     0.010985
    22    -0.033139
    23    -0.007924
    24     0.014382
    25     0.000091
    26    -0.015669
    27     0.027059
    28     0.000431
    29     0.004834
    30    -0.001944
    31     0.005006
    32     0.007819
    33     0.000267
    34     0.000253
    35    -0.000312
    36     0.005486
    37    -0.023806
    38    -0.007187
    39    -0.023781
    40     0.001106
    41    -0.009104
    42    -0.042398
    43     0.001544
    44     0.008590
    45    -0.005402
    46     0.002629
    47     0.004243
    48     0.000366
    49     0.000483
    50     0.517252
    51     2.016900
    52    -0.743984
    53     0.254162
    54     0.206773
    55    -0.007826
    56     0.336787
    57     0.254324
    58    -0.006601
    59    -0.489358
    60    -0.499410
    61    -0.513481
    62     0.013756
    63    -0.002504
    64    -0.000831
Sym=    50a
Ene=   -0.909717E-02
Spin= Alpha
Occup= 0.003060
     1     0.000399
     2     0.004467
     3     0.020304
     4    -0.003947
     5    -0.010639
     6    -0.018351
     7     0.000921
     8     0.048861
     9     0.086595
    10    -0.003290
    11    -0.014219
    12    -0.025262
    13     0.000901
    14     0.133241
    15    -0.142396
    16    -0.006686
    17     0.096093
    18    -0.002723
    19     0.000805
    20     0.007850
    21     0.027470
    22     0.034158
    23    -0.030557
    24     0.045509
    25     0.000615
    26    -0.079441
    27     0.041456
    28     0.000914
    29    -0.013188
    30    -0.011185
    31    -0.005841
    32     0.042859
    33     0.000630
    34    -0.000640
    35     0.002089
    36     0.007002
    37     0.001443
    38    -0.066852
    39    -0.118360
    40     0.003687
    41    -0.129776
    42    -0.226990
    43     0.006350
    44    -0.713404
    45     0.703250
    46    -0.000070
    47    -0.467056
    48     0.011219
    49    -0.020363
    50    -0.006630
    51    -0.021650
    52    -0.040566
    53     0.056703
    54    -0.010959
    55    -0.000041
    56     0.073014
    57    -0.055471
    58    -0.000308
    59     0.053093
    60    -0.017597
    61    -0.009380
    62    -0.019314
    63     0.000321
    64    -0.000090
Sym=    51a
Ene=   -0.936891E-02
Spin= Alpha
Occup= 0.003398
     1     0.000453
     2     0.005545
     3     0.023883
     4    -0.004425
     5     0.000323
     6    -0.000607
     7     0.059434
     8    -0.001611
     9     0.005871
    10    -0.213243
    11     0.000544
    12    -0.000523
    13     0.053903
    14    -0.012477
    15    -0.005095
    16    -0.007971
    17    -0.003914
    18    -0.011472
    19    -0.142856
    20    -0.000168
    21     0.000893
    22    -0.005660
    23     0.001754
    24     0.003251
    25     0.168509
    26     0.004112
    27     0.007247
    28     0.307721
    29    -0.013191
    30     0.011648
    31     0.003652
    32     0.019065
    33    -0.157760
    34     0.913157
    35    -0.000083
    36    -0.000896
    37     0.002425
    38     0.000075
    39     0.001593
    40     0.043177
    41    -0.000776
    42     0.004190
    43     0.059439
    44     0.000550
    45     0.003716
    46    -0.004487
    47     0.002032
    48    -0.038508
    49    -0.008245
    50     0.000105
    51    -0.000215
    52     0.003916
    53    -0.000090
    54    -0.002358
    55     0.035363
    56     0.002336
    57    -0.001402
    58     0.042249
    59    -0.000238
    60    -0.000976
    61     0.000704
    62    -0.000075
    63     0.022419
    64     0.016854
Sym=    52a
Ene=   -0.914715E-02
Spin= Alpha
Occup= 0.003168
     1    -0.000060
     2    -0.000661
     3    -0.004140
     4     0.001014
     5    -0.000073
     6    -0.000181
     7     0.002092
     8     0.001145
     9     0.001388
    10    -0.007539
    11    -0.000187
    12    -0.000200
    13     0.001931
    14     0.000473
    15    -0.000110
    16     0.001164
    17    -0.001036
    18     0.034674
    19    -0.050133
    20     0.000085
    21     0.000215
    22     0.000408
    23     0.000236
    24     0.000151
    25     0.021014
    26     0.000547
    27     0.000078
    28     0.045995
    29    -0.000728
    30     0.000142
    31     0.000122
    32    -0.000361
    33     0.020945
    34    -0.013390
    35    -0.000024
    36    -0.000250
    37     0.000410
    38    -0.000387
    39     0.000030
    40    -0.019298
    41    -0.000632
    42    -0.000017
    43    -0.043541
    44     0.000679
    45     0.000623
    46    -0.001404
    47     0.000517
    48     0.008562
    49    -0.014590
    50     0.000410
    51     0.000495
    52     0.003362
    53     0.001323
    54     0.000341
    55     0.006986
    56     0.003158
    57     0.000761
    58     0.011816
    59    -0.006808
    60     0.000669
    61     0.002952
    62     0.000272
    63     0.473956
    64    -0.875575
Sym=    53a
Ene=   -0.633659E-02
Spin= Alpha
Occup= 0.001138
     1     0.001187
     2     0.014861
     3     0.052700
     4    -0.008854
     5    -0.001134
     6     0.000908
     7     0.005103
     8     0.004046
     9     0.003282
    10    -0.018313
    11    -0.000771
    12     0.002717
    13     0.004367
    14    -0.044592
    15    -0.027159
    16    -0.007763
    17     0.003154
    18     0.014382
    19    -0.031063
    20     0.002038
    21     0.004998
    22     0.008267
    23     0.011395
    24     0.007315
    25     0.024131
    26     0.010942
    27     0.004472
    28     0.045714
    29    -0.322253
    30    -0.036221
    31     0.345073
    32    -0.034915
    33     0.660353
    34     0.070967
    35    -0.001406
    36    -0.007989
    37     0.016975
    38    -0.005950
    39    -0.004614
    40    -0.006327
    41    -0.015091
    42     0.000084
    43    -0.015674
    44     0.032067
    45     0.045474
    46    -0.072985
    47     0.024775
    48    -0.297276
    49    -0.551126
    50    -0.003415
    51    -0.014590
    52     0.015196
    53    -0.022256
    54     0.038919
    55     0.003938
    56    -0.016425
    57     0.050498
    58     0.005983
    59    -0.017025
    60     0.045894
    61    -0.013780
    62     0.020985
    63    -0.000492
    64     0.027098
Sym=    54a
Ene=   -0.277885E-02
Spin= Alpha
Occup= 0.000572
     1     0.001016
     2     0.010473
     3     0.051652
     4    -0.012722
     5    -0.123082
     6    -0.082655
     7    -0.243930
     8     0.756627
     9     0.485050
    10     0.874176
    11    -0.085053
    12    -0.057392
    13    -0.162122
    14    -0.129581
    15     0.115186
    16    -0.012509
    17    -0.208406
    18    -0.000650
    19    -0.008955
    20     0.109825
    21     0.349516
    22     0.013021
    23    -0.038817
    24     0.088554
    25    -0.156029
    26    -0.087627
    27     0.338084
    28    -0.329294
    29    -0.183470
    30    -0.365906
    31    -0.196636
    32     0.075604
    33     0.004156
    34     0.220722
    35     0.066593
    36     0.232208
    37    -0.073478
    38     0.043476
    39    -0.083345
    40    -0.178302
    41     0.199615
    42    -0.233490
    43    -0.358919
    44    -0.166911
    45    -0.180844
    46    -0.090587
    47     0.126430
    48     0.213195
    49    -0.113630
    50    -0.166131
    51    -0.553137
    52     0.079362
    53     0.126078
    54     0.073937
    55    -0.179351
    56     0.507302
    57     0.293296
    58    -0.360411
    59     0.512624
    60     0.337617
    61     0.253849
    62     0.175193
    63    -0.216056
    64    -0.123503
Sym=    55a
Ene=   -0.289980E-02
Spin= Alpha
Occup= 0.000553
     1    -0.000785
     2    -0.005937
     3    -0.036846
     4     0.014200
     5     0.193020
     6     0.069205
     7    -0.176580
     8    -1.193249
     9    -0.387773
    10     0.632614
    11     0.133065
    12     0.048593
    13    -0.117326
    14     0.097011
    15    -0.109003
    16     0.003072
    17     0.331475
    18    -0.000389
    19    -0.006253
    20    -0.107940
    21    -0.327988
    22    -0.073508
    23     0.063042
    24    -0.073290
    25    -0.112690
    26     0.138954
    27    -0.280605
    28    -0.238146
    29     0.192473
    30     0.345651
    31     0.210710
    32    -0.115474
    33     0.012435
    34     0.161557
    35    -0.132586
    36    -0.463780
    37     0.155325
    38    -0.104314
    39     0.130320
    40    -0.129325
    41    -0.444175
    42     0.395676
    43    -0.260132
    44     0.377393
    45     0.312801
    46     0.183480
    47    -0.224059
    48     0.157534
    49    -0.075769
    50     0.220289
    51     0.738656
    52    -0.127214
    53    -0.157820
    54    -0.120256
    55    -0.127236
    56    -0.666459
    57    -0.436984
    58    -0.257845
    59    -0.659489
    60    -0.468903
    61    -0.333126
    62    -0.256116
    63    -0.158060
    64    -0.088945
Sym=    56a
Ene=   -0.210529E-02
Spin= Alpha
Occup= 0.000267
     1    -0.014186
     2    -0.261521
     3    -1.427915
     4     0.150593
     5    -0.023058
     6     0.018030
     7    -0.002149
     8     0.264396
     9    -0.168212
    10     0.007635
    11    -0.008521
    12     0.008117
    13    -0.001583
    14     0.505253
    15     0.399988
    16     0.490411
    17    -0.048271
    18    -0.000759
    19     0.004153
    20     0.288796
    21     0.590921
    22     1.309319
    23    -0.002238
    24     0.013729
    25    -0.002391
    26    -0.021396
    27    -0.048956
    28    -0.005618
    29    -0.819974
    30    -0.708379
    31    -0.795570
    32     0.029710
    33    -0.000670
    34     0.002784
    35     0.188381
    36     0.446497
    37     0.591469
    38     0.066793
    39    -0.044034
    40    -0.001213
    41     0.214595
    42    -0.138961
    43    -0.001710
    44    -0.531086
    45    -0.495205
    46    -0.462552
    47     0.047816
    48     0.000971
    49     0.000411
    50     0.316999
    51     0.661335
    52     1.378961
    53    -0.014893
    54     0.014826
    55     0.000073
    56     0.014184
    57     0.048769
    58    -0.000687
    59    -0.845112
    60    -0.841838
    61    -0.850565
    62     0.034938
    63    -0.002038
    64    -0.001118
Sym=    57a
Ene=   -0.552020E-03
Spin= Alpha
Occup= 0.000022
     1    -0.000667
     2    -0.006601
     3    -0.031812
     4     0.010302
     5     0.083581
     6     0.205689
     7    -0.002161
     8    -0.774067
     9    -1.881342
    10     0.007719
    11     0.011376
    12     0.022601
    13    -0.001098
    14     0.542689
    15    -0.538190
    16     0.009144
    17     0.271226
    18    -0.000106
    19    -0.000475
    20     0.233909
    21     0.098091
    22     2.586700
    23     0.020533
    24    -0.215647
    25    -0.001466
    26     0.044298
    27    -1.181171
    28    -0.002964
    29    -0.956411
    30    -0.402444
    31    -0.930874
    32    -0.027620
    33     0.000054
    34     0.001166
    35    -0.035437
    36    -0.015994
    37    -0.381351
    38     0.056521
    39     0.049406
    40    -0.001784
    41     0.207069
    42     0.051134
    43    -0.003554
    44     0.025883
    45     0.190981
    46     0.137270
    47    -0.011968
    48     0.001505
    49    -0.000439
    50    -0.203584
    51    -0.095246
    52    -2.216483
    53    -0.179050
    54    -0.056754
    55    -0.001819
    56    -0.917083
    57    -0.423730
    58    -0.003634
    59     0.431788
    60     0.753119
    61     0.795059
    62    -0.195510
    63    -0.001650
    64    -0.001046
Sym=    58a
Ene=   -0.512699E-03
Spin= Alpha
Occup= 0.000021
     1    -0.003968
     2    -0.067922
     3    -0.331050
     4     0.005088
     5     0.178699
     6    -0.073750
     7     0.001296
     8    -1.684182
     9     0.683083
    10    -0.004608
    11    -0.009742
    12     0.004945
    13     0.000747
    14    -0.067526
    15     0.300898
    16     0.128952
    17     0.551682
    18    -0.000126
    19     0.000633
    20    -0.048301
    21     0.034734
    22    -0.760584
    23     0.051874
    24     0.083347
    25     0.000663
    26     0.122970
    27     0.438191
    28     0.001391
    29     0.237839
    30     0.052032
    31     0.229434
    32    -0.078415
    33     0.001464
    34    -0.000348
    35     0.303840
    36     0.211744
    37     2.973514
    38    -0.131216
    39     0.084498
    40     0.000958
    41    -0.908894
    42     0.541369
    43     0.002107
    44    -0.804172
    45    -1.035515
    46    -1.134747
    47    -0.247961
    48    -0.001004
    49     0.000463
    50    -0.117264
    51    -0.016856
    52    -1.433708
    53    -0.083083
    54    -0.110978
    55     0.001027
    56    -0.552933
    57    -0.458150
    58     0.002133
    59     0.321140
    60     0.367202
    61     0.486474
    62    -0.189560
    63     0.000831
    64     0.000415
Sym=    59a
Ene=   -0.213151E-03
Spin= Alpha
Occup= 0.000009
     1     0.000001
     2     0.003075
     3     0.004310
     4     0.009118
     5     0.043981
     6     0.047246
     7     0.000690
     8    -0.658681
     9    -0.720965
    10    -0.002421
    11     0.080010
    12     0.099458
    13     0.000201
    14     1.158157
    15    -1.194763
    16    -0.004572
    17     1.220033
    18    -0.002098
    19    -0.002060
    20    -0.014714
    21    -0.199764
    22     0.890983
    23    -0.127721
    24    -0.020694
    25     0.000778
    26    -0.500129
    27    -0.700096
    28     0.002162
    29    -0.135830
    30     0.243621
    31    -0.049231
    32     0.240297
    33     0.000994
    34    -0.001124
    35    -0.005094
    36    -0.062679
    37     0.263314
    38    -0.122430
    39    -0.195656
    40     0.001093
    41    -0.573514
    42    -0.578719
    43     0.002058
    44     0.302062
    45    -0.268392
    46    -0.013153
    47     0.116354
    48     0.000014
    49     0.000748
    50     0.006478
    51     0.231259
    52    -1.192466
    53     0.016048
    54    -0.055555
    55    -0.000387
    56    -0.632561
    57    -0.632883
    58    -0.000995
    59    -0.060173
    60     0.005917
    61     0.091510
    62    -0.292393
    63    -0.000528
    64    -0.000117
Sym=    60a
Ene=   -0.475932E-04
Spin= Alpha
Occup= 0.000001
     1    -0.006838
     2    -0.153274
     3    -0.127022
     4    -0.075823
     5     0.002072
     6    -0.000829
     7     0.006578
     8    -0.014354
     9     0.005127
    10    -0.023884
    11     0.003179
    12    -0.002362
    13     0.011400
    14     0.742752
    15     0.750757
    16     0.225863
    17     0.011232
    18     0.094470
    19    -1.050492
    20    -0.017030
    21     0.124634
    22    -0.716330
    23     0.001325
    24     0.082859
    25     0.178455
    26    -0.000551
    27     0.470337
    28     0.598968
    29     0.117974
    30     0.025865
    31     0.146943
    32     0.001621
    33    -0.000143
    34    -0.274202
    35    -0.018607
    36     0.122189
    37    -0.720211
    38     0.068794
    39    -0.039458
    40    -0.102812
    41     0.393019
    42    -0.226690
    43    -0.341658
    44     0.058032
    45     0.101307
    46     0.153978
    47     0.043740
    48     0.167331
    49    -0.020164
    50    -0.017323
    51     0.124964
    52    -0.721870
    53    -0.071689
    54    -0.041931
    55    -0.072768
    56    -0.410864
    57    -0.235200
    58    -0.246207
    59     0.047538
    60     0.094454
    61     0.151460
    62    -0.045895
    63    -0.139458
    64     0.013817
Sym=    61a
Ene=    0.000000E+00
Spin= Alpha
Occup= 0.000000
     1     0.000004
     2    -0.003793
     3     0.017106
     4    -0.088645
     5    -0.008630
     6    -0.000292
     7     0.058918
     8    -0.083515
     9    -0.026427
    10    -0.352727
    11    -1.183551
    12    -0.277392
    13     0.899724
    14     0.093185
    15    -0.071169
    16     0.021776
    17     0.383967
    18     0.000074
    19     0.006084
    20     0.004515
    21    -0.071818
    22     0.341160
    23     0.082039
    24     0.006737
    25    -0.081684
    26     0.232907
    27    -0.036424
    28    -0.255717
    29    -0.041991
    30    -0.037591
    31    -0.036401
    32     0.033796
    33     0.000153
    34    -0.002141
    35     0.013236
    36    -0.205555
    37     0.989483
    38     0.032828
    39     0.055069
    40    -0.088537
    41    -0.028385
    42     0.213880
    43    -0.260283
    44    -0.091361
    45    -0.134527
    46    -0.105290
    47     0.002742
    48    -0.005650
    49     0.002618
    50    -0.018634
    51     0.254416
    52    -1.260736
    53     0.022086
    54    -0.016353
    55    -0.088301
    56    -0.111899
    57    -0.145928
    58    -0.260345
    59     0.134802
    60     0.163322
    61     0.141566
    62    -0.010843
    63     0.005318
    64     0.002705
Sym=    62a
Ene=    0.000000E+00
Spin= Alpha
Occup= 0.000000
     1    -0.000806
     2    -0.029257
     3     0.017568
     4    -0.409778
     5    -0.004770
     6    -0.006299
     7    -0.049220
     8    -0.039854
     9    -0.101149
    10     0.294785
    11    -0.614234
    12    -1.171307
    13    -0.752323
    14     0.408707
    15    -0.276781
    16     0.113877
    17     0.200065
    18    -0.000334
    19    -0.005091
    20     0.023243
    21    -0.304498
    22     1.489322
    23     0.038079
    24     0.007660
    25     0.068348
    26     0.114366
    27    -0.176623
    28     0.213922
    29    -0.188929
    30    -0.181239
    31    -0.173562
    32     0.020017
    33    -0.000013
    34     0.001847
    35     0.003158
    36    -0.021757
    37     0.099522
    38     0.051122
    39     0.089002
    40     0.073837
    41     0.153550
    42     0.223991
    43     0.217538
    44     0.000831
    45    -0.045236
    46    -0.016330
    47     0.028750
    48     0.004834
    49    -0.002217
    50    -0.013796
    51     0.215940
    52    -1.069319
    53    -0.012212
    54     0.044420
    55     0.074143
    56    -0.212023
    57     0.029296
    58     0.218025
    59     0.121427
    60     0.110328
    61     0.112483
    62    -0.032138
    63    -0.004681
    64    -0.002330
Sym=    63a
Ene=    0.000000E+00
Spin= Alpha
Occup= 0.000000
     1    -0.002247
     2    -0.080206
     3     0.033367
     4    -1.089451
     5     0.005624
     6    -0.005153
     7     0.036425
     8     0.074791
     9    -0.069290
    10    -0.218127
    11     0.913158
    12    -0.776886
    13     0.556712
    14     0.408579
    15    -0.052102
    16     0.309567
    17    -0.296622
    18     0.000416
    19     0.003807
    20     0.025984
    21    -0.274986
    22     1.357634
    23    -0.068194
    24    -0.001220
    25    -0.050450
    26    -0.187272
    27    -0.114666
    28    -0.158142
    29    -0.178204
    30    -0.207494
    31    -0.175648
    32    -0.023173
    33     0.000079
    34    -0.001152
    35    -0.006360
    36     0.170320
    37    -0.839337
    38     0.005562
    39     0.016776
    40    -0.054854
    41     0.196125
    42    -0.064394
    43    -0.161273
    44     0.053870
    45     0.079399
    46     0.072140
    47     0.040375
    48    -0.003179
    49     0.002026
    50     0.019451
    51    -0.188292
    52     0.923749
    53    -0.039263
    54     0.064144
    55    -0.054898
    56    -0.071471
    57     0.207929
    58    -0.161323
    59    -0.125744
    60    -0.157929
    61    -0.126877
    62    -0.032032
    63     0.003345
    64     0.001651
Sym=    64a
Ene=    0.000000E+00
Spin= Alpha
Occup= 0.000000
     1    -0.002788
     2    -0.110888
     3     0.086799
     4    -1.604371
     5    -0.005852
     6     0.007165
     7    -0.015375
     8    -0.008793
     9     0.054358
    10     0.092154
    11    -0.401388
    12     0.845609
    13    -0.235453
    14     0.014432
    15     0.490552
    16     0.448821
    17     0.123948
    18     0.000120
    19    -0.002286
    20     0.004105
    21     0.046409
    22    -0.242619
    23     0.030010
    24    -0.004579
    25     0.021507
    26     0.080977
    27     0.148609
    28     0.067370
    29     0.021691
    30    -0.054086
    31     0.000254
    32     0.010374
    33    -0.000014
    34     0.000368
    35     0.025661
    36    -0.312182
    37     1.476309
    38    -0.025338
    39    -0.035186
    40     0.023259
    41    -0.133361
    42    -0.052100
    43     0.068092
    44    -0.225787
    45    -0.182426
    46    -0.179664
    47     0.014452
    48     0.001502
    49    -0.000799
    50     0.018691
    51    -0.163219
    52     0.783081
    53     0.028535
    54    -0.052959
    55     0.022993
    56     0.080282
    57    -0.157372
    58     0.067921
    59    -0.169362
    60    -0.099974
    61    -0.117189
    62    -0.014619
    63    -0.001396
    64    -0.000643
