[Molden Format]
p30-5 set                                                                       
[Atoms] AU
 CL       1    17       -1.0601       -1.8796        0.0000
 O        2     8        0.0000        1.8117        0.0000
 O        3     8        2.2527        2.1824        0.0000
[GTO]
    1 0
s    5 1.00
   10449.827566000000  0.542659537894E-02
    1571.736522100000  0.406263781288E-01
     357.120655230000  0.183597478529E+00
     100.251859350000  0.474389487682E+00
      30.812727554000  0.437351811041E+00
s    3 1.00
      51.923789434000 -0.927541548481E-01
       5.704576097500  0.563808255442E+00
       2.350837680900  0.503670446297E+00
s    1 1.00
       0.446051246720  0.100000000000E+01
s    1 1.00
       0.168488561900  0.100000000000E+01
p    5 1.00
     307.667905690000 -0.887970255889E-02
      72.102015515000 -0.642840717212E-01
      22.532680262000 -0.242887397360E+00
       7.899176544400 -0.483408363699E+00
       2.876726832100 -0.389525638755E+00
p    1 1.00
       0.774593639550  0.100000000000E+01
p    1 1.00
       0.210376996980  0.100000000000E+01
d    1 1.00
       0.650000000000  0.100000000000E+01

    2 0
s    5 1.00
    2266.176778500000 -0.538935039217E-02
     340.870101910000 -0.402347213890E-01
      77.363135167000 -0.180081842055E+00
      21.479644940000 -0.468288576577E+00
       6.658943312400 -0.446926171602E+00
s    1 1.00
       0.809759756680  0.100000000000E+01
s    1 1.00
       0.255307722340  0.100000000000E+01
p    3 1.00
      17.721504317000  0.626302487632E-01
       3.863550544000  0.333311384824E+00
       1.048092088300  0.741486383081E+00
p    1 1.00
       0.276415444110  0.100000000000E+01
d    1 1.00
       1.200000000000  0.100000000000E+01

    3 0
s    5 1.00
    2266.176778500000 -0.538935039217E-02
     340.870101910000 -0.402347213890E-01
      77.363135167000 -0.180081842055E+00
      21.479644940000 -0.468288576577E+00
       6.658943312400 -0.446926171602E+00
s    1 1.00
       0.809759756680  0.100000000000E+01
s    1 1.00
       0.255307722340  0.100000000000E+01
p    3 1.00
      17.721504317000  0.626302487632E-01
       3.863550544000  0.333311384824E+00
       1.048092088300  0.741486383081E+00
p    1 1.00
       0.276415444110  0.100000000000E+01
d    1 1.00
       1.200000000000  0.100000000000E+01

[MO]
Sym=     1a
Ene=   -0.104872E+03
Spin= Alpha
Occup= 1.999999
     1     0.993887
     2     0.027927
     3    -0.025662
     4    -0.001858
     5     0.000006
     6     0.000003
     7    -0.000001
     8     0.000021
     9     0.000061
    10    -0.000000
    11    -0.000049
    12    -0.000163
    13    -0.000001
    14     0.009283
    15     0.009225
    16     0.009284
    17    -0.000014
    18     0.000004
    19    -0.000001
    20    -0.000004
    21    -0.000007
    22    -0.000118
    23    -0.000001
    24    -0.000067
    25    -0.000000
    26    -0.000236
    27    -0.000057
    28     0.000001
    29     0.000004
    30     0.000007
    31     0.000029
    32     0.000004
    33     0.000000
    34    -0.000000
    35     0.000012
    36    -0.000047
    37     0.000431
    38     0.000015
    39     0.000059
    40     0.000000
    41    -0.000217
    42    -0.000137
    43    -0.000001
    44    -0.000031
    45    -0.000046
    46    -0.000075
    47     0.000021
    48     0.000000
    49    -0.000000
Sym=     2a
Ene=   -0.207896E+02
Spin= Alpha
Occup= 1.999952
     1     0.000002
     2     0.000076
     3     0.000367
     4    -0.001745
     5     0.000024
     6     0.000106
     7     0.000003
     8     0.000152
     9     0.000232
    10     0.000007
    11    -0.000639
    12    -0.000979
    13    -0.000008
    14     0.000223
    15    -0.000087
    16     0.000306
    17    -0.000223
    18     0.000003
    19    -0.000013
    20     0.704582
    21    -0.029484
    22     0.007011
    23    -0.000057
    24     0.000578
    25     0.000004
    26     0.000885
    27    -0.001124
    28     0.000031
    29     0.004277
    30     0.003794
    31     0.003425
    32     0.000147
    33     0.000006
    34    -0.000003
    35     0.693203
    36    -0.028008
    37     0.005541
    38     0.000329
    39    -0.000104
    40     0.000001
    41    -0.000491
    42    -0.000091
    43     0.000010
    44     0.004541
    45     0.003689
    46     0.003921
    47     0.000146
    48    -0.000004
    49    -0.000002
Sym=     3a
Ene=   -0.207880E+02
Spin= Alpha
Occup= 1.999938
     1    -0.000008
     2     0.000007
     3    -0.000329
     4     0.001241
     5    -0.000060
     6    -0.000090
     7     0.000003
     8    -0.000007
     9    -0.000099
    10     0.000007
    11     0.000071
    12     0.000879
    13    -0.000006
    14    -0.000035
    15     0.000346
    16    -0.000031
    17     0.000198
    18    -0.000010
    19    -0.000008
    20    -0.693168
    21     0.028500
    22    -0.013478
    23     0.002743
    24    -0.000400
    25    -0.000015
    26    -0.002287
    27     0.000628
    28     0.000012
    29    -0.001846
    30    -0.003438
    31    -0.003151
    32     0.000231
    33     0.000008
    34     0.000001
    35     0.705180
    36    -0.028058
    37     0.012922
    38     0.002758
    39     0.000415
    40     0.000005
    41    -0.002392
    42    -0.000724
    43    -0.000014
    44     0.002227
    45     0.003481
    46     0.003705
    47    -0.000127
    48    -0.000002
    49    -0.000003
Sym=     4a
Ene=   -0.106031E+02
Spin= Alpha
Occup= 1.999755
     1    -0.311002
     2     1.024289
     3     0.041886
     4    -0.010719
     5     0.002870
     6     0.006967
     7    -0.000425
     8     0.000031
     9     0.000078
    10     0.000032
    11    -0.000010
    12    -0.000204
    13     0.000013
    14    -0.002644
    15    -0.002072
    16    -0.002641
    17     0.000249
    18    -0.000055
    19     0.000012
    20     0.000134
    21     0.000135
    22    -0.000243
    23    -0.000047
    24    -0.000110
    25     0.000005
    26    -0.000665
    27     0.000101
    28    -0.000006
    29     0.000005
    30    -0.000115
    31     0.000174
    32    -0.000077
    33    -0.000001
    34     0.000000
    35    -0.000006
    36    -0.000235
    37     0.001233
    38     0.000093
    39    -0.000060
    40    -0.000003
    41    -0.000557
    42    -0.000615
    43     0.000006
    44    -0.000043
    45    -0.000122
    46    -0.000145
    47     0.000070
    48    -0.000001
    49     0.000001
Sym=     5a
Ene=   -0.807503E+01
Spin= Alpha
Occup= 1.999566
     1    -0.000150
     2     0.000499
     3     0.000015
     4    -0.000051
     5     0.143229
     6    -0.064132
     7     0.970581
     8    -0.006566
     9     0.003021
    10    -0.044596
    11     0.001209
    12    -0.000461
    13     0.007731
    14    -0.000033
    15     0.000025
    16     0.000003
    17    -0.000061
    18    -0.000146
    19    -0.000514
    20     0.000000
    21    -0.000003
    22     0.000016
    23     0.000006
    24     0.000018
    25    -0.000266
    26    -0.000064
    27    -0.000015
    28    -0.000205
    29    -0.000008
    30     0.000014
    31    -0.000003
    32    -0.000005
    33    -0.000010
    34    -0.000105
    35     0.000002
    36     0.000030
    37    -0.000033
    38     0.000030
    39     0.000002
    40     0.000085
    41    -0.000036
    42     0.000027
    43    -0.000091
    44    -0.000002
    45     0.000026
    46    -0.000006
    47    -0.000008
    48     0.000043
    49    -0.000078
Sym=     6a
Ene=   -0.807506E+01
Spin= Alpha
Occup= 1.999516
     1     0.000050
     2    -0.000175
     3     0.000023
     4    -0.000120
     5     0.903309
     6    -0.354141
     7    -0.156705
     8    -0.042159
     9     0.016771
    10     0.007313
    11     0.006960
    12    -0.002447
    13    -0.001155
    14    -0.000025
    15    -0.000046
    16     0.000039
    17    -0.000125
    18     0.000008
    19     0.000054
    20    -0.000002
    21    -0.000032
    22     0.000182
    23    -0.000005
    24    -0.000001
    25     0.000025
    26    -0.000289
    27    -0.000010
    28     0.000050
    29    -0.000045
    30     0.000049
    31     0.000001
    32     0.000007
    33     0.000004
    34     0.000010
    35    -0.000008
    36     0.000044
    37    -0.000181
    38     0.000107
    39    -0.000089
    40    -0.000033
    41    -0.000036
    42     0.000307
    43     0.000019
    44     0.000059
    45     0.000060
    46     0.000030
    47    -0.000041
    48    -0.000005
    49     0.000009
Sym=     7a
Ene=   -0.807943E+01
Spin= Alpha
Occup= 1.999465
     1     0.002276
     2    -0.007282
     3    -0.001667
     4     0.001439
     5     0.359418
     6     0.912848
     7     0.007362
     8    -0.017904
     9    -0.046057
    10    -0.000328
    11     0.002172
    12     0.004836
    13     0.000075
    14    -0.000195
    15     0.000237
    16    -0.000307
    17     0.000195
    18     0.000040
    19    -0.000021
    20     0.000014
    21     0.000278
    22    -0.000131
    23    -0.000055
    24    -0.000057
    25    -0.000021
    26     0.000592
    27     0.000482
    28     0.000025
    29     0.000101
    30    -0.000070
    31    -0.000027
    32     0.000072
    33    -0.000001
    34     0.000015
    35    -0.000035
    36     0.000174
    37    -0.001297
    38    -0.000044
    39     0.000086
    40     0.000020
    41     0.000616
    42     0.000699
    43    -0.000036
    44     0.000066
    45     0.000228
    46     0.000164
    47     0.000031
    48    -0.000009
    49     0.000005
Sym=     8a
Ene=   -0.138118E+01
Spin= Alpha
Occup= 1.988656
     1    -0.001244
     2     0.005186
     3     0.000952
     4     0.006146
     5    -0.004966
     6    -0.014059
     7     0.000087
     8    -0.007796
     9    -0.019737
    10     0.000132
    11    -0.005631
    12    -0.010220
    13     0.000103
    14     0.004914
    15    -0.017594
    16     0.005891
    17    -0.005636
    18     0.000008
    19     0.000180
    20    -0.299972
    21    -0.627666
    22    -0.431358
    23     0.108806
    24    -0.006007
    25     0.008066
    26     0.066682
    27    -0.002678
    28     0.005271
    29    -0.014790
    30    -0.013107
    31    -0.009358
    32    -0.002248
    33     0.000414
    34    -0.000027
    35     0.000035
    36     0.013285
    37     0.081247
    38     0.079969
    39     0.051067
    40     0.003904
    41    -0.002565
    42     0.025401
    43     0.002053
    44    -0.011270
    45     0.005507
    46     0.005785
    47    -0.003642
    48    -0.000430
    49    -0.000082
Sym=     9a
Ene=   -0.135467E+01
Spin= Alpha
Occup= 1.988434
     1    -0.000176
     2     0.000400
     3     0.000216
     4     0.006387
     5     0.000139
     6    -0.001118
     7    -0.000148
     8     0.000434
     9    -0.001384
    10    -0.000246
    11     0.002547
    12     0.007167
    13    -0.000573
    14     0.000494
    15    -0.004086
    16     0.001147
    17    -0.002465
    18    -0.000006
    19     0.000001
    20     0.000026
    21    -0.013435
    22    -0.090377
    23     0.106156
    24     0.051084
    25     0.007010
    26     0.011382
    27     0.023811
    28     0.004777
    29     0.013093
    30    -0.006420
    31    -0.006402
    32     0.006866
    33     0.000435
    34     0.000002
    35     0.296124
    36     0.620544
    37     0.427306
    38     0.064574
    39     0.089094
    40     0.003875
    41     0.044378
    42     0.058100
    43     0.002229
    44     0.018655
    45     0.010423
    46     0.008828
    47    -0.002294
    48    -0.000419
    49    -0.000076
Sym=    10a
Ene=   -0.107830E+01
Spin= Alpha
Occup= 1.984701
     1     0.085559
     2    -0.537008
     3     0.722070
     4     0.402076
     5    -0.005893
     6    -0.019590
     7     0.001152
     8    -0.010813
     9    -0.034226
    10     0.001963
    11    -0.012384
    12    -0.042583
    13     0.002677
    14     0.018090
    15     0.016760
    16     0.017023
    17     0.000357
    18    -0.000086
    19     0.000106
    20    -0.018918
    21    -0.045329
    22    -0.039290
    23     0.007960
    24    -0.013677
    25     0.000543
    26     0.009829
    27    -0.002049
    28     0.000400
    29    -0.002286
    30     0.005069
    31    -0.002932
    32     0.002424
    33     0.000024
    34    -0.000027
    35     0.002445
    36     0.006266
    37     0.005905
    38     0.002471
    39     0.018079
    40     0.000173
    41    -0.001275
    42     0.012670
    43     0.000033
    44    -0.000782
    45     0.000496
    46     0.000481
    47    -0.001269
    48    -0.000021
    49    -0.000013
Sym=    11a
Ene=   -0.748290E+00
Spin= Alpha
Occup= 1.983488
     1     0.002664
     2    -0.018088
     3     0.027703
     4     0.026825
     5     0.006261
     6     0.019255
     7     0.000121
     8     0.012569
     9     0.034000
    10     0.000231
    11     0.022955
    12     0.075860
    13     0.000213
    14    -0.000384
    15    -0.001579
    16     0.004674
    17    -0.005584
    18    -0.000077
    19    -0.000034
    20     0.005186
    21     0.016238
    22    -0.018231
    23    -0.051954
    24     0.252633
    25     0.000103
    26    -0.026215
    27     0.144016
    28     0.000203
    29    -0.007678
    30     0.007869
    31     0.002844
    32     0.032444
    33     0.000004
    34    -0.000005
    35    -0.037147
    36    -0.079659
    37    -0.046646
    38    -0.130367
    39     0.578829
    40    -0.000079
    41    -0.088118
    42     0.380368
    43    -0.000156
    44     0.006708
    45    -0.010489
    46    -0.001666
    47    -0.028130
    48     0.000020
    49    -0.000050
Sym=    12a
Ene=   -0.763397E+00
Spin= Alpha
Occup= 1.980777
     1    -0.000071
     2     0.000484
     3    -0.000774
     4    -0.000464
     5    -0.000373
     6     0.000064
     7     0.001459
     8    -0.000697
     9     0.000068
    10     0.000083
    11    -0.000873
    12    -0.000203
    13    -0.001406
    14    -0.000001
    15     0.000108
    16    -0.000070
    17     0.000161
    18     0.004184
    19     0.012846
    20     0.004194
    21     0.008977
    22     0.006960
    23    -0.000565
    24     0.000011
    25     0.581819
    26     0.000182
    27     0.000192
    28     0.378657
    29     0.000208
    30     0.000141
    31     0.000156
    32    -0.000041
    33     0.030776
    34    -0.001661
    35    -0.003858
    36    -0.008368
    37    -0.007261
    38    -0.004051
    39    -0.002568
    40     0.280755
    41    -0.001261
    42    -0.001431
    43     0.158338
    44     0.000071
    45    -0.000330
    46    -0.000277
    47     0.000136
    48    -0.031981
    49    -0.005686
Sym=    13a
Ene=   -0.499984E+00
Spin= Alpha
Occup= 1.976356
     1     0.000349
     2    -0.002243
     3     0.003610
     4     0.000584
     5    -0.047232
     6     0.013487
     7    -0.272367
     8    -0.082328
     9     0.023679
    10    -0.475383
    11    -0.113317
    12     0.031749
    13    -0.651509
    14    -0.000422
    15     0.000515
    16     0.000299
    17    -0.000985
    18    -0.001880
    19    -0.003878
    20    -0.000787
    21    -0.001159
    22    -0.005135
    23     0.000078
    24    -0.000910
    25     0.024318
    26    -0.002784
    27    -0.001224
    28     0.011543
    29     0.000634
    30    -0.000490
    31     0.000046
    32     0.000615
    33     0.003667
    34     0.005458
    35     0.001171
    36     0.003429
    37     0.003203
    38    -0.001562
    39    -0.004325
    40     0.038192
    41    -0.002391
    42    -0.002334
    43     0.026613
    44     0.000477
    45    -0.000049
    46     0.000320
    47     0.000094
    48    -0.002910
    49     0.000441
Sym=    14a
Ene=   -0.502086E+00
Spin= Alpha
Occup= 1.976200
     1    -0.000046
     2     0.000396
     3    -0.003901
     4     0.006852
     5     0.261714
     6    -0.077055
     7    -0.049348
     8     0.454339
     9    -0.134693
    10    -0.085769
    11     0.626324
    12    -0.180546
    13    -0.117718
    14     0.002967
    15    -0.003182
    16    -0.001035
    17     0.005575
    18    -0.000338
    19    -0.000702
    20     0.003894
    21     0.005511
    22     0.028680
    23     0.000467
    24     0.007343
    25     0.004980
    26     0.017267
    27     0.009469
    28     0.002545
    29    -0.003385
    30     0.002606
    31    -0.000224
    32    -0.003249
    33     0.000701
    34     0.000978
    35    -0.008004
    36    -0.022607
    37    -0.020439
    38     0.006687
    39     0.023611
    40     0.007242
    41     0.013693
    42     0.012930
    43     0.005084
    44    -0.002583
    45    -0.000161
    46    -0.001797
    47    -0.000582
    48    -0.000563
    49     0.000064
Sym=    15a
Ene=   -0.900646E+00
Spin= Alpha
Occup= 1.965531
     1     0.001420
     2    -0.009899
     3     0.020748
     4     0.005341
     5    -0.009237
     6    -0.006312
     7     0.000131
     8    -0.014935
     9    -0.007607
    10     0.000219
    11    -0.028140
    12    -0.003542
    13     0.000401
    14     0.006206
    15    -0.009176
    16     0.005578
    17    -0.000061
    18     0.000036
    19     0.000133
    20     0.008227
    21     0.027590
    22    -0.133017
    23     0.505100
    24     0.008294
    25    -0.002373
    26     0.240596
    27    -0.012899
    28    -0.001522
    29     0.041227
    30    -0.012722
    31    -0.011722
    32     0.003194
    33    -0.000170
    34    -0.000020
    35    -0.012089
    36    -0.014439
    37    -0.192771
    38    -0.487492
    39    -0.055937
    40    -0.001640
    41    -0.219745
    42    -0.016420
    43    -0.001174
    44     0.039191
    45    -0.010023
    46    -0.013073
    47     0.012723
    48     0.000188
    49     0.000021
Sym=    16a
Ene=   -0.539013E+00
Spin= Alpha
Occup= 1.956368
     1     0.000244
     2     0.002184
     3    -0.005055
     4    -0.039699
     5     0.054404
     6     0.191818
     7    -0.000387
     8     0.091156
     9     0.322769
    10    -0.000684
    11     0.113818
    12     0.412764
    13    -0.000957
    14    -0.006728
    15     0.035077
    16    -0.010648
    17     0.020476
    18     0.000116
    19    -0.000021
    20    -0.025510
    21    -0.077531
    22    -0.026656
    23     0.065128
    24    -0.406590
    25     0.000823
    26     0.073000
    27    -0.308074
    28     0.000727
    29    -0.009497
    30     0.013783
    31    -0.012050
    32     0.001260
    33     0.000048
    34     0.000032
    35     0.003753
    36     0.011101
    37    -0.008394
    38    -0.018233
    39     0.214786
    40     0.000421
    41    -0.013534
    42     0.205361
    43    -0.000066
    44    -0.004417
    45     0.004596
    46     0.001939
    47     0.005855
    48    -0.000053
    49    -0.000001
Sym=    17a
Ene=   -0.316704E+00
Spin= Alpha
Occup= 1.000000
     1     0.000005
     2    -0.000044
     3     0.000102
     4     0.000005
     5     0.000015
     6     0.000124
     7     0.018192
     8     0.000069
     9     0.000320
    10     0.034405
    11    -0.000096
    12    -0.000040
    13     0.044271
    14    -0.000085
    15    -0.000033
    16     0.000056
    17    -0.000183
    18    -0.002720
    19    -0.014763
    20    -0.000032
    21    -0.000078
    22     0.000186
    23     0.000556
    24    -0.000201
    25    -0.380131
    26    -0.000054
    27     0.000200
    28    -0.301252
    29     0.000121
    30    -0.000018
    31    -0.000016
    32     0.000038
    33     0.011901
    34     0.006265
    35    -0.000112
    36     0.000039
    37    -0.000810
    38    -0.000480
    39     0.000294
    40     0.659986
    41     0.000130
    42    -0.000233
    43     0.430014
    44     0.000112
    45    -0.000068
    46    -0.000090
    47     0.000013
    48    -0.003455
    49    -0.000972
Sym=    18a
Ene=   -0.718100E-01
Spin= Alpha
Occup= 0.041534
     1     0.012862
     2    -0.095761
     3     0.197756
     4     0.008263
     5     0.078675
     6     0.263942
     7    -0.000116
     8     0.173808
     9     0.583021
    10    -0.000283
    11     0.060329
    12     0.204202
    13     0.000018
    14    -0.021695
    15    -0.051406
    16    -0.014631
    17    -0.006272
    18    -0.000499
    19     0.000356
    20    -0.041404
    21    -0.108710
    22    -0.042016
    23     0.001409
    24     0.623990
    25     0.000023
    26     0.027701
    27     0.099366
    28    -0.000251
    29     0.010040
    30     0.023669
    31    -0.001599
    32    -0.004360
    33    -0.000070
    34    -0.000002
    35    -0.003695
    36    -0.006883
    37    -0.031167
    38     0.025089
    39    -0.337092
    40    -0.000265
    41     0.017955
    42    -0.047649
    43     0.000339
    44     0.012742
    45    -0.007867
    46     0.003457
    47    -0.017403
    48     0.000018
    49     0.000065
Sym=    19a
Ene=   -0.581880E-01
Spin= Alpha
Occup= 0.031724
     1     0.001189
     2    -0.009740
     3     0.022773
     4     0.000096
     5    -0.013214
     6     0.001719
     7    -0.000079
     8    -0.030434
     9     0.006346
    10    -0.000286
    11    -0.006477
    12    -0.001051
    13     0.000313
    14     0.001534
    15    -0.012576
    16    -0.002394
    17     0.007802
    18     0.000231
    19     0.000255
    20     0.150891
    21     0.460599
    22     0.148411
    23     0.718630
    24     0.084794
    25    -0.000283
    26     0.125496
    27     0.034082
    28    -0.000159
    29    -0.083284
    30    -0.056076
    31    -0.024281
    32    -0.002503
    33    -0.000150
    34    -0.000171
    35    -0.143268
    36    -0.429548
    37    -0.151883
    38     0.728789
    39     0.128731
    40    -0.000571
    41     0.135659
    42     0.037598
    43     0.000605
    44     0.076182
    45     0.024640
    46     0.039934
    47     0.007013
    48    -0.000534
    49    -0.000057
Sym=    20a
Ene=   -0.160728E-01
Spin= Alpha
Occup= 0.012614
     1     0.026753
     2    -0.268824
     3     0.759250
     4    -0.179197
     5    -0.000589
     6    -0.024772
     7    -0.000850
     8     0.000811
     9    -0.072340
    10    -0.002788
    11    -0.013326
    12     0.025513
    13     0.002348
    14    -1.038928
    15    -0.154550
    16     0.507254
    17     0.338610
    18    -0.173988
    19     0.054742
    20    -0.010827
    21    -0.057690
    22     0.108669
    23    -0.000719
    24     0.046738
    25    -0.001061
    26     0.043010
    27    -0.055277
    28     0.002115
    29     0.000629
    30     0.018564
    31    -0.002866
    32     0.007360
    33    -0.001041
    34    -0.000262
    35     0.003587
    36     0.023863
    37    -0.077705
    38    -0.002240
    39    -0.008227
    40     0.004607
    41     0.043513
    42     0.021998
    43    -0.005110
    44    -0.000343
    45     0.000941
    46     0.000399
    47    -0.004309
    48     0.000028
    49    -0.000102
Sym=    21a
Ene=   -0.160218E-01
Spin= Alpha
Occup= 0.012967
     1    -0.017855
     2     0.178666
     3    -0.505389
     4     0.121355
     5    -0.003295
     6     0.008531
     7    -0.003105
     8    -0.011764
     9     0.023567
    10    -0.010103
    11     0.014487
    12    -0.002005
    13     0.008901
    14     0.009743
    15     0.030064
    16     0.410752
    17     0.020119
    18     0.914395
    19    -0.273596
    20     0.005897
    21     0.024663
    22    -0.011735
    23    -0.008041
    24    -0.019373
    25     0.005620
    26     0.016699
    27     0.026134
    28    -0.011668
    29    -0.004567
    30    -0.014911
    31     0.004572
    32    -0.005600
    33     0.004772
    34    -0.001125
    35    -0.000938
    36    -0.002315
    37    -0.012662
    38     0.000537
    39    -0.004392
    40    -0.016974
    41     0.005394
    42     0.004688
    43     0.018645
    44    -0.000301
    45     0.001993
    46     0.003263
    47     0.002676
    48     0.000667
    49    -0.000222
Sym=    22a
Ene=   -0.171436E-01
Spin= Alpha
Occup= 0.013144
     1     0.000950
     2    -0.008976
     3     0.024242
     4    -0.004611
     5     0.007470
     6     0.001401
     7     0.091913
     8     0.023517
     9     0.004052
    10     0.268371
    11    -0.017308
    12    -0.001236
    13    -0.120154
    14    -0.014307
    15    -0.002096
    16    -0.003310
    17    -0.015446
    18    -0.091020
    19    -0.308926
    20     0.013096
    21     0.057167
    22    -0.024804
    23     0.005097
    24    -0.000972
    25     0.815258
    26    -0.010549
    27    -0.000584
    28    -0.868347
    29    -0.003854
    30    -0.017027
    31    -0.014212
    32     0.001477
    33    -0.006343
    34     0.059890
    35     0.017822
    36     0.076885
    37    -0.028021
    38     0.001307
    39     0.009127
    40     0.291634
    41     0.000621
    42    -0.011325
    43    -0.108371
    44    -0.010491
    45    -0.020635
    46    -0.019371
    47     0.000482
    48     0.078951
    49     0.014318
Sym=    23a
Ene=   -0.145561E-01
Spin= Alpha
Occup= 0.010054
     1     0.006089
     2    -0.050490
     3     0.088084
     4     0.079789
     5    -0.005905
     6    -0.004715
     7     0.007378
     8    -0.048953
     9    -0.030530
    10     0.024415
    11     0.143465
    12     0.125593
    13    -0.022036
    14    -0.016529
    15    -0.093650
    16     0.032451
    17    -0.070746
    18    -0.025052
    19    -0.007780
    20    -0.000310
    21     0.021627
    22    -0.102595
    23     0.082475
    24    -0.404371
    25    -0.009859
    26    -0.049621
    27     0.260736
    28     0.011692
    29    -0.007643
    30     0.043600
    31     0.015068
    32     0.134114
    33     0.005393
    34     0.004554
    35     0.149860
    36     0.615495
    37    -0.207794
    38     0.212356
    39    -0.794579
    40    -0.009185
    41    -0.241782
    42     0.844539
    43     0.006442
    44    -0.158521
    45    -0.158479
    46    -0.183283
    47    -0.062739
    48    -0.005259
    49    -0.000231
Sym=    24a
Ene=   -0.208326E-01
Spin= Alpha
Occup= 0.008790
     1    -0.129935
     2     1.325330
     3    -3.647128
     4     0.601243
     5     0.018032
     6     0.054189
     7    -0.000130
     8     0.057302
     9     0.171087
    10    -0.000536
    11    -0.039558
    12    -0.114369
    13     0.000776
    14     1.068271
    15     1.045920
    16     1.416712
    17    -0.029813
    18    -0.193659
    19     0.047103
    20     0.003214
    21     0.037006
    22    -0.072665
    23     0.013300
    24    -0.010001
    25     0.000555
    26     0.001859
    27     0.055206
    28    -0.000469
    29    -0.015875
    30    -0.008060
    31    -0.005413
    32     0.009022
    33    -0.000118
    34     0.000765
    35     0.002114
    36     0.008032
    37     0.009647
    38    -0.000433
    39    -0.006836
    40     0.000269
    41    -0.010319
    42     0.006407
    43     0.000477
    44    -0.005232
    45    -0.007192
    46     0.000850
    47    -0.006755
    48    -0.000641
    49     0.000119
Sym=    25a
Ene=   -0.191829E-01
Spin= Alpha
Occup= 0.007564
     1    -0.004266
     2     0.042870
     3    -0.102206
     4    -0.023309
     5    -0.010621
     6    -0.001698
     7    -0.038328
     8    -0.036092
     9    -0.001455
    10    -0.124828
    11     0.024509
    12    -0.033157
    13     0.105507
    14     0.032961
    15     0.101014
    16    -0.022025
    17     0.050718
    18     0.068708
    19     0.163445
    20     0.022139
    21     0.052187
    22     0.200123
    23     0.090600
    24     0.142169
    25     0.028088
    26     0.074609
    27    -0.080273
    28    -0.004881
    29     0.030685
    30     0.002974
    31    -0.019036
    32    -0.016026
    33    -0.082730
    34    -0.056470
    35     0.588901
    36     2.397935
    37    -0.898129
    38     0.225899
    39     0.219825
    40     0.116480
    41    -0.073602
    42    -0.195816
    43    -0.117092
    44    -0.691654
    45    -0.706563
    46    -0.730439
    47     0.005320
    48     0.074943
    49    -0.013621
Sym=    26a
Ene=   -0.202529E-01
Spin= Alpha
Occup= 0.007860
     1    -0.016559
     2     0.150145
     3    -0.359948
     4    -0.028746
     5    -0.040687
     6    -0.103117
     7     0.001351
     8    -0.130583
     9    -0.308131
    10     0.003543
    11     0.086589
    12     0.109045
    13    -0.000006
    14     0.048973
    15     0.332849
    16    -0.084177
    17     0.105284
    18     0.051045
    19    -0.019327
    20    -0.557780
    21    -2.265742
    22     0.826669
    23     0.266238
    24     0.144710
    25     0.022299
    26    -0.128512
    27    -0.088500
    28    -0.024077
    29     0.604760
    30     0.759952
    31     0.605321
    32     0.064561
    33     0.000036
    34     0.003258
    35    -0.025179
    36    -0.065693
    37    -0.143950
    38     0.107513
    39    -0.058701
    40     0.009668
    41     0.040774
    42     0.078144
    43    -0.005202
    44    -0.019193
    45     0.007032
    46     0.000295
    47    -0.052119
    48     0.000888
    49     0.000891
Sym=    27a
Ene=   -0.295928E-02
Spin= Alpha
Occup= 0.000296
     1    -0.009074
     2     0.108077
     3    -0.282332
     4    -0.028325
     5    -0.009842
     6     0.027850
     7    -0.002935
     8    -0.037995
     9     0.092191
    10    -0.009603
    11     0.045911
    12    -0.084763
    13     0.008538
    14     0.048288
    15     0.408505
    16    -0.074757
    17     0.186421
    18     0.035817
    19     0.006531
    20     0.050590
    21     0.202994
    22     0.003824
    23    -0.103974
    24     0.024100
    25     0.011081
    26     0.002730
    27    -0.033820
    28    -0.013713
    29    -0.310606
    30    -0.479740
    31     0.417197
    32     0.110030
    33     0.006792
    34    -0.034254
    35     0.005942
    36     0.004492
    37     0.049404
    38    -0.123595
    39    -0.118313
    40     0.000693
    41     0.039212
    42     0.129862
    43     0.003055
    44     0.208825
    45    -0.645526
    46     0.468773
    47     0.306045
    48     0.016864
    49    -0.024421
Sym=    28a
Ene=   -0.286656E-02
Spin= Alpha
Occup= 0.000286
     1    -0.000339
     2     0.004474
     3    -0.012663
     4     0.001742
     5    -0.000835
     6     0.010375
     7    -0.068887
     8    -0.002842
     9     0.034581
    10    -0.241650
    11     0.003724
    12    -0.027234
    13     0.250819
    14     0.008146
    15     0.014228
    16    -0.003868
    17     0.021929
    18     0.091506
    19     0.302807
    20    -0.004462
    21    -0.013643
    22    -0.009330
    23    -0.011932
    24    -0.016817
    25     0.104217
    26     0.002983
    27     0.015167
    28    -0.177299
    29     0.008729
    30    -0.006802
    31     0.022360
    32     0.002498
    33     0.066915
    34     0.588190
    35    -0.011168
    36    -0.039425
    37    -0.007896
    38     0.004092
    39    -0.004787
    40     0.062238
    41    -0.008790
    42     0.002552
    43    -0.058800
    44     0.034033
    45    -0.000227
    46     0.030604
    47     0.012311
    48    -0.226884
    49     0.648718
Sym=    29a
Ene=   -0.236274E-02
Spin= Alpha
Occup= 0.000232
     1    -0.004454
     2     0.053169
     3    -0.151146
     4     0.010018
     5     0.000484
     6     0.034822
     7     0.002034
     8    -0.006437
     9     0.111831
    10     0.007012
    11     0.028100
    12    -0.093119
    13    -0.006550
    14     0.022602
    15     0.217958
    16    -0.059152
    17     0.142491
    18     0.012276
    19    -0.013700
    20    -0.009136
    21     0.012756
    22    -0.090670
    23     0.004136
    24     0.028178
    25     0.005627
    26    -0.099870
    27    -0.032361
    28    -0.009984
    29    -0.003677
    30    -0.538255
    31     0.595285
    32     0.178630
    33     0.025483
    34    -0.038352
    35    -0.028433
    36    -0.077368
    37    -0.005801
    38    -0.056738
    39    -0.038937
    40    -0.036389
    41     0.037553
    42     0.040038
    43     0.042919
    44     0.171399
    45     0.636550
    46    -0.596699
    47     0.012525
    48     0.033049
    49     0.044277
Sym=    30a
Ene=   -0.141008E-02
Spin= Alpha
Occup= 0.000113
     1     0.011908
     2    -0.159377
     3     0.437361
     4     0.020609
     5     0.012062
     6     0.078456
     7    -0.001782
     8     0.044145
     9     0.308058
    10    -0.006071
    11    -0.048437
    12    -0.430116
    13     0.005926
    14    -0.115976
    15    -0.423109
    16    -0.110760
    17    -0.013058
    18    -0.003876
    19     0.013096
    20    -0.015254
    21    -0.046680
    22     0.034981
    23     0.238073
    24     0.035628
    25     0.003724
    26    -0.413941
    27    -0.021833
    28    -0.006659
    29    -0.261696
    30     0.441908
    31    -0.011154
    32     0.729863
    33    -0.007441
    34    -0.001355
    35     0.113010
    36     0.369543
    37     0.427799
    38    -0.230160
    39     0.032652
    40     0.005821
    41     0.258981
    42    -0.230457
    43    -0.003463
    44    -0.518524
    45    -0.047664
    46    -0.203440
    47     0.516787
    48    -0.008256
    49    -0.002946
Sym=    31a
Ene=   -0.759879E-03
Spin= Alpha
Occup= 0.000038
     1    -0.000253
     2     0.002843
     3    -0.005850
     4    -0.004617
     5    -0.002330
     6    -0.004233
     7    -0.031280
     8    -0.008011
     9    -0.014184
    10    -0.119077
    11     0.006550
    12     0.010464
    13     0.167368
    14     0.007561
    15    -0.002177
    16     0.003955
    17     0.002882
    18     0.055059
    19     0.226189
    20     0.010753
    21     0.027095
    22     0.061909
    23    -0.012536
    24     0.002684
    25     0.291500
    26     0.022419
    27     0.001308
    28    -0.790861
    29    -0.038941
    30    -0.023463
    31    -0.027541
    32     0.007249
    33    -0.642565
    34    -0.151320
    35    -0.027298
    36    -0.077272
    37    -0.104830
    38     0.010699
    39    -0.003514
    40    -0.461407
    41    -0.004899
    42     0.003713
    43     0.934333
    44     0.066970
    45     0.073532
    46     0.062474
    47     0.007337
    48    -0.583007
    49    -0.118593
Sym=    32a
Ene=   -0.316162E-03
Spin= Alpha
Occup= 0.000016
     1    -0.029606
     2     0.489101
     3    -1.175884
     4    -0.495453
     5    -0.024386
     6    -0.099990
     7     0.000302
     8    -0.115515
     9    -0.462275
    10     0.001085
    11     0.289969
    12     1.062304
    13    -0.001268
    14     0.723609
    15     1.148470
    16     0.691995
    17     0.154483
    18     0.004452
    19    -0.001238
    20    -0.068784
    21     0.084401
    22    -1.171130
    23    -0.016660
    24    -0.445843
    25    -0.001540
    26     0.022613
    27     1.291488
    28     0.003454
    29     0.281448
    30     0.250552
    31     0.326981
    32     0.160515
    33    -0.000379
    34     0.001273
    35     0.008953
    36     0.008316
    37     0.208182
    38     0.001795
    39     0.158275
    40     0.002822
    41     0.005124
    42    -0.654391
    43    -0.004445
    44    -0.188839
    45     0.082734
    46    -0.004768
    47     0.257965
    48     0.000512
    49     0.000203
Sym=    33a
Ene=   -0.132348E-04
Spin= Alpha
Occup= 0.000000
     1     0.000031
     2     0.006806
     3    -0.008947
     4    -0.031829
     5    -0.005247
     6     0.008449
     7     0.000657
     8    -0.045359
     9     0.032047
    10     0.002233
    11     0.185567
    12    -0.034033
    13    -0.002087
    14     0.056854
    15    -0.019564
    16     0.037990
    17     0.153466
    18    -0.001382
    19    -0.001624
    20    -0.019914
    21     0.564109
    22    -4.794689
    23     0.112488
    24     0.002190
    25    -0.000842
    26    -3.141807
    27    -0.464614
    28     0.000156
    29    -0.360111
    30     0.372776
    31     0.403424
    32    -0.145221
    33    -0.001126
    34     0.000077
    35     0.021462
    36    -0.563521
    37     4.788682
    38     0.147513
    39     0.033866
    40    -0.003426
    41    -3.166781
    42    -0.544707
    43     0.004427
    44     0.374070
    45    -0.401845
    46    -0.408902
    47     0.147143
    48     0.000365
    49     0.000286
Sym=    34a
Ene=   -0.483674E-02
Spin= Alpha
Occup= 0.002098
     1    -0.006223
     2     0.074597
     3    -0.195184
     4     0.013674
     5     0.060839
     6     0.207592
     7     0.004316
     8     0.208806
     9     0.707576
    10     0.014664
    11    -0.180532
    12    -0.614329
    13    -0.013946
    14    -0.090027
    15     0.638004
    16    -0.264751
    17     0.324643
    18     0.056536
    19    -0.049642
    20     0.038055
    21     0.153302
    22    -0.011562
    23     0.027700
    24    -0.315198
    25    -0.005295
    26    -0.071400
    27     0.358833
    28     0.004604
    29    -0.022146
    30     0.194050
    31    -0.310545
    32    -0.217382
    33    -0.020784
    34     0.002480
    35    -0.016624
    36    -0.088104
    37     0.085509
    38     0.008226
    39     0.008890
    40    -0.030076
    41    -0.053390
    42    -0.082467
    43     0.039160
    44    -0.069701
    45     0.154594
    46    -0.014218
    47     0.075102
    48     0.027501
    49    -0.001050
Sym=    35a
Ene=   -0.721441E-02
Spin= Alpha
Occup= 0.002745
     1    -0.002182
     2     0.022137
     3    -0.043622
     4    -0.026403
     5     0.029442
     6    -0.024326
     7     0.004690
     8     0.119939
     9    -0.076127
    10     0.014490
    11    -0.176554
    12     0.056222
    13    -0.009642
    14    -0.058159
    15     0.151974
    16    -0.027723
    17    -0.091469
    18    -0.000725
    19    -0.036928
    20     0.085718
    21     0.233759
    22     0.071446
    23    -0.146841
    24     0.085530
    25     0.000716
    26     0.394691
    27    -0.087772
    28    -0.013551
    29    -0.673786
    30     0.003188
    31     0.247718
    32    -0.010223
    33     0.062522
    34     0.014503
    35     0.044753
    36     0.082933
    37     0.012794
    38     0.115775
    39     0.004747
    40    -0.021254
    41    -0.303943
    42    -0.028094
    43     0.014730
    44    -0.541691
    45     0.186558
    46     0.141763
    47    -0.207837
    48    -0.049944
    49    -0.004077
Sym=    36a
Ene=   -0.151261E-01
Spin= Alpha
Occup= 0.011186
     1     0.000139
     2    -0.001777
     3    -0.001296
     4     0.017135
     5    -0.366297
     6     0.101809
     7     0.063312
     8    -1.192406
     9     0.329251
    10     0.207032
    11     1.009394
    12    -0.264178
    13    -0.178159
    14     0.057162
    15    -0.089148
    16     0.023880
    17     0.100146
    18    -0.011885
    19     0.040475
    20     0.001338
    21    -0.016280
    22     0.053911
    23    -0.109045
    24     0.000517
    25    -0.000338
    26     0.102884
    27     0.029583
    28     0.012989
    29    -0.044293
    30     0.035636
    31     0.000147
    32    -0.033366
    33     0.003496
    34     0.006978
    35    -0.005712
    36    -0.025777
    37    -0.050665
    38     0.021405
    39     0.003174
    40    -0.005901
    41    -0.019964
    42     0.047873
    43     0.003850
    44    -0.017346
    45     0.027698
    46    -0.008664
    47    -0.004929
    48    -0.003506
    49     0.001780
Sym=    37a
Ene=   -0.138522E-01
Spin= Alpha
Occup= 0.010677
     1     0.001267
     2    -0.012731
     3     0.034264
     4    -0.004120
     5    -0.064251
     6     0.019036
     7    -0.339960
     8    -0.210438
     9     0.061559
    10    -1.113812
    11     0.182165
    12    -0.050135
    13     0.965124
    14    -0.040937
    15     0.015156
    16    -0.007122
    17    -0.059644
    18    -0.140163
    19    -0.435828
    20     0.000171
    21     0.001641
    22    -0.006889
    23    -0.004248
    24    -0.005069
    25     0.036552
    26    -0.010623
    27     0.006067
    28    -0.110573
    29    -0.002002
    30     0.002420
    31     0.000528
    32    -0.000834
    33    -0.000955
    34    -0.007931
    35    -0.001839
    36    -0.006838
    37     0.009335
    38    -0.002848
    39    -0.003150
    40    -0.010600
    41    -0.003253
    42     0.007442
    43     0.034297
    44     0.001943
    45     0.002349
    46    -0.000397
    47     0.000241
    48     0.005195
    49    -0.005875
Sym=    38a
Ene=   -0.109356E-01
Spin= Alpha
Occup= 0.006078
     1     0.022147
     2    -0.227287
     3     0.621569
     4    -0.066214
     5     0.052073
     6     0.148441
     7    -0.005868
     8     0.172914
     9     0.485696
    10    -0.018641
    11    -0.139122
    12    -0.375893
    13     0.014348
    14    -0.093727
    15    -0.595833
    16     0.087213
    17    -0.183037
    18    -0.054355
    19     0.052501
    20    -0.274562
    21    -1.159177
    22     0.493898
    23     0.085231
    24    -0.389552
    25     0.009464
    26    -0.042520
    27     0.435620
    28     0.003946
    29     0.338521
    30     0.137557
    31     0.657205
    32    -0.251956
    33    -0.070410
    34    -0.018838
    35     0.030620
    36     0.117546
    37    -0.131975
    38     0.062516
    39     0.214836
    40     0.033924
    41     0.015745
    42    -0.318661
    43    -0.025180
    44    -0.146817
    45    -0.068615
    46     0.044711
    47     0.110623
    48     0.048633
    49     0.003084
Sym=    39a
Ene=   -0.114631E-01
Spin= Alpha
Occup= 0.006458
     1     0.002714
     2    -0.028520
     3     0.082858
     4    -0.020270
     5     0.010241
     6     0.017290
     7     0.109765
     8     0.031294
     9     0.057716
    10     0.359154
    11    -0.020816
    12    -0.055665
    13    -0.308539
    14    -0.035747
    15    -0.032873
    16    -0.010442
    17    -0.033563
    18    -0.161759
    19    -0.509822
    20    -0.027899
    21    -0.118626
    22     0.112506
    23     0.061295
    24    -0.015411
    25    -0.159080
    26    -0.035195
    27     0.040130
    28     0.050908
    29     0.079892
    30     0.010940
    31     0.051532
    32     0.008132
    33     0.336559
    34     0.187648
    35     0.172164
    36     0.698313
    37    -0.232103
    38     0.027871
    39     0.116805
    40    -0.469525
    41     0.048122
    42    -0.142293
    43     0.465086
    44    -0.152330
    45    -0.297151
    46    -0.211469
    47    -0.021135
    48    -0.301077
    49     0.046760
Sym=    40a
Ene=   -0.109487E-01
Spin= Alpha
Occup= 0.006509
     1     0.002669
     2    -0.028665
     3     0.081080
     4    -0.017515
     5    -0.047973
     6     0.037939
     7     0.021590
     8    -0.163219
     9     0.126341
    10     0.070915
    11     0.159631
    12    -0.124446
    13    -0.061676
    14    -0.499667
    15     0.453584
    16    -0.039404
    17    -0.782231
    18     0.041002
    19     0.083333
    20     0.013042
    21     0.083033
    22    -0.126273
    23     0.105313
    24     0.002187
    25    -0.000573
    26    -0.205031
    27    -0.021447
    28     0.005337
    29     0.021960
    30    -0.051387
    31    -0.010737
    32     0.029839
    33    -0.005551
    34    -0.007353
    35    -0.007109
    36    -0.021771
    37     0.137741
    38    -0.051944
    39     0.049742
    40     0.013854
    41    -0.003558
    42    -0.087126
    43    -0.015495
    44     0.014476
    45     0.006868
    46     0.009980
    47     0.014750
    48     0.004377
    49    -0.000268
Sym=    41a
Ene=   -0.914008E-02
Spin= Alpha
Occup= 0.004002
     1     0.005609
     2    -0.058444
     3     0.151135
     4     0.021573
     5     0.012903
     6     0.085186
     7    -0.010208
     8     0.039197
     9     0.277604
    10    -0.033409
    11    -0.010875
    12    -0.190012
    13     0.028771
    14    -0.048965
    15    -0.039578
    16    -0.066940
    17     0.064715
    18     0.021264
    19     0.050012
    20    -0.013067
    21    -0.034687
    22     0.011688
    23     0.025749
    24    -0.291322
    25     0.015446
    26    -0.051713
    27     0.284158
    28    -0.010003
    29    -0.067744
    30     0.062574
    31     0.090020
    32     0.348440
    33    -0.032325
    34    -0.022451
    35    -0.016146
    36    -0.058380
    37    -0.000780
    38    -0.073383
    39     0.162414
    40     0.029955
    41     0.122262
    42    -0.375050
    43    -0.024828
    44     0.293969
    45    -0.241410
    46     0.022512
    47    -0.686035
    48     0.034966
    49    -0.007477
Sym=    42a
Ene=   -0.835811E-02
Spin= Alpha
Occup= 0.003484
     1    -0.000838
     2     0.008164
     3    -0.019767
     4    -0.004859
     5     0.000199
     6    -0.018030
     7     0.072029
     8     0.001204
     9    -0.059246
    10     0.247417
    11    -0.005529
    12     0.043741
    13    -0.251982
    14    -0.007789
    15     0.027185
    16    -0.000597
    17    -0.020839
    18    -0.101691
    19    -0.377034
    20     0.018541
    21     0.068553
    22     0.000092
    23    -0.005169
    24     0.044775
    25    -0.209121
    26     0.020671
    27    -0.048389
    28     0.367648
    29    -0.061958
    30    -0.029647
    31     0.002406
    32     0.023766
    33    -0.681265
    34     0.293267
    35     0.017480
    36     0.064890
    37    -0.009950
    38    -0.006348
    39    -0.003712
    40    -0.007642
    41     0.002494
    42     0.010991
    43     0.041576
    44    -0.032458
    45    -0.031748
    46    -0.009163
    47    -0.009697
    48     0.271333
    49     0.189705
Sym=    43a
Ene=   -0.244538E-02
Spin= Alpha
Occup= 0.000239
     1    -0.000042
     2     0.000864
     3    -0.003888
     4     0.003669
     5     0.000966
     6     0.005412
     7    -0.032039
     8     0.003819
     9     0.018015
    10    -0.116367
    11    -0.004884
    12    -0.012851
    13     0.130581
    14     0.000385
    15     0.006294
    16    -0.001859
    17     0.004429
    18     0.043637
    19     0.151032
    20    -0.014018
    21    -0.046463
    22    -0.026217
    23    -0.027149
    24    -0.001165
    25     0.048278
    26     0.025323
    27    -0.001339
    28    -0.096453
    29     0.029446
    30    -0.000487
    31     0.054594
    32     0.018672
    33     0.018141
    34     0.710364
    35    -0.010805
    36    -0.037375
    37    -0.019191
    38     0.017839
    39     0.001366
    40    -0.053547
    41    -0.020833
    42    -0.001260
    43     0.062982
    44     0.042057
    45     0.043877
    46    -0.019657
    47     0.013373
    48     0.116979
    49    -0.700605
Sym=    44a
Ene=   -0.199127E-02
Spin= Alpha
Occup= 0.000198
     1     0.002186
     2    -0.023196
     3     0.050242
     4     0.040095
     5     0.025890
     6     0.025998
     7    -0.012064
     8     0.106068
     9     0.093443
    10    -0.043516
    11    -0.150398
    12    -0.053948
    13     0.053008
    14    -0.056187
    15    -0.000628
    16    -0.005219
    17    -0.097844
    18     0.015157
    19     0.096832
    20    -0.181086
    21    -0.636157
    22    -0.313767
    23    -0.470312
    24     0.018169
    25     0.136042
    26     0.561762
    27    -0.047167
    28    -0.204946
    29     0.327847
    30     0.489121
    31     0.272392
    32     0.198927
    33     0.202104
    34    -0.031740
    35    -0.117191
    36    -0.431700
    37    -0.298822
    38     0.328268
    39     0.047529
    40    -0.360970
    41    -0.370885
    42    -0.052577
    43     0.457976
    44     0.481190
    45     0.131862
    46     0.107460
    47     0.196435
    48     0.480573
    49     0.146851
Sym=    45a
Ene=   -0.202860E-02
Spin= Alpha
Occup= 0.000202
     1    -0.001627
     2     0.016284
     3    -0.031591
     4    -0.038609
     5    -0.026549
     6    -0.041244
     7    -0.020234
     8    -0.104797
     9    -0.143627
    10    -0.072468
    11     0.138216
    12     0.099010
    13     0.084837
    14     0.055331
    15    -0.039676
    16     0.021329
    17     0.060885
    18     0.030039
    19     0.149568
    20     0.172309
    21     0.599199
    22     0.314772
    23     0.399103
    24    -0.001418
    25     0.170857
    26    -0.474704
    27     0.027610
    28    -0.263964
    29    -0.390260
    30    -0.374776
    31    -0.292868
    32    -0.203023
    33     0.213664
    34     0.015756
    35     0.102928
    36     0.380047
    37     0.244288
    38    -0.318767
    39    -0.054237
    40    -0.405384
    41     0.346418
    42     0.061683
    43     0.525176
    44    -0.396745
    45    -0.145753
    46    -0.070697
    47    -0.162648
    48     0.528889
    49     0.126338
Sym=    46a
Ene=   -0.167320E-02
Spin= Alpha
Occup= 0.000133
     1    -0.000352
     2     0.005304
     3    -0.018569
     4     0.010798
     5     0.005766
     6    -0.028002
     7    -0.000953
     8     0.025613
     9    -0.098959
    10    -0.003173
    11    -0.034885
    12     0.112933
    13     0.002703
    14     0.001444
    15    -0.002903
    16     0.026264
    17    -0.068817
    18    -0.001898
    19     0.005534
    20     0.028004
    21     0.132488
    22     0.008451
    23    -0.270209
    24    -0.071205
    25    -0.003158
    26     0.015492
    27     0.044052
    28     0.004330
    29    -0.966181
    30     0.376328
    31     0.152733
    32    -0.366914
    33    -0.018868
    34    -0.000432
    35     0.062105
    36     0.185819
    37     0.145618
    38    -0.474477
    39    -0.087919
    40     0.029293
    41     0.228389
    42     0.057076
    43    -0.032863
    44     0.736818
    45    -0.295173
    46    -0.552480
    47     0.151432
    48    -0.039128
    49    -0.009524
Sym=    47a
Ene=   -0.484742E-03
Spin= Alpha
Occup= 0.000024
     1    -0.000668
     2     0.015026
     3    -0.083368
     4     0.077592
     5    -0.012614
     6     0.011552
     7     0.001717
     8    -0.066658
     9     0.032751
    10     0.006209
    11     0.144121
    12     0.006752
    13    -0.007295
    14     0.060304
    15     0.001409
    16     0.012342
    17     0.066769
    18    -0.000893
    19    -0.008416
    20    -0.238071
    21    -0.387828
    22    -1.118503
    23     0.244153
    24     0.099671
    25    -0.011340
    26    -0.472043
    27    -0.191692
    28     0.018026
    29     0.391024
    30     0.858617
    31     0.884462
    32    -0.170962
    33     0.007601
    34    -0.001308
    35    -0.244862
    36    -0.459610
    37    -0.791424
    38    -0.259668
    39    -0.077157
    40     0.000752
    41     0.268929
    42     0.167454
    43    -0.007801
    44     0.467103
    45     0.793657
    46     0.921063
    47    -0.133490
    48     0.003631
    49    -0.000096
Sym=    48a
Ene=   -0.633418E-03
Spin= Alpha
Occup= 0.000031
     1     0.001465
     2    -0.028144
     3     0.121557
     4    -0.100370
     5    -0.011147
     6    -0.016313
     7     0.003385
     8    -0.046193
     9    -0.043754
    10     0.012225
    11     0.043140
    12    -0.067734
    13    -0.014666
    14    -0.004724
    15    -0.139148
    16    -0.006729
    17    -0.020576
    18    -0.008380
    19    -0.020343
    20     0.301663
    21     0.722752
    22     1.690643
    23    -0.028727
    24    -0.084689
    25    -0.021368
    26     0.053599
    27     0.182531
    28     0.047275
    29    -1.112307
    30    -0.698416
    31    -0.811366
    32     0.104308
    33     0.029689
    34     0.007681
    35    -0.333344
    36    -0.848062
    37    -1.705367
    38     0.011337
    39     0.078129
    40     0.023169
    41     0.066208
    42    -0.195348
    43    -0.048774
    44     1.111164
    45     0.886008
    46     0.831430
    47     0.199086
    48     0.018427
    49     0.001977
Sym=    49a
Ene=   -0.402986E-04
Spin= Alpha
Occup= 0.000000
     1    -0.032650
     2     0.589256
     3    -0.613317
     4    -2.686682
     5     0.017175
     6     0.068767
     7     0.000076
     8     0.095219
     9     0.367966
    10     0.000280
    11    -0.267873
    12    -0.976732
    13    -0.000336
    14     1.321591
    15     0.871913
    16     1.343640
    17    -0.161933
    18     0.009834
    19    -0.002161
    20     0.043769
    21    -0.199671
    22     1.204820
    23     0.032240
    24     0.247340
    25    -0.000435
    26    -0.233815
    27    -1.039956
    28     0.000562
    29    -0.239350
    30    -0.103028
    31    -0.278764
    32     0.006949
    33     0.000859
    34    -0.000506
    35     0.006608
    36    -0.032285
    37     0.127437
    38     0.000674
    39    -0.020673
    40    -0.000089
    41    -0.070083
    42     0.227958
    43    -0.000228
    44     0.050127
    45    -0.064287
    46    -0.074253
    47    -0.102618
    48    -0.000003
    49    -0.000388
