16
p30-5 set
Na         0.91750       -1.12702       -1.87345
H          1.92938        0.45896        0.14320
S          2.12072       -2.35021        0.09437
H          1.22401        1.86806        0.98775
F         -2.18226        2.41099       -0.61324
H         -1.44223       -0.23684       -2.23017
B         -1.18197       -0.01476       -1.07902
Al        -1.85640       -0.07423        1.14205
B          1.03784       -1.96633        1.39060
S          0.44417       -0.20716        1.85519
H          0.24844        1.76323       -1.37199
H          0.58588       -2.71415        2.20674
H         -1.26818       -1.07124       -0.37866
C          0.99724        0.91257        0.50489
C         -1.50254        1.27771       -0.19270
C         -0.07159        1.07042       -0.58555
