16
p30-5 set
B          0.36191        0.11472       -1.48932
P         -1.41396       -2.10477        0.01851
H          1.07066       -0.08492       -0.22215
H          2.25548        1.93353       -1.49142
B         -1.48370        0.97790        0.07994
P          0.83778        1.99542       -1.51466
H          1.39528        1.65708        1.18610
Cl        -3.31854       -2.07687        0.86024
N         -0.48999       -1.55817        1.37912
H         -0.95004       -0.82997        1.93423
P         -1.59526       -0.25267       -1.29561
Si         1.15493       -1.18274        0.94048
H          1.72548       -2.40288        0.30271
H          0.91942       -0.62789       -2.24405
P          0.49957        2.64338        0.62708
N         -0.96902        1.79885        0.92879
