16
p30-5 set
Si         0.42697       -0.09569       -1.74931
H         -0.61559       -0.53287        1.54099
N          1.44734        0.47957        1.38868
H          0.90177       -1.69656        0.85662
F         -2.45716        0.96858        0.49773
B          0.44679       -0.51131        0.97492
F         -0.99729       -2.24855       -0.33092
B          0.35372       -1.74834       -0.44314
B          0.85461        1.37120        0.39890
H         -1.60605        3.13840       -0.96213
H          2.42124        0.23116        1.21681
H          1.14385       -2.57128       -0.79970
H         -0.99625        0.53896       -1.49568
Al        -1.09322        1.90324       -0.12432
Li        -1.96067       -0.75935        0.30934
S          1.72994        1.53283       -1.27880
