16
p30-5 set
B         -1.13576       -0.98203       -2.56980
H         -2.89480       -1.74750       -3.07467
H          0.07938       -0.62481        1.84272
O         -1.96524       -1.74461       -3.35123
H          0.01913       -0.95917       -2.88493
H         -2.52430       -0.24162       -1.14794
N         -1.54407       -0.22352       -1.42362
F         -1.11622        1.53510        0.89960
P          1.77611        1.47256       -0.33770
C          1.08472       -0.31340        2.16471
B          2.15253        0.42393        1.30750
Al         0.58550        2.38970        1.55714
O          1.08447        1.05336        2.67000
H          3.28629        0.41144        1.66552
F          1.45890       -1.16927        3.17247
Al        -0.34665        0.71984       -0.48979
