16
p30-20 set
F          1.77530        1.42623       -1.35608
F         -2.27369       -0.85163        1.76268
B          0.57306       -1.27839       -2.09714
C         -0.21108        1.58728        0.69194
F          2.43225        0.53945        0.94622
F         -2.09893       -0.15181       -0.55753
Si         1.55325        1.77123        0.20942
F          1.58216       -1.71703       -2.86294
H         -0.33158        2.00613        1.70169
H         -0.16538       -0.46518       -2.55563
S          0.35235       -1.99348       -0.45124
H         -0.81017        2.18801       -0.00545
H          0.17548       -0.78062        2.07333
Li         1.68238       -1.16273        1.30495
Li        -3.39464       -0.76077        0.41292
Al        -0.84076       -0.35670        0.78285
