16
p30-5 set
B          0.15859       -1.34781       -1.11062
Si        -1.71571        2.43587       -1.49670
H          2.18984        0.75269        0.25349
P          1.67655       -1.47953        1.56363
H         -0.06410       -2.49273       -1.35900
O         -0.30577       -0.39564       -2.16423
Li        -0.99557        0.99290        0.72730
Al         2.64748       -1.74770       -0.67565
C          0.61370       -0.83509        0.20904
B         -0.86294        0.71178       -1.87904
H         -2.64552        1.70149       -0.53015
Cl        -1.53516        0.00443        2.64578
H          0.95573        0.91976        1.58388
Al        -0.90241       -2.16130        1.85942
C          1.39639        0.25832        0.83082
H         -0.61110        2.68255       -0.45797
