16
p30-5 set
H         -0.71198        1.51316        1.64671
B         -0.19206        2.20129        0.72187
H         -1.77945        2.60859       -1.90020
F          2.00105       -2.63097        0.84141
B          1.82157       -1.83362        1.91606
H          0.99971        1.81025        0.68196
H         -0.17329       -2.27393       -1.88033
Si        -1.89852       -0.73825       -0.58419
H         -0.20871        3.34354        1.05362
H          2.29862       -2.18287        2.95191
C         -0.73857       -1.37803       -2.13338
Al         0.11530        0.15140        0.68651
Si        -1.05836        1.61120       -1.06141
O          1.12627       -0.68868        1.78899
H         -1.31454       -1.49006       -3.05245
B         -0.28703       -0.02301       -1.67707
