16
p30-5 set
N         -2.52477        0.27476       -0.01179
N         -1.16209        0.85062       -0.03276
H         -1.60906       -1.08885       -1.09378
F         -0.04916       -1.30706       -1.60575
H         -0.31651       -1.05047        0.93201
H          2.48473        0.53169        1.07044
H         -0.83750        0.90881       -1.00839
B          1.57918        0.75082        0.30481
H          1.42465        1.90468        0.00317
B         -0.01661        0.17031        0.92721
H         -0.17331        0.54313        2.04895
Al         1.09300       -1.19950       -0.31458
H          1.93455       -2.47095        0.03301
O         -2.51893       -0.86809       -0.72892
H          1.98233        0.23841       -0.81791
H         -1.29048        1.81169        0.29428
