16
p30-5 set
Na        -1.15516        2.73921        1.34153
H         -1.44298       -1.79494       -0.12613
O         -0.40141        2.51196       -0.74046
H          1.54911        1.29354        1.66404
Mg         0.65575       -2.33842        0.22874
H          1.69833       -1.69941       -3.20622
Al         0.38496        0.90817       -0.55569
H         -1.44364       -0.48051       -1.63877
H          2.27944       -1.73989       -0.59387
Mg        -0.75434       -0.36999        1.63435
O          0.67581        1.10531        1.29204
Cl        -2.22244        0.88882        2.92727
Al         1.38633       -0.92001       -1.85239
H         -0.62703        2.80093       -1.63369
H          0.21460       -2.00531        1.96503
B         -0.79732       -0.89944       -0.70578
