16
p30-20 set
H         -1.91286        2.08308        3.44510
H          0.32405       -3.44896       -0.93629
Si         0.83415       -2.17023       -1.49534
H         -1.04418       -0.62203       -0.46195
Na         2.71713        0.40795       -0.31924
S          0.42344        1.09006       -1.85446
H         -1.39263       -0.79615       -2.41285
H         -2.34592        1.41599       -0.79914
Al         1.30216        1.16892        2.11142
H          2.00069       -1.79254       -0.62314
C         -0.62198        1.32625        1.38902
Si        -0.99962        1.07018       -0.31016
Cl         1.10504        1.65165        4.24789
B         -0.48833       -0.66482       -1.63999
B         -1.33750        1.73198        2.48613
H          1.43637       -2.45132       -2.82699
