16
p30-5 set
C          0.58859       -0.18431        1.58471
B         -1.43182        0.20746        0.03124
B         -0.88485       -0.13617        1.69652
H          0.50894        1.25502       -1.43899
Si         0.71013       -1.80736       -1.29334
F          3.41943        1.57138       -0.15040
H          2.10504       -1.11359       -1.29652
B          0.05453       -0.71020        0.25281
H         -0.04939       -0.62199       -2.23447
H         -1.49819        1.02359        1.00278
H         -2.51574       -0.23994       -0.36627
B         -0.24578        0.30801       -1.29903
Si        -2.01661        1.21832       -1.59344
Mg         1.98541        0.53742       -0.07241
H          1.32529       -0.53390        2.30298
Cl        -2.05499       -0.77372        2.87383
