16
p30-5 set
H         -1.17814        2.31202       -0.68715
Al        -0.25752        1.11661       -0.23534
Si         1.84678        1.13051       -2.21167
B         -1.27434       -0.81489        1.11049
N         -0.54782       -0.82348       -0.31334
Si         2.32348       -0.64110       -0.44529
O         -0.78822        0.61923        1.51096
H          0.30112        0.82958       -2.25051
N          1.61288        1.10301       -0.27866
H          2.22564        1.72257        0.24708
H          0.70108       -2.42342       -0.06868
H         -1.37532        1.11025        2.10062
H         -2.47301       -0.83018        0.96914
N          0.75897       -1.44816       -0.35080
F         -0.76062       -1.75743        1.97349
H         -1.11497       -1.20510       -1.07033
