16
p30-5 set
H         -1.13314       -0.71123       -1.23030
F          2.36368       -1.08376        0.23507
P         -2.60468       -0.91936        0.51272
Al        -0.69304       -0.28034        1.82277
H         -2.29773       -2.27795        0.21108
H          0.32697        1.38901       -1.73691
Al         2.24140       -0.89346       -1.87236
B          1.18075        1.02438       -0.95455
Li        -1.22920        1.53781       -0.73918
P          1.24123        1.51384        0.96748
O         -1.93907       -0.22707       -0.96288
H         -0.18483       -0.93129        3.16457
H          0.15611       -1.05955        0.28059
B          1.11365       -0.30026        0.16392
S         -0.84327        1.95360        1.52339
H          2.30117        1.26564       -1.38540
