16
p30-5 set
H          2.89524        2.42671        0.14267
Si         3.23227        0.84617        2.70646
H          0.88736       -1.43460        2.07830
Al        -2.19773       -2.19354       -2.27624
H         -3.06225        0.53254       -0.52646
H          1.18766        1.23154       -0.41860
Si         1.66691       -0.28406        1.53929
H         -2.84491       -0.63148        0.62994
N         -2.81635       -0.45095       -0.37870
H          4.04515        3.36766        1.63686
C          0.79851        0.32545        0.05988
S         -4.07100       -1.50563       -1.21055
F         -2.15716       -3.34461       -3.46429
N         -0.26702       -0.18744       -0.48816
B         -1.29749       -0.81042       -1.00699
P          4.00079        2.11266        0.97657
