16
p30-5 set
H         -1.11056       -0.14114        0.06086
F         -1.02033       -0.77259       -2.24578
F         -1.17417        1.54195       -1.99598
S         -0.95691        1.87957        2.56404
H          0.98574        0.09686        3.83689
F          0.86838        0.49277       -1.60752
Si         0.29776        0.16216        2.53834
F         -0.59278       -1.19546        2.41962
B         -0.38399        0.58248       -2.50931
O          1.33282        0.13719        1.29080
Al         1.42131       -0.59533       -0.25384
Si        -1.38626       -1.51919       -0.51026
H         -1.20765        1.82274        1.24013
H          0.20339       -1.85559       -0.42475
H         -0.02314        0.61968       -3.63955
H          2.74637       -1.25610       -0.76369
