16
p30-5 set
C         -0.01137       -0.35540       -2.51401
O          0.72917       -1.71886        2.03149
H         -1.18529        0.87076        1.81388
Li        -0.46368       -1.45031        0.76055
Mg         0.68524        0.98676       -0.55318
Al        -1.93556        0.24044       -0.74914
C         -0.12301       -0.96984       -1.28799
H          0.16073       -2.03325       -1.29586
H         -1.77888        2.22284        0.86442
H          0.26127       -0.82681       -3.45876
F          2.32079        0.98494        0.29729
S         -0.62203        1.32007       -2.59400
C         -0.98757        1.46227        0.90792
H          0.54167       -2.24571        2.81744
Na         2.49345       -0.54848        1.77578
H         -0.08494        2.06059        1.18417
