[Molden Format]
p30-5 set                                                                       
[Atoms] AU
 B        1     5        0.0000        0.0000        0.0000
[GTO]
    1 0
s    5 1.00
     839.318300860000 -0.562888359825E-02
     126.264648430000 -0.418327946095E-01
      28.620600763000 -0.184174881258E+00
       7.879372271000 -0.468396550281E+00
       2.408885717200 -0.444579308833E+00
s    1 1.00
       0.251051090360  0.100000000000E+01
s    1 1.00
       0.083648866069  0.100000000000E+01
p    3 1.00
       6.033222361900 -0.540325003228E-01
       1.249915786600 -0.301940343932E+00
       0.338716763500 -0.771707916582E+00
p    1 1.00
       0.096415632351  0.100000000000E+01
d    1 1.00
       0.500000000000  0.100000000000E+01
 
[MO]
Sym=     1a
Ene=   -0.769542E+01
Spin= Alpha
Occup= 1.999717
     1     0.997486
     2    -0.015248
     3     0.014808
     4    -0.000014
     5     0.000017
     6     0.000005
     7    -0.000010
     8     0.000005
     9     0.000000
    10     0.000687
    11     0.000039
    12     0.000524
    13     0.000004
    14    -0.000011
    15     0.000356
Sym=     2a
Ene=   -0.495266E+00
Spin= Alpha
Occup= 1.889875
     1     0.256386
     2     0.624471
     3     0.380015
     4     0.000008
     5    -0.000013
     6    -0.000006
     7     0.000005
     8    -0.000006
     9    -0.000001
    10     0.039838
    11     0.030385
    12     0.037648
    13     0.000260
    14    -0.000124
    15     0.005273
Sym=     3a
Ene=   -0.153396E+00
Spin= Alpha
Occup= 1.000000
     1    -0.000002
     2     0.000024
     3     0.000015
     4    -0.013949
     5     0.587552
     6    -0.283206
     7     0.010312
     8    -0.433865
     9     0.209127
    10    -0.000020
    11    -0.000019
    12    -0.000006
    13    -0.000000
    14     0.000002
    15    -0.000010
Sym=     4a
Ene=   -0.201574E-01
Spin= Alpha
Occup= 0.053807
     1     0.000011
     2     0.000020
     3    -0.000001
     4     0.786063
     5    -0.049531
     6    -0.141410
     7    -0.300135
     8     0.018877
     9     0.054041
    10    -0.000006
    11    -0.000015
    12    -0.000012
    13     0.000006
    14    -0.000010
    15    -0.000002
Sym=     5a
Ene=   -0.147959E-04
Spin= Alpha
Occup= 0.000002
     1     0.000028
     2     0.000087
     3     0.000032
     4     0.830067
     5     0.147613
     6     0.265369
     7     1.082338
     8     0.192482
     9     0.346010
    10    -0.000073
    11    -0.000059
    12    -0.000029
    13    -0.000011
    14    -0.000020
    15     0.000007
Sym=     6a
Ene=   -0.201611E-01
Spin= Alpha
Occup= 0.053820
     1    -0.000005
     2    -0.000058
     3     0.000013
     4    -0.148886
     5    -0.344240
     6    -0.706842
     7     0.056825
     8     0.131467
     9     0.269946
    10     0.000007
    11     0.000014
    12     0.000028
    13    -0.000007
    14    -0.000001
    15    -0.000010
Sym=     7a
Ene=   -0.267426E-04
Spin= Alpha
Occup= 0.000003
     1     0.000025
     2     0.000082
     3     0.000276
     4    -0.021335
     5     0.898813
     6    -0.433176
     7    -0.023360
     8     0.982277
     9    -0.473378
    10    -0.000184
    11    -0.000083
    12    -0.000187
    13    -0.000006
    14    -0.000013
    15    -0.000068
Sym=     8a
Ene=   -0.298064E-03
Spin= Alpha
Occup= 0.000324
     1    -0.000639
     2     0.053543
     3    -0.213081
     4    -0.000016
     5     0.000119
     6    -0.000034
     7    -0.000015
     8     0.000129
     9    -0.000021
    10     0.559580
    11    -0.645800
    12     0.280019
    13     0.033097
    14    -0.015990
    15     0.671187
Sym=     9a
Ene=   -0.142539E-06
Spin= Alpha
Occup= 0.000000
     1    -0.000018
     2    -0.000055
     3     0.000025
     4     0.000015
     5    -0.000012
     6     0.000011
     7     0.000027
     8    -0.000012
     9     0.000022
    10     0.864721
    11    -0.163388
    12    -0.701285
    13    -0.000540
    14    -0.050338
    15    -0.391544
Sym=    10a
Ene=   -0.997954E-03
Spin= Alpha
Occup= 0.001630
     1    -0.167141
     2    -1.151930
     3     1.643189
     4     0.000005
     5    -0.000177
     6     0.000016
     7     0.000006
     8    -0.000194
     9    -0.000008
    10    -0.136889
    11    -0.295052
    12    -0.173567
    13     0.004352
    14    -0.002076
    15     0.088093
Sym=    11a
Ene=   -0.126522E-06
Spin= Alpha
Occup= 0.000000
     1    -0.000013
     2    -0.000032
     3     0.000040
     4    -0.000028
     5    -0.000009
     6     0.000011
     7    -0.000029
     8    -0.000014
     9     0.000007
    10    -0.039481
    11    -0.007034
    12     0.046508
    13    -0.434526
    14    -0.899251
    15     0.004504
Sym=    12a
Ene=   -0.250731E-03
Spin= Alpha
Occup= 0.000272
     1     0.000013
     2     0.000015
     3     0.000018
     4    -0.000009
     5    -0.000003
     6     0.000004
     7    -0.000005
     8     0.000002
     9    -0.000012
    10    -0.017986
    11    -0.577868
    12     0.595816
    13     0.444295
    14    -0.193374
    15    -0.552908
Sym=    13a
Ene=   -0.156966E-04
Spin= Alpha
Occup= 0.000002
     1     0.000058
     2     0.000266
     3    -0.000141
     4     0.303078
     5    -0.354616
     6    -0.750793
     7     0.395173
     8    -0.462368
     9    -0.978899
    10    -0.000045
    11    -0.000078
    12    -0.000055
    13    -0.000013
    14    -0.000006
    15     0.000014
Sym=    14a
Ene=   -0.250727E-03
Spin= Alpha
Occup= 0.000272
     1    -0.000018
     2    -0.000048
     3     0.000010
     4     0.000000
     5     0.000007
     6     0.000012
     7    -0.000013
     8     0.000010
     9     0.000001
    10     0.032437
    11    -0.354539
    12     0.322157
    13    -0.782735
    14     0.388792
    15    -0.287187
Sym=    15a
Ene=   -0.265388E-02
Spin= Alpha
Occup= 0.000276
     1     0.929576
     2     4.303637
     3    -0.257423
     4    -0.000040
     5    -0.000053
     6     0.000047
     7    -0.000043
     8    -0.000043
     9     0.000063
    10    -1.771194
    11    -1.797178
    12    -1.777234
    13     0.000702
    14    -0.000341
    15     0.014459
