[Molden Format]
p30-5 set                                                                       
[Atoms] AU
 BE       1     4        0.0000        0.0000        0.0000
[GTO]
    1 0
s    5 1.00
     515.186161250000  0.583763544133E-02
      77.511037595000  0.432349671107E-01
      17.552481693000  0.188026956444E+00
       4.802894059600  0.469576904234E+00
       1.451621431600  0.440951660947E+00
s    1 1.00
       0.132816336200  0.100000000000E+01
s    1 1.00
       0.045837372213  0.100000000000E+01
p    3 1.00
       3.631691714500 -0.454619686657E-01
       0.716956943660 -0.264276543343E+00
       0.195419328600 -0.804884200890E+00
p    1 1.00
       0.060515465890  0.100000000000E+01
 
[MO]
Sym=     1a
Ene=   -0.471179E+01
Spin= Alpha
Occup= 1.999988
     1     0.998223
     2     0.012582
     3    -0.013355
     4     0.000003
     5    -0.000000
     6    -0.000006
     7    -0.000008
     8     0.000003
     9    -0.000017
Sym=     2a
Ene=   -0.310417E+00
Spin= Alpha
Occup= 1.795906
     1    -0.255533
     2     0.745997
     3     0.328962
     4     0.000015
     5     0.000001
     6    -0.000005
     7     0.000007
     8     0.000010
     9    -0.000016
Sym=     3a
Ene=   -0.162425E-01
Spin= Alpha
Occup= 0.068040
     1     0.000004
     2    -0.000000
     3     0.000012
     4    -0.029577
     5     0.666051
     6    -0.385564
     7     0.012609
     8    -0.283506
     9     0.164126
Sym=     4a
Ene=   -0.125430E-04
Spin= Alpha
Occup= 0.000002
     1    -0.000006
     2     0.000083
     3    -0.000074
     4    -0.445406
     5     0.305320
     6     0.810723
     7    -0.547611
     8     0.375394
     9     0.996813
Sym=     5a
Ene=   -0.162398E-01
Spin= Alpha
Occup= 0.068032
     1    -0.000003
     2    -0.000018
     3     0.000011
     4     0.743453
     5    -0.075491
     6    -0.187433
     7    -0.315916
     8     0.032323
     9     0.080113
Sym=     6a
Ene=   -0.458425E-04
Spin= Alpha
Occup= 0.000008
     1     0.241669
     2    -1.655177
     3     1.726527
     4     0.000092
     5     0.000018
     6     0.000101
     7     0.000123
     8     0.000028
     9     0.000120
Sym=     7a
Ene=   -0.162383E-01
Spin= Alpha
Occup= 0.068021
     1    -0.000005
     2    -0.000008
     3     0.000001
     4     0.200456
     5     0.379344
     6     0.639871
     7    -0.084765
     8    -0.161297
     9    -0.272180
Sym=     8a
Ene=   -0.110355E-04
Spin= Alpha
Occup= 0.000002
     1     0.000003
     2    -0.000058
     3     0.000050
     4    -0.100651
     5     0.887143
     6    -0.389405
     7    -0.123765
     8     1.090836
     9    -0.478790
Sym=     9a
Ene=    0.000000E+00
Spin= Alpha
Occup= 0.000000
     1    -0.000023
     2     0.000218
     3    -0.000232
     4     0.860031
     5     0.261694
     6     0.373922
     7     1.058115
     8     0.321979
     9     0.460041
