[Molden Format]
p30-5 set                                                                       
[Atoms] AU
 F        1     9        0.0000        0.0000        0.8649
 H        2     1        0.0000        0.0000       -0.8649
[GTO]
    1 0
s    5 1.00
    2894.832599000000 -0.534932117607E-02
     435.419391200000 -0.399677343716E-01
      98.843328866000 -0.179412617888E+00
      27.485198001000 -0.468324686869E+00
       8.540549817100 -0.447241605328E+00
s    1 1.00
       1.065457803800  0.100000000000E+01
s    1 1.00
       0.332473467480  0.100000000000E+01
p    3 1.00
      22.696633924000 -0.647821482412E-01
       4.987233925700 -0.340357853553E+00
       1.349161395400 -0.734858153660E+00
p    1 1.00
       0.348298819770  0.100000000000E+01
d    1 1.00
       1.400000000000  0.100000000000E+01
 
    2 0
s    3 1.00
      13.010701000000  0.334854848130E-01
       1.962257200000  0.234721870881E+00
       0.444537960000  0.813770285260E+00
s    1 1.00
       0.121949620000  0.100000000000E+01
p    1 1.00
       0.800000000000  0.100000000000E+01
 
[MO]
Sym=     1a
Ene=   -0.262851E+02
Spin= Alpha
Occup= 2.000000
     1     0.991862
     2    -0.029995
     3     0.009869
     4     0.000839
     5     0.000492
     6    -0.002373
     7    -0.000590
     8    -0.000350
     9     0.000794
    10     0.005235
    11     0.005233
    12     0.004975
    13     0.000001
    14     0.000017
    15     0.000011
    16     0.001317
    17    -0.001107
    18    -0.000038
    19    -0.000021
    20     0.001216
Sym=     2a
Ene=   -0.930307E+00
Spin= Alpha
Occup= 1.993781
     1    -0.178010
     2    -0.366715
     3    -0.290822
     4     0.424008
     5     0.298164
     6     0.144877
     7    -0.303342
     8    -0.213180
     9    -0.098130
    10    -0.003778
    11    -0.003967
    12     0.000549
    13    -0.000004
    14     0.008812
    15     0.006091
    16     0.028829
    17     0.015039
    18    -0.019330
    19    -0.013550
    20    -0.004869
Sym=     3a
Ene=   -0.872239E+00
Spin= Alpha
Occup= 1.992995
     1     0.155707
     2     0.323915
     3     0.255871
     4    -0.028611
     5     0.554288
     6    -0.123468
     7     0.020318
     8    -0.396603
     9     0.083722
    10     0.003121
    11     0.003538
    12    -0.000431
    13    -0.000080
    14    -0.000361
    15     0.011544
    16    -0.023467
    17    -0.012476
    18     0.001227
    19    -0.025231
    20     0.004886
Sym=     4a
Ene=   -0.869973E+00
Spin= Alpha
Occup= 1.992909
     1     0.154821
     2     0.322498
     3     0.255064
     4     0.512063
     5    -0.215983
     6    -0.124901
     7    -0.366198
     8     0.154525
     9     0.084603
    10     0.003515
    11     0.003143
    12    -0.000499
    13    -0.000065
    14     0.010760
    15    -0.004393
    16    -0.024435
    17    -0.012567
    18    -0.023532
    19     0.009865
    20     0.004601
Sym=     5a
Ene=   -0.983405E+00
Spin= Alpha
Occup= 1.980738
     1     0.083700
     2     0.174306
     3    -0.055132
     4    -0.002015
     5    -0.003339
     6     0.514708
     7     0.001170
     8     0.002260
     9    -0.245341
    10    -0.002768
    11    -0.002922
    12     0.025180
    13     0.000120
    14    -0.000374
    15    -0.000397
    16     0.430140
    17     0.048090
    18     0.000139
    19     0.000157
    20     0.061663
Sym=     6a
Ene=   -0.198767E-01
Spin= Alpha
Occup= 0.017725
     1    -0.132555
     2    -0.448220
     3    -0.166382
     4     0.007047
     5     0.006251
     6    -0.779812
     7     0.011280
     8     0.010475
     9     0.019345
    10     0.056471
    11     0.064156
    12    -0.075376
    13    -0.005388
    14     0.014656
    15     0.012856
    16     0.965785
    17     0.059775
    18    -0.008097
    19    -0.008763
    20     0.083511
Sym=     7a
Ene=   -0.106351E-02
Spin= Alpha
Occup= 0.000449
     1     0.088590
     2     0.303080
     3     0.116042
     4     0.079309
     5    -0.008275
     6     0.018438
     7     0.082084
     8    -0.035607
     9    -0.199811
    10    -0.672033
    11    -0.153761
    12     0.412740
    13     0.658526
    14    -0.390687
    15     0.145541
    16    -0.531462
    17     0.396923
    18    -0.012541
    19     0.074524
    20    -0.153221
Sym=     8a
Ene=   -0.107504E-02
Spin= Alpha
Occup= 0.000472
     1     0.070320
     2     0.096988
     3     0.343077
     4    -0.006390
     5     0.091353
     6    -0.147543
     7     0.008499
     8     0.129334
     9    -0.242097
    10    -0.123051
    11    -0.298230
    12    -0.195788
    13    -0.129072
    14     0.114269
    15     0.920176
    16    -0.285698
    17     0.139554
    18    -0.029928
    19    -0.005300
    20     0.198905
Sym=     9a
Ene=   -0.119777E-02
Spin= Alpha
Occup= 0.000501
     1    -0.116609
     2    -0.372349
     3    -0.160420
     4     0.094876
     5     0.091661
     6     0.007661
     7     0.154378
     8     0.133506
     9     0.182938
    10     0.786027
    11     0.097794
    12    -0.282134
    13     0.707810
    14     0.192754
    15     0.050741
    16     0.455277
    17    -0.336162
    18    -0.106708
    19    -0.074637
    20     0.089224
Sym=    10a
Ene=   -0.313781E-08
Spin= Alpha
Occup= 0.000000
     1     0.022515
     2    -0.275888
     3     1.608881
     4    -0.006428
     5     0.022792
     6    -0.195206
     7    -0.202695
     8     0.331152
     9    -1.124630
    10    -0.356260
    11    -0.278811
    12     0.179173
    13     0.049300
    14     0.146409
    15    -0.283511
    16    -0.882196
    17    -0.705152
    18     0.488615
    19    -0.767908
    20    -0.408232
Sym=    11a
Ene=   -0.426336E-03
Spin= Alpha
Occup= 0.000226
     1     0.146038
     2     0.677671
     3    -0.027117
     4     0.006102
     5     0.013743
     6     0.593888
     7     0.072404
     8     0.229250
     9     0.468662
    10    -0.229967
    11    -0.131245
    12    -0.066190
    13    -0.034191
    14     0.037626
    15     0.001227
    16     0.102342
    17     0.095642
    18    -0.158451
    19    -0.524452
    20    -0.864195
Sym=    12a
Ene=   -0.875243E-02
Spin= Alpha
Occup= 0.006095
     1     0.211973
     2     0.969290
     3    -0.801161
     4     0.702580
     5    -0.299812
     6    -0.207125
     7     0.769724
     8    -0.327702
     9    -0.151437
    10     0.025702
    11    -0.140026
    12    -0.189080
    13    -0.088855
    14    -0.066783
    15     0.033902
    16     0.136701
    17     0.024521
    18     0.020211
    19    -0.010419
    20     0.028881
Sym=    13a
Ene=   -0.874946E-02
Spin= Alpha
Occup= 0.006083
     1    -0.213247
     2    -0.976240
     3     0.807973
     4     0.045347
     5    -0.761908
     6     0.201674
     7     0.047880
     8    -0.835530
     9     0.142304
    10     0.170541
    11    -0.054924
    12     0.189085
    13     0.017749
    14    -0.011401
    15     0.075144
    16    -0.144187
    17    -0.022569
    18     0.005146
    19    -0.019837
    20    -0.025814
Sym=    14a
Ene=   -0.856842E-02
Spin= Alpha
Occup= 0.005688
     1    -0.231214
     2    -1.057091
     3     0.867913
     4     0.592671
     5     0.417608
     6     0.240121
     7     0.651658
     8     0.459138
     9     0.190065
    10     0.036570
    11     0.104153
    12     0.188142
    13    -0.120211
    14    -0.073606
    15    -0.054918
    16    -0.129457
    17    -0.033336
    18     0.010139
    19     0.006809
    20    -0.026298
Sym=    15a
Ene=   -0.704933E-10
Spin= Alpha
Occup= 0.000000
     1     0.000399
     2     0.315679
     3    -1.901489
     4    -0.014288
     5     0.007391
     6    -0.001825
     7    -0.324601
     8     0.070212
     9     1.284702
    10     0.282386
    11     0.303036
    12    -0.435074
    13     0.059877
    14     0.297265
    15    -0.037460
    16     1.070577
    17     0.966972
    18     0.775999
    19    -0.154395
    20     0.951478
Sym=    16a
Ene=   -0.198910E-02
Spin= Alpha
Occup= 0.001310
     1    -0.033366
     2    -0.003604
     3    -0.764627
     4     0.009324
     5     0.009326
     6     0.006900
     7     0.043096
     8     0.065351
     9     0.946040
    10    -0.048583
    11    -0.031093
    12     0.331349
    13    -0.011629
    14     0.070158
    15     0.081682
    16     1.383989
    17    -0.678489
    18    -0.076132
    19    -0.129841
    20     0.573895
Sym=    17a
Ene=   -0.120773E-02
Spin= Alpha
Occup= 0.000547
     1     0.101310
     2     0.239153
     3     0.291005
     4     0.113602
     5    -0.062180
     6    -0.075345
     7     0.203240
     8    -0.086931
     9    -0.174264
    10    -0.646312
    11     0.001526
    12    -0.065238
    13     0.121054
    14     0.791908
    15    -0.122507
    16    -0.316713
    17     0.218387
    18    -0.134443
    19     0.036289
    20     0.097005
Sym=    18a
Ene=   -0.106408E-02
Spin= Alpha
Occup= 0.000450
     1    -0.118934
     2    -0.386186
     3    -0.173028
     4     0.027284
     5    -0.100091
     6    -0.011588
     7     0.021094
     8    -0.116692
     9     0.220092
    10    -0.159323
    11     1.144838
    12    -0.378796
    13     0.034697
    14    -0.136550
    15     0.198474
    16     0.588119
    17    -0.450663
    18     0.012401
    19     0.027631
    20     0.138714
Sym=    19a
Ene=   -0.101012E-03
Spin= Alpha
Occup= 0.000029
     1    -0.486775
     2    -1.196740
     3    -0.937607
     4     0.008617
     5     0.005501
     6     0.182910
     7    -0.087173
     8    -0.047306
     9    -0.498466
    10     0.938404
    11     0.977440
    12     1.659512
    13    -0.024236
    14     0.249650
    15     0.175769
    16    -0.787239
    17     0.234729
    18     0.253787
    19     0.142746
    20    -0.807238
Sym=    20a
Ene=   -0.287403E-06
Spin= Alpha
Occup= 0.000000
     1     0.231368
     2     0.502540
     3     1.526570
     4    -0.005667
     5    -0.007253
     6     0.213065
     7    -0.240252
     8    -0.252311
     9    -0.322040
    10    -0.571262
    11    -0.645981
    12    -0.322814
    13     0.047253
    14     0.277307
    15     0.244937
    16    -0.148447
    17    -0.834073
    18     0.591331
    19     0.614429
    20    -0.679629
