[Molden Format]
p30-5 set                                                                       
[Atoms] AU
 O        1     8        0.0000        0.0000        0.9155
 H        2     1        0.0000        0.0000       -0.9155
[GTO]
    1 0
s    5 1.00
    2266.176778500000 -0.538935039217E-02
     340.870101910000 -0.402347213890E-01
      77.363135167000 -0.180081842055E+00
      21.479644940000 -0.468288576577E+00
       6.658943312400 -0.446926171602E+00
s    1 1.00
       0.809759756680  0.100000000000E+01
s    1 1.00
       0.255307722340  0.100000000000E+01
p    3 1.00
      17.721504317000  0.626302487632E-01
       3.863550544000  0.333311384824E+00
       1.048092088300  0.741486383081E+00
p    1 1.00
       0.276415444110  0.100000000000E+01
d    1 1.00
       1.200000000000  0.100000000000E+01
 
    2 0
s    3 1.00
      13.010701000000  0.334854848130E-01
       1.962257200000  0.234721870881E+00
       0.444537960000  0.813770285260E+00
s    1 1.00
       0.121949620000  0.100000000000E+01
p    1 1.00
       0.800000000000  0.100000000000E+01
 
[MO]
Sym=     1a
Ene=   -0.128637E+02
Spin= Alpha
Occup= 2.000000
     1     0.594834
     2    -0.379482
     3    -0.258736
     4    -0.145375
     5    -0.010353
     6    -0.102161
     7    -0.107454
     8    -0.007654
     9    -0.078328
    10    -0.004697
    11    -0.003872
    12    -0.002200
    13    -0.000084
    14     0.003195
    15     0.000222
    16    -0.002428
    17     0.018617
    18    -0.006475
    19    -0.000457
    20    -0.006332
Sym=     2a
Ene=   -0.881225E+01
Spin= Alpha
Occup= 2.000000
     1     0.838177
     2     0.412468
     3     0.333067
     4     0.171313
     5     0.012196
     6     0.128301
     7     0.126612
     8     0.009015
     9     0.095735
    10     0.011935
    11     0.011601
    12     0.007726
    13     0.000042
    14    -0.003767
    15    -0.000263
    16     0.006378
    17    -0.025845
    18     0.007633
    19     0.000540
    20     0.010600
Sym=     3a
Ene=   -0.610291E+00
Spin= Alpha
Occup= 1.990080
     1     0.091241
     2     0.201045
     3     0.158876
     4    -0.609878
     5    -0.043984
     6     0.078216
     7    -0.456264
     8    -0.032851
     9     0.055679
    10     0.003996
    11     0.003200
    12     0.000193
    13     0.000099
    14     0.014412
    15     0.001017
    16    -0.012160
    17    -0.012490
    18    -0.028098
    19    -0.002075
    20     0.003008
Sym=     4a
Ene=   -0.816852E+00
Spin= Alpha
Occup= 1.976468
     1     0.055635
     2     0.113137
     3    -0.103655
     4    -0.021561
     5    -0.001553
     6    -0.504089
     7    -0.016123
     8    -0.001088
     9    -0.246462
    10    -0.005653
    11    -0.006542
    12     0.027682
    13     0.000152
    14     0.000664
    15     0.000042
    16     0.443897
    17     0.083575
    18    -0.001025
    19    -0.000073
    20     0.047108
Sym=     5a
Ene=   -0.319888E+00
Spin= Alpha
Occup= 1.000000
     1     0.000079
     2     0.000193
     3     0.000032
     4    -0.048858
     5     0.678489
     6     0.000111
     7    -0.032898
     8     0.456737
     9     0.000047
    10    -0.000179
    11     0.000178
    12     0.000004
    13     0.000632
    14     0.001007
    15    -0.015886
    16    -0.000095
    17     0.000177
    18    -0.001626
    19     0.023997
    20    -0.000005
Sym=     6a
Ene=   -0.188992E-01
Spin= Alpha
Occup= 0.020717
     1    -0.126216
     2    -0.426017
     3    -0.197136
     4    -0.005332
     5     0.000522
     6     0.793525
     7     0.008679
     8    -0.000314
     9     0.070952
    10     0.043710
    11     0.034386
    12    -0.055768
    13    -0.002078
    14    -0.004562
    15     0.000073
    16     0.955287
    17     0.132751
    18    -0.003286
    19    -0.000565
    20     0.037309
Sym=     7a
Ene=   -0.839535E-02
Spin= Alpha
Occup= 0.008217
     1     0.149326
     2     0.721678
     3    -0.636311
     4    -0.864842
     5    -0.062578
     6     0.138399
     7     0.931193
     8     0.067185
     9    -0.094702
    10     0.080430
    11    -0.130859
    12    -0.141001
    13     0.018831
    14    -0.031670
    15    -0.002438
    16     0.081284
    17     0.062354
    18     0.031913
    19     0.002787
    20     0.008568
Sym=     8a
Ene=   -0.224581E-12
Spin= Alpha
Occup= 0.000000
     1     0.094419
     2     0.094259
     3     0.223293
     4    -0.149162
     5     0.227841
     6    -0.000965
     7     0.180795
     8    -0.319568
     9     1.045972
    10    -0.084059
    11    -0.003156
    12    -1.404318
    13     0.100320
    14     0.049392
    15     0.165209
    16     1.347464
    17    -0.250466
    18    -0.037844
    19     0.170744
    20     0.784536
Sym=     9a
Ene=   -0.604657E-14
Spin= Alpha
Occup= 0.000000
     1     0.060535
     2     0.220694
     3     0.653889
     4    -0.136703
     5     0.601106
     6    -0.571551
     7     0.157395
     8    -0.675021
     9     0.017786
    10    -0.319932
    11    -0.460227
    12     0.420437
    13     0.113017
    14    -0.095592
    15    -0.101667
    16    -0.589167
    17     0.095480
    18    -0.020793
    19    -0.021657
    20    -0.873503
Sym=    10a
Ene=   -0.148256E-02
Spin= Alpha
Occup= 0.000984
     1     0.000085
     2     0.001616
     3    -0.007408
     4     0.008243
     5    -0.077128
     6     0.003953
     7     0.029285
     8    -0.211240
     9     0.002106
    10     0.026406
    11    -0.018814
    12    -0.003503
    13    -0.062778
    14     0.070630
    15    -0.523156
    16     0.012269
    17    -0.009032
    18    -0.093563
    19     0.731558
    20     0.004874
Sym=    11a
Ene=   -0.124577E-02
Spin= Alpha
Occup= 0.000708
     1    -0.006702
     2    -0.024699
     3    -0.016331
     4    -0.002173
     5     0.187301
     6     0.004346
     7     0.012573
     8    -0.208790
     9     0.028527
    10     0.256796
    11    -0.180805
    12    -0.046886
    13    -0.928160
    14     0.149516
    15     0.093276
    16     0.065636
    17    -0.037885
    18    -0.013586
    19     0.001037
    20     0.023389
Sym=    12a
Ene=   -0.452622E-07
Spin= Alpha
Occup= 0.000000
     1     0.754285
     2     2.716956
     3     0.027574
     4     0.237299
     5     0.018111
     6     0.210604
     7    -0.257499
     8    -0.019153
     9    -0.071620
    10    -1.219144
    11    -1.185274
    12    -1.266502
    13    -0.008420
    14     0.020714
    15     0.003082
    16     0.215594
    17    -0.057939
    18    -0.002970
    19    -0.001511
    20     0.124469
Sym=    13a
Ene=   -0.207870E-13
Spin= Alpha
Occup= 0.000000
     1     0.107158
     2     0.180262
     3     1.000247
     4    -0.117288
     5    -0.622230
     6    -0.445253
     7     0.124851
     8     0.759085
     9     0.308758
    10    -0.332570
    11    -0.702885
    12    -0.204328
    13    -0.091325
    14     0.053134
    15    -0.088644
    16    -0.131900
    17    -0.017301
    18     0.011840
    19    -0.149040
    20    -0.367817
Sym=    14a
Ene=   -0.247435E-02
Spin= Alpha
Occup= 0.001831
     1     0.008894
     2    -0.065902
     3     0.688107
     4     0.005110
     5    -0.005484
     6     0.010109
     7     0.043647
     8     0.011167
     9    -0.846681
    10     0.097121
    11     0.215383
    12    -0.426843
    13     0.011221
    14     0.103469
    15     0.009170
    16    -1.059693
    17     0.370085
    18    -0.115697
    19    -0.011995
    20    -0.501517
Sym=    15a
Ene=   -0.173143E-02
Spin= Alpha
Occup= 0.000995
     1     0.022644
     2     0.028625
     3     0.211579
     4    -0.163976
     5    -0.008306
     6    -0.044427
     7     0.246074
     8     0.018334
     9    -0.001906
    10    -0.873307
    11     0.418683
    12     0.190949
    13    -0.119963
    14     0.508404
    15     0.045300
    16    -0.146420
    17     0.054553
    18    -0.131991
    19    -0.020611
    20    -0.016191
Sym=    16a
Ene=   -0.116678E-08
Spin= Alpha
Occup= 0.000000
     1    -0.038818
     2    -0.009670
     3    -0.442086
     4     0.088347
     5     0.049983
     6    -0.023843
     7    -0.093953
     8    -0.066329
     9     0.102080
    10     0.585708
    11    -0.270726
    12     0.186755
    13     0.286848
    14     0.798180
    15     0.127191
    16     0.105373
    17     0.054638
    18     0.053527
    19     0.035526
    20    -0.043272
Sym=    17a
Ene=   -0.209583E-14
Spin= Alpha
Occup= 0.000000
     1    -0.061172
     2     0.307980
     3    -1.450489
     4     0.129656
     5    -0.149189
     6    -0.479478
     7    -0.097498
     8     0.113711
     9     0.711838
    10     0.435675
    11     0.773960
    12     0.214801
    13    -0.058510
    14    -0.076810
    15     0.190784
    16     0.609543
    17     0.078889
    18    -0.120692
    19     0.157254
    20    -0.648389
Sym=    18a
Ene=    0.000000E+00
Spin= Alpha
Occup= 0.000000
     1     0.009897
     2    -0.095233
     3     0.848129
     4    -0.016755
     5    -0.018973
     6    -0.059997
     7    -0.365482
     8    -0.096371
     9    -0.460053
    10    -0.220584
    11    -0.006375
    12     0.069848
    13    -0.028022
    14     0.329065
    15     0.248375
    16    -0.302427
    17    -0.535558
    18     1.000296
    19     0.321095
    20    -0.396145
Sym=    19a
Ene=    0.000000E+00
Spin= Alpha
Occup= 0.000000
     1     0.017004
     2    -0.329595
     3     2.265403
     4    -0.016300
     5    -0.005868
     6     0.007331
     7     0.146757
     8     0.025736
     9    -1.209029
    10    -0.246084
    11    -0.282576
    12     0.145222
    13     0.028322
    14    -0.074385
    15    -0.013323
    16    -0.403742
    17    -1.884785
    18    -0.336331
    19    -0.049942
    20    -0.789440
Sym=    20a
Ene=    0.000000E+00
Spin= Alpha
Occup= 0.000000
     1     0.014653
     2    -0.023812
     3     0.305387
     4    -0.027636
     5    -0.060894
     6     0.018630
     7     0.153564
     8    -0.198734
     9    -0.228846
    10    -0.148209
    11    -0.285549
    12     0.216517
    13     0.034064
    14    -0.223840
    15     0.821458
    16    -0.411534
    17     0.156705
    18    -0.331205
    19     0.751506
    20    -0.034827
