[Molden Format]
p30-5 set                                                                       
[Atoms] AU
 N        1     7        0.0000        0.0000        1.0366
 N        2     7        0.0000        0.0000       -1.0366
[GTO]
    1 0
s    5 1.00
    1712.841585300000 -0.544779958049E-02
     257.648126770000 -0.406271746324E-01
      58.458245853000 -0.181119622506E+00
      16.198367905000 -0.468439755632E+00
       5.005260080900 -0.446168462892E+00
s    1 1.00
       0.587318565710  0.100000000000E+01
s    1 1.00
       0.187645922530  0.100000000000E+01
p    3 1.00
      13.571470233000 -0.588481169695E-01
       2.925737287400 -0.320246247625E+00
       0.799277507540 -0.753282265204E+00
p    1 1.00
       0.219543480340  0.100000000000E+01
d    1 1.00
       1.000000000000  0.100000000000E+01
 
    2 0
s    5 1.00
    1712.841585300000 -0.544779958049E-02
     257.648126770000 -0.406271746324E-01
      58.458245853000 -0.181119622506E+00
      16.198367905000 -0.468439755632E+00
       5.005260080900 -0.446168462892E+00
s    1 1.00
       0.587318565710  0.100000000000E+01
s    1 1.00
       0.187645922530  0.100000000000E+01
p    3 1.00
      13.571470233000 -0.588481169695E-01
       2.925737287400 -0.320246247625E+00
       0.799277507540 -0.753282265204E+00
p    1 1.00
       0.219543480340  0.100000000000E+01
d    1 1.00
       1.000000000000  0.100000000000E+01
 
[MO]
Sym=     1a
Ene=   -0.428426E+01
Spin= Alpha
Occup= 2.000000
     1    -0.130418
     2     0.354840
     3     0.085339
     4    -0.000110
     5     0.000016
     6     0.218938
     7     0.000064
     8    -0.000007
     9    -0.036698
    10    -0.002057
    11    -0.002305
    12     0.035761
    13     0.000152
    14    -0.000008
    15     0.000002
    16    -0.134349
    17     0.354716
    18     0.084975
    19    -0.000108
    20     0.000014
    21    -0.219097
    22     0.000065
    23    -0.000013
    24     0.036727
    25    -0.002099
    26    -0.002318
    27     0.035751
    28     0.000139
    29     0.000013
    30    -0.000001
Sym=     2a
Ene=   -0.142745E+02
Spin= Alpha
Occup= 1.999860
     1     1.005067
     2     0.094621
     3     0.052030
     4    -0.000040
     5     0.000005
     6     0.065409
     7     0.000027
     8    -0.000007
     9    -0.012309
    10     0.002614
    11     0.002528
    12     0.012640
    13     0.000056
    14    -0.000006
    15    -0.000002
    16     0.009252
    17     0.120167
    18     0.021904
    19    -0.000038
    20     0.000010
    21    -0.076880
    22     0.000020
    23    -0.000003
    24     0.010662
    25    -0.000544
    26    -0.000621
    27     0.013465
    28     0.000050
    29     0.000005
    30     0.000000
Sym=     3a
Ene=   -0.142417E+02
Spin= Alpha
Occup= 1.999858
     1    -0.009524
     2    -0.121698
     3    -0.022295
     4     0.000036
     5    -0.000008
     6    -0.077781
     7    -0.000023
     8     0.000004
     9     0.010796
    10     0.000538
    11     0.000631
    12    -0.013618
    13    -0.000058
    14     0.000003
    15     0.000002
    16    -1.004504
    17    -0.095934
    18    -0.052259
    19     0.000038
    20    -0.000007
    21     0.066422
    22    -0.000016
    23     0.000005
    24    -0.012532
    25    -0.002606
    26    -0.002513
    27    -0.012790
    28    -0.000057
    29    -0.000005
    30     0.000005
Sym=     4a
Ene=   -0.704896E+00
Spin= Alpha
Occup= 1.990568
     1     0.171187
     2     0.387429
     3     0.465624
     4    -0.000180
     5    -0.000026
     6    -0.461212
     7     0.000114
     8     0.000020
     9     0.214554
    10     0.022567
    11     0.022725
    12    -0.008857
    13     0.000073
    14    -0.000011
    15    -0.000004
    16    -0.076206
    17    -0.185475
    18    -0.041987
    19    -0.000123
    20    -0.000020
    21     0.162704
    22     0.000065
    23     0.000013
    24    -0.068079
    25    -0.000775
    26    -0.000933
    27    -0.015022
    28     0.000092
    29     0.000015
    30     0.000000
Sym=     5a
Ene=   -0.704871E+00
Spin= Alpha
Occup= 1.990564
     1    -0.076205
     2    -0.185384
     3    -0.042081
     4     0.000158
     5     0.000054
     6    -0.162466
     7    -0.000086
     8    -0.000030
     9     0.068015
    10    -0.000811
    11    -0.000909
    12    -0.015008
    13     0.000056
    14     0.000021
    15     0.000005
    16     0.171450
    17     0.387659
    18     0.465723
    19     0.000200
    20     0.000081
    21     0.461045
    22    -0.000118
    23    -0.000052
    24    -0.214511
    25     0.022758
    26     0.022518
    27    -0.008833
    28     0.000320
    29    -0.000015
    30    -0.000008
Sym=     6a
Ene=   -0.628889E+00
Spin= Alpha
Occup= 1.936402
     1    -0.000051
     2    -0.000096
     3    -0.000102
     4    -0.166137
     5     0.405657
     6    -0.000008
     7     0.094167
     8    -0.230025
     9     0.000024
    10     0.000002
    11    -0.000004
    12    -0.000006
    13     0.000001
    14    -0.015993
    15     0.039286
    16    -0.000024
    17    -0.000043
    18     0.000041
    19    -0.166803
    20     0.407083
    21     0.000015
    22     0.094418
    23    -0.230772
    24     0.000022
    25     0.000006
    26     0.000002
    27     0.000008
    28     0.000001
    29     0.015846
    30    -0.038935
Sym=     7a
Ene=   -0.628711E+00
Spin= Alpha
Occup= 1.936342
     1     0.000148
     2     0.000322
     3     0.000198
     4     0.407150
     5     0.166631
     6    -0.000032
     7    -0.230719
     8    -0.094556
     9     0.000026
    10     0.000005
    11     0.000001
    12    -0.000000
    13     0.000006
    14     0.038860
    15     0.015991
    16    -0.000062
    17    -0.000150
    18    -0.000181
    19     0.405702
    20     0.166040
    21    -0.000198
    22    -0.230018
    23    -0.094193
    24     0.000093
    25    -0.000018
    26    -0.000012
    27     0.000014
    28    -0.000005
    29    -0.039201
    30    -0.016161
Sym=     8a
Ene=   -0.339967E-01
Spin= Alpha
Occup= 0.061662
     1    -0.000162
     2    -0.000972
     3     0.000045
     4    -0.601719
     5    -0.247274
     6    -0.000260
     7     0.273569
     8     0.111939
     9     0.000142
    10    -0.000220
    11    -0.000085
    12     0.000005
    13    -0.000077
    14    -0.011691
    15    -0.008160
    16    -0.000020
    17    -0.000357
    18     0.001063
    19     0.593585
    20     0.244311
    21    -0.000195
    22    -0.280174
    23    -0.114387
    24     0.000802
    25    -0.000123
    26    -0.000061
    27     0.000108
    28    -0.000045
    29    -0.020953
    30    -0.011823
Sym=     9a
Ene=   -0.339257E-01
Spin= Alpha
Occup= 0.061526
     1    -0.000014
     2     0.000077
     3    -0.000432
     4    -0.241744
     5     0.594711
     6    -0.000002
     7     0.115392
     8    -0.279795
     9     0.000510
    10     0.000056
    11    -0.000002
    12    -0.000022
    13     0.000034
    14    -0.006763
    15     0.023366
    16     0.000060
    17     0.000413
    18     0.000032
    19     0.246111
    20    -0.602304
    21    -0.000207
    22    -0.111931
    23     0.273569
    24    -0.000029
    25     0.000070
    26     0.000075
    27     0.000031
    28    -0.000003
    29    -0.002072
    30     0.014509
Sym=    10a
Ene=   -0.735815E-02
Spin= Alpha
Occup= 0.007264
     1     0.069034
     2     0.186906
     3    -0.031326
     4    -0.000056
     5     0.000083
     6     0.194504
     7    -0.000252
     8     0.000067
     9    -0.094208
    10     0.009642
    11     0.011141
    12     0.051993
    13    -0.000936
    14    -0.000044
    15     0.000036
    16     0.198046
    17     1.046469
    18    -1.109575
    19     0.000578
    20     0.000219
    21     0.815699
    22     0.000576
    23     0.000121
    24     0.542270
    25    -0.212841
    26    -0.211855
    27     0.182799
    28    -0.001551
    29     0.000556
    30     0.000362
Sym=    11a
Ene=   -0.735539E-02
Spin= Alpha
Occup= 0.007258
     1     0.197794
     2     1.044534
     3    -1.107981
     4    -0.000730
     5     0.000183
     6    -0.817101
     7    -0.000923
     8     0.000446
     9    -0.542557
    10    -0.212175
    11    -0.213768
    12     0.182509
    13     0.000059
    14     0.000388
    15     0.000409
    16     0.069152
    17     0.187166
    18    -0.031439
    19     0.000018
    20    -0.000185
    21    -0.195353
    22     0.000392
    23    -0.000402
    24     0.095224
    25     0.009275
    26     0.011097
    27     0.053094
    28    -0.001145
    29    -0.000099
    30     0.000257
Sym=    12a
Ene=   -0.121535E-04
Spin= Alpha
Occup= 0.000001
     1     0.023073
     2     0.046475
     3    -0.076487
     4     0.168183
     5     0.134274
     6    -0.250145
     7     0.584794
     8     0.003263
     9     0.275917
    10     0.003605
    11    -0.001294
    12    -0.471734
    13     0.003368
    14     0.574207
    15     0.188918
    16    -0.036592
    17     0.062419
    18    -0.108949
    19    -0.653134
    20    -0.000895
    21    -0.356776
    22    -0.873087
    23     0.074403
    24     0.045070
    25     0.168819
    26     0.161104
    27     0.406084
    28     0.005102
    29    -0.016048
    30     0.357098
Sym=    13a
Ene=   -0.240634E-02
Spin= Alpha
Occup= 0.000139
     1     0.853116
     2     3.423800
     3    -0.327789
     4    -0.001551
     5    -0.000345
     6     0.313828
     7    -0.001086
     8     0.000371
     9     0.448975
    10    -1.484988
    11    -1.461285
    12    -1.431482
    13    -0.015101
    14    -0.000287
    15    -0.000225
    16    -0.001850
    17     0.019124
    18     0.563303
    19    -0.000295
    20    -0.000394
    21     0.041506
    22    -0.000146
    23    -0.000793
    24     0.126814
    25    -0.011409
    26     0.003744
    27    -0.216470
    28    -0.009617
    29    -0.002015
    30    -0.001189
Sym=    14a
Ene=   -0.340900E-06
Spin= Alpha
Occup= 0.000000
     1    -0.003026
     2     0.001604
     3    -0.075424
     4    -0.010939
     5    -0.034342
     6     0.007044
     7    -0.123127
     8     0.019453
     9     0.029289
    10    -0.177408
    11     0.237758
    12    -0.004312
    13    -0.697517
    14     0.176591
    15    -0.032506
    16     0.001443
    17     0.012353
    18     0.050838
    19    -0.005281
    20    -0.025111
    21    -0.005276
    22     0.113744
    23    -0.054136
    24     0.001846
    25     0.195143
    26    -0.214413
    27    -0.002687
    28     0.696180
    29     0.155863
    30    -0.107298
Sym=    15a
Ene=   -0.476476E-03
Spin= Alpha
Occup= 0.000324
     1    -0.000552
     2    -0.000988
     3    -0.001562
     4     0.000087
     5     0.000024
     6     0.000391
     7     0.000116
     8    -0.000042
     9     0.000156
    10     0.424137
    11    -0.418226
    12    -0.001868
    13    -0.462476
    14     0.000000
    15     0.000215
    16    -0.000558
    17    -0.001091
    18    -0.000923
    19    -0.000003
    20    -0.000104
    21    -0.000244
    22    -0.000053
    23    -0.000035
    24     0.000058
    25     0.421599
    26    -0.415786
    27    -0.002037
    28    -0.459810
    29     0.000048
    30     0.000234
Sym=    16a
Ene=   -0.588025E-03
Spin= Alpha
Occup= 0.000399
     1    -0.018380
     2    -0.044820
     3    -0.041535
     4     0.000825
     5    -0.000257
     6    -0.006579
     7     0.000717
     8    -0.000495
     9    -0.024108
    10    -0.308918
    11     0.479522
    12    -0.040773
    13    -0.478099
    14    -0.000453
    15     0.000405
    16    -0.018475
    17    -0.044845
    18    -0.048743
    19     0.000265
    20    -0.000129
    21     0.003448
    22    -0.000032
    23     0.000261
    24     0.021036
    25    -0.310381
    26     0.484947
    27    -0.039656
    28    -0.482169
    29     0.000752
    30    -0.000066
Sym=    17a
Ene=   -0.207474E-02
Spin= Alpha
Occup= 0.001652
     1    -0.056847
     2    -0.101585
     3    -1.524277
     4    -0.002210
     5    -0.001713
     6     0.097514
     7    -0.000371
     8    -0.000127
     9     0.740460
    10    -0.029792
    11    -0.079014
    12     0.095101
    13     0.031931
    14    -0.000233
    15    -0.000672
    16     0.125588
    17     0.347240
    18     1.480406
    19    -0.001073
    20    -0.000885
    21     0.340477
    22    -0.001025
    23    -0.001208
    24     1.475906
    25     0.283114
    26     0.203393
    27    -0.902935
    28     0.051662
    29    -0.006254
    30    -0.004594
Sym=    18a
Ene=   -0.897664E-03
Spin= Alpha
Occup= 0.000521
     1    -0.000765
     2    -0.005960
     3     0.009151
     4    -0.075237
     5     0.200151
     6     0.004947
     7    -0.078983
     8     0.318577
     9    -0.011676
    10    -0.007133
    11    -0.005595
    12     0.018982
    13    -0.001652
    14     0.096988
    15    -1.043745
    16     0.000317
    17    -0.008933
    18     0.005521
    19    -0.043425
    20     0.420151
    21     0.013054
    22     0.010703
    23     0.021578
    24     0.004443
    25    -0.006071
    26    -0.005376
    27    -0.007619
    28    -0.000095
    29    -0.055442
    30    -0.186109
Sym=    19a
Ene=   -0.262719E-04
Spin= Alpha
Occup= 0.000001
     1    -0.062058
     2    -0.158295
     3     0.139685
     4     0.129431
     5    -0.017629
     6     0.679116
     7     0.310834
     8    -0.080389
     9    -0.774769
    10    -0.051477
    11    -0.031357
    12     1.346161
    13    -0.014570
    14     0.164627
    15     0.044541
    16     0.107701
    17    -0.206384
    18     0.482557
    19    -0.237714
    20     0.025205
    21     1.037078
    22    -0.375576
    23     0.084367
    24    -0.000775
    25    -0.530139
    26    -0.505170
    27    -1.123724
    28    -0.014955
    29     0.034210
    30     0.055645
Sym=    20a
Ene=   -0.848778E-06
Spin= Alpha
Occup= 0.000000
     1     0.070190
     2    -0.304581
     3     0.359816
     4    -0.279884
     5     0.252446
     6    -0.676642
     7    -0.439659
     8     0.311630
     9    -0.310882
    10    -0.548241
    11    -0.500540
    12    -0.408278
    13    -0.042813
    14     0.077554
    15     0.141515
    16    -0.006933
    17    -0.285515
    18     0.599258
    19     0.087083
    20    -0.125541
    21    -0.125587
    22     0.326178
    23    -0.236042
    24     0.880005
    25    -0.335062
    26    -0.315604
    27     0.763757
    28    -0.001490
    29    -0.161231
    30     0.295498
Sym=    21a
Ene=   -0.842334E-07
Spin= Alpha
Occup= 0.000000
     1     0.000756
     2     0.001920
     3     0.021358
     4     0.000143
     5     0.000263
     6     0.002052
     7     0.001187
     8    -0.000261
     9    -0.004279
    10     0.607995
    11    -0.623995
    12     0.002772
    13    -0.241829
    14    -0.001614
    15     0.000365
    16    -0.000666
    17    -0.002488
    18    -0.019609
    19     0.000001
    20     0.000212
    21     0.002206
    22    -0.001135
    23     0.000511
    24    -0.003568
    25    -0.609659
    26     0.623737
    27    -0.003076
    28     0.245596
    29    -0.001309
    30     0.001067
Sym=    22a
Ene=   -0.161754E-02
Spin= Alpha
Occup= 0.001672
     1    -0.000219
     2    -0.002118
     3     0.002445
     4    -0.511289
     5    -0.221223
     6    -0.001558
     7    -0.536605
     8    -0.227480
     9    -0.000950
    10    -0.000820
    11    -0.000580
    12    -0.000736
    13    -0.000133
    14    -0.262153
    15    -0.097105
    16     0.000110
    17     0.000244
    18    -0.000808
    19    -0.500245
    20    -0.213374
    21    -0.000483
    22    -0.532747
    23    -0.221988
    24     0.001507
    25    -0.000134
    26    -0.000228
    27     0.001228
    28     0.000026
    29     0.223519
    30     0.075063
Sym=    23a
Ene=   -0.161764E-02
Spin= Alpha
Occup= 0.001673
     1    -0.000045
     2    -0.000804
     3     0.001820
     4    -0.199814
     5     0.508082
     6    -0.000428
     7    -0.217202
     8     0.536735
     9    -0.001185
    10    -0.000405
    11    -0.000439
    12     0.000026
    13    -0.000082
    14    -0.100842
    15     0.211531
    16    -0.000037
    17    -0.000513
    18    -0.000601
    19    -0.201391
    20     0.520276
    21     0.000205
    22    -0.213315
    23     0.542199
    24     0.000322
    25    -0.000228
    26    -0.000210
    27     0.000343
    28    -0.000053
    29     0.115099
    30    -0.252122
Sym=    24a
Ene=   -0.897143E-03
Spin= Alpha
Occup= 0.000520
     1    -0.000571
     2     0.015439
     3    -0.012088
     4     0.320019
     5     0.278039
     6     0.021892
     7     0.013827
     8     0.019350
     9     0.008967
    10     0.011111
    11     0.009962
    12     0.012066
    13     0.000621
    14     0.088346
    15     0.174817
    16     0.001081
    17     0.009660
    18    -0.013547
    19     0.186623
    20     0.098038
    21     0.007469
    22     0.266549
    23     0.184949
    24    -0.019701
    25     0.012222
    26     0.009931
    27    -0.031513
    28     0.001893
    29     0.779600
    30     0.701795
Sym=    25a
Ene=   -0.207612E-02
Spin= Alpha
Occup= 0.001653
     1     0.125634
     2     0.346719
     3     1.481382
     4    -0.001175
     5     0.001512
     6    -0.341599
     7    -0.001436
     8     0.001868
     9    -1.477313
    10     0.281640
    11     0.203834
    12    -0.902982
    13     0.050538
    14     0.001541
    15    -0.004444
    16    -0.056850
    17    -0.101851
    18    -1.525206
    19    -0.000420
    20     0.001516
    21    -0.097131
    22     0.000460
    23    -0.000286
    24    -0.739267
    25    -0.029931
    26    -0.079064
    27     0.096033
    28     0.031858
    29    -0.000219
    30     0.000004
Sym=    26a
Ene=   -0.240445E-02
Spin= Alpha
Occup= 0.000140
     1    -0.001715
     2     0.017878
     3     0.565613
     4    -0.000458
     5     0.000696
     6    -0.045628
     7    -0.000786
     8     0.001002
     9    -0.125753
    10    -0.012184
    11     0.003166
    12    -0.222024
    13    -0.009774
    14     0.000294
    15    -0.001266
    16     0.852608
    17     3.423409
    18    -0.329503
    19     0.000100
    20     0.000513
    21    -0.318210
    22     0.000612
    23    -0.000278
    24    -0.448159
    25    -1.483607
    26    -1.460334
    27    -1.425595
    28    -0.014843
    29    -0.000292
    30     0.000176
Sym=    27a
Ene=   -0.129968E-04
Spin= Alpha
Occup= 0.000001
     1    -0.057160
     2     0.168232
     3    -0.310088
     4    -0.448893
     5     0.375363
     6     0.547552
     7    -0.681142
     8     0.469065
     9     0.130232
    10     0.349777
    11     0.332351
    12     0.477670
    13     0.009444
    14     0.166051
    15     0.206372
    16     0.021177
    17     0.147126
    18    -0.211857
    19     0.096758
    20    -0.188163
    21     0.246641
    22     0.472828
    23    -0.356961
    24    -0.520305
    25     0.132155
    26     0.115384
    27    -0.667649
    28     0.013400
    29    -0.266189
    30     0.431303
Sym=    28a
Ene=   -0.995623E-13
Spin= Alpha
Occup= 0.000000
     1    -0.001000
     2     0.004435
     3     0.134240
     4     0.152673
     5     0.201045
     6     0.012849
     7     0.759459
     8     0.086096
     9    -0.067991
    10    -0.035701
    11     0.049472
    12     0.011097
    13    -0.139335
    14    -0.905911
    15     0.093468
    16    -0.000453
    17     0.010274
    18    -0.158290
    19     0.001542
    20     0.039939
    21     0.000026
    22    -0.669658
    23     0.054630
    24    -0.096047
    25     0.056573
    26    -0.028885
    27    -0.019641
    28     0.140132
    29    -0.711407
    30     0.396076
Sym=    29a
Ene=    0.000000E+00
Spin= Alpha
Occup= 0.000000
     1     0.031117
     2    -0.122935
     3     8.581699
     4    -0.036884
     5    -0.043036
     6     0.103546
     7    -0.061337
     8    -0.133413
     9    -4.454808
    10    -0.490327
    11    -0.478008
    12     0.508303
    13    -0.009530
    14     0.025855
    15     0.030297
    16    -0.029695
    17     0.107875
    18    -8.557902
    19     0.006330
    20     0.056094
    21     0.116884
    22     0.043850
    23     0.141002
    24    -4.425918
    25     0.469244
    26     0.457521
    27    -0.499260
    28     0.009014
    29    -0.013780
    30     0.046791
Sym=    30a
Ene=    0.000000E+00
Spin= Alpha
Occup= 0.000000
     1     0.003206
     2    -0.012334
     3     1.001100
     4     0.254661
     5     0.373897
     6     0.017779
     7     0.366278
     8     1.172160
     9    -0.519799
    10    -0.046052
    11    -0.062349
    12     0.064625
    13     0.027450
    14    -0.043847
    15    -0.235244
    16    -0.003234
    17     0.013819
    18    -1.002901
    19    -0.069749
    20    -0.512393
    21     0.016783
    22    -0.259978
    23    -1.252179
    24    -0.521840
    25     0.048043
    26     0.063497
    27    -0.065754
    28    -0.026994
    29     0.194202
    30    -0.412157
