[Molden Format]
p30-5 set                                                                       
[Atoms] AU
 C        1     6        0.0000        0.0000        0.0000
[GTO]
    1 0
s    5 1.00
    1238.401693800000  0.551736504811E-02
     186.290049920000  0.410888285559E-01
      42.251176346000  0.182253821265E+00
      11.676557932000  0.468284594374E+00
       3.593050648200  0.445758173360E+00
s    1 1.00
       0.402451473630  0.100000000000E+01
s    1 1.00
       0.130901826680  0.100000000000E+01
p    3 1.00
       9.468097062100  0.568883320110E-01
       2.010354514200  0.312940593365E+00
       0.547710047070  0.760650165091E+00
p    1 1.00
       0.152686137950  0.100000000000E+01
d    1 1.00
       0.800000000000  0.100000000000E+01
 
[MO]
Sym=     1a
Ene=   -0.113296E+02
Spin= Alpha
Occup= 1.999809
     1     0.997412
     2     0.014286
     3    -0.015382
     4     0.000001
     5    -0.000001
     6     0.000002
     7    -0.000000
     8     0.000001
     9    -0.000001
    10     0.001154
    11     0.000846
    12     0.000946
    13    -0.000176
    14     0.000151
    15     0.000366
Sym=     2a
Ene=   -0.700559E+00
Spin= Alpha
Occup= 1.952218
     1    -0.267178
     2     0.599389
     3     0.417448
     4     0.000001
     5    -0.000002
     6     0.000000
     7    -0.000000
     8     0.000000
     9    -0.000001
    10     0.031392
    11     0.034776
    12     0.033577
    13     0.001870
    14    -0.001792
    15    -0.004166
Sym=     3a
Ene=   -0.216451E+00
Spin= Alpha
Occup= 1.000000
     1    -0.000001
     2    -0.000001
     3     0.000000
     4     0.154642
     5     0.386397
     6     0.525604
     7     0.107634
     8     0.268927
     9     0.365821
    10     0.000002
    11     0.000000
    12     0.000001
    13    -0.000000
    14     0.000001
    15    -0.000000
Sym=     4a
Ene=   -0.216453E+00
Spin= Alpha
Occup= 1.000000
     1     0.000001
     2    -0.000005
     3    -0.000002
     4     0.620769
     5    -0.253212
     6     0.003502
     7     0.432046
     8    -0.176231
     9     0.002440
    10     0.000003
    11     0.000002
    12     0.000002
    13    -0.000001
    14    -0.000001
    15    -0.000000
Sym=     5a
Ene=   -0.238724E-01
Spin= Alpha
Occup= 0.045084
     1    -0.000001
     2     0.000010
     3    -0.000003
     4     0.234876
     5     0.569074
     6    -0.487454
     7     0.098467
     8     0.238574
     9    -0.204359
    10    -0.000003
    11    -0.000004
    12    -0.000001
    13     0.000000
    14    -0.000001
    15     0.000001
Sym=     6a
Ene=   -0.262742E-02
Spin= Alpha
Occup= 0.000184
     1    -0.974562
     2     4.361150
     3    -0.188480
     4    -0.000006
     5     0.000000
     6    -0.000002
     7     0.000008
     8    -0.000002
     9     0.000004
    10    -1.841101
    11    -1.817060
    12    -1.824773
    13     0.013758
    14    -0.011896
    15    -0.028751
Sym=     7a
Ene=   -0.487313E-03
Spin= Alpha
Occup= 0.000345
     1     0.000368
     2    -0.002076
     3     0.002013
     4     0.000004
     5    -0.000000
     6     0.000002
     7    -0.000004
     8    -0.000000
     9    -0.000000
    10    -0.790022
    11     0.320296
    12     0.469928
    13     0.225234
    14    -0.179074
    15     0.534318
Sym=     8a
Ene=   -0.211204E-06
Spin= Alpha
Occup= 0.000000
     1     0.010237
     2    -0.011704
     3    -0.145603
     4     0.000001
     5    -0.000001
     6    -0.000001
     7    -0.000001
     8     0.000001
     9     0.000001
    10    -0.363983
    11    -0.017723
    12     0.581409
    13     0.046206
    14    -0.238178
    15    -0.791679
Sym=     9a
Ene=   -0.301995E-03
Spin= Alpha
Occup= 0.000213
     1    -0.000002
     2     0.000005
     3    -0.000000
     4     0.000000
     5    -0.000002
     6     0.000001
     7    -0.000001
     8     0.000001
     9    -0.000000
    10     0.434315
    11    -0.640548
    12     0.206226
    13     0.454905
    14    -0.577767
    15     0.177781
Sym=    10a
Ene=   -0.341394E-04
Spin= Alpha
Occup= 0.000003
     1     0.000000
     2    -0.000001
     3     0.000010
     4     0.395841
     5    -0.666242
     6    -0.586932
     7    -0.441716
     8     0.743469
     9     0.654945
    10    -0.000004
    11    -0.000004
    12    -0.000005
    13    -0.000003
    14    -0.000001
    15     0.000000
Sym=    11a
Ene=   -0.487315E-03
Spin= Alpha
Occup= 0.000345
     1     0.000551
     2    -0.003113
     3     0.003035
     4     0.000001
     5    -0.000002
     6    -0.000002
     7    -0.000000
     8     0.000002
     9     0.000002
    10     0.006403
    11    -0.257512
    12     0.251390
    13     0.620775
    14     0.724580
    15    -0.057018
Sym=    12a
Ene=   -0.220562E-04
Spin= Alpha
Occup= 0.000002
     1     0.000002
     2    -0.000007
     3     0.000002
     4     0.263759
     5     0.639111
     6    -0.547616
     7    -0.339158
     8    -0.821798
     9     0.704119
    10     0.000004
    11     0.000003
    12     0.000001
    13     0.000001
    14    -0.000001
    15    -0.000000
Sym=    13a
Ene=   -0.156500E-02
Spin= Alpha
Occup= 0.001795
     1    -0.232615
     2     1.362995
     3    -1.621728
     4     0.000011
     5    -0.000004
     6     0.000002
     7    -0.000014
     8     0.000003
     9    -0.000001
    10     0.149985
    11     0.079227
    12     0.103849
    13    -0.039386
    14     0.036935
    15     0.086534
Sym=    14a
Ene=   -0.355353E-04
Spin= Alpha
Occup= 0.000003
     1     0.000006
     2    -0.000017
     3    -0.000017
     4    -0.838955
     5    -0.070237
     6    -0.486090
     7     0.936191
     8     0.078387
     9     0.542411
    10     0.000013
    11     0.000016
    12     0.000017
    13     0.000000
    14    -0.000001
    15     0.000003
Sym=    15a
Ene=    0.000000E+00
Spin= Alpha
Occup= 0.000000
     1     0.006772
     2    -0.007569
     3    -0.097057
     4     0.000001
     5    -0.000002
     6    -0.000000
     7    -0.000001
     8     0.000003
     9    -0.000000
    10     0.041045
    11     0.686583
    12    -0.594813
    13     0.594214
    14    -0.225528
    15    -0.211089
