[Molden Format]
p30-5 set                                                                       
[Atoms] AU
 CL       1    17        0.0000        0.0000        0.0000
[GTO]
    1 0
s    5 1.00
   10449.827566000000  0.542659537894E-02
    1571.736522100000  0.406263781288E-01
     357.120655230000  0.183597478529E+00
     100.251859350000  0.474389487682E+00
      30.812727554000  0.437351811041E+00
s    3 1.00
      51.923789434000 -0.927541548481E-01
       5.704576097500  0.563808255442E+00
       2.350837680900  0.503670446297E+00
s    1 1.00
       0.446051246720  0.100000000000E+01
s    1 1.00
       0.168488561900  0.100000000000E+01
p    5 1.00
     307.667905690000 -0.887970255889E-02
      72.102015515000 -0.642840717212E-01
      22.532680262000 -0.242887397360E+00
       7.899176544400 -0.483408363699E+00
       2.876726832100 -0.389525638755E+00
p    1 1.00
       0.774593639550  0.100000000000E+01
p    1 1.00
       0.210376996980  0.100000000000E+01
d    1 1.00
       0.650000000000  0.100000000000E+01
 
[MO]
Sym=     1a
Ene=   -0.104837E+03
Spin= Alpha
Occup= 2.000000
     1     0.990892
     2     0.037244
     3    -0.023928
     4    -0.001753
     5     0.000854
     6    -0.002295
     7     0.000119
     8    -0.000022
     9     0.000059
    10    -0.000007
    11     0.000022
    12    -0.000061
    13    -0.000001
    14     0.008840
    15     0.008829
    16     0.008827
    17     0.000006
    18    -0.000001
    19    -0.000000
Sym=     2a
Ene=   -0.806333E+01
Spin= Alpha
Occup= 1.999993
     1    -0.010838
     2     0.030644
     3     0.000714
     4    -0.000319
     5     0.238898
     6    -0.419171
     7     0.865818
     8    -0.006695
     9     0.011747
    10    -0.024520
    11     0.005547
    12    -0.009748
    13     0.019794
    14    -0.000005
    15     0.000004
    16    -0.000033
    17    -0.000008
    18     0.000011
    19    -0.000039
Sym=     3a
Ene=   -0.814423E+01
Spin= Alpha
Occup= 1.999989
     1    -0.056520
     2     0.188360
     3     0.003511
     4    -0.002340
     5    -0.284897
     6     0.809096
     7     0.464083
     8     0.008276
     9    -0.022381
    10    -0.013022
    11    -0.006343
    12     0.019187
    13     0.010791
    14     0.000049
    15     0.000049
    16    -0.000040
    17     0.000003
    18    -0.000019
    19     0.000024
Sym=     4a
Ene=   -0.929175E+01
Spin= Alpha
Occup= 1.999955
     1    -0.224989
     2     0.724194
     3     0.008326
     4    -0.012019
     5    -0.611174
     6    -0.354280
     7    -0.026332
     8     0.028367
     9     0.013787
    10    -0.000497
    11    -0.002663
    12    -0.004408
    13    -0.001949
    14    -0.000073
    15    -0.000292
    16    -0.000299
    17     0.000114
    18    -0.000022
    19    -0.000015
Sym=     5a
Ene=   -0.928973E+01
Spin= Alpha
Occup= 1.999953
     1    -0.224717
     2     0.723655
     3     0.008260
     4    -0.012048
     5     0.676075
     6     0.160546
     7    -0.132223
     8    -0.030089
     9    -0.009018
    10     0.004611
    11     0.004346
    12    -0.000989
    13    -0.002209
    14    -0.000074
    15    -0.000296
    16    -0.000308
    17     0.000110
    18    -0.000026
    19    -0.000014
Sym=     6a
Ene=   -0.685339E+00
Spin= Alpha
Occup= 1.994935
     1     0.044702
     2    -0.296980
     3     0.419170
     4     0.236946
     5     0.065750
     6    -0.140858
     7     0.131817
     8     0.127344
     9    -0.272829
    10     0.257440
    11     0.172609
    12    -0.369790
    13     0.348955
    14     0.008087
    15     0.008584
    16     0.008674
    17    -0.000266
    18     0.000108
    19    -0.000088
Sym=     7a
Ene=   -0.684654E+00
Spin= Alpha
Occup= 1.994920
     1    -0.044744
     2     0.296993
     3    -0.418788
     4    -0.236793
     5     0.003660
     6     0.040449
     7     0.200619
     8     0.007496
     9     0.077805
    10     0.388515
    11     0.010180
    12     0.105419
    13     0.526662
    14    -0.008042
    15    -0.008461
    16    -0.008754
    17     0.000210
    18    -0.000068
    19    -0.000047
Sym=     8a
Ene=   -0.680009E+00
Spin= Alpha
Occup= 1.994867
     1    -0.043637
     2     0.290998
     3    -0.412390
     4    -0.232864
     5     0.062207
     6    -0.181805
     7    -0.067403
     8     0.121866
     9    -0.356427
    10    -0.132958
    11     0.165144
    12    -0.483009
    13    -0.180145
    14    -0.008014
    15    -0.008538
    16    -0.008514
    17     0.000263
    18    -0.000042
    19    -0.000059
Sym=     9a
Ene=   -0.279036E+00
Spin= Alpha
Occup= 1.000000
     1     0.000001
     2    -0.000009
     3     0.000024
     4    -0.000010
     5     0.264787
     6     0.099897
     7    -0.025114
     8     0.467494
     9     0.176370
    10    -0.044341
    11     0.602143
    12     0.227183
    13    -0.057106
    14    -0.000003
    15     0.000002
    16    -0.000011
    17     0.000003
    18     0.000000
    19     0.000002
Sym=    10a
Ene=   -0.493612E-02
Spin= Alpha
Occup= 0.005133
     1    -0.033562
     2     0.258696
     3    -0.932303
     4     0.809704
     5     0.069514
     6    -0.202699
     7    -0.074906
     8     0.228836
     9    -0.667283
    10    -0.246601
    11    -0.195509
    12     0.570100
    13     0.210703
    14     0.303958
    15    -0.456105
    16     0.216564
    17     0.344207
    18     0.108122
    19    -0.341832
Sym=    11a
Ene=   -0.491906E-02
Spin= Alpha
Occup= 0.005080
     1     0.035424
     2    -0.276625
     3     0.984595
     4    -0.826974
     5    -0.004377
     6    -0.044848
     7    -0.227486
     8    -0.014411
     9    -0.147623
    10    -0.748836
    11     0.012305
    12     0.126102
    13     0.639721
    14    -0.398028
    15    -0.302348
    16     0.596681
    17    -0.025677
    18     0.027702
    19     0.219077
Sym=    12a
Ene=   -0.491356E-02
Spin= Alpha
Occup= 0.005065
     1    -0.035051
     2     0.273117
     3    -0.974140
     4     0.822872
     5    -0.074594
     6     0.159470
     7    -0.150402
     8    -0.245546
     9     0.524936
    10    -0.495110
    11     0.209772
    12    -0.448431
    13     0.422983
    14     0.298173
    15    -0.124389
    16    -0.077099
    17     0.279237
    18    -0.240443
    19     0.497385
Sym=    13a
Ene=   -0.503777E-03
Spin= Alpha
Occup= 0.000047
     1     0.091600
     2    -1.051043
     3     2.596354
     4     0.463013
     5    -0.262758
     6    -0.074983
     7     0.041600
     8    -0.864488
     9    -0.246714
    10     0.136852
    11     0.747407
    12     0.214126
    13    -0.117741
    14    -1.021565
    15    -1.329566
    16    -1.265136
    17     0.147725
    18    -0.024340
    19    -0.031911
Sym=    14a
Ene=   -0.491277E-03
Spin= Alpha
Occup= 0.000045
     1     0.091445
     2    -1.049393
     3     2.592006
     4     0.463161
     5     0.245900
     6     0.125033
     7    -0.002215
     8     0.809045
     9     0.411351
    10    -0.007306
    11    -0.700002
    12    -0.354733
    13     0.007098
    14    -1.026490
    15    -1.336956
    16    -1.247935
    17     0.161990
    18    -0.010378
    19    -0.038228
Sym=    15a
Ene=   -0.966876E-04
Spin= Alpha
Occup= 0.000011
     1    -0.020828
     2     0.256432
     3    -0.593420
     4    -0.239511
     5    -0.080665
     6     0.221240
     7     0.126770
     8    -0.265454
     9     0.728031
    10     0.417155
    11     0.227023
    12    -0.621719
    13    -0.356319
    14     0.278324
    15    -0.143427
    16     0.860753
    17     0.177672
    18     0.177269
    19    -0.310615
Sym=    16a
Ene=   -0.660979E-04
Spin= Alpha
Occup= 0.000007
     1     0.003414
     2    -0.052149
     3     0.099034
     4     0.117129
     5    -0.064093
     6     0.113040
     7    -0.231209
     8    -0.210918
     9     0.371996
    10    -0.760863
    11     0.180126
    12    -0.317724
    13     0.649831
    14    -0.055602
    15     0.173376
    16    -0.381580
    17    -0.168084
    18     0.171382
    19    -0.610161
Sym=    17a
Ene=   -0.998413E-08
Spin= Alpha
Occup= 0.000000
     1    -0.003365
     2     0.193537
     3    -0.121990
     4    -1.210502
     5     0.002811
     6    -0.007880
     7    -0.009973
     8     0.009252
     9    -0.025925
    10    -0.032821
    11    -0.007918
    12     0.022092
    13     0.028011
    14     0.642813
    15     0.660864
    16     0.370502
    17     0.534356
    18    -0.585856
    19    -0.249284
Sym=    18a
Ene=    0.000000E+00
Spin= Alpha
Occup= 0.000000
     1     0.003180
     2    -0.187443
     3     0.116063
     4     1.178974
     5     0.000861
     6     0.002534
     7     0.019882
     8     0.002836
     9     0.008328
    10     0.065435
    11    -0.002428
    12    -0.007070
    13    -0.055864
    14    -1.225366
    15    -0.232937
    16    -0.169065
    17    -0.000564
    18    -0.482313
    19    -0.195779
Sym=    19a
Ene=    0.000000E+00
Spin= Alpha
Occup= 0.000000
     1     0.000088
     2    -0.008415
     3     0.003770
     4     0.057478
     5    -0.003395
     6    -0.001822
     7     0.000220
     8    -0.011179
     9    -0.006000
    10     0.000724
    11     0.009669
    12     0.005174
    13    -0.000629
    14    -0.443641
    15     0.466188
    16    -0.099681
    17     0.639898
    18     0.540722
    19     0.126630
