[Molden Format]
p30-5 set                                                                       
[Atoms] AU
 BE       1     4        1.3755       -1.3755        1.3755
 BE       2     4       -1.3755        1.3755        1.3755
 BE       3     4       -1.3755       -1.3755       -1.3755
 BE       4     4        1.3755        1.3755       -1.3755
[GTO]
    1 0
s    5 1.00
     515.186161250000  0.583763544133E-02
      77.511037595000  0.432349671107E-01
      17.552481693000  0.188026956444E+00
       4.802894059600  0.469576904234E+00
       1.451621431600  0.440951660947E+00
s    1 1.00
       0.132816336200  0.100000000000E+01
s    1 1.00
       0.045837372213  0.100000000000E+01
p    3 1.00
       3.631691714500 -0.454619686657E-01
       0.716956943660 -0.264276543343E+00
       0.195419328600 -0.804884200890E+00
p    1 1.00
       0.060515465890  0.100000000000E+01
 
    2 0
s    5 1.00
     515.186161250000  0.583763544133E-02
      77.511037595000  0.432349671107E-01
      17.552481693000  0.188026956444E+00
       4.802894059600  0.469576904234E+00
       1.451621431600  0.440951660947E+00
s    1 1.00
       0.132816336200  0.100000000000E+01
s    1 1.00
       0.045837372213  0.100000000000E+01
p    3 1.00
       3.631691714500 -0.454619686657E-01
       0.716956943660 -0.264276543343E+00
       0.195419328600 -0.804884200890E+00
p    1 1.00
       0.060515465890  0.100000000000E+01
 
    3 0
s    5 1.00
     515.186161250000  0.583763544133E-02
      77.511037595000  0.432349671107E-01
      17.552481693000  0.188026956444E+00
       4.802894059600  0.469576904234E+00
       1.451621431600  0.440951660947E+00
s    1 1.00
       0.132816336200  0.100000000000E+01
s    1 1.00
       0.045837372213  0.100000000000E+01
p    3 1.00
       3.631691714500 -0.454619686657E-01
       0.716956943660 -0.264276543343E+00
       0.195419328600 -0.804884200890E+00
p    1 1.00
       0.060515465890  0.100000000000E+01
 
    4 0
s    5 1.00
     515.186161250000  0.583763544133E-02
      77.511037595000  0.432349671107E-01
      17.552481693000  0.188026956444E+00
       4.802894059600  0.469576904234E+00
       1.451621431600  0.440951660947E+00
s    1 1.00
       0.132816336200  0.100000000000E+01
s    1 1.00
       0.045837372213  0.100000000000E+01
p    3 1.00
       3.631691714500 -0.454619686657E-01
       0.716956943660 -0.264276543343E+00
       0.195419328600 -0.804884200890E+00
p    1 1.00
       0.060515465890  0.100000000000E+01
 
[MO]
Sym=     1a
Ene=   -0.468856E+01
Spin= Alpha
Occup= 1.999993
     1     0.995937
     2     0.023715
     3     0.015520
     4    -0.000877
     5     0.000866
     6    -0.000820
     7    -0.007380
     8     0.007360
     9    -0.007328
    10     0.001784
    11    -0.003444
    12    -0.008444
    13     0.001667
    14    -0.001700
    15     0.000404
    16    -0.004248
    17     0.004266
    18     0.000299
    19     0.002319
    20    -0.003337
    21    -0.008003
    22     0.001637
    23    -0.000430
    24     0.001704
    25    -0.004197
    26    -0.000182
    27    -0.004186
    28     0.001319
    29    -0.003397
    30    -0.008123
    31     0.000412
    32    -0.001668
    33     0.001690
    34     0.000276
    35     0.004219
    36    -0.004171
Sym=     2a
Ene=   -0.468857E+01
Spin= Alpha
Occup= 1.999993
     1     0.000802
     2    -0.003335
     3    -0.008109
     4     0.000454
     5     0.001638
     6    -0.001658
     7     0.000231
     8    -0.004224
     9     0.004216
    10     0.002265
    11    -0.003317
    12    -0.008015
    13     0.001637
    14     0.000421
    15    -0.001695
    16    -0.004220
    17     0.000226
    18     0.004142
    19     0.001806
    20    -0.003392
    21    -0.008482
    22     0.001662
    23     0.001642
    24    -0.000445
    25    -0.004254
    26    -0.004302
    27    -0.000332
    28     0.995893
    29     0.023818
    30     0.015614
    31    -0.000825
    32    -0.000819
    33     0.000795
    34    -0.007342
    35    -0.007393
    36     0.007372
Sym=     3a
Ene=   -0.468884E+01
Spin= Alpha
Occup= 1.999990
     1     0.000376
     2     0.002969
     3     0.008157
     4     0.001500
     5     0.000544
     6     0.001554
     7    -0.004281
     8     0.000224
     9    -0.004257
    10    -0.000980
    11     0.002927
    12     0.008130
    13     0.000535
    14     0.001526
    15     0.001523
    16     0.000231
    17    -0.004261
    18    -0.004233
    19    -0.995721
    20    -0.024153
    21    -0.016029
    22    -0.000759
    23    -0.000734
    24    -0.000708
    25    -0.007468
    26    -0.007486
    27    -0.007414
    28    -0.000165
    29     0.003053
    30     0.008648
    31     0.001521
    32     0.001550
    33     0.000547
    34    -0.004374
    35    -0.004353
    36     0.000350
Sym=     4a
Ene=   -0.468883E+01
Spin= Alpha
Occup= 1.999990
     1    -0.000200
     2     0.002966
     3     0.008192
     4     0.001540
     5    -0.001528
     6    -0.000561
     7    -0.004204
     8     0.004254
     9    -0.000265
    10    -0.995700
    11    -0.024239
    12    -0.015692
    13    -0.000721
    14     0.000717
    15     0.000700
    16    -0.007335
    17     0.007386
    18     0.007394
    19    -0.000736
    20     0.002946
    21     0.008350
    22     0.000540
    23    -0.001498
    24    -0.001551
    25     0.000326
    26     0.004301
    27     0.004309
    28     0.000351
    29     0.002978
    30     0.008086
    31     0.001510
    32    -0.000531
    33    -0.001576
    34    -0.004231
    35    -0.000244
    36     0.004238
Sym=     5a
Ene=   -0.556417E+00
Spin= Alpha
Occup= 1.996247
     1    -0.134244
     2     0.287499
     3     0.010873
     4     0.079930
     5    -0.080200
     6     0.081629
     7     0.012828
     8    -0.012700
     9     0.012867
    10    -0.135070
    11     0.285342
    12     0.008479
    13    -0.080426
    14     0.080427
    15     0.080863
    16    -0.013024
    17     0.013066
    18     0.013284
    19    -0.135405
    20     0.286444
    21     0.009386
    22    -0.080814
    23    -0.079959
    24    -0.081194
    25    -0.012822
    26    -0.013027
    27    -0.013206
    28    -0.134201
    29     0.286639
    30     0.009466
    31     0.079648
    32     0.080776
    33    -0.081210
    34     0.013115
    35     0.012831
    36    -0.013252
Sym=     6a
Ene=   -0.273382E+00
Spin= Alpha
Occup= 1.886338
     1     0.095963
     2    -0.247849
     3    -0.274815
     4    -0.086888
     5    -0.157695
     6    -0.086915
     7     0.052760
     8     0.005815
     9     0.053481
    10    -0.096365
    11     0.249002
    12     0.275436
    13    -0.086727
    14    -0.158419
    15     0.087696
    16     0.052637
    17     0.006193
    18    -0.053869
    19     0.095797
    20    -0.247561
    21    -0.275255
    22     0.086553
    23    -0.158092
    24     0.087432
    25    -0.052686
    26     0.005886
    27    -0.053902
    28    -0.096547
    29     0.249351
    30     0.274750
    31     0.087084
    32    -0.157989
    33    -0.087206
    34    -0.052589
    35     0.006146
    36     0.053381
Sym=     7a
Ene=   -0.273971E+00
Spin= Alpha
Occup= 1.883605
     1    -0.096218
     2     0.249005
     3     0.268562
     4    -0.158720
     5    -0.086650
     6     0.084211
     7     0.008919
     8     0.053116
     9    -0.049517
    10     0.096924
    11    -0.250365
    12    -0.267765
    13    -0.157657
    14    -0.087718
    15    -0.084557
    16     0.008633
    17     0.053239
    18     0.049544
    19     0.096839
    20    -0.250173
    21    -0.268350
    22    -0.157897
    23     0.087412
    24     0.084823
    25     0.008648
    26    -0.053205
    27    -0.049814
    28    -0.096318
    29     0.249194
    30     0.268487
    31    -0.158490
    32     0.087010
    33    -0.083943
    34     0.008752
    35    -0.053367
    36     0.049337
Sym=     8a
Ene=   -0.273253E+00
Spin= Alpha
Occup= 1.881220
     1     0.096158
     2    -0.248820
     3    -0.277839
     4    -0.088112
     5     0.087349
     6     0.155761
     7     0.053358
     8    -0.051726
     9    -0.005951
    10     0.096209
    11    -0.248332
    12    -0.278043
    13     0.087929
    14    -0.086571
    15     0.155492
    16    -0.053894
    17     0.051704
    18    -0.007267
    19    -0.096366
    20     0.248935
    21     0.279166
    22    -0.087700
    23    -0.086420
    24     0.155641
    25     0.054079
    26     0.051697
    27    -0.007388
    28    -0.095876
    29     0.247932
    30     0.276749
    31     0.088205
    32     0.087373
    33     0.155635
    34    -0.053219
    35    -0.051741
    36    -0.005834
Sym=     9a
Ene=   -0.234851E-01
Spin= Alpha
Occup= 0.106426
     1     0.017957
     2     0.049008
     3    -0.131603
     4    -0.005188
     5     0.009657
     6     0.356553
     7     0.108907
     8    -0.111585
     9    -0.096023
    10     0.017975
    11     0.048698
    12    -0.129352
    13     0.006235
    14    -0.010107
    15     0.355975
    16    -0.108672
    17     0.110567
    18    -0.094561
    19     0.018251
    20     0.047318
    21    -0.131240
    22     0.006205
    23     0.010598
    24    -0.356616
    25    -0.108872
    26    -0.111273
    27     0.094570
    28     0.017648
    29     0.050372
    30    -0.129896
    31    -0.005285
    32    -0.009272
    33    -0.355908
    34     0.108784
    35     0.110852
    36     0.095914
Sym=    10a
Ene=   -0.228135E-01
Spin= Alpha
Occup= 0.103310
     1    -0.016737
     2    -0.057247
     3     0.133610
     4    -0.353835
     5    -0.006916
     6     0.009891
     7     0.098197
     8     0.112180
     9    -0.112331
    10    -0.017206
    11    -0.055195
    12     0.135710
    13     0.353710
    14     0.006944
    15     0.008965
    16    -0.097296
    17    -0.113152
    18    -0.111389
    19    -0.017255
    20    -0.055046
    21     0.135111
    22     0.353922
    23    -0.007036
    24    -0.009162
    25    -0.097387
    26     0.112842
    27     0.111367
    28    -0.016651
    29    -0.057571
    30     0.134269
    31    -0.353592
    32     0.006788
    33    -0.009776
    34     0.098080
    35    -0.112540
    36     0.112297
Sym=    11a
Ene=   -0.235208E-01
Spin= Alpha
Occup= 0.106816
     1     0.017545
     2     0.050832
     3    -0.129225
     4    -0.006869
     5    -0.353326
     6    -0.005051
     7     0.110044
     8     0.100630
     9     0.108715
    10     0.017631
    11     0.050149
    12    -0.137190
    13     0.007036
    14     0.353240
    15    -0.004722
    16    -0.111721
    17    -0.097654
    18     0.110210
    19     0.017783
    20     0.050035
    21    -0.130947
    22     0.006848
    23    -0.353703
    24     0.004739
    25    -0.110319
    26     0.100502
    27    -0.109035
    28     0.017384
    29     0.051013
    30    -0.136273
    31    -0.006904
    32     0.352899
    33     0.005134
    34     0.111584
    35    -0.097707
    36    -0.110099
Sym=    12a
Ene=   -0.114829E-02
Spin= Alpha
Occup= 0.001777
     1    -0.113624
     2     0.820686
     3    -0.787092
     4     0.358564
     5    -0.470177
     6     0.351404
     7     0.145643
     8    -0.048357
     9     0.151123
    10     0.114694
    11    -0.830467
    12     0.785819
    13     0.370101
    14    -0.474827
    15    -0.350713
    16     0.144148
    17    -0.052368
    18    -0.141481
    19    -0.104230
    20     0.753091
    21    -0.707461
    22    -0.324909
    23    -0.434745
    24    -0.314864
    25    -0.141034
    26    -0.036230
    27    -0.127811
    28     0.102864
    29    -0.740172
    30     0.706938
    31    -0.312576
    32    -0.432573
    33     0.315377
    34    -0.140322
    35    -0.034259
    36     0.136088
Sym=    13a
Ene=   -0.304834E-04
Spin= Alpha
Occup= 0.000006
     1    -0.021840
     2     0.059205
     3     1.445011
     4     0.118954
     5    -0.042287
     6    -0.148691
     7    -0.897972
     8     0.553978
     9    -0.321184
    10     0.132564
    11    -1.032106
    12    -3.935708
    13    -0.083948
    14     0.329494
    15     0.894539
    16    -1.239175
    17     1.417741
    18     2.056161
    19     0.021681
    20    -0.269784
    21     1.821098
    22    -0.033684
    23     0.104738
    24     0.226826
    25     0.070593
    26     0.912309
    27     0.373496
    28     0.047641
    29    -0.367584
    30     1.846022
    31    -0.224532
    32    -0.073111
    33    -0.070675
    34    -0.706394
    35    -0.096913
    36     0.875332
Sym=    14a
Ene=   -0.300869E-04
Spin= Alpha
Occup= 0.000005
     1     0.053347
     2    -0.431086
     3     1.968060
     4    -0.249049
     5     0.081085
     6     0.103284
     7    -0.776492
     8     0.149949
     9    -0.800157
    10     0.021833
    11    -0.288207
    12     1.826850
    13    -0.048056
    14    -0.098277
    15    -0.216460
    16     0.110562
    17    -0.903463
    18    -0.481667
    19     0.137688
    20    -1.093641
    21    -4.112111
    22    -0.170822
    23    -0.346622
    24    -0.853056
    25    -1.384373
    26    -1.493947
    27    -1.983350
    28    -0.013357
    29    -0.019322
    30     1.630763
    31     0.075107
    32     0.016528
    33     0.114191
    34    -0.951624
    35    -0.671654
    36     0.226090
Sym=    15a
Ene=   -0.497679E-05
Spin= Alpha
Occup= 0.000001
     1     0.033727
     2    -0.354326
     3     1.115489
     4    -0.128045
     5     0.113734
     6     0.297072
     7     0.147970
     8     0.848526
     9     0.125182
    10     0.016864
    11    -0.227281
    12     0.932774
    13     0.036362
    14    -0.081458
    15     0.035216
    16     0.885888
    17     0.310020
    18    -0.231740
    19    -0.016218
    20     0.018203
    21    -0.576703
    22    -0.072965
    23    -0.066427
    24     0.057275
    25    -0.394223
    26    -0.213713
    27     1.075723
    28     0.044936
    29    -0.437271
    30    -0.893753
    31    -0.170149
    32    -0.346163
    33    -0.643558
    34    -0.397169
    35    -0.747160
    36    -2.313209
Sym=    16a
Ene=   -0.256759E-04
Spin= Alpha
Occup= 0.000005
     1    -0.121778
     2     1.005627
     3     4.723334
     4    -0.777164
     5     0.556922
     6    -0.198759
     7    -2.236019
     8     1.916806
     9    -1.328476
    10    -0.022820
    11     0.195860
    12    -2.335175
    13    -0.198457
    14     0.144886
    15     0.031343
    16    -0.872901
    17     0.997021
    18     0.075715
    19    -0.023990
    20     0.233731
    21    -2.012181
    22    -0.119846
    23     0.038945
    24    -0.119507
    25    -0.906524
    26    -0.126764
    27    -0.767543
    28    -0.018938
    29     0.187545
    30    -1.589677
    31    -0.030053
    32     0.115727
    33    -0.009935
    34     0.135490
    35     0.710840
    36    -0.867953
Sym=    17a
Ene=   -0.213182E-02
Spin= Alpha
Occup= 0.007230
     1     0.105009
     2    -0.519165
     3    -0.525645
     4    -0.196890
     5     0.125721
     6     0.359593
     7     0.240153
     8    -0.125318
     9    -0.091609
    10    -0.107916
    11     0.549508
    12     0.529393
    13    -0.213245
    14     0.153581
    15    -0.363693
    16     0.237163
    17    -0.135659
    18     0.057210
    19    -0.105713
    20     0.521807
    21     0.527706
    22    -0.200467
    23    -0.130177
    24     0.367134
    25     0.242759
    26     0.123587
    27    -0.086977
    28     0.108656
    29    -0.554044
    30    -0.532863
    31    -0.212499
    32    -0.153323
    33    -0.362941
    34     0.241538
    35     0.139235
    36     0.066166
Sym=    18a
Ene=   -0.128043E-02
Spin= Alpha
Occup= 0.004058
     1     0.104472
     2    -0.557474
     3    -0.527288
     4     0.350560
     5     0.232860
     6    -0.209439
     7    -0.054504
     8    -0.148993
     9     0.288721
    10     0.111695
    11    -0.599681
    12    -0.559842
    13    -0.393789
    14    -0.258964
    15    -0.233045
    16     0.056605
    17     0.188497
    18     0.285518
    19    -0.112123
    20     0.597259
    21     0.552713
    22     0.391513
    23    -0.244684
    24    -0.238726
    25    -0.063652
    26     0.165859
    27     0.299183
    28    -0.103987
    29     0.558162
    30     0.534994
    31    -0.354903
    32     0.247732
    33    -0.204782
    34     0.043614
    35    -0.171593
    36     0.274067
Sym=    19a
Ene=   -0.127366E-02
Spin= Alpha
Occup= 0.003972
     1    -0.080841
     2     0.437793
     3     0.208906
     4     0.207523
     5     0.275587
     6     0.117757
     7    -0.126621
     8    -0.073873
     9    -0.132375
    10    -0.121531
    11     0.648521
    12     0.314063
    13    -0.280591
    14    -0.477186
    15     0.268388
    16     0.157596
    17     0.138828
    18    -0.236826
    19     0.079545
    20    -0.426845
    21    -0.229430
    22     0.184617
    23    -0.281964
    24     0.142648
    25    -0.105545
    26     0.067355
    27    -0.144546
    28     0.122413
    29    -0.653888
    30    -0.296595
    31    -0.302818
    32     0.471640
    33     0.245274
    34     0.181393
    35    -0.142403
    36    -0.223802
Sym=    20a
Ene=   -0.114827E-02
Spin= Alpha
Occup= 0.001803
     1     0.092210
     2    -0.688505
     3     0.706564
     4    -0.401323
     5     0.350534
     6    -0.311229
     7    -0.039343
     8     0.131128
     9    -0.139471
    10    -0.090833
    11     0.681130
    12    -0.711066
    13    -0.407267
    14     0.344397
    15     0.308272
    16    -0.038951
    17     0.132022
    18     0.142072
    19    -0.103767
    20     0.771932
    21    -0.786852
    22    -0.438974
    23    -0.398726
    24    -0.348019
    25    -0.054113
    26    -0.135133
    27    -0.156990
    28     0.102770
    29    -0.766987
    30     0.793188
    31    -0.443872
    32    -0.394645
    33     0.342292
    34    -0.052355
    35    -0.138470
    36     0.157763
Sym=    21a
Ene=   -0.963598E-05
Spin= Alpha
Occup= 0.000002
     1     0.016919
     2    -0.104659
     3     0.281639
     4    -0.020349
     5     0.096354
     6     0.000187
     7    -0.462786
     8    -0.119079
     9     0.386426
    10    -0.005182
    11     0.026980
    12    -0.526628
    13     0.524929
    14     0.773306
    15    -0.205005
    16     1.170475
    17     1.970830
    18    -0.446975
    19     0.022505
    20    -0.136632
    21     0.415298
    22     0.095347
    23     0.133006
    24     0.081831
    25    -0.685660
    26    -0.024491
    27     0.580868
    28    -0.036333
    29     0.244680
    30    -0.186613
    31     0.106156
    32     0.186215
    33    -0.088911
    34     0.118119
    35    -0.955529
    36    -0.338417
Sym=    22a
Ene=   -0.193119E-04
Spin= Alpha
Occup= 0.000004
     1     0.006221
     2     0.002869
     3    -0.829871
     4    -0.023384
     5     0.052936
     6     0.064987
     7     0.347652
     8    -0.122994
     9     0.300716
    10     0.011062
    11    -0.082253
    12    -0.284048
    13     0.091326
    14    -0.022195
    15    -0.167461
    16    -0.339775
    17     0.047278
    18     0.626209
    19    -0.052554
    20     0.466133
    21     2.056525
    22     0.848514
    23     0.310746
    24    -0.555463
    25     1.882869
    26     1.015044
    27    -0.388755
    28    -0.044445
    29     0.308928
    30    -1.459070
    31     0.277555
    32     0.155999
    33    -0.097224
    34     0.306244
    35     0.674453
    36     0.251863
Sym=    23a
Ene=   -0.228965E-04
Spin= Alpha
Occup= 0.000004
     1    -0.029149
     2     0.271082
     3    -1.821105
     4     0.022667
     5    -0.162644
     6     0.009295
     7    -0.017475
     8    -0.795279
     9     0.916103
    10    -0.016875
    11     0.195797
    12    -1.928323
    13    -0.078453
    14    -0.073510
    15     0.064963
    16    -0.873937
    17     0.364105
    18     0.719435
    19    -0.022783
    20     0.209968
    21    -2.283879
    22    -0.158393
    23    -0.148893
    24    -0.054923
    25    -0.976277
    26    -0.902188
    27    -0.070032
    28    -0.126398
    29     1.049844
    30     4.762151
    31    -0.537071
    32    -0.727499
    33     0.237707
    34    -1.786601
    35    -2.352111
    36     1.400326
Sym=    24a
Ene=   -0.103475E-04
Spin= Alpha
Occup= 0.000002
     1    -0.012468
     2     0.097371
     3     1.204055
     4     0.606699
     5     0.753561
     6    -0.054171
     7     1.113837
     8     2.024976
     9    -0.165912
    10    -0.004804
    11     0.028405
    12    -0.313360
    13     0.034454
    14     0.058144
    15     0.040070
    16    -0.565812
    17    -0.143041
    18    -0.213280
    19     0.023943
    20    -0.163883
    21    -0.190743
    22     0.065043
    23     0.189423
    24     0.104836
    25    -0.024467
    26    -0.853453
    27     0.124937
    28    -0.031639
    29     0.216784
    30    -0.853853
    31     0.104861
    32     0.153111
    33    -0.102769
    34    -0.698124
    35     0.206470
    36    -0.521771
Sym=    25a
Ene=   -0.156671E-02
Spin= Alpha
Occup= 0.005124
     1    -0.089390
     2     0.697376
     3     0.276743
     4     0.306978
     5    -0.302555
     6    -0.070309
     7    -0.077076
     8     0.052239
     9    -0.498161
    10    -0.058136
    11     0.530758
    12     0.207007
    13    -0.216768
    14     0.226441
    15     0.079751
    16     0.004970
    17    -0.012444
    18    -0.518797
    19     0.064864
    20    -0.562262
    21    -0.231098
    22     0.231159
    23     0.240813
    24     0.052208
    25    -0.021054
    26    -0.024168
    27    -0.517230
    28     0.081863
    29    -0.654225
    30    -0.258846
    31    -0.289440
    32    -0.286190
    33    -0.036775
    34     0.070075
    35     0.047427
    36    -0.493984
Sym=    26a
Ene=   -0.240924E-02
Spin= Alpha
Occup= 0.009028
     1    -0.118348
     2     0.565604
     3     0.707156
     4    -0.292673
     5    -0.200853
     6     0.015689
     7     0.008915
     8     0.290306
     9    -0.032978
    10     0.114669
    11    -0.564592
    12    -0.652864
    13    -0.253186
    14    -0.209556
    15     0.007579
    16     0.000288
    17     0.278350
    18     0.041860
    19    -0.114543
    20     0.564281
    21     0.652245
    22     0.253599
    23    -0.210900
    24     0.007143
    25     0.000263
    26     0.277844
    27     0.042479
    28     0.118406
    29    -0.565968
    30    -0.706724
    31     0.292680
    32    -0.201054
    33     0.014348
    34    -0.009143
    35     0.290938
    36    -0.033607
Sym=    27a
Ene=   -0.934345E-03
Spin= Alpha
Occup= 0.002874
     1    -0.107410
     2     0.574921
     3     0.149911
     4     0.271901
     5     0.511904
     6     0.325238
     7    -0.124537
     8    -0.141256
     9    -0.222301
    10     0.060249
    11    -0.317673
    12    -0.061862
    13     0.138497
    14     0.324403
    15    -0.230055
    16    -0.058022
    17    -0.099130
    18     0.142528
    19     0.107275
    20    -0.574990
    21    -0.154385
    22     0.267539
    23    -0.517003
    24     0.334247
    25    -0.114268
    26     0.134437
    27    -0.224321
    28    -0.059994
    29     0.315522
    30     0.067807
    31     0.131967
    32    -0.324988
    33    -0.236267
    34    -0.051179
    35     0.099902
    36     0.150417
Sym=    28a
Ene=   -0.126948E-03
Spin= Alpha
Occup= 0.000173
     1    -0.011400
     2     0.109953
     3    -1.514205
     4     0.010943
     5    -0.093942
     6     0.970505
     7     0.268537
     8    -0.124118
     9     0.837048
    10    -0.062380
    11     0.377427
    12    -1.697136
    13    -0.436018
    14     0.315989
    15     0.420553
    16    -0.162289
    17     0.232443
    18     0.787543
    19     0.062062
    20    -0.398124
    21     1.630128
    22     0.421035
    23     0.321954
    24     0.410668
    25     0.164168
    26     0.225474
    27     0.828234
    28     0.016851
    29    -0.172027
    30     1.622553
    31    -0.054481
    32    -0.106255
    33     0.932157
    34    -0.340879
    35    -0.188684
    36     0.747696
Sym=    29a
Ene=   -0.164370E-04
Spin= Alpha
Occup= 0.000003
     1     0.047565
     2    -0.347297
     3     1.502540
     4    -0.254748
     5     0.162791
     6    -0.089709
     7    -0.376157
     8     0.693503
     9     0.334701
    10     0.064719
    11    -0.566911
    12    -2.417082
    13    -0.808908
    14     0.411484
    15    -0.503174
    16    -1.879877
    17     1.308194
    18    -0.266954
    19    -0.007470
    20     0.045326
    21     0.587053
    22    -0.078004
    23     0.005532
    24    -0.134071
    25     0.345174
    26     0.156797
    27     0.752537
    28    -0.003678
    29    -0.030628
    30     0.986602
    31     0.014456
    32     0.052354
    33     0.030790
    34    -0.390663
    35    -0.243037
    36     0.340384
Sym=    30a
Ene=   -0.681871E-05
Spin= Alpha
Occup= 0.000001
     1     0.038962
     2    -0.272176
     3    -0.065529
     4    -0.110099
     5     0.183691
     6    -0.057204
     7    -0.083080
     8    -1.015369
     9    -0.184232
    10    -0.021543
    11     0.124578
    12    -0.450438
    13    -0.085563
    14     0.119508
    15     0.070047
    16     0.681044
    17    -0.012067
    18     0.616202
    19    -0.002072
    20     0.024548
    21     0.872144
    22    -0.448228
    23     0.796489
    24    -0.235164
    25    -0.932800
    26     2.117476
    27    -0.410337
    28    -0.017334
    29     0.100647
    30    -0.360708
    31     0.028729
    32     0.087100
    33    -0.040499
    34     0.529451
    35    -0.115584
    36     0.397718
Sym=    31a
Ene=   -0.111234E-04
Spin= Alpha
Occup= 0.000002
     1    -0.031091
     2     0.219970
     3    -0.381736
     4     0.119575
     5    -0.130242
     6     0.053874
     7    -0.721471
     8    -0.076872
     9     0.120634
    10     0.027014
    11    -0.187864
    12     0.367922
    13     0.097197
    14    -0.145023
    15    -0.141749
    16     0.198017
    17     0.762094
    18    -0.301048
    19     0.005591
    20    -0.038301
    21     0.349747
    22     0.097229
    23    -0.010967
    24    -0.029242
    25    -0.329665
    26     0.419899
    27     0.104431
    28     0.014983
    29    -0.122116
    30    -0.231817
    31     0.838062
    32    -0.521718
    33     0.094145
    34     1.757098
    35    -1.278226
    36    -0.011368
Sym=    32a
Ene=   -0.129769E-05
Spin= Alpha
Occup= 0.000000
     1     0.018513
     2    -0.082852
     3    -2.983932
     4    -0.129265
     5     0.138396
     6     0.533308
     7    -0.408026
     8    -0.215803
     9     2.970149
    10    -0.018108
    11     0.225265
    12    -0.774228
    13    -0.080061
    14     0.059334
    15    -0.018415
    16    -0.858762
    17     0.171381
    18    -0.975142
    19     0.008235
    20    -0.004675
    21     1.937760
    22     0.035708
    23     0.032432
    24    -0.035720
    25     1.382563
    26    -0.158112
    27    -0.209678
    28     0.017986
    29    -0.041681
    30     1.926704
    31    -0.031906
    32    -0.073237
    33    -0.057433
    34     0.824477
    35    -0.758865
    36     1.164403
Sym=    33a
Ene=    0.000000E+00
Spin= Alpha
Occup= 0.000000
     1     0.031829
     2    -1.149343
     3     1.682928
     4    -0.119739
     5     0.111723
     6    -0.109736
     7    -1.602482
     8     0.499157
     9    -0.675218
    10     0.028346
    11    -1.113704
    12    -1.295744
    13     0.111227
    14    -0.106073
    15    -0.120552
    16    -0.379780
    17    -0.695309
    18    -0.484540
    19     0.028927
    20    -1.126403
    21    -3.823017
    22     0.109171
    23     0.099400
    24     0.102051
    25    -0.535197
    26    -0.351927
    27    -0.208772
    28     0.033729
    29    -1.154425
    30     4.938761
    31    -0.123741
    32    -0.121206
    33     0.180720
    34    -1.845788
    35    -1.640687
    36     1.656989
Sym=    34a
Ene=    0.000000E+00
Spin= Alpha
Occup= 0.000000
     1     0.007420
     2    -0.276517
     3    -2.171678
     4    -0.019024
     5     0.021149
     6    -0.022655
     7     1.518105
     8     1.556661
     9     1.119510
    10     0.003402
    11    -0.260726
    12    -6.720764
    13    -0.001659
    14     0.003127
    15     0.004710
    16     0.291475
    17     2.696038
    18     1.962169
    19     0.018704
    20    -0.356366
    21    18.697014
    22     0.118746
    23     0.110731
    24     0.125998
    25     4.437401
    26     4.876068
    27     4.298750
    28     0.000927
    29    -0.240239
    30    -9.430192
    31     0.015325
    32     0.016086
    33    -0.022146
    34     2.570569
    35     3.112270
    36    -0.575852
Sym=    35a
Ene=    0.000000E+00
Spin= Alpha
Occup= 0.000000
     1     0.009903
     2    -0.009074
     3    19.206506
     4    -0.085003
     5     0.074435
     6    -0.070438
     7    -4.554476
     8     4.680025
     9    -4.152940
    10    -0.007523
    11     0.117319
    12    -8.095942
    13    -0.052233
    14     0.045257
    15     0.044078
    16    -2.731262
    17     2.989743
    18     0.068561
    19    -0.003646
    20     0.086217
    21    -3.760522
    22    -0.019931
    23    -0.021002
    24    -0.030935
    25    -1.763856
    26     1.027657
    27    -2.017654
    28    -0.005527
    29     0.098465
    30    -7.441416
    31     0.042882
    32     0.036124
    33    -0.039364
    34     0.224301
    35     2.879740
    36    -2.253465
Sym=    36a
Ene=    0.000000E+00
Spin= Alpha
Occup= 0.000000
     1     0.004421
     2    -0.185445
     3     0.631747
     4    -0.023757
     5     0.017889
     6    -0.009782
     7     1.077313
     8     0.005679
     9    -1.758523
    10     0.014391
    11    -0.247611
    12    16.557166
    13     0.094365
    14    -0.090075
    15    -0.108007
    16     4.189038
    17    -2.933948
    18    -4.843906
    19     0.003894
    20    -0.187112
    21    -2.304343
    22     0.012801
    23     0.008735
    24     0.003515
    25     1.307375
    26    -0.481771
    27    -2.221727
    28    -0.002802
    29    -0.128155
    30   -14.638568
    31     0.048622
    32     0.040302
    33    -0.043711
    34     3.992407
    35     2.041816
    36    -3.961574
