[Molden Format]
p30-5 set                                                                       
[Atoms] AU
 F        1     9        0.0000        0.0000        0.0000
[GTO]
    1 0
s    5 1.00
    2894.832599000000 -0.534932117607E-02
     435.419391200000 -0.399677343716E-01
      98.843328866000 -0.179412617888E+00
      27.485198001000 -0.468324686869E+00
       8.540549817100 -0.447241605328E+00
s    1 1.00
       1.065457803800  0.100000000000E+01
s    1 1.00
       0.332473467480  0.100000000000E+01
p    3 1.00
      22.696633924000 -0.647821482412E-01
       4.987233925700 -0.340357853553E+00
       1.349161395400 -0.734858153660E+00
p    1 1.00
       0.348298819770  0.100000000000E+01
d    1 1.00
       1.400000000000  0.100000000000E+01
 
[MO]
Sym=     1a
Ene=   -0.263849E+02
Spin= Alpha
Occup= 1.999983
     1     0.991903
     2    -0.029416
     3     0.009114
     4     0.000001
     5    -0.000004
     6    -0.000015
     7    -0.000004
     8     0.000005
     9     0.000014
    10     0.005771
    11     0.005451
    12     0.005423
    13    -0.000141
    14     0.000083
    15    -0.000026
Sym=     2a
Ene=   -0.992201E+00
Spin= Alpha
Occup= 1.993822
     1     0.174947
     2     0.368994
     3     0.260982
     4     0.013117
     5    -0.248965
     6    -0.502629
     7    -0.008847
     8     0.167854
     9     0.338875
    10     0.002543
    11     0.003215
    12     0.003190
    13     0.000312
    14    -0.000175
    15    -0.000005
Sym=     3a
Ene=   -0.991810E+00
Spin= Alpha
Occup= 1.993815
     1    -0.174857
     2    -0.368724
     3    -0.260806
     4     0.183989
     5     0.282690
     6    -0.448602
     7    -0.124045
     8    -0.190591
     9     0.302451
    10    -0.002535
    11    -0.003205
    12    -0.003214
    13    -0.000282
    14     0.000135
    15    -0.000126
Sym=     4a
Ene=   -0.991778E+00
Spin= Alpha
Occup= 1.993813
     1     0.174842
     2     0.368708
     3     0.260794
     4     0.170869
     5     0.531858
     6     0.054379
     7    -0.115200
     8    -0.358587
     9    -0.036660
    10     0.002531
    11     0.003110
    12     0.003298
    13     0.000264
    14    -0.000184
    15     0.000045
Sym=     5a
Ene=   -0.415623E+00
Spin= Alpha
Occup= 1.000000
     1    -0.000000
     2    -0.000005
     3    -0.000003
     4    -0.665180
     5     0.226970
     6    -0.129788
     7     0.401626
     8    -0.137042
     9     0.078363
    10     0.000002
    11     0.000002
    12     0.000003
    13     0.000002
    14     0.000000
    15     0.000001
Sym=     6a
Ene=   -0.861608E-02
Spin= Alpha
Occup= 0.005601
     1     0.235198
     2     1.059917
     3    -0.787163
     4     0.225576
     5     0.702099
     6     0.071743
     7     0.257664
     8     0.801968
     9     0.081945
    10    -0.168993
    11     0.020122
    12    -0.182841
    13     0.078417
    14     0.006593
    15     0.024684
Sym=     7a
Ene=   -0.861453E-02
Spin= Alpha
Occup= 0.005598
     1     0.235222
     2     1.059997
     3    -0.787151
     4    -0.242879
     5    -0.373225
     6     0.592170
     7    -0.277426
     8    -0.426314
     9     0.676402
    10    -0.165689
    11    -0.127382
    12    -0.038764
    13     0.045776
    14    -0.070434
    15    -0.106026
Sym=     8a
Ene=   -0.861301E-02
Spin= Alpha
Occup= 0.005595
     1     0.235341
     2     1.060491
     3    -0.787447
     4     0.017284
     5    -0.328682
     6    -0.663596
     7     0.019741
     8    -0.375437
     9    -0.757994
    10    -0.190250
    11    -0.140517
    12    -0.001314
    13    -0.000580
    14    -0.006682
    15     0.105541
Sym=     9a
Ene=   -0.357083E-04
Spin= Alpha
Occup= 0.000001
     1    -0.000032
     2    -0.000103
     3    -0.000037
     4     0.832211
     5    -0.283986
     6     0.162240
     7     0.985462
     8    -0.336278
     9     0.192123
    10    -0.012326
    11    -0.016140
    12     0.028647
    13     0.030425
    14     0.083400
    15    -0.024152
Sym=    10a
Ene=   -0.141675E-02
Spin= Alpha
Occup= 0.000587
     1     0.071569
     2     0.249589
     3    -0.007961
     4     0.037125
     5     0.115104
     6     0.011791
     7     0.042443
     8     0.131573
     9     0.013482
    10     0.315080
    11    -0.927182
    12     0.303049
    13    -0.516981
    14    -0.016976
    15    -0.157802
Sym=    11a
Ene=   -0.141688E-02
Spin= Alpha
Occup= 0.000587
     1    -0.071567
     2    -0.249603
     3     0.007994
     4     0.039502
     5     0.061325
     6    -0.097184
     7     0.045142
     8     0.070106
     9    -0.111095
    10    -0.293413
    11     0.027619
    12     0.574820
    13     0.319199
    14    -0.453540
    15    -0.638127
Sym=    12a
Ene=   -0.141385E-02
Spin= Alpha
Occup= 0.000583
     1    -0.071667
     2    -0.250010
     3     0.008229
     4    -0.002281
     5     0.053711
     6     0.108923
     7    -0.002586
     8     0.061389
     9     0.124512
    10    -0.443461
    11    -0.050758
    12     0.803464
    13     0.034986
    14    -0.066009
    15     0.651314
Sym=    13a
Ene=   -0.481335E-03
Spin= Alpha
Occup= 0.000016
     1    -0.573921
     2    -1.487196
     3    -1.549479
     4    -0.000151
     5     0.000025
     6    -0.000047
     7    -0.000181
     8     0.000029
     9    -0.000053
    10     1.401371
    11     1.270990
    12     1.260179
    13    -0.057668
    14     0.034613
    15    -0.011731
Sym=    14a
Ene=    0.000000E+00
Spin= Alpha
Occup= 0.000000
     1     0.000007
     2    -0.000002
     3     0.000070
     4     0.000077
     5     0.000136
     6    -0.000165
     7     0.000089
     8     0.000153
     9    -0.000191
    10    -0.575730
    11     0.492542
    12     0.083100
    13    -0.720752
    14     0.179154
    15    -0.247201
Sym=    15a
Ene=    0.000000E+00
Spin= Alpha
Occup= 0.000000
     1     0.000563
     2     0.001110
     3     0.002631
     4    -0.080542
     5     0.027673
     6    -0.015534
     7    -0.095376
     8     0.032761
     9    -0.018403
    10    -0.131158
    11    -0.170956
    12     0.297251
    13     0.312473
    14     0.862761
    15    -0.242617
