[Molden Format]
p30-5 set                                                                       
[Atoms] AU
 N        1     7        0.0000        0.0000       -0.0400
 N        2     7        0.0000        0.0000       -2.1589
 O        3     8        0.0000        0.0000        2.1990
[GTO]
    1 0
s    8 1.00
   90726.889209999994  0.709823458931E-04
   13590.528801000000  0.551712516430E-03
    3092.988378100000  0.289306784498E-02
     875.998763620000  0.121112121501E-01
     285.744699820000  0.428341278115E-01
     103.119134170000  0.129198809022E+00
      40.128556777000  0.318818920022E+00
      16.528095704000  0.590844885361E+00
s    2 1.00
      69.390960983000  0.946592131797E-01
      20.428200596000  0.925496499302E+00
s    1 1.00
       7.129258797200  0.100000000000E+01
s    1 1.00
       3.132430489300  0.100000000000E+01
s    1 1.00
       0.987557787230  0.100000000000E+01
s    1 1.00
       0.387657213070  0.100000000000E+01
s    1 1.00
       0.149098830750  0.100000000000E+01
p    5 1.00
     150.057426700000 -0.245005115632E-02
      35.491599483000 -0.194862674953E-01
      11.247864223000 -0.903555190079E-01
       4.090030519500 -0.299446872557E+00
       1.622057314600 -0.696789730227E+00
p    1 1.00
       0.664422615300  0.100000000000E+01
p    1 1.00
       0.270997700700  0.100000000000E+01
p    1 1.00
       0.106887499840  0.100000000000E+01
d    1 1.00
       2.837000000000  0.100000000000E+01
d    1 1.00
       0.968000000000  0.100000000000E+01
d    1 1.00
       0.335000000000  0.100000000000E+01
f    1 1.00
       2.027000000000  0.100000000000E+01
f    1 1.00
       0.685000000000  0.100000000000E+01
g    1 1.00
       1.427000000000  0.100000000000E+01

    2 0
s    8 1.00
   90726.889209999994  0.709823458931E-04
   13590.528801000000  0.551712516430E-03
    3092.988378100000  0.289306784498E-02
     875.998763620000  0.121112121501E-01
     285.744699820000  0.428341278115E-01
     103.119134170000  0.129198809022E+00
      40.128556777000  0.318818920022E+00
      16.528095704000  0.590844885361E+00
s    2 1.00
      69.390960983000  0.946592131797E-01
      20.428200596000  0.925496499302E+00
s    1 1.00
       7.129258797200  0.100000000000E+01
s    1 1.00
       3.132430489300  0.100000000000E+01
s    1 1.00
       0.987557787230  0.100000000000E+01
s    1 1.00
       0.387657213070  0.100000000000E+01
s    1 1.00
       0.149098830750  0.100000000000E+01
p    5 1.00
     150.057426700000 -0.245005115632E-02
      35.491599483000 -0.194862674953E-01
      11.247864223000 -0.903555190079E-01
       4.090030519500 -0.299446872557E+00
       1.622057314600 -0.696789730227E+00
p    1 1.00
       0.664422615300  0.100000000000E+01
p    1 1.00
       0.270997700700  0.100000000000E+01
p    1 1.00
       0.106887499840  0.100000000000E+01
d    1 1.00
       2.837000000000  0.100000000000E+01
d    1 1.00
       0.968000000000  0.100000000000E+01
d    1 1.00
       0.335000000000  0.100000000000E+01
f    1 1.00
       2.027000000000  0.100000000000E+01
f    1 1.00
       0.685000000000  0.100000000000E+01
g    1 1.00
       1.427000000000  0.100000000000E+01

    3 0
s    8 1.00
  116506.469079999995  0.719875757604E-04
   17504.349724000000  0.557148772252E-03
    3993.451323000000  0.291300316833E-02
    1133.006318600000  0.121720510774E-01
     369.995695940000  0.430037618269E-01
     133.620743490000  0.129647623897E+00
      52.035643649000  0.319696085629E+00
      21.461939313000  0.589314587967E+00
s    2 1.00
      89.835051252000  0.948480527627E-01
      26.428010844000  0.925363787917E+00
s    1 1.00
       9.282282464900  0.100000000000E+01
s    1 1.00
       4.094772853300  0.100000000000E+01
s    1 1.00
       1.325534907800  0.100000000000E+01
s    1 1.00
       0.518772307870  0.100000000000E+01
s    1 1.00
       0.197726764540  0.100000000000E+01
p    5 1.00
     191.152558100000  0.253595741393E-02
      45.233356739000  0.202338242941E-01
      14.353465922000  0.945180199981E-01
       5.242237183200  0.309154328074E+00
       2.079241859900  0.684689495338E+00
p    1 1.00
       0.842823714240  0.100000000000E+01
p    1 1.00
       0.336176948910  0.100000000000E+01
p    1 1.00
       0.128639979740  0.100000000000E+01
d    1 1.00
       3.775000000000  0.100000000000E+01
d    1 1.00
       1.300000000000  0.100000000000E+01
d    1 1.00
       0.444000000000  0.100000000000E+01
f    1 1.00
       2.666000000000  0.100000000000E+01
f    1 1.00
       0.859000000000  0.100000000000E+01
g    1 1.00
       1.846000000000  0.100000000000E+01

[MO]
Sym=     1a
Ene=   -0.206135E+02
Spin= Alpha
Occup= 1.999735
     1    -0.000388
     2    -0.000058
     3    -0.000418
     4    -0.000575
     5     0.000449
     6     0.001139
     7    -0.000456
     8     0.000002
     9     0.000004
    10    -0.001392
    11    -0.000003
    12    -0.000004
    13    -0.000127
    14    -0.000001
    15    -0.000005
    16    -0.004276
    17    -0.000001
    18     0.000003
    19     0.001622
    20    -0.000022
    21    -0.000022
    22    -0.000326
    23    -0.000000
    24    -0.000000
    25    -0.000000
    26    -0.001273
    27    -0.001273
    28     0.001461
    29     0.000000
    30    -0.000001
    31    -0.000001
    32    -0.000497
    33    -0.000497
    34     0.000924
    35    -0.000000
    36    -0.000001
    37    -0.000002
    38    -0.000000
    39     0.000000
    40     0.000280
    41     0.000000
    42    -0.000000
    43     0.000061
    44    -0.000000
    45    -0.000000
    46     0.000061
    47    -0.000000
    48     0.000000
    49     0.000001
    50    -0.001273
    51    -0.000001
    52    -0.000001
    53     0.000314
    54    -0.000001
    55    -0.000001
    56     0.000314
    57     0.000000
    58    -0.002306
    59     0.000000
    60    -0.000120
    61     0.000000
    62     0.000422
    63     0.000000
    64     0.000000
    65     0.000000
    66    -0.000000
    67    -0.000120
    68     0.000000
    69     0.000247
    70     0.000000
    71    -0.000000
    72     0.000422
    73    -0.000017
    74     0.000000
    75    -0.000061
    76    -0.001085
    77     0.000325
    78     0.000406
    79     0.003273
    80    -0.000001
    81    -0.000002
    82     0.000154
    83     0.000001
    84     0.000002
    85    -0.000856
    86     0.000000
    87     0.000003
    88    -0.001458
    89     0.000002
    90    -0.000000
    91     0.000374
    92    -0.000128
    93    -0.000128
    94    -0.000351
    95    -0.000000
    96     0.000000
    97    -0.000000
    98    -0.002403
    99    -0.002404
   100    -0.000778
   101     0.000000
   102    -0.000000
   103     0.000000
   104    -0.001134
   105    -0.001133
   106    -0.001552
   107     0.000000
   108     0.000000
   109    -0.000000
   110    -0.000000
   111    -0.000000
   112     0.000269
   113     0.000000
   114    -0.000000
   115    -0.000008
   116    -0.000000
   117    -0.000000
   118    -0.000008
   119    -0.000000
   120     0.000000
   121     0.000000
   122     0.000292
   123    -0.000000
   124    -0.000000
   125    -0.000151
   126     0.000000
   127    -0.000000
   128    -0.000151
   129     0.000000
   130    -0.000012
   131    -0.000000
   132     0.000059
   133    -0.000000
   134     0.000699
   135     0.000000
   136     0.000000
   137     0.000000
   138    -0.000000
   139     0.000059
   140    -0.000000
   141     0.000409
   142    -0.000000
   143     0.000000
   144     0.000699
   145    -0.565273
   146    -0.000519
   147    -0.371441
   148    -0.160522
   149    -0.004929
   150     0.009242
   151     0.007436
   152    -0.000009
   153    -0.000012
   154     0.006145
   155    -0.000009
   156    -0.000011
   157     0.000337
   158    -0.000008
   159    -0.000008
   160    -0.000137
   161    -0.000002
   162    -0.000007
   163     0.001533
   164     0.001230
   165     0.001231
   166     0.000333
   167     0.000000
   168     0.000000
   169     0.000001
   170     0.009148
   171     0.009144
   172     0.012690
   173    -0.000002
   174    -0.000001
   175    -0.000004
   176     0.002376
   177     0.002376
   178     0.003017
   179     0.000000
   180    -0.000000
   181     0.000001
   182     0.000005
   183     0.000008
   184    -0.000890
   185    -0.000006
   186    -0.000010
   187    -0.000320
   188     0.000000
   189     0.000000
   190    -0.000319
   191     0.000000
   192    -0.000005
   193    -0.000010
   194     0.000563
   195     0.000008
   196     0.000014
   197     0.000605
   198     0.000001
   199    -0.000001
   200     0.000605
   201     0.000000
   202    -0.003525
   203     0.000002
   204    -0.001790
   205     0.000001
   206    -0.002233
   207     0.000001
   208     0.000000
   209     0.000001
   210     0.000001
   211    -0.001791
   212     0.000001
   213    -0.001309
   214     0.000000
   215     0.000000
   216    -0.002236
Sym=     2a
Ene=   -0.158315E+02
Spin= Alpha
Occup= 1.999594
     1    -0.557600
     2     0.000313
     3    -0.371735
     4    -0.168545
     5    -0.004904
     6     0.004282
     7     0.000527
     8    -0.000018
     9    -0.000056
    10    -0.000377
    11     0.000020
    12     0.000060
    13     0.002273
    14     0.000014
    15     0.000046
    16     0.000959
    17     0.000003
    18     0.000012
    19    -0.000526
    20     0.000617
    21     0.000615
    22     0.001174
    23    -0.000000
    24    -0.000001
    25    -0.000002
    26     0.007277
    27     0.007279
    28     0.005321
    29    -0.000001
    30    -0.000002
    31    -0.000004
    32     0.001555
    33     0.001550
    34     0.002782
    35    -0.000000
    36    -0.000002
    37    -0.000009
    38     0.000004
    39    -0.000003
    40     0.000299
    41    -0.000006
    42     0.000003
    43    -0.000022
    44     0.000000
    45     0.000001
    46    -0.000022
    47     0.000000
    48    -0.000007
    49     0.000003
    50    -0.000918
    51     0.000009
    52    -0.000006
    53    -0.000268
    54     0.000000
    55     0.000002
    56    -0.000269
    57     0.000000
    58    -0.000423
    59    -0.000001
    60    -0.000695
    61    -0.000001
    62    -0.002078
    63    -0.000000
    64    -0.000000
    65    -0.000001
    66     0.000000
    67    -0.000694
    68     0.000000
    69    -0.001216
    70     0.000001
    71     0.000000
    72    -0.002075
    73    -0.000428
    74    -0.000068
    75    -0.000615
    76    -0.000087
    77     0.001493
    78    -0.001277
    79    -0.001969
    80    -0.000016
    81    -0.000048
    82    -0.003109
    83     0.000017
    84     0.000050
    85     0.002961
    86     0.000015
    87     0.000043
    88     0.001065
    89     0.000005
    90     0.000012
    91     0.000401
    92    -0.000089
    93    -0.000090
    94     0.000089
    95    -0.000000
    96     0.000001
    97     0.000002
    98     0.000353
    99     0.000356
   100     0.000903
   101    -0.000000
   102     0.000002
   103     0.000006
   104     0.000006
   105     0.000003
   106     0.000155
   107     0.000000
   108     0.000003
   109     0.000006
   110     0.000001
   111    -0.000001
   112     0.000033
   113    -0.000002
   114     0.000001
   115    -0.000040
   116     0.000000
   117     0.000001
   118    -0.000040
   119    -0.000000
   120    -0.000007
   121     0.000003
   122     0.000025
   123     0.000008
   124    -0.000005
   125    -0.000086
   126     0.000001
   127     0.000001
   128    -0.000087
   129     0.000000
   130    -0.000109
   131     0.000000
   132    -0.000102
   133     0.000001
   134    -0.000166
   135     0.000000
   136    -0.000000
   137     0.000002
   138    -0.000000
   139    -0.000102
   140    -0.000001
   141    -0.000096
   142    -0.000002
   143     0.000000
   144    -0.000164
   145    -0.000442
   146    -0.000078
   147    -0.000581
   148    -0.000251
   149     0.001184
   150     0.000740
   151    -0.001720
   152    -0.000000
   153     0.000001
   154    -0.004621
   155     0.000000
   156     0.000001
   157    -0.004417
   158    -0.000001
   159    -0.000000
   160    -0.002073
   161    -0.000003
   162    -0.000011
   163    -0.000707
   164    -0.000058
   165    -0.000058
   166     0.000059
   167    -0.000000
   168    -0.000000
   169    -0.000001
   170    -0.000198
   171    -0.000198
   172     0.000900
   173     0.000000
   174    -0.000001
   175    -0.000001
   176    -0.000404
   177    -0.000403
   178     0.000006
   179    -0.000000
   180    -0.000001
   181    -0.000003
   182    -0.000000
   183     0.000000
   184    -0.000150
   185    -0.000000
   186    -0.000001
   187    -0.000006
   188     0.000000
   189     0.000000
   190    -0.000006
   191    -0.000000
   192     0.000004
   193     0.000005
   194    -0.000209
   195    -0.000006
   196    -0.000008
   197    -0.000103
   198     0.000000
   199     0.000001
   200    -0.000104
   201     0.000000
   202    -0.000278
   203    -0.000001
   204    -0.000041
   205    -0.000001
   206     0.000002
   207    -0.000000
   208    -0.000000
   209     0.000001
   210    -0.000000
   211    -0.000041
   212     0.000002
   213     0.000001
   214    -0.000001
   215     0.000000
   216     0.000003
Sym=     3a
Ene=   -0.156902E+02
Spin= Alpha
Occup= 1.999578
     1     0.000386
     2     0.000064
     3     0.000305
     4     0.001381
     5     0.000361
     6    -0.014795
     7    -0.000580
     8     0.000015
     9     0.000046
    10    -0.001593
    11    -0.000016
    12    -0.000048
    13    -0.003418
    14    -0.000011
    15    -0.000038
    16    -0.006813
    17    -0.000003
    18    -0.000008
    19    -0.000455
    20     0.000031
    21     0.000032
    22    -0.000228
    23     0.000000
    24     0.000000
    25     0.000001
    26     0.002341
    27     0.002340
    28     0.004617
    29     0.000000
    30     0.000002
    31     0.000005
    32     0.001406
    33     0.001410
    34    -0.011183
    35     0.000000
    36     0.000002
    37     0.000008
    38    -0.000001
    39     0.000001
    40    -0.000140
    41     0.000001
    42    -0.000001
    43     0.000094
    44    -0.000000
    45    -0.000001
    46     0.000094
    47    -0.000000
    48     0.000006
    49    -0.000003
    50    -0.004346
    51    -0.000008
    52     0.000005
    53     0.000714
    54    -0.000001
    55    -0.000003
    56     0.000714
    57    -0.000000
    58    -0.000186
    59     0.000000
    60    -0.000543
    61     0.000001
    62    -0.000625
    63     0.000000
    64    -0.000000
    65     0.000002
    66     0.000000
    67    -0.000543
    68    -0.000002
    69    -0.000367
    70    -0.000002
    71     0.000000
    72    -0.000626
    73     0.558270
    74    -0.000171
    75     0.372842
    76     0.168000
    77     0.001372
    78     0.000943
    79    -0.009380
    80     0.000015
    81     0.000049
    82    -0.008063
    83    -0.000016
    84    -0.000050
    85    -0.003626
    86    -0.000014
    87    -0.000044
    88     0.001128
    89    -0.000004
    90    -0.000014
    91     0.001543
    92    -0.000780
    93    -0.000777
    94    -0.001301
    95     0.000000
    96    -0.000001
    97    -0.000002
    98    -0.009263
    99    -0.009268
   100    -0.007152
   101    -0.000000
   102    -0.000001
   103    -0.000004
   104    -0.001607
   105    -0.001603
   106    -0.002503
   107     0.000000
   108    -0.000002
   109    -0.000006
   110    -0.000003
   111     0.000004
   112    -0.000313
   113     0.000004
   114    -0.000002
   115     0.000013
   116    -0.000000
   117    -0.000001
   118     0.000013
   119     0.000000
   120     0.000007
   121    -0.000003
   122     0.003231
   123    -0.000009
   124     0.000007
   125     0.002249
   126    -0.000000
   127    -0.000001
   128     0.002249
   129     0.000000
   130    -0.000486
   131    -0.000001
   132     0.000764
   133    -0.000001
   134     0.002531
   135    -0.000001
   136     0.000000
   137    -0.000002
   138     0.000000
   139     0.000763
   140     0.000001
   141     0.001481
   142     0.000001
   143     0.000000
   144     0.002528
   145     0.000011
   146     0.000010
   147    -0.000035
   148     0.001658
   149    -0.001366
   150     0.006517
   151     0.002464
   152     0.000002
   153     0.000004
   154    -0.000502
   155     0.000002
   156     0.000004
   157    -0.001255
   158     0.000002
   159     0.000006
   160    -0.009465
   161     0.000003
   162     0.000010
   163     0.000164
   164     0.000093
   165     0.000093
   166     0.000145
   167    -0.000000
   168     0.000000
   169     0.000000
   170     0.003029
   171     0.003029
   172     0.003078
   173     0.000000
   174     0.000000
   175     0.000001
   176     0.001996
   177     0.001996
   178     0.006000
   179    -0.000000
   180     0.000000
   181     0.000001
   182     0.000000
   183     0.000000
   184    -0.000121
   185    -0.000000
   186    -0.000000
   187    -0.000088
   188    -0.000000
   189    -0.000000
   190    -0.000088
   191    -0.000000
   192     0.000000
   193     0.000001
   194    -0.001080
   195     0.000000
   196    -0.000001
   197    -0.000382
   198    -0.000000
   199    -0.000000
   200    -0.000382
   201    -0.000000
   202    -0.000842
   203     0.000000
   204    -0.000450
   205    -0.000000
   206    -0.000992
   207     0.000000
   208    -0.000000
   209     0.000000
   210    -0.000000
   211    -0.000450
   212     0.000001
   213    -0.000581
   214    -0.000000
   215     0.000000
   216    -0.000992
Sym=     4a
Ene=   -0.805454E+00
Spin= Alpha
Occup= 1.990962
     1    -0.017509
     2    -0.002923
     3    -0.024839
     4     0.010470
     5     0.067285
     6     0.052633
     7    -0.017475
     8    -0.000071
     9    -0.000209
    10     0.044685
    11     0.000076
    12     0.000222
    13    -0.042101
    14     0.000071
    15     0.000223
    16    -0.037495
    17     0.000025
    18     0.000072
    19     0.014367
    20     0.001285
    21     0.001274
    22     0.001181
    23     0.000000
    24    -0.000002
    25    -0.000007
    26     0.053350
    27     0.053414
    28     0.055399
    29     0.000001
    30    -0.000004
    31    -0.000006
    32     0.034141
    33     0.034124
    34     0.053958
    35     0.000003
    36    -0.000013
    37    -0.000049
    38     0.000000
    39    -0.000003
    40    -0.001802
    41    -0.000001
    42     0.000000
    43     0.000603
    44     0.000001
    45     0.000002
    46     0.000603
    47     0.000000
    48    -0.000007
    49    -0.000002
    50     0.003721
    51     0.000007
    52    -0.000007
    53     0.001209
    54     0.000002
    55     0.000004
    56     0.001195
    57    -0.000001
    58    -0.012164
    59    -0.000007
    60    -0.008958
    61    -0.000005
    62    -0.013708
    63    -0.000001
    64     0.000000
    65    -0.000004
    66     0.000000
    67    -0.008950
    68     0.000001
    69    -0.008018
    70     0.000002
    71    -0.000000
    72    -0.013677
    73     0.081011
    74     0.014858
    75     0.111152
    76     0.056766
    77    -0.242957
    78    -0.498806
    79    -0.272327
    80    -0.000054
    81    -0.000110
    82    -0.197728
    83     0.000057
    84     0.000120
    85     0.189893
    86     0.000046
    87     0.000071
    88     0.133517
    89     0.000020
    90     0.000022
    91     0.058566
    92    -0.003940
    93    -0.003937
    94     0.000221
    95     0.000000
    96     0.000003
    97     0.000008
    98    -0.016161
    99    -0.016162
   100     0.002245
   101    -0.000006
   102     0.000002
   103     0.000015
   104    -0.010624
   105    -0.010621
   106    -0.005003
   107    -0.000003
   108     0.000005
   109     0.000032
   110     0.000013
   111    -0.000009
   112     0.001081
   113    -0.000018
   114     0.000011
   115    -0.000651
   116     0.000001
   117     0.000004
   118    -0.000654
   119    -0.000001
   120     0.000072
   121    -0.000055
   122     0.000768
   123    -0.000100
   124     0.000061
   125     0.000130
   126     0.000000
   127     0.000009
   128     0.000105
   129    -0.000004
   130     0.000780
   131     0.000003
   132     0.000392
   133     0.000010
   134     0.002853
   135     0.000003
   136     0.000001
   137     0.000013
   138     0.000001
   139     0.000380
   140    -0.000004
   141     0.001671
   142    -0.000008
   143    -0.000000
   144     0.002855
   145     0.001625
   146     0.000308
   147     0.001974
   148     0.005760
   149    -0.006702
   150    -0.035656
   151    -0.033406
   152    -0.000023
   153    -0.000065
   154     0.012428
   155    -0.000022
   156    -0.000060
   157     0.015470
   158    -0.000025
   159    -0.000065
   160     0.033110
   161    -0.000037
   162    -0.000107
   163     0.007125
   164     0.000382
   165     0.000381
   166     0.000012
   167    -0.000000
   168    -0.000000
   169    -0.000001
   170     0.008996
   171     0.008997
   172     0.007836
   173     0.000000
   174    -0.000001
   175    -0.000003
   176     0.003331
   177     0.003332
   178    -0.006820
   179    -0.000001
   180    -0.000000
   181    -0.000004
   182    -0.000000
   183    -0.000001
   184     0.000116
   185    -0.000000
   186    -0.000001
   187    -0.000192
   188     0.000000
   189     0.000000
   190    -0.000192
   191    -0.000000
   192    -0.000001
   193    -0.000001
   194     0.001627
   195    -0.000001
   196    -0.000008
   197    -0.000901
   198    -0.000000
   199     0.000001
   200    -0.000904
   201    -0.000000
   202    -0.003547
   203    -0.000002
   204    -0.001476
   205    -0.000002
   206    -0.002365
   207    -0.000001
   208    -0.000000
   209     0.000001
   210    -0.000000
   211    -0.001476
   212     0.000001
   213    -0.001385
   214    -0.000001
   215    -0.000000
   216    -0.002364
Sym=     5a
Ene=   -0.780868E+00
Spin= Alpha
Occup= 1.990714
     1    -0.004172
     2    -0.000778
     3    -0.006251
     4     0.001954
     5     0.017659
     6     0.082167
     7     0.028327
     8    -0.047880
     9    -0.039895
    10    -0.014045
    11     0.048585
    12     0.040491
    13     0.017609
    14     0.030250
    15     0.025189
    16     0.011033
    17     0.002910
    18     0.002469
    19    -0.033365
    20     0.000805
    21     0.001014
    22    -0.000520
    23    -0.000077
    24     0.005296
    25     0.004396
    26     0.014013
    27     0.013568
    28     0.008231
    29     0.000358
    30     0.012085
    31     0.010023
    32     0.012261
    33     0.013711
    34     0.046295
    35    -0.000091
    36     0.023522
    37     0.019513
    38    -0.000469
    39    -0.000389
    40    -0.000222
    41    -0.000213
    42    -0.000183
    43    -0.000064
    44     0.001848
    45     0.001538
    46    -0.000073
    47    -0.000014
    48    -0.000477
    49    -0.000414
    50    -0.002481
    51    -0.000180
    52    -0.000132
    53    -0.000066
    54     0.006933
    55     0.005768
    56    -0.000122
    57     0.000053
    58    -0.001761
    59     0.003901
    60    -0.001603
    61     0.001294
    62    -0.002914
    63     0.004694
    64    -0.000057
    65     0.000700
    66    -0.000118
    67    -0.001742
    68     0.000586
    69    -0.001824
    70     0.001559
    71    -0.000139
    72    -0.003347
    73     0.001891
    74     0.000350
    75     0.002363
    76     0.006379
    77    -0.002723
    78    -0.067044
    79    -0.068561
    80     0.041365
    81     0.034198
    82     0.006282
    83    -0.044519
    84    -0.036807
    85    -0.009819
    86    -0.050448
    87    -0.041717
    88    -0.037541
    89    -0.033885
    90    -0.028130
    91    -0.007557
    92     0.000269
    93     0.000335
    94     0.000328
    95    -0.000001
    96    -0.000426
    97    -0.000349
    98     0.011794
    99     0.011498
   100     0.008499
   101     0.000009
   102     0.000736
   103     0.000625
   104     0.006606
   105     0.006604
   106    -0.005479
   107     0.000056
   108    -0.004836
   109    -0.003989
   110     0.000207
   111     0.000168
   112    -0.000460
   113     0.000092
   114     0.000077
   115    -0.000021
   116     0.000683
   117     0.000569
   118    -0.000010
   119    -0.000004
   120     0.001173
   121     0.000969
   122    -0.002188
   123     0.000518
   124     0.000424
   125    -0.000366
   126    -0.000070
   127    -0.000053
   128    -0.000416
   129     0.000033
   130    -0.002269
   131    -0.000089
   132    -0.001351
   133    -0.000702
   134    -0.002818
   135    -0.000113
   136     0.000006
   137    -0.000380
   138    -0.000014
   139    -0.001396
   140    -0.000315
   141    -0.001699
   142    -0.000845
   143     0.000001
   144    -0.002972
   145     0.056096
   146     0.010708
   147     0.076767
   148     0.013784
   149    -0.156593
   150    -0.261724
   151    -0.127047
   152     0.208463
   153     0.173235
   154    -0.077990
   155     0.205175
   156     0.170499
   157    -0.071903
   158     0.192793
   159     0.160216
   160    -0.032286
   161     0.093963
   162     0.078030
   163    -0.027262
   164    -0.004350
   165    -0.004159
   166    -0.001611
   167    -0.000505
   168    -0.002583
   169    -0.002149
   170    -0.045501
   171    -0.045166
   172    -0.041241
   173    -0.001183
   174    -0.005441
   175    -0.004506
   176    -0.026151
   177    -0.025437
   178    -0.025940
   179    -0.001888
   180    -0.015865
   181    -0.013176
   182    -0.001115
   183    -0.000988
   184    -0.000268
   185    -0.000383
   186    -0.000237
   187     0.000314
   188     0.001221
   189     0.001018
   190     0.000348
   191    -0.000123
   192    -0.002126
   193    -0.001863
   194    -0.000322
   195    -0.000781
   196    -0.000526
   197     0.000167
   198     0.004925
   199     0.004090
   200     0.000202
   201    -0.000178
   202     0.012347
   203    -0.002047
   204     0.006964
   205    -0.000899
   206     0.011367
   207    -0.002454
   208    -0.000004
   209    -0.000460
   210    -0.000013
   211     0.006946
   212    -0.000376
   213     0.006702
   214    -0.001066
   215     0.000029
   216     0.011327
Sym=     6a
Ene=   -0.779872E+00
Spin= Alpha
Occup= 1.990688
     1     0.004425
     2     0.000818
     3     0.006583
     4    -0.001902
     5    -0.018418
     6    -0.082976
     7    -0.027965
     8     0.010358
     9    -0.061219
    10     0.014396
    11    -0.010525
    12     0.062120
    13    -0.017933
    14    -0.006577
    15     0.038585
    16    -0.011028
    17    -0.000644
    18     0.003762
    19     0.033462
    20    -0.001018
    21    -0.000791
    22     0.000478
    23     0.000063
    24    -0.001159
    25     0.006784
    26    -0.013661
    27    -0.014436
    28    -0.008620
    29    -0.000038
    30    -0.002651
    31     0.015479
    32    -0.013550
    33    -0.012645
    34    -0.046764
    35     0.000660
    36    -0.005139
    37     0.030127
    38     0.000102
    39    -0.000608
    40     0.000207
    41     0.000049
    42    -0.000264
    43     0.000060
    44    -0.000400
    45     0.002367
    46     0.000079
    47    -0.000011
    48     0.000128
    49    -0.000557
    50     0.002438
    51     0.000017
    52    -0.000296
    53     0.000149
    54    -0.001506
    55     0.008876
    56     0.000039
    57    -0.000001
    58     0.001782
    59     0.006017
    60     0.001798
    61     0.002004
    62     0.003476
    63    -0.001025
    64     0.000040
    65    -0.000155
    66     0.000084
    67     0.001640
    68     0.000889
    69     0.001871
    70    -0.000340
    71     0.000063
    72     0.002949
    73    -0.001827
    74    -0.000340
    75    -0.002278
    76    -0.006403
    77     0.002544
    78     0.067337
    79     0.068699
    80    -0.009169
    81     0.053003
    82    -0.006143
    83     0.009863
    84    -0.057035
    85     0.009710
    86     0.011161
    87    -0.064576
    88     0.037676
    89     0.007484
    90    -0.043469
    91     0.007467
    92    -0.000323
    93    -0.000286
    94    -0.000341
    95     0.000032
    96     0.000097
    97    -0.000546
    98    -0.011709
    99    -0.011877
   100    -0.008627
   101    -0.000143
   102    -0.000152
   103     0.000931
   104    -0.006615
   105    -0.006697
   106     0.005512
   107     0.000028
   108     0.001084
   109    -0.006180
   110    -0.000046
   111     0.000264
   112     0.000466
   113    -0.000020
   114     0.000117
   115     0.000010
   116    -0.000147
   117     0.000873
   118     0.000023
   119     0.000003
   120    -0.000257
   121     0.001485
   122     0.002214
   123    -0.000110
   124     0.000675
   125     0.000427
   126     0.000023
   127    -0.000090
   128     0.000352
   129    -0.000008
   130     0.002303
   131    -0.000141
   132     0.001401
   133    -0.001083
   134     0.002983
   135     0.000028
   136     0.000025
   137     0.000084
   138     0.000041
   139     0.001385
   140    -0.000482
   141     0.001726
   142     0.000185
   143     0.000052
   144     0.002886
   145    -0.056097
   146    -0.010704
   147    -0.076751
   148    -0.013753
   149     0.156518
   150     0.261845
   151     0.127079
   152    -0.045431
   153     0.267090
   154     0.078774
   155    -0.044715
   156     0.262870
   157     0.072637
   158    -0.042012
   159     0.247043
   160     0.032738
   161    -0.020461
   162     0.120387
   163     0.027525
   164     0.003838
   165     0.004693
   166     0.001600
   167    -0.000156
   168     0.000563
   169    -0.003305
   170     0.044435
   171     0.046371
   172     0.041202
   173    -0.000432
   174     0.001175
   175    -0.006951
   176     0.024285
   177     0.027476
   178     0.025974
   179    -0.000576
   180     0.003453
   181    -0.020296
   182     0.000293
   183    -0.001231
   184     0.000280
   185     0.000013
   186    -0.000754
   187    -0.000436
   188    -0.000267
   189     0.001564
   190    -0.000234
   191    -0.000043
   192     0.000534
   193    -0.002435
   194     0.000335
   195     0.000067
   196    -0.001389
   197    -0.000336
   198    -0.001063
   199     0.006299
   200    -0.000049
   201    -0.000062
   202    -0.012353
   203    -0.003145
   204    -0.006949
   205    -0.001340
   206    -0.011406
   207     0.000542
   208     0.000010
   209     0.000094
   210     0.000041
   211    -0.006965
   212    -0.000627
   213    -0.006623
   214     0.000240
   215    -0.000006
   216    -0.011410
Sym=     7a
Ene=   -0.779512E+00
Spin= Alpha
Occup= 1.990663
     1    -0.004274
     2    -0.000794
     3    -0.006384
     4     0.001924
     5     0.017941
     6     0.082469
     7     0.028188
     8     0.058245
     9    -0.021732
    10    -0.014157
    11    -0.059107
    12     0.022051
    13     0.017731
    14    -0.036812
    15     0.013756
    16     0.011035
    17    -0.003556
    18     0.001367
    19    -0.033397
    20     0.000898
    21     0.000915
    22    -0.000503
    23     0.000142
    24    -0.006470
    25     0.002395
    26     0.014027
    27     0.013705
    28     0.008378
    29    -0.000398
    30    -0.014764
    31     0.005465
    32     0.013270
    33     0.012733
    34     0.046458
    35     0.000764
    36    -0.028741
    37     0.010646
    38     0.000576
    39    -0.000208
    40    -0.000216
    41     0.000254
    42    -0.000101
    43    -0.000081
    44    -0.002250
    45     0.000837
    46    -0.000055
    47     0.000003
    48     0.000540
    49    -0.000233
    50    -0.002433
    51     0.000278
    52    -0.000056
    53    -0.000066
    54    -0.008451
    55     0.003138
    56    -0.000116
    57    -0.000054
    58    -0.001782
    59     0.002121
    60    -0.001680
    61     0.000701
    62    -0.003101
    63    -0.005733
    64     0.000097
    65    -0.000851
    66     0.000204
    67    -0.001698
    68     0.000322
    69    -0.001860
    70    -0.001909
    71     0.000205
    72    -0.003190
    73     0.001857
    74     0.000344
    75     0.002317
    76     0.006376
    77    -0.002619
    78    -0.067052
    79    -0.068571
    80    -0.050704
    81     0.018688
    82     0.006208
    83     0.054561
    84    -0.020114
    85    -0.009733
    86     0.061787
    87    -0.022807
    88    -0.037535
    89     0.041486
    90    -0.015354
    91    -0.007520
    92     0.000318
    93     0.000287
    94     0.000331
    95     0.000033
    96     0.000528
    97    -0.000191
    98     0.011620
    99     0.011755
   100     0.008563
   101    -0.000152
   102    -0.000885
   103     0.000341
   104     0.006663
   105     0.006573
   106    -0.005477
   107    -0.000031
   108     0.005940
   109    -0.002174
   110    -0.000254
   111     0.000092
   112    -0.000460
   113    -0.000114
   114     0.000043
   115    -0.000018
   116    -0.000830
   117     0.000310
   118    -0.000016
   119     0.000008
   120    -0.001429
   121     0.000532
   122    -0.002195
   123    -0.000641
   124     0.000232
   125    -0.000381
   126     0.000094
   127    -0.000029
   128    -0.000407
   129    -0.000041
   130    -0.002284
   131    -0.000050
   132    -0.001396
   133    -0.000383
   134    -0.002944
   135     0.000144
   136     0.000019
   137     0.000462
   138     0.000055
   139    -0.001366
   140    -0.000172
   141    -0.001693
   142     0.001036
   143     0.000051
   144    -0.002883
   145     0.055999
   146     0.010686
   147     0.076620
   148     0.013741
   149    -0.156263
   150    -0.261297
   151    -0.126819
   152    -0.254334
   153     0.094240
   154    -0.078141
   155    -0.250298
   156     0.092751
   157    -0.072044
   158    -0.235197
   159     0.087159
   160    -0.032298
   161    -0.114697
   162     0.042468
   163    -0.027342
   164    -0.004584
   165    -0.003922
   166    -0.001602
   167     0.000349
   168     0.003151
   169    -0.001169
   170    -0.046104
   171    -0.044483
   172    -0.041137
   173     0.000764
   174     0.006616
   175    -0.002465
   176    -0.027030
   177    -0.024562
   178    -0.025945
   179     0.001307
   180     0.019352
   181    -0.007182
   182     0.001210
   183    -0.000591
   184    -0.000268
   185     0.000658
   186    -0.000057
   187     0.000248
   188    -0.001488
   189     0.000551
   190     0.000415
   191     0.000080
   192     0.002370
   193    -0.001092
   194    -0.000317
   195     0.001234
   196    -0.000188
   197     0.000068
   198    -0.005997
   199     0.002231
   200     0.000308
   201     0.000113
   202     0.012334
   203    -0.001109
   204     0.006941
   205    -0.000492
   206     0.011339
   207     0.003000
   208     0.000012
   209     0.000589
   210     0.000050
   211     0.006945
   212    -0.000193
   213     0.006650
   214     0.001285
   215    -0.000036
   216     0.011380
Sym=     8a
Ene=   -0.129458E+01
Spin= Alpha
Occup= 1.989989
     1    -0.058741
     2    -0.010302
     3    -0.079780
     4    -0.022680
     5     0.189296
     6     0.280544
     7     0.072719
     8    -0.000192
     9    -0.000742
    10    -0.205219
    11     0.000202
    12     0.000782
    13     0.183144
    14     0.000169
    15     0.000595
    16     0.004671
    17     0.000004
    18     0.000114
    19    -0.039852
    20    -0.000700
    21    -0.000689
    22     0.009654
    23    -0.000000
    24     0.000002
    25     0.000011
    26     0.043817
    27     0.043772
    28     0.065026
    29     0.000009
    30     0.000006
    31     0.000019
    32     0.019218
    33     0.019282
    34     0.074198
    35    -0.000005
    36    -0.000004
    37     0.000024
    38    -0.000012
    39     0.000006
    40     0.008528
    41     0.000012
    42    -0.000020
    43    -0.001024
    44     0.000005
    45     0.000017
    46    -0.001027
    47     0.000001
    48    -0.000039
    49    -0.000047
    50     0.009806
    51     0.000040
    52     0.000036
    53    -0.001767
    54     0.000012
    55     0.000052
    56    -0.001761
    57    -0.000003
    58     0.004777
    59     0.000004
    60    -0.007081
    61     0.000005
    62    -0.014303
    63    -0.000000
    64    -0.000002
    65     0.000039
    66    -0.000002
    67    -0.007083
    68     0.000003
    69    -0.008384
    70    -0.000029
    71    -0.000002
    72    -0.014333
    73     0.009665
    74     0.001566
    75     0.012811
    76     0.013145
    77    -0.030177
    78    -0.141543
    79    -0.090388
    80    -0.000086
    81    -0.000309
    82     0.040462
    83     0.000087
    84     0.000312
    85    -0.045638
    86     0.000059
    87     0.000212
    88    -0.112478
    89     0.000024
    90     0.000045
    91    -0.015249
    92     0.001427
    93     0.001436
    94     0.000809
    95    -0.000001
    96     0.000004
    97     0.000013
    98     0.016666
    99     0.016622
   100    -0.012397
   101     0.000000
   102     0.000015
   103     0.000059
   104     0.001603
   105     0.001630
   106    -0.038144
   107    -0.000004
   108     0.000009
   109     0.000034
   110    -0.000004
   111    -0.000004
   112    -0.004595
   113     0.000003
   114    -0.000003
   115     0.000391
   116     0.000003
   117     0.000011
   118     0.000391
   119    -0.000000
   120     0.000042
   121    -0.000024
   122    -0.010925
   123    -0.000060
   124     0.000025
   125     0.001673
   126     0.000005
   127     0.000016
   128     0.001670
   129    -0.000002
   130     0.001783
   131     0.000006
   132     0.001018
   133    -0.000009
   134    -0.004070
   135     0.000002
   136    -0.000000
   137    -0.000009
   138    -0.000000
   139     0.001011
   140     0.000002
   141    -0.002390
   142     0.000005
   143    -0.000001
   144    -0.004094
   145    -0.029250
   146    -0.005039
   147    -0.038041
   148    -0.013943
   149     0.078326
   150     0.050548
   151    -0.013892
   152     0.000142
   153     0.000565
   154    -0.211991
   155     0.000147
   156     0.000566
   157    -0.201780
   158     0.000134
   159     0.000484
   160    -0.137550
   161     0.000026
   162     0.000127
   163    -0.037609
   164    -0.002631
   165    -0.002629
   166     0.006203
   167     0.000000
   168    -0.000002
   169    -0.000014
   170    -0.000129
   171    -0.000132
   172     0.037515
   173     0.000001
   174    -0.000017
   175    -0.000038
   176    -0.012979
   177    -0.012975
   178     0.020392
   179     0.000002
   180    -0.000007
   181    -0.000061
   182    -0.000005
   183    -0.000013
   184    -0.004739
   185     0.000002
   186     0.000003
   187     0.001637
   188     0.000004
   189     0.000009
   190     0.001637
   191    -0.000000
   192    -0.000089
   193    -0.000137
   194    -0.006689
   195     0.000105
   196     0.000153
   197     0.004181
   198     0.000007
   199     0.000021
   200     0.004182
   201     0.000002
   202    -0.002837
   203    -0.000012
   204    -0.003177
   205     0.000031
   206    -0.002492
   207    -0.000002
   208    -0.000000
   209    -0.000025
   210    -0.000000
   211    -0.003177
   212    -0.000047
   213    -0.001460
   214     0.000022
   215    -0.000001
   216    -0.002494
Sym=     9a
Ene=   -0.950020E+00
Spin= Alpha
Occup= 1.979595
     1    -0.043197
     2    -0.007097
     3    -0.057014
     4    -0.016040
     5     0.127118
     6     0.109542
     7     0.009818
     8     0.126013
     9    -0.143674
    10     0.103351
    11    -0.132511
    12     0.151090
    13    -0.088793
    14    -0.101531
    15     0.115766
    16    -0.027455
    17    -0.024885
    18     0.028320
    19     0.002773
    20    -0.000283
    21    -0.000218
    22     0.004627
    23    -0.000503
    24     0.003701
    25    -0.004207
    26     0.030588
    27     0.031243
    28     0.046825
    29    -0.001829
    30     0.011791
    31    -0.013432
    32     0.008370
    33     0.008569
    34     0.012651
    35    -0.001724
    36     0.019064
    37    -0.021706
    38     0.001155
    39    -0.001260
    40    -0.004184
    41     0.000309
    42    -0.000426
    43     0.000422
    44    -0.002211
    45     0.002516
    46     0.000358
    47     0.000267
    48     0.002041
    49    -0.002251
    50    -0.006001
    51     0.000724
    52    -0.000912
    53     0.000292
    54    -0.005708
    55     0.006523
    56     0.000180
    57     0.000484
    58    -0.005126
    59    -0.002064
    60    -0.006231
    61    -0.000199
    62    -0.009591
    63     0.001822
    64    -0.000007
    65     0.000143
    66     0.000051
    67    -0.006202
    68    -0.000128
    69    -0.005580
    70     0.000156
    71     0.000050
    72    -0.009444
    73    -0.031942
    74    -0.005053
    75    -0.041604
    76    -0.012587
    77     0.088139
    78     0.066854
    79    -0.005610
    80     0.122657
    81    -0.139710
    82    -0.103471
    83    -0.127560
    84     0.145283
    85     0.090267
    86    -0.110861
    87     0.126168
    88     0.059910
    89    -0.035284
    90     0.040218
    91     0.012245
    92    -0.001733
    93    -0.001669
    94     0.004520
    95    -0.000370
    96    -0.004002
    97     0.004553
    98     0.016085
    99     0.016424
   100     0.042149
   101    -0.001123
   102    -0.014044
   103     0.016000
   104     0.003616
   105     0.003813
   106     0.019310
   107    -0.001088
   108    -0.015775
   109     0.017904
   110     0.001582
   111    -0.001754
   112     0.003413
   113     0.000548
   114    -0.000682
   115    -0.000506
   116    -0.001938
   117     0.002207
   118    -0.000448
   119    -0.000251
   120     0.003365
   121    -0.003767
   122     0.005119
   123     0.001359
   124    -0.001605
   125    -0.000298
   126    -0.003713
   127     0.004230
   128    -0.000203
   129    -0.000378
   130    -0.009124
   131     0.002174
   132    -0.005364
   133    -0.000493
   134    -0.006135
   135    -0.001915
   136    -0.000038
   137     0.000149
   138     0.000020
   139    -0.005365
   140    -0.000197
   141    -0.003582
   142     0.000447
   143     0.000023
   144    -0.006077
   145     0.002199
   146     0.000384
   147     0.002806
   148     0.001491
   149    -0.006744
   150    -0.010343
   151    -0.011662
   152     0.012429
   153    -0.014096
   154     0.008638
   155     0.010655
   156    -0.012074
   157     0.011415
   158     0.017947
   159    -0.020373
   160     0.016869
   161     0.030147
   162    -0.034352
   163     0.003950
   164    -0.000008
   165    -0.000030
   166    -0.000312
   167     0.000003
   168     0.001006
   169    -0.001148
   170     0.000268
   171     0.000323
   172    -0.001104
   173    -0.000045
   174     0.001851
   175    -0.002111
   176     0.000214
   177    -0.000010
   178    -0.005109
   179     0.000080
   180     0.002323
   181    -0.002659
   182     0.000729
   183    -0.000832
   184     0.000042
   185     0.000325
   186    -0.000371
   187    -0.000403
   188    -0.000470
   189     0.000535
   190    -0.000406
   191     0.000007
   192     0.001934
   193    -0.002191
   194     0.000591
   195     0.000860
   196    -0.001010
   197    -0.001634
   198    -0.000782
   199     0.000884
   200    -0.001643
   201    -0.000007
   202    -0.001445
   203    -0.001740
   204     0.000068
   205    -0.000371
   206    -0.000149
   207     0.001528
   208    -0.000006
   209     0.000146
   210    -0.000001
   211     0.000073
   212    -0.000163
   213    -0.000084
   214     0.000323
   215     0.000006
   216    -0.000128
Sym=    10a
Ene=   -0.948783E+00
Spin= Alpha
Occup= 1.979536
     1     0.043119
     2     0.007084
     3     0.056909
     4     0.016034
     5    -0.126899
     6    -0.109348
     7    -0.009872
     8     0.188324
     9     0.033743
    10    -0.103059
    11    -0.198051
    12    -0.035494
    13     0.088531
    14    -0.151737
    15    -0.027210
    16     0.027276
    17    -0.037184
    18    -0.006671
    19    -0.002714
    20    -0.000174
    21     0.000673
    22    -0.004617
    23    -0.000196
    24     0.005528
    25     0.000992
    26    -0.032298
    27    -0.029340
    28    -0.046678
    29    -0.000559
    30     0.017618
    31     0.003141
    32    -0.009889
    33    -0.006969
    34    -0.012535
    35    -0.000688
    36     0.028456
    37     0.005112
    38     0.001435
    39     0.000349
    40     0.004173
    41     0.000855
    42     0.000030
    43    -0.000170
    44    -0.003304
    45    -0.000586
    46    -0.000608
    47     0.000092
    48     0.002812
    49     0.000568
    50     0.005971
    51     0.001410
    52     0.000166
    53     0.000137
    54    -0.008520
    55    -0.001529
    56    -0.000625
    57     0.000181
    58     0.005093
    59     0.000486
    60     0.006206
    61     0.000039
    62     0.009455
    63     0.002721
    64    -0.000015
    65     0.000089
    66    -0.000021
    67     0.006188
    68     0.000056
    69     0.005541
    70     0.000323
    71    -0.000009
    72     0.009544
    73     0.031874
    74     0.005042
    75     0.041511
    76     0.012576
    77    -0.087945
    78    -0.066833
    79     0.005537
    80     0.183233
    81     0.032802
    82     0.103214
    83    -0.190567
    84    -0.034119
    85    -0.090037
    86    -0.165594
    87    -0.029643
    88    -0.059836
    89    -0.052627
    90    -0.009417
    91    -0.012237
    92     0.001376
    93     0.002016
    94    -0.004509
    95    -0.000134
    96    -0.005980
    97    -0.001071
    98    -0.017052
    99    -0.015325
   100    -0.041995
   101    -0.000377
   102    -0.020977
   103    -0.003736
   104    -0.004662
   105    -0.002740
   106    -0.019270
   107    -0.000392
   108    -0.023551
   109    -0.004205
   110     0.002140
   111     0.000454
   112    -0.003405
   113     0.001118
   114     0.000107
   115     0.000271
   116    -0.002894
   117    -0.000514
   118     0.000680
   119    -0.000087
   120     0.004848
   121     0.000927
   122    -0.005108
   123     0.002284
   124     0.000335
   125    -0.000061
   126    -0.005541
   127    -0.000986
   128     0.000565
   129    -0.000128
   130     0.009086
   131    -0.000513
   132     0.005385
   133     0.000118
   134     0.006101
   135    -0.002863
   136    -0.000013
   137     0.000305
   138    -0.000006
   139     0.005307
   140     0.000029
   141     0.003553
   142     0.000605
   143     0.000004
   144     0.006083
   145    -0.002188
   146    -0.000382
   147    -0.002792
   148    -0.001482
   149     0.006715
   150     0.010298
   151     0.011649
   152     0.018552
   153     0.003402
   154    -0.008579
   155     0.015898
   156     0.002931
   157    -0.011354
   158     0.026805
   159     0.004888
   160    -0.016837
   161     0.045040
   162     0.008108
   163    -0.003937
   164     0.000027
   165     0.000012
   166     0.000311
   167    -0.000009
   168     0.001504
   169     0.000268
   170    -0.000335
   171    -0.000242
   172     0.001096
   173     0.000006
   174     0.002765
   175     0.000497
   176     0.000039
   177    -0.000234
   178     0.005111
   179    -0.000081
   180     0.003475
   181     0.000611
   182     0.001088
   183     0.000195
   184    -0.000040
   185     0.000488
   186     0.000085
   187     0.000411
   188    -0.000702
   189    -0.000126
   190     0.000396
   191     0.000001
   192     0.002884
   193     0.000497
   194    -0.000589
   195     0.001296
   196     0.000252
   197     0.001628
   198    -0.001169
   199    -0.000205
   200     0.001645
   201    -0.000005
   202     0.001444
   203     0.000405
   204    -0.000068
   205     0.000087
   206     0.000131
   207     0.002284
   208    -0.000006
   209     0.000216
   210    -0.000009
   211    -0.000073
   212     0.000035
   213     0.000084
   214     0.000486
   215    -0.000002
   216     0.000143
Sym=    11a
Ene=   -0.931658E+00
Spin= Alpha
Occup= 1.978471
     1    -0.042106
     2    -0.006893
     3    -0.055478
     4    -0.015646
     5     0.123571
     6     0.106944
     7     0.009883
     8     0.064034
     9     0.183501
    10     0.099204
    11    -0.067337
    12    -0.192970
    13    -0.085177
    14    -0.051616
    15    -0.147776
    16    -0.026383
    17    -0.012609
    18    -0.036190
    19     0.002507
    20    -0.000574
    21     0.000125
    22     0.004460
    23     0.000316
    24     0.001875
    25     0.005370
    26     0.028771
    27     0.031362
    28     0.045278
    29     0.001245
    30     0.005971
    31     0.017099
    32     0.007092
    33     0.009494
    34     0.012237
    35     0.001089
    36     0.009677
    37     0.027687
    38     0.000652
    39     0.001425
    40    -0.004006
    41     0.000069
    42     0.000782
    43     0.000554
    44    -0.001115
    45    -0.003190
    46     0.000186
    47    -0.000169
    48     0.001107
    49     0.002712
    50    -0.005729
    51     0.000278
    52     0.001373
    53     0.000572
    54    -0.002879
    55    -0.008281
    56    -0.000126
    57    -0.000296
    58    -0.004935
    59     0.002659
    60    -0.006021
    61     0.000333
    62    -0.009291
    63     0.000928
    64    -0.000005
    65     0.000102
    66    -0.000053
    67    -0.006032
    68     0.000086
    69    -0.005422
    70     0.000057
    71    -0.000050
    72    -0.009175
    73    -0.030884
    74    -0.004861
    75    -0.040129
    76    -0.012125
    77     0.084848
    78     0.063872
    79    -0.005963
    80     0.062339
    81     0.178737
    82    -0.099938
    83    -0.064829
    84    -0.185867
    85     0.087173
    86    -0.056326
    87    -0.161465
    88     0.057698
    89    -0.017896
    90    -0.051521
    91     0.011846
    92    -0.001882
    93    -0.001382
    94     0.004350
    95     0.000241
    96    -0.002026
    97    -0.005803
    98     0.014921
    99     0.016572
   100     0.040523
   101     0.000718
   102    -0.007105
   103    -0.020336
   104     0.002875
   105     0.004327
   106     0.018485
   107     0.000725
   108    -0.007979
   109    -0.022861
   110     0.000852
   111     0.002102
   112     0.003268
   113     0.000210
   114     0.001050
   115    -0.000628
   116    -0.000978
   117    -0.002799
   118    -0.000277
   119     0.000159
   120     0.001767
   121     0.004679
   122     0.004897
   123     0.000616
   124     0.002228
   125    -0.000489
   126    -0.001875
   127    -0.005377
   128     0.000029
   129     0.000248
   130    -0.008775
   131    -0.002793
   132    -0.005144
   133     0.000571
   134    -0.005945
   135    -0.000975
   136     0.000026
   137     0.000054
   138    -0.000010
   139    -0.005188
   140     0.000299
   141    -0.003465
   142     0.000240
   143    -0.000012
   144    -0.005858
   145     0.002141
   146     0.000375
   147     0.002735
   148     0.001443
   149    -0.006568
   150    -0.010275
   151    -0.011597
   152     0.006459
   153     0.018596
   154     0.007767
   155     0.005551
   156     0.016007
   157     0.010488
   158     0.009249
   159     0.026652
   160     0.015968
   161     0.015387
   162     0.044127
   163     0.003733
   164    -0.000033
   165    -0.000028
   166    -0.000288
   167    -0.000013
   168     0.000510
   169     0.001460
   170     0.000222
   171     0.000265
   172    -0.001005
   173     0.000051
   174     0.000936
   175     0.002682
   176     0.000048
   177     0.000054
   178    -0.004907
   179    -0.000174
   180     0.001170
   181     0.003329
   182     0.000371
   183     0.001056
   184     0.000027
   185     0.000164
   186     0.000474
   187    -0.000382
   188    -0.000237
   189    -0.000682
   190    -0.000390
   191    -0.000006
   192     0.000986
   193     0.002824
   194     0.000550
   195     0.000437
   196     0.001232
   197    -0.001578
   198    -0.000392
   199    -0.001119
   200    -0.001571
   201     0.000004
   202    -0.001394
   203     0.002217
   204     0.000071
   205     0.000468
   206    -0.000133
   207     0.000776
   208    -0.000000
   209     0.000074
   210    -0.000007
   211     0.000061
   212     0.000213
   213    -0.000072
   214     0.000164
   215    -0.000008
   216    -0.000135
Sym=    12a
Ene=   -0.115833E-02
Spin= Alpha
Occup= 0.000668
     1    -0.007164
     2     0.010817
     3    -0.041243
     4    -0.113069
     5     0.521631
     6    -0.034755
     7    -0.175771
     8     0.059722
     9     0.216149
    10     0.105652
    11    -0.038484
    12    -0.142892
    13     0.599221
    14    -0.003496
    15     0.070055
    16     1.206143
    17    -0.024474
    18    -0.152814
    19     0.276315
    20    -0.009830
    21    -0.005702
    22     0.020518
    23     0.004186
    24     0.010705
    25     0.031277
    26     0.068131
    27    -0.164150
    28     0.068657
    29    -0.052003
    30    -0.014714
    31    -0.078534
    32     0.190401
    33    -0.092839
    34     0.430617
    35    -0.104049
    36    -0.084188
    37    -0.407379
    38    -0.012510
    39     0.022064
    40    -0.048686
    41     0.020335
    42    -0.015400
    43     0.005550
    44    -0.004544
    45    -0.007646
    46     0.049338
    47     0.011382
    48    -0.087402
    49     0.255547
    50     0.930462
    51     0.197120
    52    -0.082085
    53     0.047373
    54     0.115325
    55     0.394338
    56     0.244145
    57     0.070372
    58     0.038107
    59     0.048169
    60    -0.090012
    61    -0.093017
    62     0.028214
    63     0.013963
    64    -0.018160
    65    -0.083354
    66    -0.048003
    67    -0.037775
    68     0.042141
    69     0.035921
    70     0.042886
    71     0.051585
    72    -0.002546
    73    -0.004824
    74     0.007834
    75    -0.026557
    76    -0.014204
    77     0.519244
    78    -0.096949
    79     0.949759
    80     0.046989
    81     0.170880
    82    -0.080309
    83    -0.041836
    84    -0.164078
    85     0.497813
    86    -0.049759
    87    -0.217903
    88     0.797305
    89    -0.044767
    90    -0.215363
    91     0.320227
    92     0.005381
    93    -0.007443
    94     0.036572
    95    -0.003361
    96    -0.007528
    97    -0.025718
    98     0.196176
    99     0.059153
   100     0.331338
   101    -0.041671
   102    -0.008889
   103    -0.011900
   104     0.155677
   105    -0.064351
   106     0.357076
   107    -0.083453
   108    -0.003860
   109    -0.043688
   110    -0.012752
   111    -0.000571
   112     0.029985
   113     0.012701
   114    -0.015947
   115     0.000842
   116    -0.001298
   117     0.001965
   118    -0.044307
   119    -0.014374
   120    -0.088658
   121     0.164401
   122    -0.143732
   123     0.159952
   124    -0.084361
   125    -0.053267
   126     0.047364
   127     0.185816
   128    -0.274723
   129    -0.081010
   130    -0.003462
   131    -0.004524
   132    -0.084451
   133     0.070759
   134    -0.030734
   135    -0.000142
   136    -0.020551
   137     0.076428
   138    -0.039253
   139    -0.024623
   140    -0.045335
   141     0.001805
   142    -0.043814
   143     0.039183
   144    -0.037243
   145    -0.000186
   146     0.000353
   147    -0.003222
   148     0.060600
   149     0.037665
   150    -1.115290
   151    -1.244721
   152     0.000913
   153    -0.006862
   154     0.005641
   155    -0.011993
   156    -0.045676
   157     0.274592
   158     0.016943
   159     0.158546
   160     1.224669
   161     0.044104
   162     0.149065
   163     0.135996
   164     0.001226
   165     0.007051
   166    -0.003174
   167     0.003084
   168    -0.001198
   169    -0.005056
   170     0.146089
   171     0.109880
   172     0.085485
   173    -0.005409
   174     0.000207
   175     0.003421
   176     0.066322
   177     0.093631
   178    -0.622251
   179     0.009342
   180     0.016556
   181     0.011589
   182    -0.002638
   183    -0.006623
   184     0.003064
   185     0.000561
   186    -0.004064
   187     0.000437
   188     0.001379
   189     0.002914
   190    -0.002039
   191    -0.001046
   192     0.006303
   193    -0.019037
   194     0.115819
   195    -0.018652
   196    -0.011763
   197    -0.007807
   198    -0.015538
   199    -0.058686
   200    -0.002695
   201     0.003760
   202    -0.074958
   203     0.011584
   204    -0.029136
   205     0.006112
   206    -0.012973
   207     0.004627
   208     0.001998
   209     0.002199
   210     0.003742
   211    -0.036253
   212     0.002987
   213    -0.008989
   214     0.001117
   215     0.003675
   216    -0.027859
Sym=    13a
Ene=   -0.678884E-03
Spin= Alpha
Occup= 0.000344
     1    -0.000024
     2    -0.001830
     3     0.003558
     4     0.016849
     5    -0.068240
     6     0.146701
     7     0.089847
     8     0.036859
     9    -0.115683
    10    -0.004697
    11    -0.065452
    12     0.188670
    13    -0.036120
    14     0.034976
    15    -0.066804
    16    -0.088619
    17    -0.056336
    18     0.198157
    19    -0.034082
    20    -0.010236
    21     0.010235
    22    -0.001529
    23     0.014036
    24     0.007687
    25    -0.005584
    26     0.174831
    27    -0.175227
    28    -0.000114
    29    -0.492453
    30    -0.015720
    31     0.084824
    32    -0.011790
    33     0.008143
    34     0.074760
    35     0.031715
    36    -0.143033
    37     0.450727
    38     0.034125
    39     0.026184
    40     0.001014
    41    -0.037644
    42    -0.074977
    43    -0.028434
    44     0.002685
    45    -0.031689
    46     0.026119
    47     0.084727
    48     0.190955
    49     0.051986
    50    -0.076609
    51    -0.157685
    52    -0.348579
    53    -0.083373
    54     0.108679
    55    -0.323912
    56     0.057944
    57     0.178265
    58    -0.005884
    59    -0.023832
    60    -0.012406
    61    -0.075825
    62     0.095524
    63     0.011338
    64    -0.049889
    65     0.086548
    66     0.166363
    67     0.020288
    68     0.151736
    69    -0.073890
    70    -0.077920
    71     0.034734
    72    -0.016850
    73    -0.000020
    74    -0.000915
    75     0.001298
    76     0.010955
    77    -0.045667
    78    -0.093549
    79    -0.167903
    80     0.030514
    81    -0.096320
    82     0.003480
    83    -0.075222
    84     0.233193
    85    -0.053876
    86    -0.081768
    87     0.244602
    88    -0.127504
    89    -0.066090
    90     0.248029
    91    -0.043258
    92    -0.007828
    93     0.007700
    94    -0.003618
    95     0.010794
    96    -0.008456
    97     0.014787
    98     0.104449
    99    -0.100462
   100    -0.000543
   101    -0.264937
   102    -0.011525
   103     0.022466
   104    -0.011386
   105     0.018172
   106    -0.045385
   107     0.036329
   108    -0.033822
   109     0.087786
   110     0.012481
   111     0.026007
   112    -0.001054
   113    -0.019674
   114    -0.029756
   115     0.021523
   116     0.003866
   117    -0.025492
   118    -0.020028
   119    -0.061589
   120     0.137616
   121     0.067427
   122     0.013279
   123    -0.126686
   124    -0.256155
   125     0.057409
   126     0.058439
   127    -0.206234
   128    -0.034557
   129    -0.121769
   130    -0.009208
   131    -0.001551
   132    -0.017528
   133     0.077644
   134     0.065768
   135    -0.000827
   136    -0.053098
   137    -0.074926
   138     0.107183
   139     0.017825
   140    -0.121301
   141    -0.052863
   142     0.061198
   143     0.013066
   144    -0.008901
   145     0.000032
   146     0.000099
   147     0.000213
   148    -0.015661
   149     0.001944
   150     0.045937
   151     0.097302
   152    -0.001871
   153     0.008629
   154    -0.000337
   155    -0.011271
   156     0.028307
   157    -0.019470
   158     0.056437
   159    -0.175532
   160    -0.015912
   161     0.039726
   162    -0.162477
   163    -0.024188
   164    -0.003312
   165     0.000907
   166    -0.000510
   167     0.003802
   168    -0.001424
   169     0.004694
   170    -0.024354
   171    -0.029980
   172    -0.026639
   173    -0.019502
   174     0.003756
   175    -0.007075
   176    -0.020408
   177    -0.049341
   178     0.010037
   179    -0.028676
   180    -0.008105
   181     0.034261
   182    -0.001890
   183     0.009345
   184    -0.000174
   185    -0.002439
   186     0.001811
   187     0.001841
   188     0.001153
   189    -0.003581
   190    -0.002139
   191    -0.003406
   192    -0.016499
   193     0.009348
   194    -0.007977
   195     0.005934
   196     0.023092
   197    -0.006947
   198    -0.008730
   199     0.021191
   200     0.009192
   201     0.011088
   202     0.011002
   203     0.008039
   204     0.009873
   205    -0.001553
   206     0.010719
   207     0.000219
   208     0.012094
   209     0.000250
   210     0.005615
   211     0.001191
   212    -0.000674
   213     0.003316
   214     0.001388
   215     0.007785
   216     0.000846
Sym=    14a
Ene=   -0.109599E-04
Spin= Alpha
Occup= 0.000002
     1     0.034307
     2    -0.001931
     3    -0.694380
     4     1.324475
     5    -0.582448
     6    -2.799737
     7    -0.464803
     8    -0.143656
     9     0.156265
    10    -0.216139
    11    -1.500363
    12     1.520319
    13     0.477314
    14     0.606948
    15    -0.309236
    16    10.523522
    17    -0.235439
    18     0.195279
    19     0.666044
    20    -0.321168
    21    -0.366872
    22    -0.647408
    23     0.132594
    24    -0.038531
    25     0.011391
    26     0.170017
    27     0.393677
    28     1.510387
    29     0.596698
    30    -0.304205
    31     0.443481
    32    -0.576503
    33    -0.605347
    34     1.481860
    35     0.209392
    36    -0.056074
    37    -0.094948
    38     0.468414
    39    -0.459787
    40     0.581157
    41     0.168350
    42    -0.184450
    43     0.234613
    44     0.128113
    45    -0.158249
    46     0.240652
    47    -0.014904
    48     0.189804
    49    -0.333879
    50     2.702486
    51     0.191421
    52    -0.225840
    53    -0.213705
    54    -0.213953
    55     0.240464
    56    -0.250566
    57     0.360833
    58    -1.757648
    59    -0.311996
    60    -0.100543
    61    -0.348531
    62     0.114312
    63     0.263735
    64    -0.354249
    65     0.172327
    66    -0.403367
    67    -0.079812
    68    -0.220858
    69     0.095273
    70     0.292342
    71    -0.424755
    72     0.247420
    73    -0.017255
    74     0.024217
    75     0.070782
    76     1.501603
    77    -0.224014
    78    -0.421649
    79     1.150252
    80     0.043895
    81    -0.056184
    82     0.123556
    83     0.351098
    84    -0.498071
    85     2.341483
    86    -0.046678
    87     0.037056
    88     5.891138
    89    -0.049929
    90    -0.033031
    91     0.186392
    92     0.352861
    93     0.299203
    94     0.053836
    95     0.055333
    96    -0.040402
    97     0.018343
    98     2.368830
    99     2.652337
   100     5.972266
   101    -0.332210
   102    -0.177312
   103     0.283286
   104     1.524102
   105     1.481668
   106     4.173067
   107     0.257971
   108     0.005829
   109    -0.114497
   110     0.135232
   111    -0.062461
   112     0.245999
   113    -0.252439
   114     0.203812
   115    -0.220308
   116    -0.022533
   117     0.043404
   118    -0.230334
   119     0.040142
   120    -0.249605
   121     0.248225
   122     0.164308
   123     0.050562
   124    -0.035396
   125    -0.509421
   126     0.290054
   127    -0.316788
   128    -0.518463
   129     0.166070
   130    -1.437308
   131    -0.268328
   132    -1.206557
   133    -0.403748
   134    -0.725777
   135     0.232246
   136     0.478551
   137     0.028587
   138    -0.205802
   139    -1.099309
   140    -0.082186
   141     0.498592
   142     0.362888
   143     0.078162
   144    -0.585431
   145    -0.001289
   146     0.001666
   147    -0.008876
   148    -0.459179
   149     0.612563
   150    -3.265288
   151    -3.771413
   152     0.001851
   153     0.001792
   154    -0.006317
   155     0.044150
   156    -0.109180
   157     0.675196
   158    -0.000925
   159     0.129086
   160     4.884536
   161     0.007955
   162    -0.057702
   163     0.156354
   164    -0.042840
   165    -0.051630
   166    -0.157287
   167     0.002146
   168     0.005528
   169     0.011074
   170    -0.904049
   171    -0.860874
   172    -0.234428
   173    -0.006465
   174    -0.036884
   175    -0.063828
   176    -0.521664
   177    -0.509087
   178    -2.266496
   179    -0.147201
   180    -0.050057
   181     0.012016
   182    -0.001965
   183     0.016828
   184    -0.129859
   185     0.003809
   186    -0.003271
   187    -0.009538
   188     0.009572
   189    -0.010187
   190    -0.005398
   191    -0.027187
   192     0.030770
   193    -0.051960
   194     0.005414
   195    -0.006568
   196     0.000445
   197     0.033916
   198     0.060188
   199    -0.059109
   200     0.029002
   201     0.094215
   202    -0.052522
   203     0.056777
   204    -0.007503
   205     0.086269
   206     0.315777
   207    -0.013987
   208     0.007337
   209     0.008927
   210     0.017178
   211     0.009614
   212     0.029930
   213     0.187015
   214    -0.026308
   215     0.006553
   216     0.341046
Sym=    15a
Ene=   -0.109912E-02
Spin= Alpha
Occup= 0.000409
     1     0.000001
     2    -0.000130
     3     0.000287
     4    -0.000202
     5    -0.003340
     6     0.007537
     7    -0.008597
     8     0.103914
     9    -0.007109
    10     0.000418
    11     0.007669
    12     0.001034
    13     0.004231
    14    -0.362185
    15     0.030857
    16     0.018515
    17    -0.138436
    18     0.008100
    19     0.008425
    20     0.005935
    21    -0.005646
    22    -0.000199
    23     0.000848
    24     0.075779
    25    -0.004958
    26    -0.096896
    27     0.096198
    28    -0.010372
    29    -0.037079
    30     0.835650
    31    -0.047014
    32     0.024462
    33    -0.024289
    34     0.005636
    35     0.024074
    36    -0.094902
    37    -0.005431
    38    -0.044969
    39     0.003200
    40    -0.002951
    41    -0.020326
    42     0.001162
    43    -0.005167
    44     0.312639
    45    -0.020381
    46     0.005682
    47     0.002924
    48    -0.068364
    49     0.003233
    50     0.005370
    51    -0.032905
    52    -0.000908
    53    -0.009319
    54     0.110472
    55    -0.010271
    56     0.008636
    57     0.018279
    58     0.000351
    59    -0.027325
    60    -0.002492
    61     0.012834
    62    -0.023191
    63     0.326664
    64     0.011875
    65    -0.100963
    66    -0.004300
    67     0.006178
    68     0.006093
    69    -0.021407
    70    -0.227640
    71     0.014285
    72     0.047373
    73    -0.000008
    74     0.000046
    75    -0.000191
    76    -0.000016
    77     0.004000
    78     0.004089
    79     0.011441
    80     0.032284
    81    -0.002222
    82     0.000129
    83     0.278867
    84    -0.022542
    85     0.007569
    86     0.262011
    87    -0.019078
    88     0.007509
    89    -0.028782
    90    -0.002426
    91    -0.001641
    92     0.006863
    93    -0.006843
    94    -0.000555
    95     0.004507
    96     0.007122
    97    -0.001018
    98    -0.021070
    99     0.021596
   100     0.006649
   101    -0.010984
   102     0.093819
   103    -0.005496
   104     0.032742
   105    -0.031208
   106     0.002830
   107     0.033045
   108     0.203801
   109    -0.017195
   110    -0.065088
   111     0.004799
   112     0.000258
   113    -0.028948
   114     0.002173
   115     0.000996
   116     0.043124
   117    -0.003428
   118    -0.001162
   119    -0.000220
   120    -0.160147
   121     0.012194
   122    -0.000550
   123    -0.073782
   124     0.003856
   125     0.018047
   126     0.169514
   127    -0.011995
   128    -0.019948
   129     0.019014
   130    -0.001723
   131    -0.012499
   132    -0.004765
   133    -0.000036
   134    -0.011011
   135     0.156842
   136     0.001093
   137    -0.001941
   138     0.002121
   139     0.004182
   140    -0.000552
   141    -0.007062
   142    -0.002756
   143     0.008601
   144     0.019243
   145    -0.000000
   146    -0.000035
   147     0.000165
   148     0.002184
   149    -0.002334
   150    -0.009241
   151    -0.022071
   152    -0.165551
   153     0.011045
   154    -0.000545
   155     0.057922
   156    -0.005989
   157    -0.000269
   158     0.003855
   159     0.012845
   160     0.009639
   161    -0.110341
   162     0.003096
   163    -0.001832
   164     0.001566
   165    -0.000861
   166     0.000991
   167    -0.002452
   168    -0.010612
   169     0.001187
   170    -0.008037
   171     0.016125
   172     0.000385
   173     0.022301
   174    -0.031761
   175     0.000823
   176     0.029216
   177    -0.025467
   178     0.004109
   179    -0.053897
   180     0.098922
   181    -0.011446
   182    -0.054363
   183     0.003686
   184     0.000737
   185    -0.024101
   186     0.001509
   187     0.006325
   188     0.088763
   189    -0.005767
   190    -0.006377
   191    -0.012383
   192    -0.057831
   193     0.002918
   194     0.000467
   195    -0.025510
   196     0.000736
   197     0.029852
   198     0.112587
   199    -0.007710
   200    -0.030111
   201    -0.049590
   202    -0.000244
   203     0.012264
   204     0.005304
   205    -0.003536
   206     0.000928
   207    -0.169141
   208     0.008930
   209     0.032766
   210     0.013108
   211    -0.003680
   212    -0.001400
   213    -0.009935
   214     0.074008
   215    -0.019292
   216     0.005848
Sym=    16a
Ene=   -0.186469E-05
Spin= Alpha
Occup= 0.000000
     1     0.011280
     2    -0.038054
     3     0.374946
     4    -1.814478
     5    -1.114395
     6     6.050537
     7     0.908947
     8     0.256791
     9    -0.117417
    10     0.187454
    11     1.194855
    12    -0.480688
    13     2.810905
    14    -0.315451
    15    -0.078667
    16     0.912898
    17    -0.863444
    18     0.401761
    19    -0.540504
    20     0.315273
    21     0.325340
    22     0.123870
    23     0.021646
    24     1.711847
    25    -0.966925
    26    -4.143261
    27    -4.278943
    28    -4.312838
    29    -0.392537
    30    -9.838482
    31     5.564103
    32    -0.694318
    33    -0.756920
    34     1.952429
    35    -0.189054
    36     4.486498
    37    -2.178643
    38    -0.645920
    39     0.280526
    40    -0.642579
    41    -0.296364
    42     0.122458
    43    -0.152895
    44    -0.309151
    45     0.180715
    46    -0.151058
    47    -0.038513
    48    -0.927443
    49     0.503931
    50    -0.599803
    51    -0.410151
    52     0.237082
    53    -0.370305
    54    -1.166253
    55     0.483333
    56    -0.390145
    57     0.030928
    58    -1.636846
    59    -3.545150
    60     0.830382
    61    -2.307829
    62     1.644966
    63     6.452904
    64    -0.018239
    65     1.793519
    66     0.243113
    67     0.832399
    68    -1.028843
    69     0.796763
    70     4.022870
    71     0.260590
    72     1.526977
    73    -0.004549
    74     0.012471
    75    -0.110797
    76    -0.949074
    77     0.935870
    78     2.521426
    79     1.045675
    80     0.148168
    81    -0.078712
    82    -0.049573
    83     1.782700
    84    -0.830707
    85     1.437293
    86     1.901656
    87    -0.944897
    88    -0.680864
    89     0.746770
    90    -0.298332
    91     0.393380
    92    -0.141014
    93    -0.117458
    94    -0.668254
    95    -0.023429
    96     0.216967
    97    -0.120651
    98    -2.731383
    99    -2.775310
   100     2.432265
   101     0.055842
   102    -0.874634
   103     0.551264
   104    -1.170507
   105    -1.093032
   106    -0.444748
   107     0.043339
   108     2.429697
   109    -1.129077
   110    -0.443981
   111     0.209256
   112     0.624096
   113    -0.159858
   114     0.079453
   115    -0.014344
   116     0.344462
   117    -0.186032
   118    -0.020265
   119    -0.025331
   120    -0.438865
   121     0.274817
   122     1.156920
   123    -0.236074
   124     0.143179
   125    -0.285101
   126     1.661062
   127    -0.833290
   128    -0.267090
   129     0.103541
   130    -0.885206
   131    -0.957062
   132    -0.172606
   133    -0.209220
   134     0.892069
   135     1.732398
   136    -0.008717
   137     0.151963
   138    -0.000941
   139    -0.192743
   140    -0.093436
   141     0.510628
   142     0.377520
   143     0.007567
   144     0.912860
   145     0.024969
   146    -0.005713
   147    -0.509546
   148     2.893591
   149    -1.598612
   150    -7.649004
   151    -0.412904
   152     0.229362
   153    -0.007191
   154     0.534811
   155    -1.286716
   156    -0.115941
   157    -3.961467
   158    -2.740619
   159     1.094898
   160    -0.172984
   161     0.459268
   162    -0.133597
   163     0.320844
   164    -0.862179
   165    -0.272413
   166     0.290639
   167     0.039693
   168    -0.228603
   169     0.068876
   170     7.846545
   171     5.091689
   172     2.144745
   173    -0.081397
   174     0.655821
   175    -0.105577
   176     0.119068
   177     0.261906
   178     0.625321
   179     0.096516
   180     1.250512
   181    -0.676616
   182     0.537969
   183    -0.030576
   184     0.824483
   185     0.233150
   186    -0.020350
   187     0.444022
   188     0.002148
   189     0.123860
   190     0.454852
   191     0.027153
   192     1.185130
   193    -0.160159
   194     0.914510
   195     0.537776
   196    -0.068084
   197     1.202936
   198    -0.543749
   199     0.500529
   200     1.165134
   201    -0.078634
   202     1.518819
   203    -0.471433
   204    -0.615575
   205     0.205598
   206    -1.796602
   207     0.739137
   208     0.099420
   209    -0.280340
   210    -0.046597
   211    -1.195622
   212     0.129184
   213    -1.542257
   214    -0.657307
   215     0.005284
   216    -3.527080
Sym=    17a
Ene=   -0.910555E-03
Spin= Alpha
Occup= 0.000432
     1    -0.000022
     2     0.001223
     3    -0.001508
     4     0.000016
     5     0.061977
     6    -0.405645
     7    -0.022938
     8     0.000610
     9    -0.000153
    10     0.003564
    11     0.153773
    12     0.034173
    13     0.006218
    14    -0.032069
    15    -0.017803
    16     0.177933
    17    -0.098089
    18    -0.031613
    19     0.049479
    20     0.003099
    21    -0.002577
    22     0.010790
    23    -0.007721
    24    -0.000667
    25    -0.000956
    26     0.036310
    27     0.033977
    28     0.030676
    29     0.041667
    30     0.029022
    31    -0.006431
    32     0.019222
    33    -0.039812
    34    -0.248145
    35    -0.018375
    36    -0.200662
    37    -0.060186
    38    -0.022331
    39    -0.005217
    40    -0.002733
    41    -0.010439
    42    -0.001678
    43    -0.005508
    44     0.004724
    45    -0.000857
    46    -0.005549
    47    -0.001100
    48    -0.076425
    49    -0.017046
    50    -0.157132
    51    -0.035801
    52    -0.008929
    53    -0.021182
    54    -0.089374
    55    -0.020185
    56    -0.035229
    57     0.005762
    58     0.024243
    59     0.003812
    60    -0.003418
    61     0.000080
    62    -0.011997
    63     0.022825
    64    -0.005242
    65    -0.005647
    66    -0.010718
    67    -0.000122
    68     0.002404
    69    -0.007231
    70    -0.000635
    71    -0.016271
    72    -0.002547
    73    -0.000009
    74    -0.000396
    75     0.000721
    76     0.003816
    77    -0.026734
    78     0.217657
    79     0.096389
    80     0.013346
    81     0.003556
    82    -0.003014
    83    -0.025680
    84    -0.013362
    85    -0.089313
    86     0.003845
    87    -0.006285
    88     0.231264
    89     0.216083
    90     0.062949
    91     0.005705
    92    -0.001803
    93     0.000405
    94     0.002900
    95     0.000778
    96     0.006238
    97     0.000317
    98    -0.000447
    99     0.013750
   100    -0.046123
   101    -0.010162
   102    -0.043544
   103    -0.007784
   104     0.029921
   105     0.053833
   106     0.115517
   107     0.010258
   108     0.028334
   109     0.002377
   110    -0.007875
   111    -0.001067
   112     0.000391
   113    -0.003452
   114    -0.000663
   115     0.002107
   116    -0.000177
   117     0.000136
   118     0.002596
   119    -0.001988
   120    -0.021227
   121    -0.005005
   122     0.019827
   123    -0.010333
   124    -0.000585
   125     0.002191
   126     0.002895
   127     0.000341
   128     0.018544
   129     0.004324
   130     0.006783
   131     0.003441
   132    -0.000735
   133     0.000839
   134    -0.002941
   135     0.027779
   136     0.001130
   137     0.005193
   138     0.001990
   139     0.000671
   140     0.001259
   141    -0.000926
   142     0.014207
   143     0.001039
   144    -0.003449
   145     0.000285
   146    -0.000237
   147     0.001738
   148     0.022650
   149    -0.020829
   150     0.160017
   151    -0.132435
   152    -0.246758
   153    -0.077487
   154     0.019130
   155     0.186251
   156     0.060120
   157    -0.056752
   158     0.271534
   159     0.074667
   160    -0.072913
   161    -0.437635
   162    -0.117985
   163     0.089415
   164    -0.003453
   165     0.008202
   166    -0.003772
   167     0.023745
   168     0.008263
   169    -0.006350
   170    -0.114907
   171     0.283276
   172    -0.020166
   173     0.557889
   174     0.121137
   175    -0.054558
   176    -0.010448
   177     0.095639
   178     0.065607
   179     0.109984
   180    -0.013155
   181    -0.044468
   182    -0.039704
   183     0.086591
   184    -0.001911
   185     0.163047
   186    -0.069610
   187    -0.010521
   188    -0.030611
   189    -0.026809
   190    -0.012521
   191     0.039465
   192    -0.103909
   193     0.281017
   194    -0.009330
   195     0.528068
   196    -0.227959
   197    -0.037322
   198    -0.111479
   199    -0.069849
   200    -0.048587
   201     0.086613
   202     0.010133
   203     0.005140
   204    -0.041611
   205     0.011964
   206     0.045962
   207    -0.041944
   208    -0.038994
   209     0.047675
   210     0.085737
   211     0.010400
   212    -0.014101
   213    -0.142946
   214    -0.030108
   215    -0.167497
   216     0.076616
Sym=    18a
Ene=   -0.172408E-03
Spin= Alpha
Occup= 0.000050
     1     0.001839
     2     0.016401
     3    -0.030875
     4    -0.047415
     5    -0.126229
     6     2.400107
     7     0.432522
     8    -0.030956
     9    -0.027147
    10     0.018671
    11    -0.243321
    12    -0.199156
    13     1.157716
    14    -0.107516
    15    -0.173126
    16     1.175141
    17    -0.003417
    18     0.092380
    19    -0.438902
    20     0.000664
    21    -0.005031
    22    -0.118884
    23    -0.012685
    24    -0.035974
    25    -0.033183
    26    -0.109737
    27    -0.072204
    28     0.520951
    29     0.082388
    30     0.098929
    31     0.094273
    32    -0.018396
    33     0.009202
    34     2.154237
    35    -0.028093
    36    -0.450481
    37    -0.413340
    38     0.027563
    39     0.029631
    40    -0.014659
    41     0.004820
    42     0.004340
    43     0.008197
    44    -0.006635
    45    -0.003695
    46     0.007573
    47     0.021720
    48     0.026123
    49     0.039679
    50     0.624745
    51     0.043073
    52     0.029423
    53     0.009614
    54     0.165075
    55     0.117138
    56     0.027137
    57     0.021730
    58    -0.670929
    59    -0.078740
    60    -0.038045
    61    -0.096802
    62     0.019660
    63    -0.064422
    64     0.032624
    65    -0.027216
    66    -0.036909
    67    -0.050658
    68    -0.032006
    69     0.001689
    70    -0.104277
    71    -0.004942
    72     0.031903
    73    -0.000798
    74     0.004360
    75    -0.026736
    76     0.179139
    77     0.435138
    78    -1.685489
    79    -1.215826
    80    -0.001811
    81    -0.001417
    82     0.046909
    83    -0.076188
    84    -0.055088
    85     0.680645
    86    -0.212432
    87    -0.181018
    88    -0.199984
    89    -0.043537
    90    -0.068457
    91    -0.123155
    92     0.003040
    93    -0.001550
    94    -0.064126
    95     0.005122
    96     0.030108
    97     0.021846
    98     0.340594
    99     0.344567
   100     1.124246
   101    -0.018618
   102    -0.150891
   103    -0.103947
   104     0.265608
   105     0.249298
   106     0.300966
   107     0.024423
   108    -0.160526
   109    -0.142230
   110    -0.002746
   111     0.002177
   112     0.032368
   113     0.005605
   114     0.000645
   115    -0.039159
   116    -0.000783
   117    -0.003356
   118    -0.038395
   119    -0.006482
   120     0.016365
   121     0.014967
   122    -0.074243
   123     0.000611
   124    -0.000894
   125    -0.143775
   126    -0.058128
   127    -0.058949
   128    -0.170691
   129     0.003958
   130    -0.237571
   131     0.008498
   132    -0.114943
   133     0.035481
   134    -0.073203
   135     0.026326
   136    -0.010611
   137     0.024048
   138     0.005171
   139    -0.121663
   140     0.011913
   141    -0.043680
   142     0.044152
   143     0.004825
   144    -0.063573
   145    -0.000714
   146    -0.009027
   147     0.014307
   148    -0.082550
   149     0.194337
   150    -2.070414
   151    -0.340304
   152     0.003606
   153     0.006676
   154     0.078072
   155    -0.049923
   156    -0.062294
   157    -0.072916
   158     0.554756
   159     0.579562
   160     1.996887
   161    -0.076630
   162    -0.147669
   163    -0.222868
   164     0.010565
   165     0.009116
   166    -0.025990
   167     0.016965
   168     0.093347
   169     0.086176
   170     0.206505
   171     0.220512
   172    -1.091729
   173     0.105036
   174     1.228603
   175     0.953108
   176    -0.399642
   177    -0.450689
   178    -0.970254
   179    -0.093866
   180    -0.817699
   181    -0.720234
   182    -0.156074
   183    -0.139637
   184    -0.001909
   185    -0.094657
   186    -0.072936
   187    -0.271467
   188     0.214094
   189     0.173845
   190    -0.122125
   191    -0.309451
   192    -0.122147
   193    -0.146570
   194     0.574748
   195     0.035441
   196     0.082507
   197     0.321979
   198    -0.049070
   199    -0.034141
   200     0.391212
   201     0.251710
   202     0.616911
   203    -0.286784
   204     0.083940
   205    -0.391981
   206    -0.034048
   207    -0.388864
   208    -0.114505
   209    -0.195857
   210     0.024110
   211     0.028542
   212    -0.062488
   213    -0.085846
   214    -0.363193
   215    -0.016393
   216    -0.010938
Sym=    19a
Ene=   -0.490220E-03
Spin= Alpha
Occup= 0.000262
     1     0.000027
     2     0.000028
     3     0.000182
     4    -0.002566
     5    -0.002437
     6    -0.079166
     7     0.002164
     8    -0.002161
     9    -0.006547
    10    -0.000467
    11     0.025134
    12     0.062163
    13    -0.026379
    14     0.055026
    15     0.071002
    16    -0.050466
    17    -0.006782
    18     0.007133
    19    -0.009035
    20    -0.027688
    21     0.027781
    22     0.000739
    23     0.018689
    24    -0.002243
    25    -0.004749
    26     0.120412
    27    -0.131017
    28    -0.001914
    29    -0.086785
    30     0.004181
    31     0.011334
    32    -0.057563
    33     0.050709
    34    -0.099579
    35     0.037053
    36     0.000783
    37     0.038523
    38    -0.004976
    39    -0.008118
    40    -0.000959
    41    -0.001742
    42    -0.003965
    43     0.007404
    44    -0.000092
    45    -0.000347
    46    -0.007296
    47    -0.004803
    48    -0.023784
    49    -0.049753
    50    -0.035527
    51    -0.013222
    52    -0.014577
    53    -0.011577
    54    -0.026834
    55    -0.046800
    56     0.014992
    57     0.008726
    58     0.009352
    59    -0.023438
    60     0.035532
    61     0.003743
    62     0.070194
    63    -0.010896
    64     0.022819
    65     0.000718
    66     0.039726
    67    -0.032497
    68     0.000321
    69    -0.001153
    70     0.002304
    71     0.022510
    72    -0.066790
    73     0.000012
    74     0.000331
    75    -0.000802
    76    -0.013017
    77    -0.006482
    78     0.101459
    79    -0.024098
    80    -0.002893
    81    -0.008940
    82    -0.001307
    83    -0.010774
    84    -0.013055
    85    -0.044454
    86    -0.035017
    87    -0.070003
    88     0.004090
    89     0.031840
    90     0.078843
    91    -0.023701
    92    -0.001630
    93    -0.000308
    94    -0.001559
    95     0.000212
    96     0.000509
    97     0.001014
    98     0.637323
    99    -0.683740
   100    -0.035311
   101    -0.450052
   102     0.013643
   103     0.028168
   104     0.110717
   105    -0.115818
   106    -0.000384
   107    -0.077684
   108    -0.027226
   109    -0.033471
   110    -0.003587
   111    -0.005070
   112     0.004678
   113    -0.001999
   114    -0.001739
   115    -0.150699
   116     0.005113
   117     0.008269
   118     0.154844
   119     0.104247
   120    -0.001813
   121    -0.010322
   122     0.027032
   123    -0.006447
   124     0.003396
   125    -0.376858
   126     0.022998
   127     0.037213
   128     0.405115
   129     0.267774
   130    -0.002347
   131    -0.015228
   132    -0.047761
   133    -0.005079
   134     0.200380
   135    -0.008328
   136    -0.035337
   137    -0.000453
   138     0.086678
   139     0.051697
   140    -0.001728
   141     0.003203
   142    -0.002026
   143     0.087172
   144    -0.188580
   145     0.000002
   146     0.000003
   147    -0.000017
   148     0.003082
   149    -0.005219
   150     0.072515
   151     0.062068
   152    -0.002059
   153    -0.000396
   154    -0.000682
   155     0.002669
   156     0.011531
   157    -0.008694
   158     0.007463
   159    -0.021087
   160    -0.083604
   161    -0.030331
   162    -0.054630
   163    -0.003700
   164     0.000019
   165     0.000285
   166     0.000550
   167    -0.000129
   168    -0.000335
   169    -0.000442
   170     0.004975
   171     0.005833
   172     0.005580
   173     0.000615
   174     0.003437
   175     0.003752
   176     0.024939
   177    -0.010643
   178     0.041066
   179    -0.013721
   180    -0.003813
   181     0.012817
   182     0.000028
   183     0.000056
   184    -0.000440
   185     0.000049
   186     0.000079
   187     0.001454
   188    -0.000829
   189    -0.001090
   190    -0.002203
   191    -0.000731
   192     0.002651
   193     0.003353
   194    -0.005501
   195     0.001531
   196     0.001170
   197    -0.014170
   198     0.000365
   199     0.001144
   200     0.010068
   201     0.008411
   202    -0.001433
   203    -0.003281
   204    -0.004105
   205    -0.001698
   206     0.000531
   207    -0.002534
   208    -0.002513
   209    -0.000391
   210     0.001143
   211     0.003380
   212    -0.000693
   213    -0.003096
   214    -0.000670
   215     0.000008
   216    -0.003282
Sym=    20a
Ene=   -0.314859E-04
Spin= Alpha
Occup= 0.000000
     1     0.003042
     2    -0.013122
     3     0.102428
     4    -0.625245
     5    -0.657080
     6    19.528205
     7     2.893356
     8     0.001339
     9     0.003830
    10     0.181007
    11     0.001977
    12     0.002599
    13     0.696606
    14     0.013261
    15    -0.005827
    16    -2.860897
    17    -0.008367
    18     0.029438
    19    -0.300384
    20     0.030274
    21     0.029280
    22    -0.013776
    23     0.001368
    24    -0.000062
    25    -0.014739
    26    -1.278251
    27    -1.284151
    28    -1.893748
    29    -0.006064
    30    -0.001566
    31     0.077139
    32    -0.640948
    33    -0.636755
    34    12.270263
    35     0.002861
    36     0.007679
    37     0.002972
    38     0.000581
    39    -0.011135
    40    -0.228889
    41    -0.005806
    42    -0.001436
    43    -0.101550
    44    -0.001442
    45     0.002916
    46    -0.102346
    47    -0.001705
    48    -0.014859
    49     0.001845
    50     1.179183
    51     0.009630
    52    -0.007937
    53    -0.791149
    54    -0.009056
    55    -0.050662
    56    -0.793919
    57    -0.000739
    58     0.275453
    59    -0.035814
    60     0.152268
    61    -0.028251
    62     0.328847
    63     0.006511
    64     0.003850
    65    -0.009168
    66     0.000389
    67     0.147016
    68    -0.000706
    69     0.189778
    70     0.010623
    71     0.003041
    72     0.324757
    73    -5.573139
    74     8.531670
    75   -13.969716
    76    15.299947
    77    16.735538
    78   -37.320348
    79    -3.873333
    80    -0.001923
    81    -0.014857
    82     1.149739
    83    -0.003633
    84    -0.080768
    85     6.140183
    86    -0.016584
    87    -0.018734
    88    -4.789229
    89     0.010710
    90    -0.016390
    91    -0.391154
    92    -8.200919
    93    -8.200158
    94    -4.694367
    95     0.005875
    96    -0.022658
    97    -0.112147
    98    21.143660
    99    21.131430
   100     4.701912
   101    -0.028780
   102     0.104385
   103     0.509387
   104     2.121272
   105     2.117437
   106    -0.431504
   107    -0.001228
   108    -0.004773
   109    -0.033850
   110    -0.024093
   111     0.049450
   112    -1.641655
   113     0.036782
   114    -0.009261
   115    -0.953935
   116     0.001932
   117     0.008052
   118    -0.953147
   119    -0.000018
   120     0.050253
   121     0.023367
   122    -5.820784
   123    -0.050195
   124     0.057182
   125    -2.296297
   126     0.012361
   127     0.046933
   128    -2.301789
   129    -0.002283
   130    -0.089070
   131    -0.193193
   132    -3.070100
   133    -0.205274
   134   -10.463644
   135    -0.035946
   136     0.000945
   137    -0.039924
   138     0.013480
   139    -3.068503
   140    -0.072501
   141    -6.128722
   142    -0.025089
   143     0.014901
   144   -10.475818
   145     0.004867
   146    -0.010515
   147     0.076227
   148    -1.508256
   149     0.932802
   150    -3.569923
   151    -0.153595
   152    -0.000257
   153     0.000241
   154     0.086767
   155     0.003693
   156     0.005842
   157     0.479707
   158    -0.006392
   159     0.005735
   160     5.495012
   161     0.002446
   162    -0.012981
   163    -0.235649
   164    -0.052002
   165    -0.052109
   166    -0.065658
   167    -0.000737
   168     0.000585
   169     0.001529
   170    -2.855428
   171    -2.854612
   172    -2.973192
   173     0.003890
   174    -0.001735
   175    -0.000953
   176    -1.827056
   177    -1.827839
   178    -3.926784
   179    -0.000750
   180     0.003131
   181    -0.011094
   182    -0.001298
   183     0.000676
   184     0.172239
   185     0.000781
   186    -0.000252
   187     0.064559
   188    -0.000615
   189    -0.000170
   190     0.064084
   191    -0.000068
   192     0.000843
   193    -0.000494
   194     0.720862
   195    -0.001210
   196     0.001364
   197     0.293753
   198    -0.001253
   199     0.015630
   200     0.294861
   201     0.000624
   202     0.851382
   203    -0.008247
   204     0.494787
   205    -0.001974
   206     0.901221
   207     0.001413
   208    -0.001334
   209     0.000337
   210    -0.001868
   211     0.495708
   212    -0.001686
   213     0.527526
   214    -0.000702
   215    -0.001120
   216     0.901356
Sym=    21a
Ene=   -0.294116E-07
Spin= Alpha
Occup= 0.000000
     1     0.759645
     2    -1.657482
     3     9.049159
     4    -5.981084
     5   -23.590480
     6    55.966965
     7    -1.270888
     8    -0.024185
     9     0.024613
    10    -0.329975
    11    -0.245187
    12    -0.399912
    13    -3.665153
    14     0.302646
    15    -2.471528
    16   -22.786138
    17    -0.370229
    18    -0.335632
    19     0.025680
    20    10.029860
    21     9.739136
    22    11.277764
    23    -0.011488
    24     0.004456
    25     0.128818
    26   -16.036485
    27   -14.376235
    28   -21.121482
    29     0.056255
    30    -0.021601
    31    -0.492267
    32     3.078038
    33     3.010734
    34    23.049744
    35    -0.048817
    36    -0.190775
    37     3.067786
    38     0.045979
    39    -0.055895
    40     0.597387
    41     0.064768
    42    -0.057372
    43     0.283310
    44     0.020699
    45    -0.056413
    46     0.267857
    47     0.005007
    48     0.051831
    49     0.131988
    50     0.431806
    51    -0.040475
    52     0.104862
    53     0.823531
    54     0.072855
    55    -1.365918
    56     0.877541
    57     0.038803
    58    16.350166
    59     0.603450
    60     7.112343
    61     0.295619
    62     8.958792
    63    -0.035740
    64    -0.022454
    65     0.021434
    66     0.054569
    67     7.444227
    68     0.129377
    69     5.501136
    70     0.028791
    71    -0.087247
    72    10.056952
    73    -0.007866
    74     0.017882
    75    -0.122184
    76    -9.248685
    77     2.610899
    78     1.286881
    79     5.673369
    80    -0.000302
    81    -0.044996
    82     0.063147
    83    -0.022459
    84    -0.061473
    85    -3.446592
    86    -0.246426
    87     3.494638
    88   -29.153899
    89     0.231738
    90    -0.111328
    91     1.952224
    92    -1.022101
    93    -1.187857
    94    -1.467318
    95    -0.101343
    96    -0.062373
    97     0.532239
    98   -19.785235
    99   -18.841875
   100   -19.876368
   101     0.583966
   102     0.340589
   103    -2.897840
   104    -9.787843
   105    -9.812398
   106   -22.864167
   107     0.015515
   108    -0.097673
   109     2.903146
   110     0.015564
   111     0.278243
   112    -0.427304
   113    -0.001908
   114     0.127289
   115    -0.067527
   116    -0.013229
   117    -0.087659
   118    -0.061570
   119    -0.005309
   120    -0.005109
   121    -0.402797
   122    -2.941909
   123     0.019971
   124    -0.190918
   125     0.260536
   126    -0.020722
   127     1.512014
   128     0.278906
   129     0.039674
   130     3.760166
   131     1.750692
   132     2.549002
   133     1.284908
   134     4.766635
   135    -0.166128
   136    -0.082617
   137    -0.062690
   138    -0.280050
   139     2.693603
   140     0.561832
   141     2.988687
   142    -0.177278
   143    -0.252934
   144     5.409000
   145    -0.006723
   146     0.017042
   147    -0.116925
   148     1.427891
   149     0.155515
   150   -13.173693
   151    -1.941682
   152     0.018720
   153    -0.004361
   154     0.004123
   155    -0.098085
   156     0.301893
   157     0.456946
   158    -0.151140
   159    -1.103381
   160     7.799647
   161     0.231221
   162     0.444252
   163    -0.124829
   164     0.066169
   165     0.069855
   166     0.009945
   167    -0.002774
   168     0.022297
   169    -0.136046
   170     2.597350
   171     2.579666
   172     2.497294
   173     0.017496
   174    -0.124400
   175     0.679558
   176     0.201029
   177     0.176397
   178    -4.662841
   179     0.006879
   180    -0.051548
   181     0.172779
   182     0.034205
   183    -0.019335
   184     0.144311
   185     0.014048
   186    -0.002831
   187    -0.001719
   188     0.021714
   189    -0.016751
   190    -0.012421
   191    -0.000307
   192     0.103644
   193     0.095208
   194     1.980951
   195     0.050668
   196     0.028333
   197    -0.008303
   198     0.061900
   199     0.127425
   200     0.015333
   201     0.007136
   202    -1.126809
   203    -0.329895
   204    -0.356193
   205    -0.386885
   206    -0.649601
   207     0.045270
   208    -0.019958
   209     0.031891
   210    -0.006690
   211    -0.374915
   212    -0.158510
   213    -0.365117
   214     0.063810
   215    -0.005150
   216    -0.656264
Sym=    22a
Ene=    0.915372E-08
Spin= Alpha
Occup= 0.000000
     1    -0.001612
     2    -0.000992
     3     0.077001
     4    -6.504846
     5    -1.673142
     6    -8.946527
     7    15.854553
     8    -0.013526
     9    -0.024168
    10    -0.021532
    11    -0.655186
    12    -0.489943
    13    -0.789469
    14     0.902416
    15     0.983250
    16    22.803908
    17    -2.993741
    18    -1.496452
    19    -1.385166
    20    -0.510458
    21    -0.853937
    22    -0.645009
    23    -0.410449
    24     0.146172
    25     0.306201
    26   -14.621370
    27   -12.655637
    28   -14.095628
    29     2.352883
    30    -0.739653
    31    -1.686348
    32   -10.390193
    33   -10.396708
    34   -32.049595
    35     0.030061
    36     1.134629
    37     1.643337
    38     0.059352
    39     0.086296
    40     0.003392
    41     0.022109
    42     0.047067
    43     0.038998
    44     0.002244
    45    -0.015622
    46     0.017959
    47    -0.012166
    48    -0.174028
    49    -0.231160
    50    -0.791046
    51    -0.085999
    52    -0.106577
    53    -0.054849
    54    -0.297049
    55     0.231300
    56    -0.048656
    57     0.031195
    58     2.898632
    59     1.089641
    60     1.784434
    61     0.686735
    62     2.473118
    63     0.551779
    64    -0.393197
    65     0.153738
    66    -1.073328
    67     2.113127
    68     0.311925
    69     1.830639
    70     0.347540
    71    -1.021008
    72     3.807748
    73     0.007654
    74    -0.015556
    75     0.050216
    76    -0.383218
    77     1.955969
    78    34.654944
    79    -8.714505
    80     0.004831
    81    -0.000363
    82     0.021711
    83     0.365168
    84     0.062693
    85     1.931255
    86    -0.162876
    87     0.480926
    88    27.238161
    89     1.998422
    90     0.812318
    91    -3.353305
    92    -0.001063
    93     0.021538
    94    -0.088941
    95     0.066135
    96    -0.148926
    97    -0.112803
    98    -0.452511
    99    -0.564936
   100     0.395744
   101    -0.386700
   102     0.886511
   103     0.666456
   104     5.964212
   105     5.942295
   106    15.628927
   107    -0.039135
   108     0.969167
   109     0.680903
   110     0.034536
   111    -0.025395
   112    -0.042385
   113    -0.050950
   114     0.026177
   115    -0.061903
   116    -0.014107
   117     0.047903
   118    -0.034043
   119     0.022626
   120    -0.004463
   121     0.025649
   122     0.941191
   123     0.069283
   124    -0.028348
   125     0.166501
   126     0.547064
   127     0.364089
   128     0.095913
   129    -0.067603
   130    -0.120653
   131    -0.103130
   132     0.098310
   133    -0.350068
   134     0.337056
   135    -0.184397
   136     0.076880
   137    -0.200071
   138     0.165798
   139     0.068000
   140    -0.158848
   141     0.145863
   142    -0.464504
   143     0.165281
   144     0.283450
   145    -0.011310
   146     0.022442
   147    -0.071495
   148     0.041836
   149     0.165519
   150     9.731735
   151    -2.253702
   152     0.131667
   153     0.012174
   154     0.041563
   155    -0.577578
   156     0.001751
   157    -1.344833
   158    -2.056945
   159    -1.429629
   160    -7.102379
   161     1.866140
   162     0.691296
   163     0.946875
   164    -0.070583
   165    -0.039249
   166     0.065096
   167     0.021434
   168     0.282213
   169     0.161020
   170     0.113929
   171    -0.028333
   172    -0.410194
   173    -0.101370
   174    -1.523093
   175    -0.888625
   176     1.594670
   177     1.571839
   178     4.749628
   179    -0.059096
   180     0.177288
   181     0.803450
   182     0.240009
   183     0.013946
   184     0.081289
   185     0.102674
   186     0.002985
   187     0.044802
   188     0.144432
   189     0.043367
   190     0.049459
   191    -0.031975
   192     0.822035
   193     0.218513
   194    -0.793678
   195     0.375416
   196     0.105046
   197    -0.031707
   198     0.216660
   199    -0.356766
   200    -0.007716
   201     0.081689
   202     0.551691
   203     0.543706
   204     0.122803
   205     0.330294
   206    -0.039723
   207     0.746798
   208    -0.016211
   209     0.284519
   210     0.030037
   211     0.106001
   212     0.138145
   213     0.005380
   214     0.652166
   215     0.083558
   216    -0.133101
Sym=    23a
Ene=   -0.520047E-04
Spin= Alpha
Occup= 0.000014
     1    -0.010474
     2     0.035990
     3     0.146025
     4    -0.826933
     5     0.793141
     6     1.431763
     7    -0.360775
     8     0.048433
     9     0.144326
    10     0.082377
    11     0.518031
    12     1.423843
    13     1.993919
    14     0.147180
    15     0.089226
    16     1.063944
    17     0.022132
    18     0.224033
    19     0.385552
    20    -0.052563
    21     0.147688
    22    -0.009643
    23     0.196496
    24     0.067746
    25     0.125454
    26    -0.846681
    27    -0.798537
    28    -0.299837
    29    -0.070847
    30     0.303766
    31     0.800115
    32    -0.167921
    33     0.113935
    34     0.857567
    35     0.012965
    36     0.012126
    37     0.646881
    38     0.013160
    39    -0.265216
    40    -0.364722
    41    -0.262950
    42    -0.127214
    43    -0.072449
    44    -0.193772
    45    -0.458421
    46    -0.202233
    47    -0.193042
    48    -0.133486
    49    -0.745191
    50     1.685720
    51    -0.172208
    52    -0.082795
    53    -0.144701
    54     0.297385
    55     0.983927
    56     0.132417
    57     0.193498
    58    -0.121161
    59    -0.264361
    60    -0.266505
    61    -0.568895
    62     0.293957
    63    -0.076543
    64    -0.008165
    65     0.083108
    66     0.410771
    67     0.015974
    68    -0.226357
    69     0.074336
    70    -0.292009
    71    -0.364880
    72     0.294649
    73    -0.007546
    74     0.026488
    75     0.111133
    76    -0.413616
    77     0.796523
    78     0.628080
    79     0.982543
    80     0.028702
    81     0.097452
    82    -0.026569
    83     0.239714
    84     0.653558
    85     0.626145
    86    -0.314036
    87    -0.446334
    88     1.107879
    89     0.113072
    90     0.384653
    91     0.158878
    92    -0.013875
    93     0.145603
    94     0.044769
    95     0.133512
    96    -0.029714
    97     0.004102
    98    -0.342209
    99    -0.257254
   100     0.614274
   101    -0.107887
   102    -0.359328
   103    -1.374175
   104    -0.143305
   105     0.001960
   106     0.479756
   107     0.009989
   108    -0.080087
   109    -0.031761
   110    -0.011534
   111    -0.140572
   112     0.203180
   113    -0.110197
   114    -0.097462
   115     0.046388
   116    -0.130183
   117    -0.359903
   118     0.169297
   119     0.123353
   120    -0.049476
   121    -0.329287
   122    -0.104917
   123    -0.057209
   124    -0.037998
   125    -0.108972
   126     0.037944
   127     0.017793
   128    -0.097725
   129    -0.057468
   130    -0.184033
   131     0.518603
   132    -0.157593
   133     0.575513
   134     0.115283
   135     0.146739
   136    -0.007599
   137    -0.011697
   138     0.219866
   139     0.002635
   140     0.276920
   141     0.036603
   142     0.214568
   143    -0.117215
   144     0.165816
   145    -0.000189
   146     0.000939
   147    -0.005305
   148     0.144979
   149    -0.010370
   150    -2.243911
   151    -1.300931
   152    -0.007651
   153    -0.012252
   154     0.014957
   155    -0.028063
   156    -0.113568
   157     0.536796
   158    -0.017381
   159    -0.451289
   160     1.517283
   161    -0.071918
   162    -0.186684
   163     0.125362
   164     0.003483
   165     0.007743
   166     0.023844
   167     0.011235
   168    -0.007609
   169    -0.012734
   170     0.312404
   171     0.304620
   172     0.079496
   173    -0.040095
   174     0.010730
   175     0.008601
   176     0.232545
   177     0.092208
   178    -0.867659
   179    -0.049148
   180     0.176846
   181     0.687401
   182    -0.012326
   183    -0.036048
   184     0.046014
   185    -0.005725
   186     0.001986
   187     0.029383
   188     0.000318
   189     0.007631
   190     0.003722
   191    -0.010281
   192    -0.029313
   193    -0.012155
   194     0.284506
   195    -0.016287
   196    -0.062568
   197     0.002794
   198    -0.165527
   199    -0.433938
   200     0.083774
   201     0.049673
   202    -0.068863
   203     0.121278
   204    -0.066945
   205     0.048919
   206    -0.048995
   207     0.037048
   208    -0.012170
   209     0.012078
   210     0.018449
   211    -0.064128
   212     0.042674
   213    -0.032234
   214     0.021453
   215     0.024037
   216    -0.076287
Sym=    24a
Ene=   -0.104673E-02
Spin= Alpha
Occup= 0.000568
     1    -0.005638
     2     0.012423
     3    -0.042501
     4    -0.120517
     5     0.549969
     6    -0.075616
     7    -0.170261
     8    -0.210884
     9    -0.046918
    10     0.108101
    11     0.144271
    12     0.032474
    13     0.682823
    14    -0.031190
    15    -0.010263
    16     1.302103
    17     0.148374
    18     0.044120
    19     0.303648
    20     0.003341
    21    -0.019574
    22     0.021007
    23     0.003717
    24    -0.037340
    25    -0.006722
    26    -0.178924
    27     0.078487
    28     0.076938
    29    -0.084599
    30     0.081598
    31     0.025569
    32    -0.057346
    33     0.169448
    34     0.473835
    35    -0.061828
    36     0.396992
    37     0.099387
    38    -0.025453
    39     0.012581
    40    -0.053248
    41     0.020748
    42    -0.019571
    43     0.055882
    44     0.007207
    45    -0.001464
    46     0.005931
    47     0.015317
    48    -0.313828
    49     0.076344
    50     1.065183
    51     0.130008
    52    -0.162695
    53     0.267450
    54    -0.442131
    55    -0.091675
    56     0.044749
    57     0.056693
    58     0.033312
    59    -0.009748
    60    -0.045287
    61    -0.038550
    62    -0.024814
    63    -0.050694
    64    -0.015775
    65    -0.067137
    66     0.052175
    67    -0.106531
    68     0.067672
    69     0.062564
    70     0.118072
    71    -0.029121
    72     0.030529
    73    -0.003747
    74     0.009074
    75    -0.027470
    76    -0.001519
    77     0.563334
    78    -0.130750
    79     1.025445
    80    -0.169630
    81    -0.037535
    82    -0.079705
    83     0.182302
    84     0.043412
    85     0.568580
    86     0.248829
    87     0.058833
    88     0.931940
    89     0.192654
    90     0.046100
    91     0.354311
    92     0.000156
    93     0.000502
    94     0.041326
    95    -0.001205
    96     0.029197
    97     0.005975
    98     0.083955
    99     0.253863
   100     0.395536
   101    -0.047321
   102     0.033459
   103     0.002248
   104    -0.028470
   105     0.150754
   106     0.429237
   107    -0.047506
   108     0.057739
   109     0.013217
   110    -0.001125
   111     0.011120
   112     0.031244
   113     0.020828
   114    -0.010920
   115    -0.050714
   116    -0.003421
   117    -0.002574
   118     0.002226
   119    -0.014299
   120    -0.217426
   121     0.068276
   122    -0.170315
   123     0.129982
   124    -0.128341
   125    -0.297508
   126    -0.201132
   127    -0.048321
   128    -0.063084
   129    -0.062068
   130    -0.009838
   131     0.000273
   132    -0.030682
   133     0.038098
   134    -0.069149
   135    -0.002939
   136    -0.017402
   137     0.068526
   138     0.036072
   139    -0.099771
   140    -0.060568
   141     0.015516
   142    -0.095679
   143    -0.026930
   144    -0.040137
   145    -0.000266
   146     0.000494
   147    -0.003892
   148     0.071616
   149     0.041942
   150    -1.254544
   151    -1.395875
   152     0.007279
   153     0.003482
   154     0.005983
   155     0.049320
   156     0.011476
   157     0.309765
   158    -0.150358
   159    -0.048790
   160     1.344259
   161    -0.153773
   162    -0.034471
   163     0.162519
   164     0.008743
   165     0.001345
   166    -0.002668
   167     0.000910
   168     0.005743
   169     0.001481
   170     0.139055
   171     0.165907
   172     0.102184
   173    -0.014280
   174    -0.007089
   175    -0.002353
   176     0.105608
   177     0.094084
   178    -0.680297
   179     0.004716
   180    -0.026380
   181     0.004509
   182     0.007592
   183     0.002600
   184     0.003876
   185     0.005436
   186     0.000191
   187    -0.002340
   188    -0.003400
   189    -0.000482
   190     0.001466
   191    -0.000746
   192     0.039499
   193     0.008110
   194     0.129141
   195    -0.007476
   196    -0.002097
   197     0.002932
   198     0.064857
   199     0.013519
   200    -0.010142
   201     0.001754
   202    -0.083629
   203    -0.000862
   204    -0.042754
   205    -0.001583
   206    -0.030653
   207    -0.011530
   208     0.002353
   209    -0.001333
   210     0.004151
   211    -0.034419
   212    -0.000016
   213    -0.015094
   214    -0.007643
   215     0.000828
   216    -0.014382
Sym=    25a
Ene=   -0.161215E-03
Spin= Alpha
Occup= 0.000048
     1     0.002021
     2     0.011624
     3     0.008851
     4    -0.222205
     5     0.303017
     6     3.575966
     7    -0.069114
     8    -0.025989
     9     0.030379
    10    -0.055793
    11    -0.212742
    12     0.249464
    13     0.254864
    14     0.076220
    15    -0.064125
    16    -1.863811
    17     0.085479
    18    -0.068396
    19     0.298966
    20     0.014943
    21     0.012361
    22    -0.008359
    23    -0.025965
    24    -0.017356
    25     0.010752
    26     0.193153
    27     0.138041
    28    -1.284703
    29    -0.089608
    30    -0.334426
    31     0.434709
    32     0.161247
    33     0.145184
    34     2.134064
    35    -0.026247
    36     0.151000
    37    -0.105656
    38    -0.134804
    39     0.124265
    40     0.295876
    41    -0.072507
    42     0.097956
    43     0.020273
    44     0.285499
    45    -0.323142
    46     0.056531
    47    -0.139644
    48    -0.102865
    49     0.060095
    50     2.881392
    51     0.020411
    52     0.011449
    53    -0.092283
    54     0.197619
    55    -0.252056
    56    -0.064398
    57     0.005423
    58     0.075940
    59     0.193936
    60    -0.088259
    61    -0.303667
    62     0.062232
    63    -0.202834
    64     0.298785
    65     0.021829
    66    -0.081199
    67    -0.032628
    68    -0.083390
    69     0.049355
    70     0.294682
    71    -0.100131
    72     0.020386
    73     0.004325
    74     0.040503
    75     0.000776
    76     0.010567
    77     1.369389
    78    -3.988732
    79     0.676525
    80    -0.038897
    81     0.050157
    82     0.184527
    83    -0.366712
    84     0.452592
    85     2.780821
    86     0.190235
    87    -0.220128
    88    -2.092722
    89     0.085029
    90    -0.095023
    91     0.090365
    92     0.013782
    93     0.034630
    94     0.040266
    95    -0.073407
    96    -0.008265
    97     0.012164
    98     0.802387
    99     0.924867
   100     1.454938
   101    -0.233872
   102    -0.445067
   103     0.538961
   104    -0.428460
   105    -0.450956
   106    -1.363857
   107     0.083300
   108     0.126657
   109    -0.119421
   110    -0.040982
   111     0.086115
   112    -0.190443
   113    -0.122466
   114     0.087135
   115     0.007742
   116     0.037462
   117    -0.037767
   118     0.045858
   119    -0.061086
   120     0.047445
   121    -0.064118
   122    -1.051573
   123     0.100629
   124    -0.099750
   125    -0.436061
   126    -0.007325
   127     0.026482
   128    -0.381722
   129    -0.038990
   130    -0.180458
   131    -0.240459
   132    -0.109187
   133     0.001867
   134    -0.240729
   135     0.200790
   136     0.118766
   137     0.002056
   138     0.009469
   139    -0.090573
   140    -0.016473
   141    -0.119938
   142     0.005004
   143     0.029022
   144    -0.213039
   145     0.001384
   146     0.004428
   147     0.006343
   148    -0.031999
   149     0.034937
   150    -2.155461
   151    -0.282321
   152    -0.017695
   153     0.021138
   154     0.050633
   155     0.105603
   156    -0.106248
   157     0.478922
   158    -0.080940
   159     0.036201
   160     0.822301
   161    -0.045052
   162     0.035777
   163    -0.000881
   164     0.003646
   165     0.003071
   166     0.034880
   167    -0.001077
   168    -0.020505
   169     0.020838
   170     0.006544
   171    -0.003887
   172    -0.170597
   173     0.010969
   174     0.117217
   175    -0.133030
   176     0.034292
   177     0.030606
   178    -0.569296
   179    -0.008289
   180     0.062646
   181    -0.046169
   182    -0.035020
   183     0.033384
   184     0.056346
   185    -0.012350
   186     0.022719
   187     0.036838
   188    -0.002898
   189     0.001753
   190     0.038210
   191     0.000145
   192    -0.084104
   193     0.118825
   194     0.207336
   195    -0.049154
   196     0.024913
   197     0.186245
   198     0.052990
   199    -0.043810
   200     0.154070
   201     0.036598
   202     0.093801
   203     0.134166
   204     0.007382
   205     0.038498
   206     0.026271
   207    -0.118613
   208    -0.033621
   209    -0.024317
   210    -0.009663
   211    -0.010260
   212     0.014653
   213     0.011051
   214    -0.031368
   215     0.006593
   216     0.017878
Sym=    26a
Ene=   -0.124488E-01
Spin= Alpha
Occup= 0.008205
     1    -0.073086
     2    -0.006604
     3    -0.109660
     4    -0.035649
     5     0.494440
     6    -0.759721
     7    -0.180971
     8    -0.000541
     9    -0.001948
    10    -0.401664
    11     0.000743
    12     0.002681
    13     0.626015
    14    -0.001183
    15     0.001027
    16     1.103787
    17     0.001332
    18    -0.001597
    19     0.133599
    20    -0.008491
    21    -0.008651
    22     0.058640
    23    -0.000016
    24     0.000158
    25     0.000364
    26     0.071495
    27     0.072745
    28     0.278998
    29     0.000269
    30     0.000042
    31     0.001614
    32    -0.063404
    33    -0.063744
    34    -0.489286
    35     0.000164
    36     0.000306
    37     0.000981
    38    -0.000223
    39    -0.000166
    40     0.027172
    41     0.000314
    42     0.000054
    43    -0.019493
    44     0.000174
    45     0.000386
    46    -0.019397
    47     0.000015
    48    -0.001695
    49     0.002410
    50    -0.337382
    51     0.002363
    52    -0.004568
    53    -0.094730
    54     0.000021
    55    -0.000065
    56    -0.094950
    57    -0.000014
    58    -0.007779
    59     0.000056
    60    -0.024844
    61     0.000670
    62    -0.029729
    63     0.000222
    64    -0.000073
    65     0.000103
    66    -0.000020
    67    -0.024592
    68    -0.001175
    69    -0.017278
    70     0.000044
    71    -0.000050
    72    -0.029263
    73    -0.006587
    74    -0.000329
    75    -0.012700
    76     0.029389
    77     0.001646
    78     0.727948
    79     0.335937
    80     0.000144
    81     0.000764
    82    -0.022705
    83     0.000109
    84    -0.000498
    85    -0.011759
    86     0.000091
    87    -0.000933
    88     0.813212
    89    -0.001133
    90     0.000596
    91     0.031002
    92     0.000659
    93     0.000579
    94     0.003370
    95     0.000003
    96    -0.000012
    97     0.000026
    98     0.096379
    99     0.096217
   100     0.012466
   101    -0.000302
   102     0.000386
   103     0.000331
   104     0.141199
   105     0.141079
   106     0.424924
   107     0.000032
   108     0.000116
   109     0.000353
   110     0.000345
   111    -0.000242
   112    -0.004954
   113    -0.000522
   114     0.000216
   115    -0.000658
   116     0.000044
   117     0.000095
   118    -0.000733
   119    -0.000022
   120     0.000163
   121    -0.000701
   122     0.041775
   123    -0.000490
   124     0.000602
   125    -0.000326
   126     0.000145
   127     0.000232
   128    -0.000485
   129    -0.000056
   130     0.011332
   131     0.000065
   132    -0.012059
   133    -0.000169
   134    -0.027965
   135     0.000005
   136     0.000017
   137    -0.000225
   138     0.000059
   139    -0.011985
   140     0.000132
   141    -0.016360
   142     0.000067
   143     0.000043
   144    -0.027919
   145     0.049297
   146     0.005315
   147     0.068886
   148     0.029630
   149    -0.215479
   150     0.104535
   151    -0.531747
   152    -0.000115
   153    -0.000943
   154     0.407753
   155    -0.000001
   156    -0.000727
   157     0.495751
   158    -0.000239
   159    -0.001131
   160     0.240515
   161    -0.000571
   162    -0.000196
   163     0.137844
   164     0.008502
   165     0.008450
   166    -0.038260
   167    -0.000040
   168     0.000004
   169     0.000092
   170     0.005529
   171     0.005713
   172    -0.187551
   173     0.000021
   174    -0.000111
   175     0.000519
   176     0.069780
   177     0.069096
   178    -0.028081
   179    -0.000382
   180    -0.000395
   181     0.000645
   182     0.000500
   183     0.001008
   184     0.019315
   185    -0.000708
   186    -0.001278
   187    -0.020780
   188    -0.000003
   189    -0.000129
   190    -0.020778
   191    -0.000018
   192     0.004063
   193     0.006408
   194    -0.057950
   195    -0.005581
   196    -0.008282
   197    -0.093679
   198    -0.000113
   199    -0.000320
   200    -0.093569
   201    -0.000082
   202    -0.008140
   203    -0.000060
   204     0.009725
   205    -0.003191
   206     0.009162
   207    -0.000025
   208    -0.000014
   209     0.002363
   210    -0.000080
   211     0.009780
   212     0.004195
   213     0.005359
   214    -0.001727
   215    -0.000009
   216     0.009234
Sym=    27a
Ene=   -0.162776E-04
Spin= Alpha
Occup= 0.000004
     1     0.000614
     2    -0.002568
     3     0.022226
     4    -0.188401
     5     0.109262
     6    -0.585827
     7    -0.322379
     8    -0.062195
     9    -0.012564
    10    -0.024313
    11    -0.740564
    12     0.178982
    13     1.740209
    14     0.320864
    15     0.039797
    16     2.905939
    17    -0.525686
    18     0.249110
    19    -0.284496
    20    -0.040454
    21     0.045448
    22     0.002631
    23     0.022778
    24    -0.021187
    25    -0.015228
    26    -0.173242
    27    -0.554259
    28    -0.344627
    29    -0.116904
    30     0.105714
    31     0.105109
    32    -0.251779
    33    -0.246523
    34    -1.264491
    35     0.055415
    36     0.408951
    37     0.563031
    38     0.125187
    39     0.016001
    40    -0.100488
    41     0.050542
    42     0.008681
    43     0.021589
    44     0.017605
    45    -0.006771
    46     0.039167
    47    -0.003320
    48     0.103582
    49     0.050607
    50     2.049597
    51     0.077313
    52     0.034801
    53    -0.078858
    54    -0.498858
    55     0.446047
    56    -0.167543
    57    -0.028457
    58    -0.177064
    59    -0.081303
    60     0.117317
    61     0.001935
    62     0.230641
    63    -0.126013
    64    -0.043226
    65    -0.076625
    66     0.071202
    67     0.064100
    68     0.004108
    69     0.060190
    70    -0.201327
    71     0.061169
    72     0.004974
    73    -0.001058
    74     0.002282
    75    -0.016599
    76     0.339914
    77     0.557512
    78     2.047114
    79    -0.166523
    80    -0.022167
    81    -0.022105
    82     0.041719
    83     0.127773
    84    -0.213841
    85     1.866546
    86    -0.100005
    87     0.189389
    88     1.974057
    89     0.314897
    90    -0.326362
    91    -0.053029
    92     0.013823
    93     0.054903
    94    -0.031843
    95    -0.017186
    96    -0.022946
    97     0.002376
    98     0.731931
    99     0.535945
   100     1.627778
   101     0.054638
   102     0.163223
   103    -0.037271
   104     0.396949
   105     0.396081
   106     1.260385
   107    -0.049359
   108     0.242020
   109    -0.029340
   110     0.033337
   111     0.032695
   112     0.022987
   113     0.013488
   114     0.012716
   115    -0.026674
   116     0.032315
   117    -0.016892
   118    -0.024383
   119     0.012065
   120     0.163320
   121     0.114849
   122     0.001168
   123     0.070324
   124     0.055308
   125    -0.076302
   126     0.215226
   127    -0.055789
   128    -0.103316
   129    -0.011394
   130    -0.305159
   131    -0.064752
   132    -0.095808
   133    -0.015438
   134    -0.086182
   135     0.009362
   136     0.006989
   137     0.005653
   138    -0.015038
   139    -0.121877
   140    -0.006258
   141    -0.078225
   142     0.019501
   143    -0.013021
   144    -0.203735
   145    -0.007592
   146     0.002896
   147     0.172496
   148    -0.628245
   149     0.748576
   150    -1.504992
   151     0.164904
   152     0.003382
   153    -0.175171
   154     0.103411
   155     0.308126
   156     1.912559
   157    -0.279090
   158    -0.603801
   159    -1.962662
   160     1.801367
   161     0.300762
   162     0.640082
   163    -0.392481
   164    -0.111362
   165     0.109376
   166     0.262414
   167    -0.238357
   168    -0.021299
   169    -0.101138
   170    -0.890683
   171     0.757130
   172    -1.994704
   173    -0.160256
   174     0.860681
   175     0.046608
   176    -0.249543
   177     0.212729
   178    -0.921533
   179    -0.298494
   180    -0.161538
   181     0.412879
   182    -0.116084
   183    -0.920780
   184    -0.022449
   185     0.268788
   186     0.049248
   187     0.373462
   188    -0.321641
   189    -0.064031
   190     0.133772
   191     0.033247
   192     0.168698
   193     0.266698
   194     0.879140
   195    -0.232161
   196    -0.328624
   197    -0.223974
   198     0.613810
   199    -0.476533
   200    -0.070776
   201    -0.059060
   202     1.068367
   203     0.038106
   204     0.022765
   205     0.224581
   206    -0.857589
   207    -0.572661
   208     0.143402
   209    -0.319452
   210     0.111224
   211     0.251670
   212    -0.187073
   213    -0.125172
   214    -0.322332
   215     0.437570
   216     0.894265
Sym=    28a
Ene=   -0.156129E-04
Spin= Alpha
Occup= 0.000003
     1     0.000954
     2     0.004686
     3    -0.065058
     4     0.860945
     5    -0.121045
     6     1.784232
     7     1.757317
     8     0.016067
     9     0.090756
    10     0.068283
    11     0.005442
    12     1.152533
    13    -0.896269
    14    -0.350107
    15    -0.508691
    16     0.173347
    17     0.269578
    18     0.286724
    19    -0.539758
    20    -0.008819
    21     0.068446
    22     0.261433
    23    -0.071323
    24     0.039584
    25     0.281863
    26     1.974756
    27     1.584682
    28     0.506311
    29     0.295745
    30    -0.253624
    31    -1.624010
    32     0.578103
    33     0.613020
    34     4.370600
    35    -0.075788
    36    -0.272228
    37     1.350797
    38    -0.032778
    39    -0.224393
    40    -0.081904
    41    -0.022726
    42    -0.109588
    43    -0.086181
    44     0.006420
    45    -0.014565
    46    -0.030638
    47     0.003659
    48     0.028034
    49    -0.252106
    50    -1.447113
    51     0.015728
    52    -0.087093
    53     0.110678
    54    -0.310498
    55     1.138311
    56     0.105861
    57     0.098985
    58     0.992951
    59     1.455414
    60     0.080552
    61     0.872893
    62    -0.424730
    63     0.195380
    64    -0.010640
    65     0.030713
    66    -0.108948
    67    -0.016009
    68     0.397842
    69    -0.327202
    70     0.081203
    71    -0.101153
    72    -0.713522
    73    -0.000734
    74     0.001771
    75    -0.010829
    76     0.474313
    77    -0.107677
    78    -5.839057
    79    -3.632319
    80     0.027411
    81     0.048748
    82    -0.033053
    83     0.235553
    84    -0.096489
    85    -1.806811
    86     0.031469
    87     1.273726
    88    -2.214861
    89    -0.023528
    90    -0.266421
    91    -0.585675
    92     0.024970
    93    -0.009752
    94     0.105714
    95    -0.015724
    96    -0.017090
    97     0.072203
    98     1.188765
    99     1.285813
   100    -0.085230
   101     0.050548
   102     0.111299
   103    -0.483227
   104     0.846771
   105     0.788391
   106    -0.427401
   107     0.028087
   108     0.033937
   109     0.429641
   110    -0.051427
   111    -0.098567
   112    -0.110678
   113    -0.018982
   114    -0.038987
   115     0.025941
   116     0.013086
   117     0.046358
   118     0.034627
   119    -0.009110
   120    -0.122441
   121    -0.336352
   122    -0.365581
   123    -0.056853
   124    -0.160531
   125     0.104793
   126     0.047087
   127    -0.001080
   128     0.085565
   129     0.042043
   130    -0.130869
   131     0.329911
   132    -0.146010
   133     0.055380
   134    -0.382433
   135     0.042134
   136     0.008270
   137     0.004172
   138    -0.025574
   139    -0.137229
   140     0.014609
   141    -0.204648
   142    -0.020025
   143    -0.011586
   144    -0.350955
   145    -0.003864
   146    -0.010156
   147     0.106410
   148    -0.874200
   149     1.371062
   150    -1.360869
   151     0.477049
   152     0.101287
   153    -0.007521
   154    -0.095967
   155    -1.162672
   156    -0.518508
   157     0.194916
   158     1.302515
   159    -0.176142
   160     2.410112
   161    -0.600320
   162    -0.307244
   163    -0.022278
   164     0.030850
   165    -0.209861
   166    -0.227000
   167     0.220547
   168     0.194719
   169    -0.165200
   170    -1.662416
   171    -0.635475
   172     0.022978
   173     0.348674
   174    -0.998599
   175    -0.784836
   176    -0.834861
   177    -0.937660
   178    -1.460381
   179     0.204452
   180    -0.136133
   181     1.191379
   182     0.338280
   183    -0.224010
   184     0.301533
   185     0.311474
   186     0.136843
   187    -0.227148
   188    -0.005612
   189     0.535321
   190    -0.460230
   191    -0.291812
   192     0.026843
   193     0.279645
   194    -0.588554
   195    -0.147448
   196    -0.124566
   197    -0.080804
   198     0.309049
   199    -1.633722
   200     0.207840
   201     0.297346
   202    -0.231711
   203     1.056432
   204    -0.147183
   205     0.484689
   206     0.176741
   207     0.444237
   208    -0.095681
   209    -0.007040
   210    -0.467416
   211     0.025482
   212    -0.076181
   213     0.319280
   214     0.453867
   215    -0.246556
   216     0.800894
Sym=    29a
Ene=   -0.319602E-05
Spin= Alpha
Occup= 0.000001
     1    -0.000044
     2     0.000303
     3     0.022693
     4     0.086104
     5    -0.191171
     6    10.674183
     7     5.111381
     8    -0.095930
     9    -0.098705
    10    -0.005565
    11    -0.434923
    12    -0.459301
    13     0.050912
    14    -0.253814
    15    -0.490372
    16    -0.517544
    17     0.374196
    18     0.134336
    19     0.186106
    20     0.105835
    21     0.074477
    22     0.034841
    23     0.092061
    24    -0.166499
    25    -0.185599
    26    -0.219909
    27     0.051739
    28     0.038711
    29    -0.530196
    30     1.014399
    31     1.118013
    32     0.399638
    33     0.420606
    34     9.460222
    35    -0.001841
    36     0.731528
    37     0.637100
    38     0.211744
    39     0.194169
    40    -0.083102
    41     0.086026
    42     0.085564
    43    -0.025305
    44     0.053265
    45     0.068584
    46    -0.018205
    47     0.029109
    48     0.207365
    49     0.312967
    50    -2.558091
    51     0.100500
    52     0.149024
    53     0.259259
    54     0.714784
    55     0.570950
    56     0.209450
    57    -0.123459
    58    -0.826024
    59    -0.658680
    60     0.084425
    61    -0.464384
    62     0.037932
    63    -0.633497
    64     0.066849
    65    -0.179889
    66     0.244467
    67     0.170081
    68    -0.192649
    69     0.077653
    70    -0.406371
    71     0.247226
    72     0.228609
    73    -0.003106
    74     0.008331
    75    -0.059235
    76    -0.449023
    77     0.148858
    78    -7.717279
    79    -2.998074
    80    -0.037600
    81    -0.049262
    82    -0.012267
    83    -0.530457
    84    -0.490749
    85    -1.992153
    86     0.814086
    87     0.571474
    88    -5.214454
    89    -0.323758
    90    -0.044708
    91    -0.608685
    92    -0.093286
    93    -0.053146
    94    -0.280756
    95     0.036958
    96    -0.094325
    97    -0.092652
    98    -1.036187
    99    -1.361088
   100     0.052139
   101    -0.178643
   102     0.427840
   103     0.451711
   104    -0.336691
   105    -0.379509
   106    -2.443645
   107    -0.010330
   108     0.173888
   109     0.247869
   110     0.102591
   111     0.119165
   112     0.157425
   113     0.048298
   114     0.051924
   115    -0.009786
   116    -0.046965
   117    -0.037299
   118     0.004271
   119     0.002138
   120     0.029389
   121     0.115967
   122    -0.043790
   123     0.012176
   124     0.052836
   125    -0.174410
   126    -0.121632
   127    -0.035450
   128    -0.207605
   129    -0.029861
   130    -0.342770
   131    -0.368895
   132    -0.063505
   133    -0.226941
   134     0.516927
   135    -0.383090
   136     0.013035
   137    -0.095845
   138     0.091059
   139    -0.143952
   140    -0.102629
   141     0.252472
   142    -0.228614
   143     0.060366
   144     0.286799
   145     0.138629
   146    -0.286556
   147     0.604502
   148     2.635366
   149    -6.474839
   150    -5.612800
   151    -3.957099
   152    -1.046030
   153    -0.861497
   154     0.708401
   155     6.946426
   156     5.760774
   157    -5.918811
   158     3.159256
   159     2.484269
   160     4.817026
   161    -1.139592
   162    -0.747216
   163     0.809856
   164    -0.825795
   165    -0.287897
   166     0.924643
   167    -1.724088
   168     0.770363
   169     0.711412
   170    11.579261
   171     9.163984
   172     3.481372
   173     7.739266
   174    -3.439706
   175    -3.255383
   176    -1.291594
   177    -1.153914
   178    -3.330268
   179    -0.320504
   180     0.737325
   181     0.559744
   182    -2.222313
   183    -1.832381
   184     1.173934
   185    -0.990804
   186    -0.814036
   187     0.660928
   188    -0.904398
   189    -0.750970
   190     0.695811
   191     0.058573
   192    -4.476386
   193    -3.656634
   194     2.525810
   195    -2.008019
   196    -1.646825
   197     1.157432
   198    -2.250788
   199    -1.809520
   200     1.103382
   201    -0.104406
   202    -0.085957
   203     1.295194
   204    -1.458869
   205     1.398543
   206    -4.647285
   207     1.359830
   208    -1.400868
   209     0.637805
   210    -3.204720
   211    -1.939254
   212     0.607239
   213    -3.168771
   214     1.463841
   215    -3.219756
   216    -6.151585
Sym=    30a
Ene=   -0.488482E-04
Spin= Alpha
Occup= 0.000012
     1     0.000011
     2     0.000065
     3     0.000364
     4     0.028748
     5     0.071457
     6    -0.990961
     7    -0.142412
     8    -0.032036
     9     0.006230
    10    -0.007474
    11    -0.312960
    12     0.031840
    13    -0.203953
    14     0.233661
    15    -0.020695
    16     0.064473
    17    -0.088092
    18     0.016910
    19     0.026850
    20     0.068773
    21    -0.065486
    22     0.012285
    23     0.129655
    24     0.020458
    25    -0.001274
    26    -0.239963
    27     0.401490
    28     0.078414
    29    -0.590018
    30     0.077071
    31    -0.028966
    32     0.079184
    33    -0.098872
    34    -0.715953
    35     0.178808
    36     0.002798
    37    -0.054862
    38     0.060935
    39     0.025040
    40     0.011958
    41     0.003078
    42    -0.047542
    43     0.014628
    44    -0.085660
    45     0.018965
    46    -0.005700
    47     0.013127
    48     0.086808
    49    -0.045739
    50    -0.126532
    51     0.038111
    52     0.016465
    53     0.153514
    54     0.027209
    55    -0.036291
    56    -0.080686
    57     0.231911
    58     0.046422
    59    -0.036516
    60     0.004275
    61    -0.038997
    62    -0.188262
    63     0.191624
    64    -0.019711
    65     0.043995
    66     0.186833
    67    -0.008263
    68     0.065511
    69    -0.002921
    70    -0.019932
    71     0.182408
    72     0.132088
    73    -0.001285
    74     0.003964
    75     0.015855
    76    -0.094114
    77    -0.009871
    78     0.762636
    79     0.205655
    80     0.010422
    81     0.000875
    82    -0.015141
    83     0.131086
    84    -0.017607
    85    -0.133575
    86    -0.187247
    87     0.012463
    88     0.298838
    89    -0.082622
    90     0.030443
    91     0.045771
    92     0.104940
    93    -0.098496
    94     0.017310
    95     0.209543
    96    -0.024145
    97    -0.003041
    98     0.185083
    99    -0.372961
   100    -0.239263
   101     0.531664
   102    -0.164940
   103     0.115402
   104    -0.122640
   105     0.140427
   106     0.145641
   107    -0.258383
   108     0.024774
   109    -0.023143
   110     0.161723
   111     0.185990
   112     0.022766
   113    -0.160162
   114    -0.233082
   115    -0.284091
   116    -0.092704
   117     0.008706
   118     0.275145
   119    -0.533847
   120     0.115584
   121     0.005134
   122     0.035980
   123    -0.008344
   124    -0.097013
   125     0.352736
   126     0.167771
   127    -0.008304
   128    -0.191426
   129     0.524833
   130     0.023455
   131    -0.161039
   132    -0.092537
   133    -0.271643
   134     0.302832
   135     0.592447
   136     0.227702
   137     0.185007
   138    -0.327536
   139     0.137434
   140     0.402347
   141    -0.037699
   142    -0.419454
   143    -0.325200
   144    -0.209923
   145    -0.000067
   146     0.000119
   147    -0.001247
   148     0.054985
   149    -0.021166
   150     0.340627
   151    -0.004389
   152     0.007794
   153    -0.000971
   154    -0.004736
   155    -0.063895
   156    -0.003769
   157    -0.035377
   158    -0.030723
   159     0.097388
   160    -0.412008
   161    -0.011240
   162    -0.034888
   163     0.030760
   164     0.005347
   165     0.003055
   166     0.004485
   167     0.001183
   168     0.018366
   169    -0.002033
   170     0.100635
   171     0.107240
   172     0.110225
   173    -0.007979
   174    -0.095237
   175     0.013026
   176     0.069748
   177     0.163575
   178     0.268650
   179    -0.100647
   180     0.092218
   181    -0.068829
   182     0.014985
   183    -0.004159
   184    -0.006660
   185     0.007398
   186     0.002102
   187    -0.010697
   188     0.002073
   189     0.000232
   190     0.003416
   191    -0.015301
   192     0.040475
   193    -0.011311
   194    -0.033575
   195     0.012854
   196    -0.019877
   197     0.012042
   198    -0.074979
   199     0.027231
   200    -0.048245
   201     0.063518
   202    -0.031192
   203    -0.017130
   204    -0.014991
   205    -0.000653
   206    -0.034515
   207     0.082696
   208     0.006274
   209     0.016561
   210     0.011127
   211    -0.012172
   212     0.007477
   213    -0.025001
   214     0.029204
   215     0.011124
   216    -0.022826
Sym=    31a
Ene=   -0.725854E-02
Spin= Alpha
Occup= 0.000257
     1     0.001559
     2    -0.003573
     3     0.030361
     4    -0.117346
     5    -0.073732
     6     0.571876
     7     0.152029
     8     0.000126
     9     0.000192
    10    -0.009786
    11    -0.000046
    12    -0.001509
    13     0.422767
    14    -0.000267
    15     0.001258
    16     0.768552
    17     0.000278
    18    -0.000466
    19     0.001668
    20    -0.000232
    21    -0.000624
    22     0.033395
    23    -0.000075
    24    -0.000046
    25     0.000141
    26    -0.241417
    27    -0.238836
    28    -0.408483
    29     0.001301
    30     0.000284
    31     0.000693
    32    -0.118544
    33    -0.120639
    34     0.368744
    35     0.000330
    36    -0.000049
    37     0.000087
    38    -0.001473
    39     0.001262
    40    -0.011917
    41     0.001954
    42    -0.001360
    43    -0.003200
    44     0.000037
    45    -0.000179
    46    -0.003377
    47    -0.000053
    48    -0.012591
    49     0.008356
    50     0.264737
    51     0.017207
    52    -0.010526
    53    -0.025308
    54    -0.000273
    55     0.000175
    56    -0.025569
    57    -0.000350
    58     0.089994
    59     0.000389
    60     0.054368
    61    -0.003256
    62     0.068557
    63    -0.000175
    64    -0.000007
    65    -0.006350
    66    -0.000366
    67     0.054369
    68     0.004255
    69     0.040661
    70     0.004625
    71    -0.000270
    72     0.069910
    73     1.527278
    74     0.033886
    75    -2.371662
    76     0.783957
    77     2.419690
    78    -2.005077
    79    -0.368837
    80    -0.000071
    81    -0.000057
    82     0.150998
    83     0.000505
    84     0.001049
    85     0.498165
    86     0.000302
    87     0.000661
    88     0.453381
    89    -0.000431
    90    -0.000527
    91     0.008465
    92    -0.800253
    93    -0.801141
    94    -0.747131
    95    -0.000263
    96     0.000217
    97     0.000529
    98     1.841687
    99     1.842736
   100     1.908478
   101     0.000096
   102    -0.000080
   103    -0.000545
   104     0.334055
   105     0.332078
   106     0.475739
   107     0.000060
   108     0.000209
   109     0.000422
   110     0.003895
   111    -0.002978
   112    -0.010784
   113    -0.005458
   114     0.003296
   115    -0.015974
   116     0.000034
   117     0.000174
   118    -0.016227
   119    -0.000098
   120    -0.009849
   121     0.005380
   122    -0.102746
   123     0.012749
   124    -0.008853
   125    -0.111666
   126    -0.000204
   127     0.000056
   128    -0.111802
   129     0.000023
   130    -0.818034
   131     0.000625
   132    -0.518842
   133     0.002423
   134    -0.909945
   135     0.000042
   136     0.000087
   137     0.004297
   138    -0.000324
   139    -0.518766
   140    -0.002603
   141    -0.532390
   142    -0.002997
   143    -0.000111
   144    -0.908594
   145     0.000270
   146    -0.001383
   147     0.007798
   148    -0.100566
   149     0.068594
   150    -0.331992
   151    -0.226285
   152    -0.000026
   153    -0.000031
   154     0.006602
   155    -0.000003
   156    -0.000166
   157     0.086292
   158     0.000089
   159    -0.000342
   160     0.570586
   161    -0.000071
   162     0.000047
   163    -0.011558
   164    -0.004594
   165    -0.004574
   166    -0.007762
   167    -0.000013
   168    -0.000004
   169     0.000035
   170    -0.190803
   171    -0.190744
   172    -0.195565
   173    -0.000020
   174     0.000030
   175    -0.000041
   176    -0.108187
   177    -0.107613
   178    -0.369169
   179     0.000022
   180    -0.000123
   181     0.000006
   182    -0.000228
   183    -0.000357
   184     0.006397
   185     0.000340
   186     0.000540
   187     0.002789
   188    -0.000005
   189    -0.000010
   190     0.002836
   191     0.000008
   192    -0.000163
   193    -0.001732
   194     0.065070
   195     0.000289
   196     0.002393
   197     0.009397
   198     0.000120
   199    -0.000104
   200     0.009210
   201     0.000005
   202     0.041681
   203     0.000147
   204     0.030791
   205     0.000710
   206     0.062242
   207    -0.000017
   208     0.000007
   209    -0.000512
   210     0.000007
   211     0.030762
   212    -0.000900
   213     0.036445
   214     0.000347
   215    -0.000012
   216     0.062293
Sym=    32a
Ene=   -0.867125E-03
Spin= Alpha
Occup= 0.000044
     1    -0.001639
     2     0.000608
     3     0.002924
     4    -0.004873
     5    -0.013347
     6    -0.011988
     7    -0.009674
     8    -1.557689
     9    -1.150771
    10     0.019176
    11    -1.539611
    12    -1.133672
    13     0.050398
    14    -1.374197
    15    -0.994338
    16     0.106496
    17     0.414558
    18     0.298348
    19     0.005354
    20    -0.025309
    21     0.029237
    22    -0.001766
    23     0.000918
    24     0.127591
    25     0.090042
    26    -0.090849
    27     0.063943
    28    -0.009446
    29     0.018218
    30    -0.332688
    31    -0.237698
    32     0.053122
    33    -0.073351
    34    -0.019343
    35    -0.003518
    36     0.016434
    37     0.001709
    38    -0.427270
    39    -0.320935
    40     0.000526
    41    -0.192528
    42    -0.142111
    43     0.021861
    44    -0.287782
    45    -0.212808
    46    -0.030619
    47    -0.002343
    48     1.270864
    49     0.928009
    50    -0.059060
    51     0.563885
    52     0.416174
    53    -0.014584
    54     0.818408
    55     0.597031
    56    -0.019321
    57     0.004683
    58    -0.003000
    59     0.208903
    60     0.007364
    61     0.097022
    62     0.000299
    63     0.287751
    64     0.001089
    65     0.062450
    66    -0.040855
    67    -0.003202
    68     0.042244
    69    -0.015241
    70     0.133972
    71     0.031017
    72     0.030465
    73    -0.000078
    74     0.000441
    75    -0.002238
    76     0.006458
    77     0.001781
    78     0.018322
    79     0.009053
    80     0.062139
    81     0.048601
    82     0.002104
    83     0.129267
    84     0.102552
    85     0.002731
    86     0.482640
    87     0.368280
    88     0.057798
    89    -0.305822
    90    -0.238790
    91    -0.003898
    92     0.006735
    93    -0.010545
    94    -0.001817
    95    -0.000769
    96     0.104933
    97     0.077922
    98    -0.023323
    99     0.058138
   100     0.017350
   101     0.006458
   102    -0.618120
   103    -0.457090
   104     0.083023
   105    -0.053532
   106     0.037401
   107    -0.004047
   108     0.160765
   109     0.114957
   110    -0.106923
   111    -0.081026
   112    -0.000442
   113    -0.047601
   114    -0.036259
   115    -0.003742
   116    -0.006733
   117    -0.005098
   118     0.001231
   119     0.000367
   120    -0.194638
   121    -0.154750
   122     0.004546
   123    -0.091110
   124    -0.067961
   125     0.029246
   126     0.013791
   127     0.005500
   128    -0.037827
   129    -0.000863
   130    -0.001060
   131     0.262822
   132    -0.001211
   133     0.135311
   134    -0.026307
   135     0.354366
   136    -0.000116
   137     0.080059
   138    -0.015101
   139    -0.005831
   140     0.061218
   141    -0.010272
   142     0.182864
   143     0.009562
   144     0.020036
   145    -0.000064
   146     0.000076
   147    -0.000748
   148    -0.005319
   149     0.004088
   150     0.028242
   151    -0.018860
   152    -0.028240
   153    -0.021461
   154    -0.002205
   155     0.083225
   156     0.061712
   157     0.001856
   158     0.233426
   159     0.182710
   160     0.023442
   161    -0.042395
   162    -0.033174
   163    -0.001320
   164    -0.001096
   165    -0.000875
   166    -0.003999
   167     0.000962
   168    -0.034468
   169    -0.025982
   170    -0.012329
   171    -0.013962
   172     0.003777
   173    -0.005257
   174     0.169888
   175     0.126975
   176    -0.020955
   177     0.006338
   178    -0.007846
   179     0.000333
   180     0.067915
   181     0.043133
   182    -0.057964
   183    -0.043468
   184    -0.003611
   185    -0.026061
   186    -0.019597
   187    -0.002164
   188    -0.016586
   189    -0.012278
   190    -0.001244
   191    -0.001930
   192    -0.159121
   193    -0.118121
   194    -0.007532
   195    -0.070851
   196    -0.052495
   197    -0.004253
   198    -0.129962
   199    -0.095739
   200    -0.007592
   201     0.006552
   202    -0.008417
   203    -0.060453
   204    -0.003627
   205    -0.025746
   206     0.000448
   207    -0.082114
   208     0.004095
   209    -0.015177
   210     0.000538
   211     0.004829
   212    -0.011618
   213     0.006901
   214    -0.034120
   215     0.004742
   216     0.000542
Sym=    33a
Ene=    0.121938E-07
Spin= Alpha
Occup= 0.000000
     1    -0.004345
     2     0.014889
     3    -0.175728
     4     0.327620
     5     0.097860
     6   -27.460302
     7    -1.326712
     8    -0.033521
     9     0.001480
    10    -0.031781
    11     0.515402
    12     0.006645
    13     7.792525
    14     4.121994
    15    -0.467506
    16    24.721440
    17     0.009219
    18    -0.017085
    19    -0.984355
    20    -0.374273
    21    -0.332408
    22    -0.004420
    23     0.045684
    24     0.122151
    25    -0.125076
    26     1.847973
    27     1.618551
    28    -1.567887
    29    -0.264266
    30    -1.014123
    31     0.712067
    32    -2.107657
    33    -2.004046
    34   -17.871657
    35    -0.096752
    36    -3.584820
    37    -0.054156
    38     0.114796
    39    -0.000618
    40     0.119051
    41     0.028851
    42    -0.001591
    43     0.026063
    44     0.064388
    45    -0.007484
    46     0.026468
    47    -0.007979
    48    -0.384131
    49     0.090080
    50    10.444667
    51    -0.142879
    52     0.027161
    53    -0.514105
    54     2.172098
    55    -0.258661
    56    -0.599047
    57     0.086073
    58     0.963789
    59    -0.340313
    60    -0.219376
    61    -0.308246
    62    -0.749944
    63     0.132425
    64     0.004718
    65     0.129453
    66     0.087372
    67    -0.295678
    68    -0.163044
    69    -0.715654
    70     0.288811
    71     0.177472
    72    -0.879767
    73     0.002050
    74    -0.010085
    75     0.169623
    76     3.275894
    77     0.097652
    78    23.207262
    79    -0.758206
    80     0.094287
    81    -0.030393
    82     0.029669
    83     0.435745
    84    -0.327766
    85     9.342771
    86    -5.197366
    87     0.588647
    88    21.419396
    89     0.570381
    90    -0.164185
    91    -0.222596
    92     0.170114
    93     0.395611
    94     1.628563
    95    -0.275028
    96    -0.997793
    97     0.364083
    98     9.082823
    99     7.790140
   100     2.860484
   101     1.585487
   102     5.485382
   103    -2.063438
   104     4.300796
   105     4.276384
   106    15.214174
   107     0.018414
   108    -4.042627
   109     0.275668
   110    -0.514128
   111     0.116003
   112     0.048234
   113    -0.248123
   114     0.068937
   115    -0.001973
   116     0.154691
   117     0.041541
   118     0.007282
   119    -0.017624
   120     0.613900
   121    -0.043392
   122     2.566976
   123     0.290291
   124    -0.038494
   125     0.300268
   126    -2.054820
   127     0.056439
   128     0.213541
   129     0.101096
   130     2.992936
   131     0.900736
   132     0.165124
   133     0.921024
   134    -2.558603
   135    -2.963697
   136    -0.254810
   137    -1.086654
   138    -0.696185
   139    -0.025013
   140     0.399423
   141    -1.719595
   142    -2.439145
   143    -0.710810
   144    -3.449264
   145     0.117691
   146    -0.257741
   147     1.362711
   148    -5.446205
   149     1.969947
   150     8.750361
   151     0.185970
   152     0.004319
   153     0.029297
   154     0.011901
   155    -0.397947
   156    -0.141600
   157     3.143650
   158     0.937131
   159    -0.044424
   160     0.296742
   161    -0.496986
   162     0.172078
   163     0.942529
   164     1.114352
   165     1.104795
   166     0.139194
   167    -0.018534
   168     0.245871
   169    -0.025168
   170   -10.958583
   171   -10.921601
   172    -6.595676
   173     0.096675
   174    -1.264044
   175     0.136770
   176    -0.651639
   177    -0.667706
   178    -3.605896
   179     0.008389
   180     0.263774
   181    -0.231975
   182     0.016006
   183     0.059911
   184     0.189751
   185     0.008004
   186     0.023157
   187     0.041147
   188     0.027358
   189     0.015706
   190     0.039247
   191    -0.004549
   192    -0.047333
   193     0.122976
   194     1.911957
   195    -0.025909
   196     0.059704
   197     0.083185
   198    -0.468714
   199     0.206334
   200     0.075231
   201     0.001316
   202     0.288747
   203    -0.103663
   204     1.462089
   205    -0.037883
   206     4.611854
   207     0.732567
   208    -0.011571
   209     0.273667
   210    -0.041467
   211     1.459814
   212    -0.029768
   213     2.711583
   214     0.612286
   215    -0.052051
   216     4.628240
Sym=    34a
Ene=   -0.123459E-04
Spin= Alpha
Occup= 0.000003
     1    -0.018437
     2    -0.005098
     3     0.405797
     4    -1.362332
     5     0.607989
     6     2.871953
     7    -0.198025
     8     0.063842
     9     0.178597
    10     0.297287
    11     0.433863
    12     1.438214
    13     2.538574
    14     0.151806
    15     0.239842
    16    -1.102136
    17     0.021075
    18     0.085245
    19    -0.163091
    20     0.090303
    21     0.054398
    22     0.014716
    23    -0.061443
    24    -0.061284
    25    -0.166028
    26    -1.622788
    27    -0.713491
    28    -0.656869
    29     0.288127
    30     0.572395
    31     1.884167
    32    -0.062759
    33     0.067081
    34     1.020728
    35     0.134566
    36     0.222454
    37     0.070328
    38    -0.324656
    39    -0.290196
    40    -0.599383
    41     0.265274
    42    -0.300877
    43    -0.339531
    44    -0.121242
    45    -0.370959
    46    -0.398360
    47     0.009625
    48    -0.118842
    49    -0.809751
    50    -0.107595
    51    -0.418090
    52    -0.232605
    53    -0.398358
    54     0.072273
    55     0.213646
    56    -0.210734
    57    -0.016140
    58    -0.639911
    59    -0.962297
    60    -0.025243
    61    -0.833994
    62    -0.364699
    63    -0.279374
    64    -0.034467
    65    -0.179081
    66    -0.593147
    67     0.118337
    68    -0.285424
    69     0.183733
    70    -0.201750
    71     0.236722
    72     0.497167
    73    -0.017926
    74     0.003247
    75     0.308770
    76    -1.132229
    77     0.857114
    78     0.736867
    79    -0.556200
    80     0.054009
    81     0.122900
    82    -0.208378
    83     0.426200
    84     0.776280
    85    -0.996451
    86     0.085415
    87     0.135455
    88    -0.437961
    89     0.066811
    90     0.172448
    91    -0.307909
    92     0.120127
    93     0.029495
    94    -0.024133
    95     0.011359
    96     0.080898
    97     0.225503
    98    -1.634481
    99    -0.794952
   100     0.121111
   101     0.306957
   102    -0.817357
   103    -2.290310
   104    -0.365485
   105    -0.106818
   106    -0.347689
   107     0.047839
   108     0.132533
   109     0.088329
   110    -0.312168
   111    -0.011407
   112     0.505892
   113     0.197816
   114    -0.312777
   115     0.307802
   116    -0.141692
   117    -0.333498
   118     0.248699
   119     0.043750
   120    -0.095597
   121    -0.705991
   122     0.500233
   123    -0.216446
   124    -0.090921
   125     0.066178
   126    -0.017675
   127    -0.088784
   128     0.135138
   129    -0.095853
   130    -0.424944
   131     1.037060
   132     0.097980
   133     0.960971
   134    -0.293351
   135     0.344519
   136     0.020594
   137     0.293977
   138    -0.817811
   139     0.149837
   140     0.313270
   141     0.265689
   142     0.234497
   143     0.314178
   144     0.545609
   145    -0.000244
   146     0.000226
   147     0.001772
   148    -0.053713
   149     0.165962
   150    -0.943901
   151     0.748194
   152    -0.011715
   153    -0.038745
   154     0.032281
   155     0.036579
   156     0.151672
   157     0.051183
   158    -0.064627
   159     0.012161
   160    -0.035593
   161    -0.079681
   162    -0.133307
   163    -0.099971
   164     0.002225
   165    -0.013180
   166    -0.001120
   167    -0.008020
   168    -0.015336
   169    -0.043911
   170    -0.110072
   171    -0.028104
   172    -0.068889
   173     0.019168
   174     0.071435
   175     0.199176
   176    -0.025807
   177    -0.113662
   178    -0.136497
   179    -0.048629
   180     0.135124
   181     0.227846
   182    -0.012198
   183    -0.081363
   184     0.015314
   185    -0.029032
   186    -0.038288
   187     0.039814
   188    -0.000852
   189     0.006714
   190     0.036151
   191    -0.002859
   192    -0.096953
   193    -0.161869
   194     0.126649
   195     0.021467
   196    -0.083549
   197     0.084404
   198    -0.069909
   199    -0.177122
   200     0.155084
   201     0.013896
   202     0.098477
   203    -0.138892
   204    -0.043112
   205    -0.026769
   206     0.025147
   207    -0.038257
   208     0.014199
   209    -0.034906
   210     0.006080
   211    -0.013894
   212     0.000990
   213     0.022945
   214     0.011451
   215    -0.015699
   216     0.076451
Sym=    35a
Ene=   -0.286882E-04
Spin= Alpha
Occup= 0.000007
     1     0.000039
     2     0.000163
     3     0.002660
     4     0.008331
     5     0.041122
     6     0.635414
     7     0.262733
     8    -0.003437
     9     0.017821
    10    -0.011114
    11    -0.011512
    12     0.489153
    13    -0.148085
    14     0.051189
    15    -0.092958
    16     0.205551
    17    -0.020726
    18     0.138625
    19    -0.000720
    20     0.054391
    21    -0.043727
    22     0.024426
    23    -0.175128
    24    -0.034670
    25     0.107564
    26     0.082510
    27    -0.119104
    28     0.060892
    29    -0.248170
    30     0.064290
    31    -0.055883
    32     0.034413
    33     0.025390
    34     0.394827
    35     0.084689
    36     0.057979
    37     0.174508
    38     0.165679
    39    -0.079165
    40     0.026411
    41    -0.171857
    42    -0.326094
    43    -0.006180
    44     0.019079
    45     0.021919
    46    -0.001354
    47    -0.057485
    48    -0.016514
    49    -0.137774
    50    -0.060310
    51     0.047631
    52    -0.053466
    53     0.056891
    54     0.048445
    55     0.639537
    56     0.020029
    57    -0.067968
    58    -0.029698
    59    -0.238154
    60     0.226736
    61     0.240165
    62     0.075546
    63    -0.014672
    64     0.575064
    65    -0.187078
    66    -0.008032
    67    -0.107164
    68    -0.325888
    69    -0.182403
    70     0.030439
    71    -0.202466
    72     0.138263
    73    -0.001410
    74     0.001936
    75     0.027968
    76    -0.119321
    77     0.177781
    78    -0.413675
    79    -0.101632
    80     0.004026
    81     0.020143
    82     0.017171
    83    -0.125047
    84     0.144378
    85     0.002314
    86     0.233622
    87     0.125568
    88    -0.130320
    89    -0.085652
    90     0.022974
    91    -0.009463
    92     0.105943
    93    -0.090819
    94     0.065561
    95    -0.194297
    96     0.044929
    97     0.036620
    98     0.028214
    99    -0.142268
   100    -0.491498
   101    -0.536080
   102    -0.140809
   103    -1.122693
   104    -0.066698
   105     0.096041
   106    -0.093391
   107     0.196970
   108    -0.053885
   109     0.028643
   110     0.267607
   111     0.029191
   112    -0.080563
   113    -0.200156
   114    -0.459699
   115     0.149182
   116    -0.016591
   117    -0.154834
   118    -0.120442
   119    -0.311791
   120    -0.200441
   121    -0.273718
   122    -0.157319
   123     0.116346
   124     0.164474
   125    -0.138322
   126    -0.078341
   127    -0.232661
   128    -0.001518
   129     0.037682
   130     0.205852
   131     0.472433
   132     0.115283
   133     0.330578
   134     0.131694
   135    -0.047929
   136     0.200355
   137    -0.034532
   138     0.230735
   139     0.066356
   140    -0.011930
   141    -0.162090
   142     0.200365
   143    -0.013274
   144     0.070370
   145    -0.000106
   146     0.000238
   147    -0.000614
   148    -0.001277
   149    -0.033677
   150    -0.165966
   151    -0.211814
   152     0.012140
   153    -0.017969
   154     0.005082
   155    -0.056996
   156     0.025612
   157    -0.126390
   158    -0.162024
   159    -0.136892
   160     0.571997
   161     0.048397
   162    -0.044870
   163    -0.017833
   164     0.005368
   165    -0.002971
   166    -0.001950
   167    -0.009524
   168     0.006362
   169    -0.015656
   170    -0.047524
   171     0.001134
   172     0.034797
   173     0.057730
   174    -0.030934
   175     0.054784
   176    -0.097559
   177    -0.095827
   178    -0.313179
   179    -0.034234
   180     0.031111
   181     0.258881
   182     0.021268
   183    -0.022518
   184     0.004339
   185     0.003350
   186    -0.023766
   187    -0.003439
   188     0.003789
   189    -0.008526
   190     0.007017
   191     0.017364
   192     0.053980
   193    -0.120292
   194     0.026197
   195     0.047747
   196     0.003405
   197    -0.020675
   198     0.028333
   199    -0.159769
   200     0.012892
   201     0.065084
   202    -0.005799
   203    -0.001781
   204    -0.022025
   205     0.039128
   206    -0.007656
   207     0.037546
   208    -0.055966
   209    -0.010132
   210    -0.022137
   211     0.014936
   212    -0.023090
   213     0.018974
   214     0.019534
   215    -0.025796
   216     0.028202
Sym=    36a
Ene=   -0.177686E-04
Spin= Alpha
Occup= 0.000005
     1    -0.011809
     2     0.014458
     3     0.163187
     4    -0.279072
     5     0.837454
     6    -1.604491
     7    -0.259075
     8     0.015517
     9     0.046567
    10    -0.088715
    11     0.441123
    12     0.225559
    13    -1.133221
    14    -1.095473
    15     0.837855
    16     1.267988
    17     0.032559
    18    -0.020956
    19    -0.282349
    20     0.111760
    21     0.029063
    22     0.540948
    23    -0.407542
    24     0.167082
    25    -0.224928
    26     1.064296
    27     0.606594
    28    -3.051465
    29     0.846012
    30    -0.930712
    31     1.688313
    32     0.267372
    33     0.120590
    34     1.085719
    35    -0.269802
    36    -0.592327
    37     1.044578
    38    -0.297820
    39     0.081795
    40     0.757230
    41    -0.244547
    42     0.227167
    43    -0.185515
    44     0.274912
    45    -0.440250
    46     0.003534
    47     0.102879
    48     0.533793
    49    -0.605616
    50    -1.445948
    51     0.406237
    52    -0.505226
    53     0.619530
    54    -1.026731
    55     1.083749
    56     0.368150
    57    -0.259194
    58     1.834515
    59    -0.219696
    60     0.690500
    61    -0.857786
    62    -0.312539
    63    -0.022834
    64    -0.075724
    65     0.271243
    66    -0.213581
    67     0.700978
    68    -0.472564
    69    -0.211459
    70     0.458753
    71    -0.138883
    72    -0.850258
    73    -0.016535
    74     0.021125
    75     0.145409
    76    -0.717304
    77     0.404161
    78     0.248231
    79     0.203118
    80    -0.031042
    81     0.076867
    82     0.058287
    83     0.334477
    84    -0.015697
    85    -0.601413
    86    -0.798892
    87     1.120509
    88     1.075845
    89     0.227940
    90    -0.163407
    91     0.235852
    92     0.053271
    93     0.042730
    94     0.135218
    95    -0.225651
    96    -0.191409
    97     0.240301
    98    -0.712458
    99    -0.819985
   100    -1.866223
   101     0.555578
   102     0.994223
   103    -1.451735
   104     0.169197
   105     0.099057
   106     0.686850
   107    -0.140956
   108    -0.163694
   109     0.283287
   110     0.059791
   111    -0.130372
   112    -0.050288
   113    -0.196824
   114     0.094178
   115    -0.053922
   116     0.030640
   117    -0.019866
   118    -0.007155
   119    -0.146456
   120     0.418198
   121    -0.594158
   122     0.001218
   123     0.243412
   124    -0.280791
   125    -0.114576
   126    -0.091467
   127     0.009245
   128    -0.180586
   129    -0.031966
   130     0.773834
   131     0.743008
   132     0.425962
   133     0.372130
   134    -0.099483
   135    -0.473034
   136    -0.274318
   137    -0.321744
   138    -0.210303
   139     0.303122
   140     0.348568
   141     0.462630
   142    -0.119651
   143    -0.027969
   144    -0.140297
   145    -0.000402
   146     0.001045
   147     0.003420
   148    -0.399984
   149     0.312509
   150     1.471183
   151     0.114996
   152    -0.019440
   153     0.021172
   154    -0.005655
   155     0.316490
   156    -0.317029
   157    -0.905281
   158     0.615199
   159    -0.986728
   160     1.122382
   161     0.089881
   162    -0.023922
   163     0.012283
   164    -0.025011
   165    -0.030532
   166    -0.071370
   167    -0.005775
   168    -0.051173
   169     0.044871
   170    -0.814645
   171    -0.784145
   172    -0.286375
   173     0.021630
   174     0.251301
   175    -0.221453
   176    -0.606271
   177    -0.483679
   178    -0.850414
   179     0.119118
   180    -0.707517
   181     0.947584
   182    -0.050146
   183     0.047008
   184    -0.039114
   185    -0.013055
   186     0.008327
   187    -0.020361
   188     0.003432
   189     0.007081
   190    -0.003592
   191     0.015897
   192    -0.054174
   193     0.109077
   194     0.064268
   195    -0.055223
   196     0.088629
   197    -0.009791
   198     0.380843
   199    -0.475170
   200    -0.115855
   201    -0.072589
   202     0.056825
   203     0.280675
   204     0.141475
   205     0.160021
   206     0.206647
   207    -0.273849
   208    -0.002941
   209    -0.051466
   210    -0.016105
   211     0.132302
   212     0.056011
   213     0.134336
   214    -0.179239
   215    -0.018536
   216     0.238104
Sym=    37a
Ene=   -0.680665E-05
Spin= Alpha
Occup= 0.000001
     1     0.188328
     2    -0.367104
     3     0.296294
     4    -0.409165
     5     3.279224
     6    12.207072
     7     0.557057
     8    -0.001373
     9    -0.003155
    10    -2.726342
    11    -0.028437
    12    -0.016970
    13   -17.535506
    14    -0.021814
    15     0.017618
    16   -12.766291
    17    -0.046632
    18     0.064508
    19    -0.211192
    20    -0.414496
    21    -0.393988
    22    -3.806670
    23     0.009811
    24     0.002087
    25    -0.027807
    26     1.835075
    27     1.673138
    28    17.998810
    29    -0.070083
    30    -0.035018
    31     0.206641
    32     1.779122
    33     1.774078
    34    10.681398
    35    -0.008968
    36     0.032485
    37    -0.116965
    38    -0.068990
    39     0.068334
    40     4.207437
    41     0.096612
    42    -0.055177
    43     2.726525
    44    -0.002799
    45     0.000104
    46     2.703872
    47    -0.008267
    48     0.104536
    49    -0.057778
    50    12.153685
    51    -0.129714
    52     0.086102
    53     3.903087
    54    -0.031957
    55     0.034655
    56     3.982908
    57     0.027282
    58   -10.619718
    59    -0.170536
    60    -3.120285
    61    -0.079432
    62    -1.017956
    63     0.038851
    64    -0.003627
    65    -0.000080
    66     0.037626
    67    -3.142077
    68    -0.033913
    69    -0.635081
    70     0.029656
    71     0.035882
    72    -1.134749
    73     0.016212
    74    -0.044647
    75     0.349831
    76    -1.836908
    77     0.747782
    78    -7.458090
    79    -1.289958
    80    -0.000970
    81    -0.006564
    82    -0.173093
    83     0.014117
    84    -0.069150
    85    -1.574259
    86     0.004016
    87    -0.045496
    88   -10.445584
    89     0.040725
    90    -0.052770
    91     0.014358
    92     0.189898
    93     0.183079
    94     0.286870
    95    -0.004773
    96    -0.002172
    97    -0.007179
    98    -3.558239
    99    -3.566868
   100    -4.042063
   101    -0.001223
   102     0.010996
   103     0.033229
   104    -2.398417
   105    -2.374082
   106    -6.573356
   107     0.008813
   108     0.045350
   109    -0.065162
   110    -0.006904
   111     0.016841
   112     0.166038
   113     0.010972
   114     0.003722
   115     0.165197
   116     0.003233
   117    -0.012966
   118     0.161382
   119     0.000530
   120     0.002245
   121     0.024585
   122    -0.926154
   123     0.001247
   124     0.004176
   125     0.137000
   126     0.041074
   127    -0.040947
   128     0.176459
   129     0.017952
   130     0.842430
   131    -0.055157
   132     0.592648
   133    -0.010999
   134     1.333273
   135     0.016740
   136     0.018924
   137     0.014735
   138     0.002422
   139     0.567209
   140    -0.020416
   141     0.771781
   142    -0.016629
   143    -0.003116
   144     1.324548
   145    -0.027670
   146     0.029966
   147     0.269016
   148     0.462624
   149    -0.785709
   150   -10.308695
   151     1.421159
   152     0.000027
   153     0.002575
   154     0.573926
   155     0.000582
   156    -0.025403
   157    -1.688470
   158    -0.006862
   159     0.045740
   160     2.316496
   161     0.024494
   162    -0.029382
   163    -0.331819
   164     0.299025
   165     0.301751
   166     0.919306
   167    -0.002509
   168     0.002921
   169     0.016447
   170     1.276138
   171     1.286898
   172    -0.692570
   173     0.007193
   174    -0.021829
   175    -0.070068
   176    -0.132800
   177    -0.143370
   178    -2.153178
   179    -0.005589
   180    -0.006622
   181    -0.025714
   182     0.015099
   183     0.009978
   184     0.709790
   185    -0.020174
   186    -0.011123
   187     0.466896
   188     0.004215
   189     0.015065
   190     0.465009
   191    -0.002931
   192    -0.032009
   193    -0.012557
   194     2.289084
   195     0.047305
   196     0.029336
   197     1.387503
   198    -0.003393
   199     0.034738
   200     1.411054
   201     0.003336
   202     1.369994
   203    -0.002811
   204     0.264284
   205     0.048619
   206    -0.197203
   207     0.010645
   208     0.002562
   209    -0.024897
   210    -0.004668
   211     0.295813
   212     0.000472
   213    -0.118305
   214     0.032378
   215    -0.001280
   216    -0.195302
Sym=    38a
Ene=   -0.145872E-04
Spin= Alpha
Occup= 0.000003
     1     0.000029
     2    -0.008460
     3     0.113243
     4    -0.990208
     5     0.167172
     6    -2.478111
     7    -1.466021
     8    -0.068810
     9     0.043027
    10    -0.034435
    11    -1.197968
    12     0.607047
    13     1.440696
    14     0.321406
    15    -0.440469
    16    -3.071659
    17    -0.431766
    18     0.291761
    19     0.524064
    20    -0.048471
    21     0.075309
    22    -0.134545
    23     0.005257
    24    -0.080235
    25     0.061827
    26    -1.758479
    27    -2.258096
    28    -1.281286
    29    -0.088732
    30     0.408821
    31    -0.309481
    32    -0.609960
    33    -0.544615
    34    -5.389833
    35    -0.039801
    36    -1.211518
    37     0.137065
    38     0.151021
    39    -0.103513
    40    -0.120252
    41     0.083253
    42    -0.037759
    43     0.034233
    44    -0.003592
    45     0.012937
    46     0.072679
    47     0.017486
    48     0.199716
    49    -0.019565
    50     2.096645
    51     0.078365
    52    -0.030250
    53    -0.164286
    54    -1.566535
    55     0.557641
    56    -0.407376
    57     0.058482
    58    -0.836425
    59     0.299106
    60     0.151571
    61     0.235365
    62     0.836368
    63    -0.552084
    64     0.020542
    65    -0.197398
    66     0.078933
    67     0.153885
    68     0.104606
    69     0.391400
    70    -0.445780
    71     0.067415
    72     0.518924
    73     0.000127
    74    -0.000841
    75     0.005534
    76    -0.613582
    77     0.449417
    78     5.949701
    79     3.595629
    80    -0.000845
    81     0.013175
    82     0.034610
    83     0.551442
    84    -0.184011
    85     2.576463
    86    -1.126917
    87     0.434295
    88     0.975628
    89     0.445588
    90    -0.149456
    91     0.600770
    92    -0.038013
    93    -0.004080
    94    -0.176352
    95    -0.027957
    96    -0.056813
    97     0.004938
    98    -1.510010
    99    -1.634211
   100     0.426675
   101     0.055918
   102     0.367372
   103    -0.083424
   104    -1.165232
   105    -1.218609
   106    -0.455472
   107    -0.011648
   108    -0.214000
   109     0.004173
   110    -0.008205
   111    -0.008761
   112     0.160301
   113    -0.003375
   114    -0.015061
   115    -0.035945
   116     0.036339
   117    -0.001340
   118    -0.020527
   119    -0.004055
   120     0.168171
   121    -0.152529
   122     0.288276
   123     0.071362
   124    -0.046947
   125    -0.077435
   126     0.194472
   127    -0.150046
   128    -0.157853
   129     0.034420
   130     0.007375
   131    -0.016350
   132     0.144647
   133    -0.049229
   134     0.507369
   135    -0.007166
   136     0.008022
   137     0.009861
   138    -0.005243
   139     0.154285
   140    -0.007654
   141     0.289478
   142     0.065307
   143    -0.003165
   144     0.433423
   145     0.008261
   146     0.006644
   147    -0.139500
   148     1.478909
   149    -1.742304
   150     0.440781
   151     0.342332
   152     0.021238
   153     0.088328
   154     0.115000
   155     0.232884
   156    -1.114642
   157     0.128481
   158     0.916893
   159     0.469941
   160    -4.695018
   161     0.106227
   162    -0.337643
   163     0.024988
   164     0.303773
   165    -0.102751
   166     0.423896
   167    -0.078627
   168     0.198771
   169     0.074649
   170     2.226047
   171     2.614351
   172    -0.024088
   173     0.714011
   174     0.290420
   175    -1.162116
   176     1.511505
   177     1.284673
   178     2.685789
   179    -0.002779
   180    -1.403161
   181     0.459858
   182     0.336920
   183     0.351722
   184    -0.332128
   185     0.028988
   186    -0.044381
   187     0.236458
   188    -0.689309
   189     0.342636
   190     0.477467
   191    -0.232811
   192    -0.450968
   193     0.115276
   194     0.827681
   195    -0.069595
   196     0.276421
   197     0.168287
   198     1.754639
   199    -0.505073
   200    -0.129059
   201     0.257062
   202     0.753132
   203     0.754080
   204    -0.045751
   205     0.341054
   206    -0.906460
   207    -0.646784
   208    -0.102851
   209     0.043753
   210    -0.417610
   211    -0.132999
   212     0.389241
   213    -0.434621
   214    -0.237022
   215    -0.294404
   216    -0.964311
Sym=    39a
Ene=   -0.397667E-05
Spin= Alpha
Occup= 0.000002
     1     0.005930
     2    -0.015644
     3     0.151886
     4    -0.177200
     5    -0.407358
     6    -4.749114
     7     2.274456
     8     0.005392
     9     0.040818
    10     0.170806
    11    -0.038001
    12     0.362700
    13     1.884696
    14     0.181331
    15    -1.654084
    16     1.208699
    17    -1.073618
    18     3.422139
    19     0.567611
    20     0.110611
    21     0.160006
    22     0.486847
    23     0.017067
    24     0.019541
    25     0.450673
    26     0.094627
    27    -0.401380
    28    -2.643422
    29    -0.148828
    30    -0.132556
    31    -2.571698
    32    -0.343825
    33    -0.286520
    34    -3.117705
    35     0.151237
    36     0.640596
    37     0.359365
    38    -0.018821
    39    -0.146746
    40    -0.627149
    41     0.001108
    42    -0.060279
    43    -0.114840
    44    -0.035607
    45    -0.022161
    46    -0.093306
    47    -0.018035
    48    -0.057786
    49     0.160672
    50     1.554703
    51    -0.048386
    52     0.086372
    53    -0.834995
    54     0.037951
    55    -0.595628
    56    -0.375044
    57     0.283177
    58     0.834445
    59     1.451949
    60     0.690505
    61     1.057794
    62     0.232835
    63     0.028585
    64     0.210613
    65     0.021476
    66     0.006494
    67     0.239230
    68     0.513595
    69     0.058957
    70     0.096336
    71     0.029147
    72    -0.043884
    73    -0.000027
    74     0.001528
    75    -0.026614
    76     0.032318
    77     0.672274
    78     4.109137
    79     0.069552
    80    -0.016453
    81     0.060352
    82     0.000150
    83    -0.050055
    84     0.577020
    85     2.183549
    86     0.135830
    87     0.924239
    88     1.519349
    89     0.707609
    90    -2.098706
    91    -0.372478
    92     0.015291
    93    -0.030893
    94    -0.094386
    95    -0.042585
    96     0.006306
    97    -0.073084
    98    -0.191740
    99     0.043007
   100     1.313257
   101     0.234579
   102    -0.029306
   103     0.476983
   104    -0.047179
   105     0.061326
   106     0.571910
   107     0.018059
   108     0.451595
   109     0.088781
   110     0.035233
   111    -0.149451
   112     0.119416
   113     0.015512
   114    -0.064572
   115     0.029658
   116    -0.019161
   117     0.000843
   118    -0.027402
   119    -0.016705
   120     0.069765
   121    -0.277950
   122     0.123060
   123     0.028230
   124    -0.121693
   125    -0.103850
   126     0.151426
   127     0.353011
   128     0.014549
   129     0.038444
   130    -0.228515
   131     0.140917
   132    -0.074319
   133    -0.092698
   134    -0.024510
   135    -0.005811
   136    -0.052957
   137    -0.017359
   138    -0.094736
   139    -0.003695
   140    -0.031862
   141     0.014602
   142    -0.033297
   143    -0.092709
   144     0.115197
   145    -0.017022
   146     0.025119
   147     0.145564
   148     1.035131
   149    -1.687817
   150    -1.184348
   151    -2.656742
   152     0.016667
   153    -0.033246
   154     0.029146
   155    -0.041801
   156     0.159519
   157     0.494819
   158    -0.759131
   159     1.484314
   160    -2.291070
   161     0.664131
   162    -2.118079
   163     0.544077
   164     0.149558
   165     0.514952
   166     0.542441
   167    -0.029887
   168     0.096038
   169     0.307254
   170     2.556666
   171     1.293806
   172     0.450135
   173     0.225212
   174    -0.694846
   175    -1.103640
   176     1.077705
   177     1.035020
   178     2.087932
   179    -0.151279
   180     0.246975
   181     0.075154
   182     0.079275
   183     0.000526
   184     0.114279
   185     0.016444
   186    -0.033495
   187     0.082471
   188    -0.018097
   189    -0.234201
   190    -0.095657
   191    -0.119117
   192     0.145562
   193    -0.476142
   194    -0.090466
   195     0.083827
   196    -0.195602
   197    -0.009247
   198    -0.025870
   199    -0.004977
   200     0.474838
   201     0.308163
   202     0.655875
   203     0.486303
   204    -0.563461
   205     0.265853
   206     0.089698
   207     0.177564
   208    -0.366287
   209     0.205699
   210    -0.069257
   211    -0.100510
   212     0.188100
   213    -0.322068
   214     0.371441
   215     0.074273
   216    -0.934958
Sym=    40a
Ene=   -0.252974E-05
Spin= Alpha
Occup= 0.000001
     1    -0.003692
     2     0.004831
     3    -0.018849
     4     1.103169
     5     0.667955
     6    -2.324833
     7     3.110704
     8    -0.138369
     9    -0.153771
    10     0.040393
    11    -0.763835
    12    -0.649316
    13     0.554348
    14     0.828688
    15    -0.482849
    16     7.975317
    17    -0.301607
    18     0.399611
    19    -0.819947
    20     0.085813
    21     0.090189
    22     0.022717
    23     0.112979
    24    -0.029458
    25    -0.007688
    26     2.205506
    27     2.532957
    28     3.789206
    29    -0.606455
    30     0.196422
    31     0.087788
    32     0.254217
    33     0.633422
    34     1.918574
    35    -0.088437
    36     4.107756
    37     3.922502
    38     0.302589
    39     0.263447
    40     0.182587
    41     0.100464
    42     0.100038
    43    -0.004740
    44     0.102187
    45     0.115230
    46    -0.034739
    47     0.083509
    48     0.074020
    49     0.450079
    50    -3.942799
    51     0.074182
    52     0.221197
    53     0.269673
    54     1.438245
    55     1.301969
    56     0.243770
    57    -0.311244
    58    -1.114312
    59     0.305257
    60    -0.333206
    61    -0.190924
    62    -0.773054
    63     0.213602
    64     0.025720
    65    -0.101478
    66     0.257677
    67    -0.245971
    68    -0.068173
    69    -0.343498
    70    -0.221019
    71     0.361309
    72    -0.400110
    73    -0.004826
    74     0.012023
    75    -0.082682
    76     0.793840
    77     0.243158
    78    -2.336806
    79    -5.848656
    80    -0.082815
    81    -0.102829
    82    -0.059141
    83    -0.852629
    84    -0.775958
    85    -2.655992
    86     2.489538
    87     2.201559
    88     2.863150
    89    -0.506494
    90    -0.506992
    91    -1.218610
    92    -0.055794
    93     0.002661
    94    -0.043082
    95     0.075854
    96    -0.120672
    97    -0.140173
    98     2.147054
    99     1.636940
   100     1.331772
   101    -0.453344
   102     0.630328
   103     0.830402
   104     2.652618
   105     2.464254
   106     3.198912
   107    -0.047437
   108     1.077428
   109     1.210435
   110     0.174128
   111     0.149281
   112     0.074823
   113     0.054405
   114     0.092272
   115     0.001593
   116     0.058444
   117     0.061715
   118     0.056757
   119     0.006724
   120     0.173034
   121     0.369733
   122     0.297752
   123     0.104373
   124     0.131609
   125     0.204824
   126     0.187722
   127     0.348836
   128     0.054753
   129    -0.075225
   130    -0.582491
   131    -0.407679
   132    -0.360727
   133    -0.382576
   134    -0.308783
   135    -0.353754
   136     0.049707
   137    -0.126151
   138     0.247255
   139    -0.508372
   140    -0.185135
   141    -0.247225
   142    -0.323072
   143     0.163944
   144    -0.672097
   145     0.009805
   146     0.048615
   147    -0.745051
   148     1.256408
   149     0.359563
   150    -2.725149
   151    -1.838797
   152     0.297496
   153     0.292160
   154     0.111269
   155    -2.093586
   156    -2.153474
   157    -2.585662
   158    -3.764314
   159    -3.100421
   160     6.885060
   161     0.063059
   162    -0.241426
   163     0.119814
   164    -0.245047
   165    -0.353654
   166    -0.285924
   167     0.465276
   168     0.139678
   169     0.139964
   170     0.339008
   171     0.520002
   172    -0.068649
   173    -2.288662
   174    -0.673765
   175    -0.695279
   176    -0.607833
   177    -0.786274
   178    -4.668614
   179     0.184894
   180     2.602851
   181     2.332037
   182     0.553309
   183     0.615277
   184    -0.332783
   185     0.219167
   186     0.211829
   187     0.253898
   188     0.529251
   189     0.472600
   190     0.281966
   191     0.064827
   192     1.579143
   193     1.404315
   194     1.171797
   195     0.739114
   196     0.705426
   197    -0.566309
   198    -0.579594
   199    -0.493401
   200    -0.571474
   201    -0.207423
   202     0.909856
   203     0.413780
   204     0.525612
   205     0.164546
   206    -0.126989
   207     0.389362
   208     0.597177
   209     0.088309
   210     0.950383
   211     0.519827
   212     0.101866
   213    -0.060357
   214     0.170138
   215     0.916884
   216    -0.099653
Sym=    41a
Ene=   -0.137515E-02
Spin= Alpha
Occup= 0.000834
     1     0.000075
     2    -0.000104
     3     0.000246
     4     0.003255
     5    -0.004610
     6    -0.021253
     7     0.013687
     8     0.002993
     9     0.033125
    10    -0.000841
    11    -0.004235
    12    -0.069066
    13     0.019678
    14    -0.015329
    15    -0.308658
    16     0.035023
    17     0.009814
    18     0.222583
    19     0.006199
    20    -0.006382
    21     0.006415
    22     0.000117
    23     0.009291
    24     0.001345
    25     0.019360
    26     0.005253
    27     0.003116
    28    -0.004132
    29     0.001072
    30    -0.003277
    31    -0.017648
    32    -0.046951
    33     0.045588
    34     0.019420
    35     0.070271
    36     0.011055
    37     0.299574
    38    -0.000608
    39    -0.002793
    40     0.000989
    41    -0.000394
    42    -0.001132
    43     0.000963
    44    -0.000614
    45    -0.008978
    46    -0.001032
    47    -0.001538
    48    -0.002753
    49     0.003203
    50     0.015445
    51    -0.000162
    52    -0.000721
    53     0.005586
    54    -0.005572
    55    -0.064714
    56    -0.010198
    57    -0.012295
    58    -0.002309
    59     0.066114
    60     0.001521
    61     0.016223
    62     0.010995
    63     0.004685
    64     0.003386
    65     0.000355
    66     0.015984
    67    -0.003146
    68     0.007714
    69    -0.004897
    70     0.001601
    71     0.002281
    72    -0.008372
    73     0.000379
    74    -0.000299
    75     0.001448
    76     0.012485
    77    -0.002087
    78    -0.026216
    79    -0.010338
    80    -0.007328
    81    -0.119305
    82    -0.004175
    83    -0.004752
    84    -0.100272
    85     0.020300
    86     0.027967
    87     0.444295
    88     0.039637
    89     0.005956
    90     0.161579
    91    -0.000493
    92    -0.002775
    93     0.003159
    94     0.002268
    95     0.003618
    96     0.003848
    97     0.065474
    98     0.059692
    99    -0.029164
   100     0.038951
   101    -0.067969
   102     0.048950
   103     0.778853
   104    -0.003945
   105     0.019888
   106     0.038862
   107     0.015334
   108     0.026394
   109     0.430165
   110    -0.000864
   111    -0.008956
   112    -0.005381
   113    -0.000079
   114    -0.004203
   115    -0.000065
   116    -0.010750
   117    -0.169565
   118    -0.000187
   119     0.000274
   120     0.000106
   121     0.033151
   122    -0.019145
   123     0.001087
   124     0.012679
   125    -0.001395
   126    -0.024776
   127    -0.383298
   128    -0.005812
   129    -0.001898
   130     0.000890
   131     0.031202
   132     0.001662
   133    -0.113086
   134     0.014811
   135     0.002058
   136     0.007850
   137    -0.002953
   138     0.025732
   139    -0.009153
   140    -0.051161
   141    -0.009290
   142    -0.007428
   143     0.003609
   144    -0.015897
   145    -0.000012
   146     0.000017
   147    -0.000118
   148     0.000371
   149     0.001760
   150    -0.024126
   151    -0.033963
   152    -0.001406
   153    -0.002024
   154     0.000274
   155    -0.000801
   156     0.006136
   157     0.004797
   158     0.005607
   159    -0.098464
   160     0.026149
   161    -0.010236
   162    -0.133922
   163     0.005371
   164    -0.000364
   165     0.000363
   166    -0.000237
   167    -0.000885
   168     0.000236
   169     0.005072
   170    -0.002547
   171     0.004711
   172     0.001174
   173    -0.001334
   174    -0.000900
   175    -0.016521
   176     0.008145
   177    -0.006817
   178    -0.010397
   179    -0.012260
   180    -0.003015
   181     0.041851
   182    -0.000021
   183     0.002186
   184    -0.000181
   185     0.000002
   186     0.000961
   187     0.000075
   188    -0.000228
   189     0.000005
   190    -0.000092
   191    -0.000365
   192     0.000537
   193     0.007553
   194     0.000918
   195     0.000011
   196     0.003222
   197    -0.003479
   198    -0.001785
   199    -0.007825
   200     0.003536
   201     0.001253
   202    -0.000740
   203     0.012402
   204    -0.000832
   205     0.006846
   206     0.000850
   207     0.000662
   208    -0.000098
   209     0.000316
   210    -0.000868
   211    -0.000207
   212     0.003111
   213    -0.002207
   214     0.000481
   215     0.000558
   216     0.001864
Sym=    42a
Ene=   -0.946019E-03
Spin= Alpha
Occup= 0.000048
     1     0.000044
     2     0.000184
     3    -0.000056
     4    -0.000384
     5     0.003248
     6     0.015182
     7    -0.007601
     8    -0.048276
     9     0.064519
    10    -0.000295
    11    -0.187589
    12     0.243506
    13    -0.003014
    14    -0.446132
    15     0.595642
    16    -0.005603
    17     0.176990
    18    -0.234736
    19    -0.002708
    20    -0.000169
    21     0.000622
    22     0.000802
    23    -0.008381
    24     0.063354
    25    -0.084058
    26     0.005786
    27    -0.001567
    28    -0.001468
    29     0.044679
    30    -0.392515
    31     0.516621
    32    -0.001909
    33     0.004765
    34     0.011317
    35    -0.104062
    36     0.191891
    37    -0.256005
    38     0.074870
    39    -0.097690
    40     0.000906
    41     0.033840
    42    -0.044187
    43    -0.000627
    44     0.005446
    45    -0.006006
    46     0.000824
    47    -0.006397
    48     0.134351
    49    -0.177613
    50     0.004773
    51     0.063122
    52    -0.074334
    53     0.002628
    54    -0.110644
    55     0.138773
    56    -0.000989
    57     0.006628
    58     0.001310
    59    -0.396985
    60     0.000941
    61    -0.167587
    62    -0.004311
    63     0.303523
    64     0.003565
    65     0.056609
    66    -0.019718
    67     0.000101
    68    -0.076109
    69     0.011876
    70     0.128629
    71    -0.012351
    72    -0.010274
    73    -0.000263
    74     0.000094
    75     0.000585
    76    -0.000488
    77     0.000605
    78    -0.015537
    79     0.008686
    80     1.164082
    81    -1.545041
    82     0.001787
    83     1.130040
    84    -1.509137
    85     0.008146
    86     0.999949
    87    -1.321728
    88    -0.010598
    89    -0.190018
    90     0.245424
    91     0.004915
    92     0.002817
    93    -0.001683
    94     0.000645
    95     0.021376
    96     0.096930
    97    -0.128399
    98     0.001038
    99    -0.001823
   100    -0.004876
   101     0.066177
   102    -0.295458
   103     0.386772
   104    -0.002628
   105    -0.003508
   106    -0.008817
   107    -0.053889
   108     0.141129
   109    -0.194204
   110     0.331760
   111    -0.436483
   112    -0.001894
   113     0.147214
   114    -0.194722
   115     0.001684
   116     0.230949
   117    -0.298386
   118    -0.001951
   119     0.030531
   120    -0.892839
   121     1.183333
   122    -0.005642
   123    -0.396485
   124     0.533155
   125    -0.002375
   126    -0.394252
   127     0.520615
   128    -0.001462
   129    -0.004063
   130     0.003042
   131    -0.321577
   132     0.001914
   133    -0.195160
   134    -0.014680
   135     0.249590
   136     0.006076
   137     0.067851
   138    -0.019312
   139     0.000787
   140    -0.085744
   141     0.027364
   142     0.151352
   143    -0.001378
   144    -0.014893
   145     0.000002
   146    -0.000005
   147     0.000122
   148    -0.001463
   149     0.000549
   150    -0.003690
   151     0.005376
   152     0.018574
   153    -0.022357
   154     0.000127
   155    -0.084728
   156     0.115157
   157     0.000118
   158     0.022833
   159    -0.048438
   160     0.005063
   161    -0.013076
   162     0.029637
   163     0.000091
   164    -0.000008
   165    -0.000033
   166    -0.000084
   167     0.000815
   168     0.020387
   169    -0.026976
   170     0.000474
   171    -0.006020
   172    -0.002120
   173    -0.004464
   174    -0.110786
   175     0.144609
   176    -0.007527
   177     0.003965
   178    -0.005936
   179     0.021656
   180    -0.055710
   181     0.076502
   182     0.029543
   183    -0.038017
   184     0.000122
   185     0.013221
   186    -0.016917
   187     0.000001
   188    -0.004521
   189     0.006414
   190     0.000223
   191     0.000445
   192     0.031797
   193    -0.040093
   194     0.001303
   195     0.013972
   196    -0.018386
   197     0.001175
   198     0.029517
   199    -0.032687
   200    -0.000348
   201    -0.005007
   202     0.000492
   203    -0.109199
   204     0.000169
   205    -0.051086
   206     0.002043
   207     0.083589
   208    -0.000310
   209     0.017053
   210    -0.001708
   211     0.000510
   212    -0.022806
   213    -0.000465
   214     0.038157
   215     0.004507
   216     0.000837
Sym=    43a
Ene=   -0.292149E-04
Spin= Alpha
Occup= 0.000000
     1    -4.817557
     2     7.285535
     3   -11.301141
     4    10.954880
     5     7.438583
     6   -12.004598
     7    -2.168272
     8     0.007181
     9    -0.005163
    10     0.620367
    11     0.047704
    12    -0.053458
    13     3.233264
    14    -0.008498
    15     0.035352
    16    12.979658
    17    -0.007716
    18    -0.015066
    19     1.206460
    20    -3.598036
    21    -3.593167
    22    -9.777616
    23     0.012636
    24     0.014265
    25    -0.038084
    26    -0.937127
    27    -0.948201
    28    27.347318
    29    -0.052449
    30    -0.061253
    31     0.170831
    32    -0.449832
    33    -0.456037
    34    -7.911382
    35     0.002571
    36     0.040896
    37    -0.026219
    38    -0.035630
    39     0.026311
    40    -0.715073
    41     0.021150
    42    -0.008995
    43    -0.518570
    44    -0.005377
    45    -0.000014
    46    -0.511417
    47     0.001903
    48     0.003444
    49    -0.006705
    50    -4.589716
    51    -0.043877
    52     0.021740
    53    -1.056566
    54    -0.022993
    55    -0.003735
    56    -1.055645
    57     0.007270
    58   -15.563754
    59    -0.045563
    60    -4.527559
    61    -0.065356
    62     0.414220
    63     0.014987
    64     0.000302
    65     0.004894
    66     0.022926
    67    -4.515371
    68    -0.025769
    69     0.240091
    70     0.026437
    71     0.020935
    72     0.403131
    73     0.001143
    74    -0.004629
    75     0.146792
    76    -0.809561
    77    -0.821938
    78    11.845379
    79     3.940335
    80     0.000926
    81     0.013405
    82    -0.039046
    83     0.006247
    84     0.096932
    85    -2.300647
    86     0.045777
    87     0.002077
    88    10.193506
    89    -0.004841
    90     0.001408
    91     0.151463
    92     0.037758
    93     0.018596
    94     0.651535
    95    -0.006291
    96     0.007028
    97     0.006084
    98    -1.348575
    99    -1.260701
   100    -4.325428
   101     0.030943
   102    -0.038361
   103    -0.035640
   104     1.287757
   105     1.287399
   106     5.092226
   107     0.005082
   108     0.024933
   109    -0.001730
   110    -0.021527
   111    -0.014986
   112     0.034839
   113     0.025517
   114    -0.028416
   115    -0.013628
   116    -0.002165
   117    -0.006587
   118    -0.012702
   119     0.002536
   120     0.008028
   121    -0.058263
   122     0.884973
   123    -0.021505
   124    -0.010460
   125    -0.088448
   126    -0.000940
   127    -0.002440
   128    -0.081023
   129     0.004820
   130     1.959240
   131     0.033954
   132     0.474780
   133     0.020446
   134     0.444809
   135     0.012485
   136     0.008426
   137     0.015838
   138    -0.014202
   139     0.474542
   140     0.002996
   141     0.276425
   142     0.012290
   143    -0.024018
   144     0.509332
   145    -0.001673
   146     0.004076
   147    -0.063686
   148     1.373468
   149    -0.816345
   150    -1.669207
   151    -4.389282
   152     0.000262
   153     0.001287
   154    -0.087640
   155     0.001528
   156    -0.008762
   157     0.275876
   158    -0.017232
   159    -0.001411
   160     1.315078
   161     0.004487
   162     0.004509
   163     0.367109
   164     0.046600
   165     0.046322
   166    -0.111192
   167    -0.001231
   168     0.000363
   169     0.000025
   170     2.555578
   171     2.556846
   172     3.784445
   173     0.002951
   174     0.000904
   175    -0.002842
   176     1.176035
   177     1.179532
   178     0.290227
   179    -0.002202
   180     0.003415
   181     0.002289
   182     0.001785
   183     0.001005
   184    -0.309195
   185    -0.002710
   186     0.002863
   187    -0.051532
   188     0.002483
   189     0.000730
   190    -0.051386
   191    -0.000952
   192    -0.005501
   193     0.004992
   194    -0.238055
   195     0.011498
   196     0.006283
   197    -0.414326
   198     0.005961
   199    -0.004316
   200    -0.418055
   201     0.000484
   202    -1.656045
   203     0.005938
   204    -0.608493
   205     0.008602
   206    -0.742067
   207    -0.006115
   208     0.000882
   209    -0.010393
   210    -0.000738
   211    -0.611087
   212    -0.009757
   213    -0.434087
   214     0.006239
   215    -0.000981
   216    -0.739595
Sym=    44a
Ene=   -0.501804E-03
Spin= Alpha
Occup= 0.000019
     1     0.000012
     2    -0.000042
     3     0.000146
     4    -0.003682
     5    -0.000740
     6     0.082880
     7    -0.033884
     8     0.023204
     9     0.055825
    10    -0.000751
    11     0.083122
    12     0.208301
    13     0.003713
    14     0.063384
    15     0.148091
    16    -0.030786
    17    -0.135998
    18    -0.372635
    19    -0.002314
    20    -0.004571
    21     0.004541
    22    -0.000818
    23    -0.010977
    24     0.045330
    25     0.105048
    26     0.012772
    27    -0.031183
    28    -0.005790
    29     0.064310
    30    -0.198511
    31    -0.473958
    32     0.010487
    33    -0.005361
    34     0.055924
    35    -0.023535
    36     0.034510
    37     0.072861
    38    -0.036560
    39    -0.086355
    40     0.000531
    41    -0.016547
    42    -0.038783
    43     0.002117
    44    -0.002549
    45    -0.007518
    46    -0.001075
    47     0.001310
    48    -0.075959
    49    -0.188676
    50     0.008180
    51    -0.033522
    52    -0.083723
    53     0.011159
    54    -0.150257
    55    -0.352127
    56    -0.006706
    57     0.005053
    58    -0.003378
    59     0.365008
    60     0.002829
    61     0.176049
    62     0.016248
    63     0.155308
    64    -0.007708
    65     0.033361
    66    -0.023518
    67    -0.000321
    68     0.078678
    69    -0.001072
    70     0.073510
    71    -0.019692
    72    -0.007264
    73    -0.000001
    74     0.000025
    75    -0.000022
    76    -0.004580
    77     0.001412
    78    -0.044196
    79     0.021969
    80     0.007905
    81     0.019553
    82     0.000391
    83     0.081970
    84     0.200936
    85     0.001677
    86     0.035353
    87     0.085579
    88    -0.035664
    89     0.084200
    90     0.230904
    91     0.009626
    92     0.000469
    93    -0.001440
    94    -0.001175
    95    -0.000478
    96    -0.003585
    97    -0.006237
    98    -0.022459
    99     0.002583
   100    -0.002360
   101     0.007609
   102     0.022501
   103     0.045786
   104    -0.005813
   105    -0.018716
   106    -0.022211
   107     0.010535
   108     0.066599
   109     0.155880
   110    -0.018159
   111    -0.042849
   112     0.000320
   113    -0.008116
   114    -0.019363
   115    -0.000592
   116     0.012722
   117     0.029201
   118     0.000123
   119    -0.001347
   120    -0.025879
   121    -0.068862
   122    -0.002730
   123    -0.011594
   124    -0.030173
   125    -0.000870
   126     0.051358
   127     0.107451
   128    -0.003219
   129     0.008149
   130    -0.000034
   131     0.099720
   132    -0.002614
   133     0.009735
   134    -0.001406
   135     0.041163
   136    -0.002694
   137     0.001357
   138    -0.003776
   139     0.003525
   140     0.004310
   141     0.000811
   142     0.002932
   143    -0.001999
   144     0.007571
   145     0.001411
   146    -0.000785
   147    -0.002719
   148    -0.001639
   149     0.011268
   150    -0.042858
   151     0.037057
   152     0.611948
   153     1.433461
   154     0.002500
   155    -0.170858
   156    -0.417298
   157    -0.007689
   158    -0.309995
   159    -0.731896
   160     0.019443
   161     0.057685
   162     0.178900
   163    -0.010027
   164     0.051194
   165    -0.056050
   166    -0.001385
   167     0.074564
   168     0.010583
   169     0.030707
   170    -0.053261
   171     0.053698
   172    -0.007239
   173    -0.066237
   174    -0.093975
   175    -0.221541
   176    -0.081182
   177     0.059421
   178    -0.016888
   179    -0.108348
   180     0.002741
   181    -0.010462
   182    -0.408696
   183    -0.949604
   184     0.001786
   185    -0.181834
   186    -0.423224
   187     0.005708
   188    -0.197053
   189    -0.458208
   190    -0.003285
   191     0.001541
   192     0.418789
   193     0.988029
   194     0.007434
   195     0.185891
   196     0.438859
   197     0.008202
   198     0.145831
   199     0.342181
   200    -0.000939
   201     0.011709
   202     0.004067
   203     0.024515
   204    -0.027618
   205     0.126790
   206     0.037884
   207     0.010677
   208     0.046024
   209     0.023101
   210     0.029162
   211     0.028593
   212     0.056382
   213    -0.143521
   214     0.053603
   215     0.049545
   216     0.122609
Sym=    45a
Ene=   -0.257720E-04
Spin= Alpha
Occup= 0.000006
     1     0.002090
     2     0.003522
     3    -0.136279
     4     0.340310
     5    -0.360672
     6     2.904059
     7    -0.333563
     8    -0.024869
     9    -0.022967
    10     0.004975
    11    -0.537106
    12    -0.479119
    13    -0.397563
    14     0.126648
    15    -0.088610
    16     0.467066
    17    -0.120340
    18    -0.130787
    19     0.132069
    20     0.013815
    21    -0.120799
    22    -0.313568
    23    -0.125885
    24    -0.096164
    25    -0.033253
    26    -0.457622
    27    -0.025080
    28     2.460382
    29    -0.042443
    30     0.500957
    31     0.693212
    32    -0.147658
    33     0.128383
    34     1.853475
    35     0.075597
    36    -0.151853
    37     0.561926
    38     0.163631
    39     0.250739
    40    -0.307676
    41     0.205295
    42     0.191952
    43    -0.003295
    44    -0.143291
    45    -0.276262
    46     0.021785
    47    -0.148499
    48     0.141522
    49    -0.263741
    50    -0.116511
    51    -0.014424
    52     0.092009
    53    -0.058677
    54    -0.616646
    55    -0.121801
    56    -0.300136
    57    -0.054856
    58    -1.342592
    59    -0.035423
    60    -0.334735
    61    -0.427783
    62     0.218032
    63     0.089271
    64     0.503362
    65     0.165552
    66    -0.120345
    67    -0.062692
    68     0.133843
    69    -0.066573
    70    -0.322377
    71    -0.161744
    72     0.196464
    73    -0.008408
    74     0.009128
    75     0.165753
    76    -0.268430
    77     0.771945
    78    -3.613332
    79     0.203696
    80    -0.029042
    81    -0.011426
    82     0.056842
    83    -0.073018
    84     0.420066
    85    -0.315108
    86    -0.189288
    87    -0.005215
    88     0.059966
    89    -0.023992
    90     0.127078
    91     0.064347
    92    -0.138495
    93     0.297186
    94     0.377572
    95    -0.039435
    96    -0.111178
    97    -0.186957
    98     0.504018
    99     0.657743
   100    -1.728943
   101    -0.436978
   102     1.207797
   103     0.717814
   104     0.447470
   105     0.042978
   106     0.091385
   107     0.073711
   108     0.010407
   109     0.455566
   110    -0.002913
   111    -0.674767
   112    -0.394305
   113     0.147529
   114     0.167728
   115    -0.083701
   116     0.274238
   117     0.294295
   118     0.270046
   119    -0.269790
   120     0.181683
   121     0.547299
   122    -0.837761
   123     0.092965
   124    -0.170825
   125    -0.174366
   126     0.326490
   127     0.294550
   128    -0.640527
   129    -0.007149
   130     0.841334
   131     0.153158
   132    -0.005355
   133    -0.438942
   134    -0.163601
   135    -0.258630
   136    -0.105055
   137    -0.016378
   138     0.059949
   139     0.319834
   140    -0.114886
   141    -0.182618
   142    -0.482709
   143     0.304994
   144    -0.125559
   145    -0.000302
   146    -0.000422
   147     0.001378
   148    -0.145258
   149     0.353608
   150    -1.103357
   151    -0.865894
   152     0.010986
   153    -0.002780
   154     0.008671
   155     0.006060
   156     0.044297
   157     0.143465
   158     0.156792
   159    -0.301066
   160     1.011427
   161     0.014615
   162     0.140585
   163     0.139595
   164    -0.002260
   165    -0.017676
   166    -0.056426
   167    -0.006075
   168     0.002811
   169    -0.022406
   170    -0.260814
   171    -0.231360
   172     0.004896
   173     0.063016
   174    -0.003210
   175     0.099775
   176    -0.000919
   177    -0.045047
   178    -0.537013
   179    -0.028008
   180    -0.242428
   181     0.081821
   182     0.013030
   183    -0.021783
   184    -0.046831
   185     0.012437
   186     0.012854
   187     0.020773
   188     0.001068
   189    -0.002734
   190     0.005675
   191     0.009755
   192     0.066051
   193     0.041221
   194     0.079948
   195    -0.002470
   196    -0.062807
   197     0.064886
   198     0.144215
   199    -0.001180
   200     0.029517
   201     0.073218
   202     0.021016
   203    -0.023730
   204    -0.005745
   205    -0.074349
   206     0.106032
   207    -0.017662
   208    -0.062792
   209     0.012187
   210    -0.017662
   211    -0.038463
   212     0.022035
   213     0.063267
   214    -0.047678
   215    -0.039840
   216     0.094993
Sym=    46a
Ene=   -0.103542E-03
Spin= Alpha
Occup= 0.000030
     1     0.002324
     2    -0.056294
     3    -0.029401
     4     0.573160
     5    -1.500586
     6    -0.988402
     7    -0.304892
     8    -0.011723
     9    -0.001544
    10     0.022068
    11    -0.141401
    12    -0.009894
    13    -0.521991
    14     0.044602
    15    -0.030261
    16    -1.955221
    17     0.078758
    18     0.019748
    19    -0.127782
    20    -0.102657
    21     0.133862
    22     0.202656
    23    -0.059230
    24     0.005092
    25     0.006934
    26    -0.227790
    27     0.287530
    28    -0.748893
    29    -0.059279
    30     1.261314
    31     0.195052
    32     0.181965
    33    -0.164340
    34    -3.224008
    35     0.089523
    36    -0.264869
    37    -0.085729
    38    -0.334142
    39     0.006960
    40     0.081203
    41     0.012988
    42    -0.087668
    43     0.290648
    44    -0.186172
    45    -0.038365
    46     0.019572
    47     0.059305
    48     0.440299
    49     0.007519
    50    -0.937106
    51     0.047416
    52     0.115099
    53    -0.131795
    54    -0.719222
    55    -0.111612
    56    -0.117471
    57    -0.021484
    58     1.000801
    59    -0.049681
    60     0.084786
    61    -0.066554
    62    -0.131733
    63    -0.418160
    64    -0.021753
    65    -0.177356
    66     0.034888
    67     0.092026
    68     0.003500
    69     0.043588
    70    -0.229265
    71     0.029568
    72     0.201364
    73    -0.001032
    74     0.030526
    75     0.046435
    76    -0.946637
    77     0.803468
    78     2.411016
    79     0.611894
    80     0.012748
    81    -0.001020
    82    -0.096190
    83     0.068173
    84     0.000374
    85    -1.373272
    86    -0.048486
    87    -0.018891
    88    -0.234400
    89     0.048058
    90     0.004166
    91    -0.076461
    92     0.044530
    93    -0.157946
    94    -0.200042
    95     0.031434
    96    -0.010589
    97    -0.006416
    98    -1.321812
    99    -1.372599
   100    -0.747887
   101     0.000580
   102     1.268903
   103     0.214908
   104    -0.433274
   105    -0.219693
   106    -0.522836
   107    -0.030316
   108    -0.069912
   109    -0.015731
   110     0.080432
   111    -0.016402
   112     0.334582
   113    -0.062095
   114     0.028018
   115     0.297616
   116     0.441853
   117     0.069059
   118    -0.060501
   119     0.050804
   120    -0.343020
   121    -0.037254
   122     0.822231
   123    -0.119991
   124    -0.040965
   125     0.068717
   126     0.475707
   127     0.079675
   128     0.206205
   129    -0.029873
   130    -0.139570
   131    -0.004141
   132    -0.028283
   133    -0.132118
   134     0.421315
   135     0.008168
   136     0.050393
   137    -0.355004
   138    -0.040500
   139     0.324366
   140    -0.005094
   141     0.152592
   142    -0.511940
   143    -0.015577
   144     0.184983
   145     0.000399
   146     0.002820
   147     0.000696
   148     0.103923
   149    -0.154825
   150     2.435988
   151     1.058098
   152    -0.011668
   153    -0.001515
   154    -0.037702
   155     0.169494
   156     0.013456
   157    -0.052317
   158     0.218986
   159     0.081170
   160    -2.303638
   161    -0.263141
   162    -0.048260
   163     0.157663
   164     0.011144
   165     0.014343
   166     0.018461
   167    -0.005463
   168    -0.006693
   169    -0.001083
   170     0.211009
   171     0.182974
   172     0.194831
   173     0.016123
   174     0.010246
   175     0.009094
   176     0.388238
   177     0.464110
   178     1.115474
   179    -0.033176
   180    -0.135949
   181    -0.050658
   182    -0.020923
   183    -0.010421
   184    -0.021231
   185    -0.008733
   186     0.009421
   187    -0.037046
   188    -0.004688
   189    -0.000746
   190    -0.027925
   191     0.002726
   192     0.002885
   193     0.028913
   194    -0.160319
   195     0.008591
   196    -0.034826
   197    -0.131250
   198     0.101013
   199     0.013686
   200    -0.167333
   201    -0.003987
   202    -0.125848
   203    -0.013649
   204    -0.012679
   205    -0.011206
   206    -0.054563
   207    -0.094394
   208     0.007234
   209    -0.019901
   210     0.008254
   211    -0.012351
   212     0.009057
   213    -0.051107
   214    -0.020176
   215    -0.009268
   216    -0.066294
Sym=    47a
Ene=   -0.103278E-03
Spin= Alpha
Occup= 0.000029
     1    -0.002527
     2     0.056103
     3     0.029455
     4    -0.569403
     5     1.491334
     6     0.977749
     7     0.299719
     8    -0.004712
     9     0.011558
    10    -0.020084
    11    -0.089853
    12     0.112720
    13     0.499761
    14    -0.005202
    15    -0.035227
    16     1.919752
    17     0.065851
    18    -0.035088
    19     0.125731
    20    -0.040463
    21     0.006336
    22    -0.204110
    23    -0.141416
    24    -0.000632
    25    -0.000571
    26    -0.083690
    27     0.045743
    28     0.753277
    29    -0.302899
    30     0.820904
    31    -0.990615
    32     0.033614
    33    -0.053626
    34     3.229714
    35     0.221047
    36    -0.134059
    37     0.209614
    38    -0.066772
    39     0.145738
    40    -0.082727
    41    -0.198921
    42     0.139876
    43    -0.115052
    44    -0.115335
    45     0.145791
    46    -0.197494
    47     0.159330
    48     0.138352
    49    -0.233269
    50     0.878166
    51     0.225489
    52    -0.199440
    53     0.131111
    54    -0.495064
    55     0.560497
    56     0.110181
    57    -0.012305
    58    -1.005861
    59     0.326318
    60    -0.074049
    61     0.225673
    62    -0.092499
    63    -0.273843
    64    -0.002353
    65    -0.019780
    66     0.122634
    67    -0.101789
    68     0.079913
    69    -0.022452
    70    -0.226102
    71     0.141353
    72    -0.022592
    73     0.001134
    74    -0.030980
    75    -0.047531
    76     0.946954
    77    -0.821502
    78    -2.435064
    79    -0.611645
    80     0.009023
    81    -0.005703
    82     0.096014
    83     0.049155
    84    -0.037810
    85     1.345016
    86     0.032947
    87     0.054269
    88     0.212425
    89     0.020711
    90    -0.040109
    91     0.075285
    92     0.066258
    93     0.046129
    94     0.199059
    95     0.124015
    96    -0.002045
    97     0.016240
    98     1.372162
    99     1.307560
   100     0.718992
   101     0.002484
   102     0.840286
   103    -1.024042
   104     0.319429
   105     0.322027
   106     0.512566
   107    -0.120353
   108    -0.017571
   109     0.050885
   110    -0.034648
   111     0.002830
   112    -0.338853
   113     0.069537
   114    -0.045599
   115    -0.099268
   116     0.299816
   117    -0.340559
   118    -0.139923
   119     0.210728
   120    -0.215533
   121     0.204938
   122    -0.818335
   123    -0.117706
   124     0.124817
   125    -0.117265
   126     0.309264
   127    -0.369439
   128    -0.154570
   129    -0.091501
   130     0.146512
   131     0.021939
   132    -0.152041
   133     0.498537
   134    -0.259687
   135     0.013044
   136     0.211414
   137    -0.086824
   138    -0.067404
   139    -0.135801
   140     0.159722
   141    -0.188149
   142    -0.461494
   143    -0.103992
   144    -0.304035
   145    -0.000387
   146    -0.002883
   147    -0.000378
   148    -0.107303
   149     0.157274
   150    -2.387530
   151    -1.040881
   152    -0.007709
   153     0.008117
   154     0.037679
   155     0.107690
   156    -0.133326
   157     0.037283
   158     0.149837
   159    -0.151305
   160     2.261264
   161    -0.185761
   162     0.180075
   163    -0.160188
   164    -0.010657
   165    -0.015049
   166    -0.017969
   167    -0.004156
   168    -0.003253
   169     0.005569
   170    -0.203034
   171    -0.202876
   172    -0.199904
   173     0.021985
   174     0.008246
   175    -0.006598
   176    -0.427798
   177    -0.428176
   178    -1.084022
   179    -0.056661
   180    -0.097917
   181     0.101598
   182    -0.013305
   183     0.021848
   184     0.020775
   185    -0.006264
   186    -0.003766
   187     0.027982
   188    -0.003157
   189     0.004092
   190     0.037173
   191    -0.003222
   192     0.009028
   193    -0.035284
   194     0.152254
   195    -0.005509
   196     0.029183
   197     0.159475
   198     0.072504
   199    -0.081940
   200     0.140712
   201     0.018374
   202     0.130969
   203     0.071601
   204     0.015065
   205     0.029654
   206     0.071567
   207    -0.064853
   208     0.001646
   209     0.001269
   210     0.010415
   211     0.013898
   212     0.000926
   213     0.043226
   214    -0.023311
   215    -0.017738
   216     0.059938
Sym=    48a
Ene=   -0.194081E-03
Spin= Alpha
Occup= 0.000058
     1    -0.000029
     2    -0.000127
     3    -0.000247
     4    -0.000447
     5    -0.002234
     6     0.027179
     7     0.027294
     8    -0.017776
     9    -0.003827
    10     0.001063
    11    -0.078604
    12     0.035595
    13     0.007114
    14    -0.154334
    15     0.054107
    16    -0.034076
    17     0.052697
    18    -0.002627
    19    -0.030030
    20     0.005515
    21    -0.006372
    22    -0.001238
    23     0.010560
    24    -0.010374
    25    -0.008732
    26     0.260642
    27    -0.263422
    28    -0.005443
    29     0.455996
    30    -0.226326
    31    -0.194306
    32    -0.046344
    33     0.055353
    34     0.011771
    35    -0.087629
    36     0.026299
    37    -0.000550
    38    -0.004656
    39     0.006860
    40    -0.003546
    41    -0.000584
    42     0.004282
    43     0.180061
    44    -0.029338
    45    -0.089108
    46    -0.181544
    47     0.341326
    48     0.047298
    49     0.007140
    50    -0.015363
    51     0.016746
    52     0.002389
    53     0.186404
    54     0.012026
    55     0.035406
    56    -0.191507
    57     0.361025
    58    -0.002455
    59    -0.054843
    60    -0.231061
    61     0.075095
    62     0.153538
    63     0.061044
    64     0.450431
    65     0.022548
    66    -0.169754
    67     0.232612
    68     0.036921
    69    -0.012729
    70     0.045354
    71    -0.172746
    72    -0.140016
    73    -0.000021
    74     0.000023
    75    -0.000509
    76     0.002489
    77    -0.002944
    78    -0.019321
    79    -0.078111
    80     0.002117
    81    -0.004274
    82    -0.000573
    83     0.006723
    84    -0.051149
    85    -0.006557
    86     0.142478
    87    -0.099821
    88    -0.037617
    89    -0.018178
    90     0.019343
    91    -0.016394
    92    -0.014517
    93     0.014259
    94    -0.001665
    95    -0.025032
    96     0.006713
    97     0.006954
    98     0.091432
    99    -0.086837
   100     0.012244
   101     0.147723
   102    -0.046062
   103    -0.045484
   104     0.020502
   105    -0.013371
   106    -0.009496
   107     0.051506
   108     0.037665
   109    -0.067432
   110    -0.007574
   111     0.011768
   112     0.001869
   113    -0.003574
   114     0.005190
   115    -0.014567
   116    -0.003882
   117    -0.007888
   118     0.015225
   119    -0.031003
   120    -0.044692
   121     0.046814
   122     0.006427
   123    -0.022835
   124     0.020750
   125    -0.002332
   126    -0.038094
   127    -0.044791
   128     0.006648
   129    -0.003863
   130    -0.005387
   131    -0.029072
   132     0.057212
   133     0.018228
   134     0.028265
   135     0.026505
   136    -0.112197
   137    -0.001527
   138    -0.038929
   139    -0.060933
   140     0.007217
   141     0.019594
   142     0.000232
   143    -0.046774
   144    -0.051909
   145     0.000050
   146     0.000158
   147     0.000390
   148    -0.008299
   149     0.005331
   150     0.014562
   151     0.054349
   152    -0.009528
   153    -0.004157
   154     0.000080
   155    -0.001235
   156    -0.009430
   157    -0.004793
   158     0.005259
   159    -0.015061
   160    -0.010458
   161     0.009717
   162    -0.080582
   163    -0.002362
   164     0.004997
   165    -0.005154
   166    -0.000627
   167     0.010077
   168    -0.003215
   169    -0.006521
   170    -0.050348
   171     0.024406
   172    -0.008990
   173    -0.068247
   174    -0.035075
   175    -0.003949
   176    -0.102406
   177     0.083726
   178    -0.001787
   179    -0.190002
   180    -0.087233
   181    -0.107230
   182    -0.015269
   183    -0.004123
   184    -0.000852
   185    -0.009695
   186    -0.001979
   187    -0.009146
   188     0.038657
   189     0.009994
   190     0.009514
   191    -0.029596
   192    -0.001070
   193     0.039474
   194    -0.001963
   195     0.003468
   196     0.018220
   197     0.029916
   198     0.080773
   199     0.069445
   200    -0.027046
   201     0.049530
   202     0.000912
   203     0.006396
   204    -0.084879
   205    -0.008088
   206     0.027217
   207    -0.044084
   208     0.176326
   209     0.012772
   210    -0.027827
   211     0.089993
   212    -0.006448
   213    -0.004564
   214     0.027644
   215    -0.023236
   216    -0.013938
Sym=    49a
Ene=   -0.130527E-03
Spin= Alpha
Occup= 0.000030
     1    -0.001291
     2     0.008318
     3    -0.017556
     4    -0.095663
     5     0.323095
     6    -0.829255
     7    -0.365436
     8    -0.013221
     9     0.004667
    10     0.007452
    11    -0.058984
    12     0.021740
    13    -0.620287
    14     0.088980
    15    -0.011473
    16     0.187701
    17     0.155257
    18    -0.052549
    19     0.068541
    20    -0.067863
    21     0.009494
    22    -0.076058
    23     0.007193
    24     0.006020
    25     0.008243
    26     0.102424
    27    -0.286002
    28     0.294217
    29    -0.027604
    30    -0.059424
    31    -0.061518
    32    -0.103549
    33     0.054996
    34    -1.010895
    35    -0.004417
    36     0.127048
    37    -0.020270
    38     0.016532
    39    -0.013193
    40     0.087655
    41     0.012485
    42    -0.004815
    43     0.000127
    44    -0.003565
    45    -0.007748
    46     0.005546
    47     0.011140
    48     0.029082
    49    -0.006607
    50    -1.276527
    51     0.023614
    52    -0.018219
    53     0.029591
    54    -0.115993
    55     0.004795
    56     0.033310
    57     0.026113
    58    -0.094375
    59     0.038074
    60    -0.025786
    61     0.029970
    62     0.150263
    63    -0.035218
    64     0.039749
    65    -0.007527
    66     0.010516
    67    -0.125711
    68     0.007835
    69     0.025471
    70    -0.010091
    71     0.013777
    72    -0.068431
    73     0.000181
    74    -0.001671
    75     0.005987
    76    -0.114659
    77    -0.271086
    78     0.646298
    79     0.554412
    80    -0.002942
    81     0.001929
    82    -0.024135
    83     0.029939
    84     0.004495
    85    -0.899588
    86     0.013462
    87     0.006635
    88     0.626090
    89    -0.093532
    90     0.048607
    91     0.153946
    92    -0.008298
    93    -0.021759
    94     0.015894
    95    -0.009388
    96    -0.030597
    97     0.003906
    98    -0.229971
    99    -0.176698
   100    -0.671993
   101     0.050371
   102     0.174484
   103    -0.029411
   104     0.063917
   105     0.019923
   106     0.254349
   107    -0.011208
   108    -0.036155
   109     0.016198
   110     0.010466
   111    -0.006748
   112     0.004695
   113    -0.001739
   114    -0.000973
   115     0.012923
   116     0.000088
   117     0.001947
   118     0.018044
   119    -0.001208
   120     0.017549
   121    -0.008969
   122     0.123201
   123     0.026896
   124    -0.011240
   125     0.070658
   126     0.002225
   127    -0.001880
   128     0.036345
   129     0.000911
   130     0.126616
   131     0.015756
   132     0.024702
   133     0.009922
   134     0.028858
   135    -0.068454
   136    -0.014082
   137    -0.019306
   138    -0.014313
   139     0.045266
   140     0.003537
   141     0.030768
   142    -0.044676
   143    -0.015079
   144     0.054461
   145    -0.005271
   146    -0.039263
   147    -0.057604
   148     0.572920
   149    -1.137408
   150     2.300036
   151    -0.735626
   152    -0.067279
   153     0.017170
   154    -0.036476
   155     1.024591
   156    -0.084027
   157    -0.265527
   158    -0.612291
   159     0.155128
   160    -0.399404
   161    -0.053132
   162    -0.067552
   163     0.153279
   164    -0.172344
   165     0.040751
   166    -0.056728
   167    -0.002816
   168    -0.054575
   169    -0.014851
   170    -1.079567
   171     1.093415
   172     1.150974
   173    -0.065254
   174    -0.282071
   175     0.098909
   176     0.552833
   177    -0.167294
   178     0.044373
   179     0.118304
   180     0.041280
   181    -0.026085
   182    -0.897235
   183    -0.125331
   184     0.042916
   185     0.254621
   186     0.081580
   187    -0.154933
   188     0.101733
   189    -0.013204
   190    -0.050948
   191     0.043400
   192     0.218687
   193    -0.055233
   194    -0.247160
   195    -0.210342
   196     0.142692
   197    -0.065615
   198     0.016935
   199     0.022461
   200    -0.232877
   201     0.105329
   202    -0.520537
   203    -0.080004
   204    -0.373066
   205    -0.064035
   206    -0.683337
   207     0.312955
   208    -0.053824
   209    -0.023220
   210    -0.428836
   211     0.237730
   212     0.155951
   213     0.306631
   214    -0.006486
   215     0.437104
   216     0.475897
Sym=    50a
Ene=   -0.310879E-05
Spin= Alpha
Occup= 0.000001
     1    -0.002369
     2     0.000884
     3     0.012145
     4     1.126020
     5     0.630954
     6    -1.653093
     7     1.157762
     8    -0.047601
     9     0.202141
    10     0.094296
    11    -0.246720
    12     1.228241
    13     0.759442
    14    -0.197933
    15    -0.401317
    16     9.789593
    17    -0.532514
    18     0.251199
    19    -1.368138
    20     0.014793
    21     0.216246
    22     0.097443
    23    -0.058168
    24    -0.024966
    25     0.131546
    26     3.109187
    27     1.859406
    28     3.580581
    29     0.083488
    30     0.239721
    31    -0.791302
    32     0.768381
    33     0.473540
    34     3.566230
    35    -0.135170
    36     1.170413
    37    -4.285182
    38     0.080022
    39    -0.392425
    40     0.038604
    41     0.029830
    42    -0.182181
    43    -0.114322
    44     0.032003
    45    -0.185647
    46     0.020366
    47    -0.015648
    48     0.191435
    49    -0.442268
    50    -3.779525
    51     0.087422
    52    -0.190029
    53     0.252737
    54     0.253969
    55    -1.368240
    56    -0.067469
    57     0.160650
    58    -1.039279
    59     0.098304
    60    -0.193129
    61     0.490822
    62    -0.079846
    63    -0.076176
    64     0.063711
    65    -0.082707
    66     0.026924
    67    -0.327728
    68     0.228965
    69    -0.381231
    70    -0.137376
    71    -0.039634
    72    -1.073928
    73    -0.004349
    74     0.008656
    75    -0.058138
    76     0.693765
    77     0.458280
    78    -2.743994
    79    -5.000383
    80    -0.047081
    81     0.148403
    82    -0.071419
    83    -0.253562
    84     1.067024
    85    -2.627755
    86     0.477091
    87    -2.195019
    88     3.068898
    89     0.346608
    90     0.365557
    91    -0.753887
    92    -0.079040
    93     0.000582
    94    -0.038035
    95    -0.080726
    96    -0.011175
    97     0.197565
    98     2.077889
    99     1.643946
   100     1.302317
   101     0.555595
   102     0.053514
   103    -1.189460
   104     2.438692
   105     2.492661
   106     3.349264
   107     0.106920
   108     0.513478
   109    -1.250517
   110     0.081092
   111    -0.270351
   112     0.093474
   113     0.029089
   114    -0.108990
   115     0.047646
   116     0.024666
   117    -0.063615
   118     0.036606
   119    -0.033774
   120     0.196368
   121    -0.505471
   122     0.294676
   123     0.092349
   124    -0.238534
   125     0.104625
   126     0.156490
   127    -0.418473
   128     0.104417
   129     0.100573
   130    -0.581961
   131     0.615304
   132    -0.385444
   133     0.543073
   134    -0.368586
   135    -0.048796
   136    -0.119109
   137    -0.013524
   138    -0.287217
   139    -0.451603
   140     0.237471
   141    -0.259255
   142    -0.039629
   143    -0.219853
   144    -0.639152
   145    -0.027564
   146     0.138248
   147    -1.013296
   148     0.840877
   149     1.694275
   150    -3.917689
   151    -0.451855
   152     0.205021
   153    -0.856640
   154    -0.000718
   155    -1.382272
   156     5.888873
   157    -1.716796
   158    -1.498253
   159     5.604485
   160     8.210244
   161     0.464776
   162    -0.489109
   163    -0.211005
   164    -1.045618
   165     0.714824
   166    -0.560541
   167    -0.378835
   168     0.030596
   169     0.100399
   170     1.846621
   171    -6.203496
   172    -0.783102
   173     1.910263
   174    -0.186750
   175    -0.460690
   176    -1.458807
   177    -0.917513
   178    -5.300448
   179    -0.054638
   180     0.557991
   181    -2.533067
   182     0.450471
   183    -1.697375
   184    -0.469000
   185     0.166305
   186    -0.821827
   187     0.106389
   188     0.245697
   189    -1.057806
   190     0.155857
   191    -0.041490
   192     0.941805
   193    -4.014358
   194     0.561976
   195     0.465970
   196    -1.715682
   197    -0.567766
   198     0.186224
   199    -0.586333
   200    -0.788374
   201     0.113358
   202     1.128714
   203     0.155506
   204     1.745617
   205     0.273748
   206     3.825405
   207     0.062573
   208    -0.498158
   209     0.041935
   210    -0.820701
   211     0.108937
   212     0.161557
   213     0.778994
   214     0.063303
   215    -0.765168
   216    -1.230561
Sym=    51a
Ene=   -0.900620E-03
Spin= Alpha
Occup= 0.000424
     1    -0.000006
     2     0.000417
     3    -0.000604
     4     0.004444
     5     0.015705
     6    -0.050667
     7    -0.015003
     8    -0.000482
     9     0.001035
    10     0.000797
    11    -0.110717
    12     0.117102
    13     0.001710
    14     0.032918
    15    -0.006585
    16     0.013818
    17     0.078159
    18    -0.102319
    19    -0.026940
    20    -0.007129
    21     0.008140
    22     0.003984
    23    -0.001229
    24     0.000567
    25    -0.000905
    26     0.054180
    27    -0.014790
    28     0.020446
    29    -0.010656
    30    -0.015240
    31     0.026286
    32    -0.021485
    33     0.035021
    34    -0.030936
    35    -0.023310
    36     0.145729
    37    -0.155207
    38     0.016651
    39    -0.017581
    40    -0.000548
    41     0.006640
    42    -0.007746
    43    -0.003026
    44    -0.002950
    45     0.003417
    46    -0.000873
    47     0.000868
    48     0.056089
    49    -0.062759
    50    -0.062295
    51     0.023543
    52    -0.026050
    53    -0.007563
    54     0.064973
    55    -0.066917
    56    -0.009060
    57    -0.004455
    58     0.006051
    59     0.015307
    60     0.004127
    61    -0.005829
    62     0.015598
    63    -0.016463
    64     0.001533
    65    -0.002683
    66    -0.003223
    67    -0.006825
    68     0.000500
    69    -0.005013
    70     0.003732
    71     0.003179
    72    -0.023525
    73    -0.000033
    74    -0.000094
    75    -0.000260
    76     0.007595
    77    -0.005495
    78    -0.014964
    79    -0.061577
    80    -0.009578
    81     0.009830
    82    -0.001147
    83     0.020259
    84    -0.019033
    85    -0.042551
    86    -0.000371
    87     0.002352
    88     0.014132
    89    -0.162874
    90     0.175091
    91    -0.009442
    92     0.000907
    93    -0.001100
    94     0.000367
    95     0.000198
    96    -0.004008
    97     0.004942
    98     0.013221
    99     0.019473
   100    -0.001865
   101     0.015037
   102     0.030582
   103    -0.033931
   104     0.034251
   105     0.009683
   106     0.021636
   107     0.009481
   108    -0.022753
   109     0.016620
   110     0.005173
   111    -0.006433
   112     0.000394
   113     0.002411
   114    -0.002850
   115    -0.000126
   116     0.000060
   117    -0.000125
   118     0.002297
   119     0.000827
   120     0.016590
   121    -0.019302
   122     0.005945
   123     0.003779
   124    -0.006841
   125     0.011810
   126    -0.003245
   127    -0.001795
   128    -0.002141
   129     0.008305
   130    -0.003735
   131     0.021319
   132    -0.002951
   133     0.010582
   134    -0.005098
   135    -0.019031
   136    -0.001656
   137    -0.005331
   138    -0.001562
   139    -0.001931
   140     0.005721
   141    -0.003505
   142    -0.007760
   143    -0.001802
   144    -0.002709
   145     0.000482
   146    -0.000816
   147     0.003948
   148    -0.000962
   149    -0.025629
   150     0.082616
   151     0.040379
   152     0.186893
   153    -0.181183
   154     0.000665
   155    -0.141036
   156     0.137874
   157    -0.024781
   158    -0.192052
   159     0.192659
   160     0.009508
   161     0.306859
   162    -0.311906
   163    -0.002855
   164     0.018608
   165    -0.021757
   166    -0.001819
   167    -0.006531
   168    -0.001938
   169     0.007374
   170     0.532463
   171    -0.516295
   172    -0.032054
   173    -0.093461
   174    -0.057953
   175     0.094364
   176     0.100172
   177    -0.108880
   178    -0.015754
   179    -0.009922
   180     0.026141
   181    -0.008763
   182    -0.151512
   183     0.107500
   184    -0.001760
   185     0.119677
   186    -0.059128
   187     0.028231
   188     0.029504
   189    -0.021504
   190    -0.032727
   191    -0.010326
   192    -0.498761
   193     0.359634
   194    -0.004205
   195     0.366779
   196    -0.188699
   197     0.056119
   198     0.094875
   199    -0.081124
   200    -0.072421
   201    -0.018685
   202     0.011417
   203    -0.031719
   204     0.039614
   205     0.020501
   206     0.094616
   207     0.025664
   208     0.002759
   209     0.039636
   210    -0.156986
   211    -0.043139
   212    -0.022837
   213    -0.064634
   214    -0.033956
   215     0.176216
   216    -0.018436
Sym=    52a
Ene=   -0.486771E-04
Spin= Alpha
Occup= 0.000012
     1    -0.000038
     2    -0.000131
     3    -0.000174
     4    -0.049126
     5    -0.064328
     6     0.785555
     7     0.011862
     8     0.018033
     9     0.033104
    10     0.007030
    11     0.125988
    12     0.323248
    13     0.245301
    14    -0.031179
    15    -0.261317
    16    -0.002909
    17     0.030979
    18     0.150735
    19     0.030108
    20    -0.129611
    21     0.119191
    22    -0.014606
    23     0.080336
    24    -0.008465
    25    -0.023965
    26     0.468665
    27    -0.695984
    28    -0.129211
    29    -0.385403
    30    -0.030944
    31    -0.049548
    32    -0.174723
    33     0.163958
    34     0.529983
    35     0.099755
    36    -0.021881
    37     0.008164
    38    -0.020742
    39    -0.044253
    40    -0.010736
    41    -0.016500
    42    -0.030538
    43    -0.028315
    44     0.030999
    45     0.086885
    46     0.018090
    47     0.013173
    48    -0.075668
    49    -0.088090
    50     0.133788
    51    -0.032121
    52    -0.032556
    53    -0.278098
    54    -0.041308
    55    -0.029784
    56     0.212014
    57     0.149506
    58    -0.024396
    59    -0.209771
    60    -0.036000
    61    -0.026023
    62     0.310039
    63    -0.080283
    64    -0.012740
    65     0.002404
    66     0.116453
    67     0.039449
    68     0.004265
    69     0.019571
    70    -0.008619
    71     0.136273
    72    -0.251787
    73     0.001666
    74    -0.004768
    75    -0.021490
    76     0.127055
    77    -0.060356
    78    -0.535841
    79    -0.042669
    80     0.002111
    81    -0.009171
    82     0.016022
    83    -0.025247
    84    -0.105019
    85     0.152739
    86     0.084644
    87     0.129061
    88    -0.084076
    89     0.042565
    90     0.099856
    91    -0.038971
    92    -0.212278
    93     0.206806
    94    -0.013456
    95     0.128620
    96     0.008868
    97     0.023925
    98    -0.490731
    99     0.692353
   100     0.274209
   101     0.357802
   102     0.108823
   103     0.210323
   104     0.260645
   105    -0.288021
   106    -0.051792
   107    -0.168700
   108    -0.022055
   109    -0.027766
   110     0.003507
   111     0.014101
   112    -0.025601
   113    -0.022063
   114    -0.068278
   115     0.583102
   116     0.034397
   117     0.082901
   118    -0.569694
   119    -0.358884
   120    -0.080077
   121    -0.070935
   122    -0.009526
   123    -0.044655
   124    -0.057230
   125    -0.653624
   126    -0.052605
   127    -0.141203
   128     0.475787
   129     0.352540
   130    -0.031315
   131    -0.624810
   132     0.252742
   133     0.135689
   134    -0.586803
   135    -0.269510
   136     0.148584
   137     0.076689
   138    -0.158603
   139    -0.302886
   140     0.182893
   141    -0.003155
   142     0.058987
   143    -0.269555
   144     0.549372
   145     0.000029
   146    -0.000087
   147     0.000979
   148    -0.034872
   149     0.028359
   150    -0.324865
   151    -0.060564
   152    -0.002856
   153    -0.009783
   154     0.004275
   155     0.009054
   156     0.072189
   157     0.043533
   158     0.088041
   159     0.057273
   160     0.308873
   161    -0.041013
   162    -0.039255
   163    -0.015024
   164    -0.003808
   165    -0.001139
   166    -0.003076
   167     0.001092
   168    -0.005372
   169    -0.019198
   170    -0.054360
   171    -0.072571
   172    -0.068632
   173    -0.003839
   174     0.032626
   175     0.098819
   176     0.036889
   177    -0.162110
   178    -0.200180
   179    -0.056359
   180    -0.071637
   181    -0.081713
   182    -0.006554
   183    -0.018889
   184     0.005910
   185    -0.002278
   186    -0.008028
   187     0.019785
   188    -0.000260
   189    -0.003475
   190    -0.011499
   191    -0.008649
   192    -0.028187
   193    -0.048867
   194     0.038425
   195    -0.013837
   196    -0.024213
   197    -0.048048
   198     0.036362
   199     0.071061
   200     0.078952
   201     0.036515
   202     0.017283
   203    -0.088173
   204     0.016776
   205    -0.034549
   206     0.037372
   207    -0.033353
   208     0.002077
   209    -0.000817
   210     0.009685
   211     0.001483
   212    -0.014428
   213     0.010961
   214    -0.001749
   215    -0.001028
   216     0.004659
Sym=    53a
Ene=   -0.424244E-06
Spin= Alpha
Occup= 0.000000
     1     0.000596
     2    -0.001150
     3     0.003924
     4    -0.038661
     5     0.124968
     6    -0.970489
     7     0.210517
     8    -0.249170
     9     0.042789
    10    -0.002289
    11    -1.663197
    12     0.405040
    13     0.022441
    14    -1.461546
    15    -0.021397
    16    -0.786442
    17     0.311114
    18     0.041176
    19    -0.252529
    20    -0.155831
    21     0.146713
    22     0.011601
    23     0.184007
    24     0.161797
    25    -0.070502
    26     0.879568
    27    -0.944754
    28    -0.132980
    29    -1.124227
    30    -0.821636
    31     0.401792
    32     0.029899
    33     0.059688
    34    -1.099684
    35    -0.044155
    36    -0.714384
    37    -0.100374
    38     0.480475
    39    -0.101946
    40     0.023726
    41     0.232707
    42    -0.058011
    43    -0.023252
    44     0.105364
    45    -0.025923
    46     0.012418
    47     0.009361
    48     1.096455
    49    -0.100988
    50     0.140464
    51     0.468156
    52    -0.024940
    53     0.010138
    54    -0.469536
    55    -0.002348
    56     0.007983
    57    -0.033677
    58     0.057792
    59    -0.226005
    60     0.168743
    61    -0.195159
    62     0.591350
    63     0.692857
    64     0.218422
    65     0.136711
    66     0.537581
    67    -0.117717
    68    -0.080231
    69     0.103354
    70     0.291195
    71     0.478294
    72    -0.671418
    73    -0.015544
    74     0.030001
    75    -0.100177
    76     0.147968
    77     0.067215
    78     0.581447
    79    -0.512189
    80     2.421822
    81    -0.146274
    82    -0.003642
    83    15.671942
    84    -0.900702
    85     0.262767
    86     6.619889
    87    -0.575877
    88    -0.235079
    89    -1.700910
    90     0.140714
    91    -0.039824
    92    -0.181874
    93     0.114510
    94    -0.092432
    95     0.044971
    96    -0.080195
    97     0.060603
    98     0.858022
    99    -0.835470
   100     0.391998
   101    -0.214872
   102     0.547179
   103    -0.348930
   104    -0.019061
   105     0.058552
   106    -0.087131
   107     0.056149
   108     0.026838
   109    -0.082790
   110    -4.768719
   111     0.257706
   112     0.021388
   113    -2.139208
   114     0.121793
   115    -0.018334
   116    -1.951697
   117     0.129342
   118     0.007474
   119    -0.033029
   120    -9.257726
   121     0.622076
   122     0.068797
   123    -4.129166
   124     0.270305
   125     0.055656
   126    -3.803122
   127     0.136569
   128     0.074329
   129     0.035953
   130    -0.165991
   131     0.084403
   132     0.148093
   133     0.160988
   134     0.593880
   135     0.159706
   136     0.003819
   137    -0.073351
   138     0.067705
   139    -0.230275
   140     0.072116
   141    -0.013001
   142    -0.178193
   143     0.118741
   144    -0.510705
   145     0.001749
   146    -0.003896
   147     0.016221
   148    -0.006553
   149     0.013118
   150     0.577672
   151     0.569485
   152     0.042545
   153     0.005394
   154    -0.011826
   155    -0.184873
   156    -0.043639
   157     0.120062
   158     0.612284
   159     0.005298
   160    -0.895729
   161     0.220822
   162    -0.006066
   163     0.038009
   164     0.023111
   165     0.009937
   166    -0.008709
   167    -0.012469
   168    -0.021686
   169     0.009113
   170    -0.049442
   171     0.023550
   172     0.117214
   173     0.071453
   174     0.136989
   175    -0.043847
   176     0.141889
   177     0.165886
   178     0.411244
   179     0.047365
   180    -0.808612
   181    -0.008887
   182     0.102518
   183     0.006887
   184    -0.021676
   185     0.045031
   186     0.005190
   187    -0.012044
   188    -0.048343
   189     0.013644
   190    -0.009110
   191     0.014132
   192     0.111548
   193     0.029695
   194    -0.033194
   195     0.051914
   196     0.008225
   197    -0.007100
   198     0.383746
   199     0.010777
   200    -0.027240
   201    -0.035893
   202    -0.089289
   203     0.012777
   204    -0.027286
   205     0.022820
   206    -0.000059
   207    -0.023321
   208    -0.017577
   209    -0.030899
   210    -0.040195
   211    -0.006770
   212     0.012485
   213     0.014117
   214    -0.067499
   215    -0.033281
   216     0.046608
Sym=    54a
Ene=   -0.379883E-06
Spin= Alpha
Occup= 0.000000
     1     0.002669
     2    -0.004860
     3     0.011354
     4     0.134848
     5     0.008919
     6     1.080220
     7    -0.245633
     8     2.286849
     9    -0.328237
    10    -0.026368
    11    14.400780
    12    -1.893469
    13    -0.047714
    14     7.986256
    15    -1.437698
    16    -1.714856
    17    -2.851089
    18     0.337312
    19    -0.462949
    20    -0.510572
    21     0.564797
    22    -0.014190
    23     0.827807
    24    -0.310864
    25     0.131598
    26     3.218885
    27    -2.668701
    28     0.527448
    29    -4.405228
    30     1.623915
    31    -0.710439
    32     0.211918
    33     0.502234
    34     1.067572
    35     0.230130
    36    -1.712748
    37     0.484668
    38    -4.403309
    39     0.562396
    40     0.050349
    41    -1.991684
    42     0.273713
    43     0.021876
    44    -1.801644
    45     0.266071
    46     0.013661
    47     0.038138
    48    -8.908278
    49     1.404828
    50     0.337850
    51    -3.952728
    52     0.604085
    53     0.090176
    54    -3.754121
    55     0.557995
    56     0.034290
    57    -0.050985
    58    -0.207423
    59     0.497345
    60     0.483027
    61     0.222859
    62     1.850214
    63    -1.269222
    64     0.825803
    65    -0.265331
    66     1.838847
    67    -0.628731
    68     0.106293
    69    -0.017464
    70    -0.617310
    71     1.872101
    72    -1.997420
    73    -0.000265
    74     0.000732
    75    -0.004339
    76    -0.134908
    77     0.035534
    78    -0.847808
    79    -0.557422
    80    -0.238318
    81     0.043460
    82    -0.004841
    83    -1.519405
    84     0.361097
    85     0.040123
    86    -2.158740
    87     0.283401
    88    -1.567725
    89     0.886122
    90     0.041241
    91     0.013679
    92    -0.168924
    93     0.163710
    94    -0.051079
    95    -0.103941
    96    -0.235908
    97     0.133213
    98     0.647162
    99    -1.417718
   100    -0.062021
   101     0.598278
   102     1.133760
   103    -0.711965
   104    -0.320133
   105    -0.321526
   106    -0.900814
   107    -0.029413
   108    -1.024543
   109     0.229065
   110     0.523371
   111    -0.126083
   112     0.024358
   113     0.240588
   114    -0.065563
   115     0.021368
   116    -0.010154
   117     0.047426
   118    -0.016080
   119    -0.014877
   120     0.931722
   121    -0.098693
   122    -0.039482
   123     0.406151
   124    -0.030345
   125     0.000254
   126    -0.200572
   127    -0.008859
   128     0.025828
   129     0.024688
   130    -0.051354
   131     0.395597
   132     0.186199
   133     0.302485
   134     0.816977
   135    -0.973550
   136    -0.135380
   137    -0.164759
   138    -0.250012
   139    -0.134416
   140     0.141407
   141     0.168921
   142    -0.372895
   143    -0.242439
   144    -0.660527
   145     0.001986
   146    -0.003841
   147     0.006270
   148    -0.282427
   149     0.116967
   150     0.343619
   151     1.402200
   152     0.094205
   153    -0.002677
   154    -0.006422
   155    -0.339230
   156     0.004507
   157     0.195124
   158    -0.627415
   159    -0.116536
   160    -0.018766
   161     1.058262
   162    -0.042763
   163    -0.081649
   164    -0.016386
   165    -0.047472
   166    -0.062406
   167    -0.014552
   168    -0.049066
   169     0.048002
   170    -0.596923
   171    -0.428963
   172    -0.357863
   173     0.071814
   174     0.305725
   175    -0.275246
   176    -0.331629
   177    -0.305329
   178    -0.445080
   179     0.023055
   180    -0.539758
   181     0.152403
   182     0.176298
   183    -0.005259
   184    -0.022824
   185     0.082258
   186    -0.002505
   187    -0.012287
   188     0.052698
   189    -0.007648
   190    -0.000592
   191     0.007664
   192     0.516010
   193     0.004174
   194     0.047619
   195     0.222743
   196     0.003110
   197     0.035702
   198     0.495606
   199    -0.120295
   200    -0.012762
   201    -0.034662
   202     0.009358
   203     0.193431
   204     0.023417
   205     0.105411
   206     0.077685
   207    -0.184074
   208    -0.026786
   209    -0.066726
   210    -0.030277
   211     0.057086
   212     0.048821
   213     0.086625
   214    -0.167234
   215    -0.020361
   216     0.186002
Sym=    55a
Ene=    0.678424E-08
Spin= Alpha
Occup= 0.000000
     1     0.000751
     2    -0.004455
     3     0.079130
     4    -3.058696
     5    -2.411817
     6    14.696659
     7    27.805296
     8     0.004468
     9    -0.001678
    10     0.014759
    11     0.238578
    12     0.028372
    13     1.068414
    14    -0.278990
    15     0.144337
    16   -11.638115
    17     1.174707
    18     0.266227
    19   -12.848031
    20    -0.089038
    21    -0.248843
    22    -0.269248
    23    -0.105422
    24    -0.114431
    25     0.033849
    26    -7.628454
    27    -6.718352
    28    -6.852441
    29     0.603182
    30     0.609541
    31    -0.207825
    32    -5.228219
    33    -5.235053
    34    -3.473350
    35    -0.011901
    36    -1.046783
    37    -0.330160
    38    -0.009402
    39     0.007870
    40    -0.028096
    41    -0.003364
    42     0.006044
    43    -0.011636
    44     0.009831
    45     0.001082
    46    -0.023437
    47     0.003680
    48     0.074895
    49    -0.008803
    50     1.898714
    51     0.038407
    52    -0.004083
    53    -0.142211
    54     0.116048
    55     0.082701
    56    -0.122704
    57    -0.024847
    58     1.675779
    59     0.060159
    60     0.835899
    61     0.095321
    62     1.559383
    63    -0.483904
    64    -0.118947
    65    -0.091300
    66    -0.256642
    67     1.001820
    68     0.038726
    69     1.114299
    70    -0.250681
    71    -0.263849
    72     2.170491
    73     0.003980
    74    -0.009279
    75     0.056402
    76     0.252514
    77     0.638201
    78    -1.694715
    79   -31.449877
    80    -0.006806
    81     0.001578
    82     0.011254
    83    -0.232371
    84    -0.019192
    85     1.483395
    86    -0.267179
    87    -0.285525
    88    -9.519510
    89    -0.764332
    90    -0.146880
    91    -3.810971
    92     0.140022
    93     0.091141
    94     0.058508
    95     0.042791
    96     0.003487
    97    -0.048794
    98     0.320850
    99     0.594684
   100     1.134204
   101    -0.246957
   102    -0.060428
   103     0.266852
   104     1.571985
   105     1.546338
   106    -0.829845
   107    -0.004218
   108    -0.640601
   109    -0.281892
   110     0.016330
   111    -0.008424
   112    -0.041353
   113     0.029985
   114    -0.017179
   115     0.017119
   116    -0.018759
   117     0.010023
   118     0.023397
   119     0.008326
   120     0.003800
   121     0.022493
   122     0.376374
   123    -0.020859
   124     0.023807
   125     0.037636
   126    -0.311499
   127    -0.103441
   128     0.026896
   129    -0.023756
   130    -0.099241
   131    -0.136343
   132    -0.123259
   133    -0.114022
   134    -0.116623
   135    -0.113439
   136     0.050844
   137     0.027384
   138     0.111632
   139    -0.069539
   140    -0.054387
   141    -0.018512
   142     0.041322
   143     0.095314
   144     0.058731
   145     0.032494
   146    -0.068574
   147     0.322429
   148    -3.536665
   149     1.325854
   150     7.328748
   151    16.437594
   152    -0.036308
   153    -0.003882
   154    -0.047221
   155     0.108818
   156    -0.008008
   157     1.995515
   158     1.073177
   159     0.250016
   160    -5.520590
   161    -0.693184
   162    -0.188705
   163     0.984690
   164    -0.041152
   165    -0.050887
   166    -0.244392
   167    -0.009974
   168    -0.062580
   169    -0.035897
   170    -6.592216
   171    -6.539552
   172    -5.724663
   173     0.047933
   174     0.353554
   175     0.192650
   176    -2.861620
   177    -2.883048
   178    -2.088777
   179     0.000217
   180    -0.324102
   181    -0.055698
   182    -0.061341
   183    -0.002641
   184    -0.051544
   185    -0.023458
   186    -0.004907
   187    -0.068815
   188    -0.043378
   189    -0.011030
   190    -0.078421
   191     0.005555
   192    -0.285508
   193    -0.049762
   194     0.517422
   195    -0.136000
   196    -0.019615
   197     0.269437
   198     0.052513
   199    -0.003609
   200     0.292015
   201    -0.010928
   202     1.100544
   203    -0.083285
   204     0.891772
   205    -0.088426
   206     2.021533
   207    -0.227851
   208     0.005606
   209    -0.045348
   210    -0.010649
   211     0.897605
   212    -0.026008
   213     1.173524
   214    -0.127651
   215    -0.038030
   216     2.056770
Sym=    56a
Ene=   -0.119773E-04
Spin= Alpha
Occup= 0.000003
     1    -0.025511
     2     0.012255
     3     0.429311
     4    -0.564540
     5     0.229687
     6     0.535058
     7     0.660267
     8     0.063928
     9     0.084534
    10     0.027147
    11     0.839611
    12     1.094477
    13    -2.013746
    14    -0.214672
    15    -0.819348
    16   -10.764231
    17     0.155379
    18     0.373683
    19    -0.365542
    20     0.263213
    21     0.331072
    22     0.590081
    23     0.190621
    24     0.071975
    25     0.113746
    26     0.072846
    27     0.302352
    28    -1.109737
    29     0.389648
    30    -0.184118
    31    -0.487942
    32     0.337258
    33     0.787504
    34    -3.250363
    35    -0.151366
    36    -0.303973
    37    -0.137347
    38    -0.117589
    39    -0.238701
    40    -0.209047
    41    -0.424103
    42    -0.216597
    43    -0.006703
    44     0.008451
    45     0.009532
    46    -0.005210
    47    -0.021096
    48    -0.179298
    49    -0.050955
    50    -2.644207
    51     0.158867
    52     0.142184
    53     0.364379
    54     0.276414
    55     0.263871
    56     0.580087
    57     0.422254
    58     2.038776
    59     0.115790
    60    -0.037039
    61     0.032444
    62    -0.325254
    63    -0.016377
    64    -0.419435
    65    -0.116869
    66     0.081395
    67     0.129795
    68    -0.172120
    69    -0.142464
    70    -0.005737
    71    -0.497765
    72     0.034075
    73     0.032079
    74    -0.028377
    75    -0.299572
    76    -0.754918
    77    -0.543253
    78     0.908033
    79    -0.631594
    80    -0.075054
    81    -0.186054
    82     0.028521
    83    -0.945447
    84    -1.365043
    85    -1.423916
    86     0.247398
    87    -0.072358
    88    -5.620807
    89    -0.171613
    90    -0.177910
    91    -0.071845
    92    -0.494312
    93    -0.222040
    94    -0.052433
    95    -0.060558
    96    -0.002057
    97    -0.135780
    98    -1.548365
    99    -2.558630
   100    -6.062758
   101    -0.650083
   102     0.709154
   103     1.857299
   104    -1.516391
   105    -1.432212
   106    -4.115068
   107     0.252545
   108    -0.275897
   109    -0.199651
   110     0.133412
   111     0.170408
   112    -0.593366
   113     0.331389
   114     0.223463
   115    -0.075112
   116     0.104876
   117     0.294025
   118     0.124374
   119    -0.098105
   120     0.183864
   121     0.879792
   122    -0.482664
   123    -0.161069
   124     0.111859
   125     0.533509
   126    -0.261058
   127    -0.337721
   128     0.391153
   129     0.437516
   130     1.700165
   131    -1.038011
   132     1.437529
   133    -1.009783
   134     0.360453
   135    -0.458769
   136     0.446376
   137    -0.199174
   138    -0.049937
   139     0.813843
   140    -0.519526
   141     0.304428
   142    -0.514385
   143     0.603799
   144     0.086378
   145     0.001398
   146    -0.001657
   147     0.005688
   148     0.693296
   149    -0.831947
   150     4.130267
   151     3.244827
   152     0.013165
   153     0.026627
   154    -0.002560
   155    -0.154806
   156    -0.228400
   157    -0.819849
   158     0.153045
   159     0.094544
   160    -5.690243
   161    -0.034315
   162     0.004867
   163    -0.078749
   164     0.066275
   165     0.070124
   166     0.188615
   167     0.014151
   168     0.034380
   169     0.032682
   170     1.314097
   171     1.292100
   172     0.603765
   173    -0.054900
   174    -0.170877
   175    -0.129154
   176     0.960569
   177     0.758901
   178     2.893996
   179    -0.037981
   180    -0.035399
   181    -0.100699
   182     0.028816
   183     0.055395
   184     0.136100
   185     0.024227
   186     0.038016
   187     0.011890
   188    -0.009088
   189    -0.014228
   190    -0.023534
   191    -0.016170
   192     0.036142
   193     0.077504
   194    -0.081575
   195    -0.003330
   196     0.020280
   197    -0.159340
   198    -0.029316
   199     0.046339
   200    -0.033928
   201     0.035026
   202    -0.062709
   203     0.116421
   204    -0.039328
   205     0.083813
   206    -0.436210
   207     0.116173
   208     0.019794
   209     0.043770
   210     0.013023
   211    -0.026208
   212     0.025875
   213    -0.263472
   214     0.106709
   215     0.020663
   216    -0.495868
Sym=    57a
Ene=   -0.604449E-04
Spin= Alpha
Occup= 0.000019
     1    -0.002412
     2     0.015360
     3     0.035253
     4    -0.252008
     5     0.340875
     6    -0.221832
     7    -0.438527
     8    -0.012651
     9    -0.043851
    10     0.005959
    11    -0.283096
    12    -0.105949
    13     0.476838
    14     0.072346
    15     0.138185
    16     0.287144
    17    -0.014497
    18    -0.204189
    19     0.178089
    20     0.161114
    21    -0.133426
    22    -0.016706
    23    -0.211382
    24    -0.068388
    25     0.059789
    26    -0.307734
    27    -0.129048
    28     0.018138
    29     0.021261
    30    -0.240050
    31     0.153473
    32    -0.076870
    33     0.054331
    34    -0.094963
    35     0.382133
    36     0.012840
    37    -0.652183
    38     0.241005
    39     0.137955
    40    -0.098602
    41    -0.172700
    42    -0.323736
    43    -0.176966
    44     0.135544
    45    -0.108480
    46     0.118287
    47     0.336719
    48    -0.094397
    49    -0.009905
    50     0.645620
    51     0.132107
    52     0.443121
    53     0.155020
    54    -0.287829
    55    -0.086271
    56    -0.093645
    57    -0.115335
    58    -0.092693
    59     0.052119
    60    -0.133546
    61    -0.191586
    62     0.111557
    63     0.073203
    64    -0.342045
    65     0.243945
    66     0.007285
    67     0.004208
    68     0.260825
    69    -0.056882
    70     0.001629
    71     0.054800
    72     0.163924
    73    -0.000697
    74     0.005762
    75     0.022862
    76    -0.078762
    77     0.228761
    78     0.419413
    79     0.656894
    80    -0.008306
    81    -0.036090
    82     0.000565
    83    -0.059683
    84    -0.037605
    85     0.328328
    86     0.149932
    87    -0.591120
    88     0.612408
    89    -0.064040
    90    -0.016011
    91     0.139903
    92     0.092115
    93    -0.066753
    94     0.022231
    95    -0.131367
    96     0.036451
    97    -0.095122
    98    -0.125178
    99     0.109568
   100     0.147740
   101     0.336512
   102     0.184784
   103     0.366855
   104    -0.047200
   105    -0.008411
   106     0.259619
   107     0.175384
   108     0.052013
   109    -0.170194
   110     0.119747
   111     0.095493
   112     0.029105
   113    -0.085042
   114    -0.141311
   115     0.099870
   116     0.067591
   117    -0.032416
   118    -0.049234
   119    -0.192698
   120    -0.000361
   121     0.069164
   122    -0.087520
   123     0.062343
   124     0.249699
   125    -0.061654
   126    -0.026133
   127     0.140293
   128     0.006330
   129     0.227944
   130    -0.016450
   131    -0.166197
   132    -0.053460
   133    -0.066651
   134    -0.063847
   135    -0.071335
   136    -0.256612
   137    -0.108698
   138    -0.155606
   139     0.006597
   140    -0.118934
   141    -0.016376
   142    -0.004473
   143    -0.050756
   144     0.119910
   145    -0.000088
   146     0.000105
   147    -0.002369
   148     0.086451
   149     0.021976
   150    -0.662190
   151    -0.449037
   152     0.003841
   153    -0.000222
   154     0.005916
   155     0.010057
   156    -0.015243
   157     0.202937
   158     0.083863
   159     0.384964
   160     0.096442
   161    -0.023276
   162     0.027949
   163     0.088034
   164     0.012503
   165    -0.002791
   166     0.010376
   167    -0.020896
   168     0.009067
   169    -0.010337
   170     0.149167
   171     0.211064
   172     0.109155
   173     0.082102
   174    -0.015697
   175     0.033168
   176     0.166904
   177     0.191221
   178    -0.046070
   179    -0.072530
   180    -0.134159
   181    -0.206289
   182    -0.000045
   183    -0.011035
   184     0.012656
   185     0.010363
   186     0.018055
   187     0.003180
   188     0.001496
   189    -0.000648
   190     0.011082
   191    -0.003604
   192     0.030760
   193     0.046105
   194     0.091812
   195    -0.031056
   196    -0.074597
   197     0.057694
   198     0.099924
   199    -0.003356
   200    -0.009818
   201    -0.032485
   202    -0.037402
   203     0.000876
   204    -0.014941
   205    -0.034336
   206    -0.061713
   207    -0.028277
   208     0.043895
   209     0.014720
   210    -0.026749
   211    -0.048236
   212     0.026268
   213    -0.036115
   214    -0.019494
   215    -0.030323
   216    -0.015759
Sym=    58a
Ene=   -0.146959E-04
Spin= Alpha
Occup= 0.000003
     1    -0.006942
     2    -0.006390
     3     0.166428
     4    -1.049535
     5     0.309058
     6     3.640172
     7    -0.632812
     8     0.091634
     9    -0.121712
    10     0.294112
    11     0.465840
    12    -0.683245
    13     4.029779
    14     0.149143
    15    -0.278154
    16     6.822807
    17    -0.078509
    18     0.117961
    19     0.126489
    20    -0.105663
    21    -0.087510
    22    -0.265433
    23     0.028834
    24    -0.126687
    25     0.169419
    26    -1.038733
    27    -1.119331
    28    -0.741976
    29    -0.312628
    30     1.199552
    31    -1.450639
    32    -0.431561
    33    -0.257757
    34     5.068653
    35    -0.160091
    36    -0.124659
    37     0.127747
    38    -0.391758
    39     0.372661
    40    -0.290344
    41     0.139873
    42    -0.022832
    43    -0.398988
    44    -0.110767
    45     0.157014
    46    -0.421384
    47     0.057570
    48    -0.238561
    49     0.389654
    50     1.382951
    51    -0.245212
    52     0.249620
    53    -0.623838
    54    -0.638651
    55     0.751903
    56    -0.692289
    57     0.103723
    58    -1.733198
    59     0.959808
    60     0.257772
    61     0.320989
    62     0.340581
    63    -0.871072
    64    -0.111478
    65    -0.128778
    66     0.415333
    67     0.164907
    68     0.219094
    69    -0.557077
    70    -0.219757
    71     0.102994
    72     0.382324
    73    -0.052846
    74     0.038473
    75     0.608925
    76    -0.833982
    77     1.605767
    78    -1.554233
    79    -0.336928
    80     0.151763
    81    -0.184095
    82    -0.195792
    83     1.437321
    84    -1.757998
    85    -0.162980
    86    -0.300996
    87     0.377206
    88     3.664481
    89     0.253724
    90    -0.279657
    91    -0.364738
    92     0.327458
    93     0.406507
    94     0.063940
    95     0.004117
    96     0.055439
    97    -0.099658
    98     0.143941
    99     0.338545
   100     4.250792
   101    -1.080278
   102    -1.466995
   103     2.078267
   104     0.918684
   105     0.900008
   106     2.768091
   107    -0.057121
   108     0.224396
   109    -0.170668
   110    -0.379267
   111     0.514039
   112     0.926695
   113    -0.062496
   114     0.084490
   115     0.202086
   116    -0.389356
   117     0.406515
   118     0.280465
   119    -0.007959
   120    -0.390259
   121     0.400453
   122     0.753783
   123    -0.277226
   124     0.331196
   125    -0.368721
   126     0.177023
   127    -0.100615
   128    -0.529969
   129     0.138379
   130    -1.451996
   131    -1.011995
   132    -0.711781
   133    -1.112379
   134    -0.112077
   135     0.724785
   136     0.405798
   137     0.371229
   138     0.605356
   139    -0.642200
   140    -0.516680
   141    -0.142390
   142     0.758840
   143     0.519040
   144     0.132898
   145    -0.001113
   146     0.001076
   147     0.001416
   148    -0.862778
   149     1.057374
   150    -3.845307
   151    -1.661411
   152    -0.048199
   153     0.054432
   154     0.033234
   155     0.377139
   156    -0.420174
   157     0.512883
   158     0.275990
   159    -0.335859
   160     4.825996
   161    -0.095378
   162     0.122893
   163    -0.069167
   164    -0.070636
   165    -0.091474
   166    -0.183403
   167     0.021945
   168    -0.064028
   169     0.080332
   170    -1.618214
   171    -1.542167
   172    -0.901760
   173    -0.081618
   174     0.303326
   175    -0.385249
   176    -1.004814
   177    -1.058889
   178    -2.746292
   179     0.031831
   180    -0.168658
   181     0.199268
   182    -0.101004
   183     0.132516
   184    -0.099233
   185    -0.056109
   186     0.043851
   187     0.039900
   188     0.029583
   189    -0.023162
   190     0.036548
   191    -0.009856
   192    -0.198063
   193     0.220214
   194     0.230343
   195    -0.064602
   196     0.110617
   197     0.204248
   198     0.114196
   199    -0.122450
   200     0.213226
   201    -0.000660
   202     0.241090
   203     0.374065
   204     0.075412
   205     0.155128
   206     0.524573
   207    -0.351867
   208    -0.004365
   209    -0.055431
   210     0.042115
   211     0.079203
   212     0.085677
   213     0.339806
   214    -0.122823
   215     0.031480
   216     0.559002
Sym=    59a
Ene=   -0.193320E-03
Spin= Alpha
Occup= 0.000057
     1     0.000030
     2     0.000327
     3    -0.000828
     4    -0.000993
     5    -0.000356
     6     0.133973
     7    -0.003281
     8    -0.002877
     9     0.017740
    10    -0.002003
    11     0.036824
    12     0.086540
    13    -0.010044
    14     0.055646
    15     0.164278
    16     0.008341
    17    -0.018810
    18    -0.081897
    19    -0.031553
    20    -0.012718
    21     0.011876
    22    -0.003447
    23     0.007231
    24    -0.003257
    25     0.008754
    26    -0.385414
    27     0.388962
    28     0.007718
    29     0.301440
    30    -0.228423
    31     0.237930
    32     0.080386
    33    -0.070287
    34     0.094617
    35    -0.061684
    36     0.012835
    37    -0.023237
    38     0.005358
    39     0.008105
    40     0.004175
    41     0.003316
    42     0.002452
    43    -0.295409
    44    -0.091599
    45     0.023677
    46     0.298578
    47     0.209588
    48     0.000240
    49    -0.040397
    50     0.008340
    51     0.006627
    52    -0.025904
    53    -0.305661
    54     0.026195
    55     0.006307
    56     0.316043
    57     0.217428
    58    -0.005393
    59    -0.089670
    60     0.388984
    61    -0.043551
    62    -0.224476
    63    -0.036346
    64     0.269467
    65     0.043647
    66    -0.096594
    67    -0.397772
    68    -0.023802
    69     0.001139
    70     0.090685
    71    -0.123865
    72     0.222387
    73     0.000046
    74     0.000024
    75     0.000766
    76    -0.007371
    77     0.000808
    78    -0.063006
    79    -0.001413
    80    -0.004653
    81    -0.002686
    82     0.000422
    83    -0.047976
    84    -0.020711
    85    -0.003407
    86    -0.100196
    87    -0.134973
    88    -0.059006
    89     0.031284
    90     0.025034
    91     0.017091
    92     0.020533
    93    -0.021047
    94     0.001282
    95    -0.017411
    96     0.008173
    97    -0.005568
    98    -0.133912
    99     0.111823
   100    -0.020237
   101     0.106919
   102    -0.052657
   103     0.036415
   104    -0.059729
   105     0.029824
   106    -0.029484
   107     0.020642
   108    -0.058022
   109    -0.039631
   110     0.012175
   111     0.009158
   112    -0.000833
   113     0.005448
   114     0.004615
   115     0.026478
   116    -0.006893
   117     0.000979
   118    -0.026804
   119    -0.017815
   120     0.048861
   121     0.051125
   122    -0.001463
   123     0.021255
   124     0.019526
   125     0.001974
   126    -0.035926
   127     0.022185
   128    -0.006671
   129    -0.004798
   130     0.008218
   131    -0.034974
   132    -0.092989
   133     0.002079
   134    -0.054118
   135    -0.020820
   136    -0.069843
   137     0.008963
   138    -0.047460
   139     0.098574
   140     0.000064
   141     0.005937
   142     0.021772
   143    -0.016961
   144     0.054980
   145     0.000053
   146     0.000291
   147    -0.000086
   148    -0.016762
   149     0.007872
   150    -0.024524
   151     0.044364
   152    -0.003261
   153     0.011628
   154     0.000495
   155    -0.008395
   156    -0.003208
   157    -0.000699
   158    -0.025641
   159    -0.033343
   160     0.075258
   161    -0.071550
   162     0.014241
   163     0.002513
   164    -0.010677
   165     0.007432
   166    -0.002888
   167     0.005369
   168    -0.004873
   169     0.003157
   170     0.034486
   171    -0.094010
   172    -0.016729
   173    -0.046626
   174    -0.000856
   175     0.030828
   176     0.132279
   177    -0.190461
   178    -0.062616
   179    -0.101742
   180    -0.110813
   181     0.089460
   182    -0.004471
   183     0.020528
   184    -0.002431
   185    -0.000320
   186     0.009306
   187     0.025325
   188     0.007369
   189    -0.039805
   190    -0.024430
   191    -0.009707
   192     0.045142
   193     0.008643
   194    -0.002563
   195     0.016708
   196     0.002527
   197    -0.044956
   198     0.070805
   199    -0.080686
   200     0.046035
   201     0.034721
   202     0.004582
   203     0.050017
   204     0.154057
   205    -0.027939
   206    -0.021016
   207     0.010411
   208     0.096979
   209    -0.006755
   210    -0.010106
   211    -0.150281
   212    -0.011181
   213     0.001879
   214    -0.012123
   215    -0.018538
   216     0.042120
Sym=    60a
Ene=   -0.217361E-04
Spin= Alpha
Occup= 0.000005
     1    -0.001475
     2     0.005888
     3    -0.031209
     4    -0.083921
     5    -0.137223
     6    -0.476076
     7     0.825844
     8    -0.041427
     9     0.000308
    10    -0.030736
    11    -0.637121
    12     0.141254
    13    -1.093800
    14    -0.205835
    15    -0.035299
    16    -6.827571
    17    -0.157499
    18     0.078752
    19    -0.073320
    20    -0.010529
    21    -0.006994
    22    -0.218133
    23     0.052658
    24    -0.065333
    25    -0.027929
    26    -0.381479
    27    -0.346246
    28     0.545961
    29    -0.201744
    30     0.279051
    31     0.198340
    32     0.120628
    33     0.039877
    34     0.663797
    35    -0.068012
    36    -1.453530
    37     0.017435
    38     0.061365
    39     0.010809
    40     0.066335
    41     0.041139
    42     0.004303
    43    -0.018944
    44    -0.032667
    45     0.007338
    46     0.061028
    47     0.021094
    48     0.061689
    49     0.019194
    50    -0.488470
    51    -0.011027
    52     0.040554
    53     0.015026
    54    -0.484211
    55     0.142292
    56    -0.087524
    57    -0.225667
    58    -1.128386
    59    -0.059281
    60    -0.099412
    61    -0.024759
    62     0.176006
    63    -0.419409
    64    -0.035870
    65    -0.166933
    66     0.081499
    67    -0.120007
    68    -0.005021
    69     0.044028
    70    -0.311669
    71     0.078822
    72     0.131753
    73    -0.000893
    74     0.001446
    75    -0.000080
    76    -0.538117
    77     0.290124
    78    -2.306495
    79    -0.424983
    80     0.000454
    81    -0.006496
    82    -0.004843
    83     0.041817
    84    -0.059360
    85    -0.200571
    86    -0.647278
    87    -0.080745
    88    -3.267155
    89     0.144791
    90     0.019378
    91     0.058626
    92    -0.083978
    93    -0.009458
    94    -0.149707
    95     0.048293
    96    -0.011106
    97     0.026235
    98    -1.038362
    99    -1.345397
   100    -0.254194
   101    -0.218500
   102     0.073472
   103    -0.126335
   104    -0.809318
   105    -0.760251
   106    -1.909721
   107    -0.006839
   108    -0.344262
   109    -0.029033
   110     0.007121
   111     0.017065
   112     0.129736
   113    -0.001074
   114     0.001229
   115    -0.019683
   116    -0.001839
   117    -0.003644
   118    -0.025904
   119     0.008818
   120     0.018041
   121     0.022380
   122     0.044643
   123     0.013664
   124     0.015043
   125    -0.067625
   126    -0.120944
   127    -0.011289
   128    -0.096452
   129    -0.048551
   130    -0.028896
   131     0.036232
   132     0.051097
   133     0.032462
   134     0.434067
   135    -0.087928
   136     0.018492
   137     0.003638
   138     0.090423
   139     0.026462
   140     0.013461
   141     0.234365
   142     0.017829
   143     0.076683
   144     0.267004
   145    -0.000585
   146    -0.006548
   147     0.041050
   148     0.670300
   149     0.188674
   150    -1.754344
   151     1.407220
   152     0.142988
   153    -0.006157
   154    -0.048432
   155    -1.371138
   156     0.073585
   157     1.174777
   158     1.849264
   159    -0.142379
   160    -5.818948
   161    -0.257031
   162     0.009187
   163     0.696454
   164     0.058400
   165    -0.040981
   166     0.142175
   167     0.019477
   168    -0.243218
   169    -0.017951
   170     2.522280
   171     2.288437
   172     0.092063
   173    -0.007096
   174    -0.335999
   175     1.350313
   176     0.834729
   177     0.601765
   178     3.283414
   179     0.165068
   180    -1.783644
   181     0.252255
   182     0.451437
   183    -0.302266
   184    -0.370847
   185     0.374867
   186     0.210134
   187    -0.047647
   188    -0.166980
   189     0.152730
   190    -0.249105
   191     0.391453
   192     0.008372
   193     0.314057
   194    -0.312174
   195    -0.168050
   196    -0.227610
   197     0.373935
   198     1.140984
   199    -0.308946
   200     0.509153
   201    -0.484781
   202     0.725923
   203    -0.649872
   204     0.026746
   205    -0.820905
   206    -0.804495
   207     0.098533
   208    -0.011808
   209     0.307587
   210    -0.113913
   211     0.023490
   212    -0.219766
   213    -0.577410
   214     0.676015
   215     0.065392
   216    -1.257223
Sym=    61a
Ene=   -0.149370E-03
Spin= Alpha
Occup= 0.000038
     1    -0.002109
     2     0.007125
     3    -0.040264
     4    -0.094944
     5     0.314818
     6    -0.854828
     7    -0.399394
     8     0.006158
     9    -0.033142
    10    -0.016868
    11     0.028408
    12    -0.339053
    13    -0.455898
    14     0.039725
    15     0.059234
    16     0.741710
    17    -0.056989
    18     0.087918
    19     0.138611
    20    -0.017736
    21    -0.078998
    22    -0.156773
    23     0.036699
    24    -0.000968
    25    -0.015344
    26    -0.318858
    27    -0.067048
    28     0.511513
    29    -0.203585
    30     0.038862
    31    -0.024062
    32    -0.055382
    33    -0.116755
    34    -1.110566
    35     0.023638
    36    -0.034881
    37    -0.018633
    38     0.001934
    39     0.042483
    40     0.116078
    41    -0.006464
    42     0.029243
    43     0.045114
    44     0.007328
    45    -0.009398
    46    -0.014763
    47    -0.015446
    48    -0.046151
    49     0.092381
    50    -0.995555
    51     0.006758
    52     0.020946
    53     0.099537
    54    -0.080185
    55    -0.337551
    56    -0.016189
    57    -0.121138
    58    -0.356698
    59    -0.110428
    60    -0.210386
    61    -0.095916
    62    -0.019841
    63    -0.017981
    64    -0.011497
    65    -0.007049
    66     0.063568
    67    -0.024167
    68    -0.047021
    69     0.036634
    70    -0.012189
    71     0.064310
    72     0.156556
    73     0.000014
    74    -0.001416
    75     0.004358
    76    -0.106842
    77    -0.208503
    78     1.098127
    79     0.700450
    80    -0.000609
    81    -0.009730
    82    -0.017742
    83     0.013116
    84     0.067748
    85    -0.667992
    86    -0.025123
    87    -0.118865
    88     1.057159
    89     0.068443
    90     0.008822
    91     0.120851
    92    -0.027424
    93     0.002629
    94     0.000349
    95     0.019507
    96    -0.008050
    97    -0.034508
    98    -0.132064
    99    -0.290939
   100    -0.463861
   101    -0.108225
   102     0.046669
   103     0.222150
   104     0.051730
   105     0.096994
   106     0.484575
   107    -0.014469
   108     0.015450
   109     0.006292
   110     0.004808
   111     0.019084
   112     0.017441
   113    -0.000926
   114     0.007906
   115     0.010145
   116     0.000394
   117     0.003184
   118     0.009706
   119     0.004075
   120    -0.007523
   121     0.057301
   122     0.158700
   123    -0.000508
   124     0.030075
   125     0.024311
   126     0.015599
   127     0.071212
   128     0.034343
   129    -0.037596
   130     0.089050
   131    -0.074088
   132     0.044577
   133    -0.050960
   134     0.090151
   135    -0.013625
   136     0.012426
   137    -0.011407
   138     0.042559
   139    -0.000014
   140    -0.018038
   141     0.029451
   142    -0.012173
   143     0.035825
   144     0.015979
   145    -0.005972
   146    -0.029752
   147    -0.027089
   148     0.444879
   149    -0.941219
   150     1.907773
   151    -0.938927
   152     0.006016
   153    -0.033659
   154    -0.013780
   155    -0.047717
   156     0.463436
   157    -0.319795
   158     0.103047
   159    -0.146900
   160    -0.140591
   161    -0.054200
   162    -0.180151
   163     0.183139
   164     0.069355
   165    -0.126911
   166    -0.049487
   167     0.027629
   168     0.045107
   169     0.019801
   170     0.181968
   171    -0.322808
   172     1.130368
   173     0.043110
   174    -0.382839
   175    -0.431194
   176     0.109676
   177     0.295228
   178    -0.021919
   179     0.098584
   180     0.027077
   181    -0.212783
   182     0.045626
   183    -0.361611
   184     0.113848
   185     0.037168
   186    -0.100990
   187     0.019582
   188    -0.078433
   189     0.158761
   190    -0.262740
   191    -0.183125
   192     0.098504
   193     0.129670
   194    -0.014275
   195    -0.025888
   196    -0.169229
   197    -0.074673
   198    -0.071943
   199     0.439436
   200    -0.359287
   201    -0.314768
   202    -0.470040
   203     0.497295
   204     0.159261
   205    -0.347620
   206     0.255675
   207     0.139517
   208    -0.188536
   209    -0.285174
   210    -0.004322
   211    -0.221845
   212     0.197972
   213    -0.074594
   214     0.258379
   215     0.059767
   216    -0.071167
Sym=    62a
Ene=   -0.114624E-03
Spin= Alpha
Occup= 0.000025
     1     0.000172
     2    -0.004366
     3    -0.010547
     4     0.060188
     5    -0.206256
     6     0.623150
     7     0.090239
     8    -0.006014
     9    -0.003040
    10    -0.027669
    11     0.063661
    12     0.051285
    13     0.495288
    14     0.050252
    15     0.054879
    16     0.355296
    17     0.163973
    18     0.151126
    19    -0.003281
    20     0.003966
    21    -0.004244
    22    -0.032512
    23     0.026625
    24     0.006968
    25     0.009360
    26    -0.026910
    27     0.007670
    28     0.077290
    29    -0.135170
    30    -0.026235
    31    -0.030064
    32    -0.031559
    33    -0.032113
    34     0.673705
    35     0.076081
    36     0.150345
    37     0.181649
    38     0.006893
    39     0.002888
    40    -0.011854
    41    -0.000386
    42     0.000622
    43     0.010245
    44     0.001525
    45     0.002908
    46     0.011161
    47    -0.006814
    48     0.027013
    49     0.002891
    50     1.033473
    51     0.009950
    52     0.011030
    53    -0.001268
    54     0.076187
    55     0.050044
    56     0.029722
    57    -0.000373
    58    -0.194728
    59     0.012935
    60    -0.003081
    61     0.024075
    62    -0.028255
    63     0.012196
    64     0.020707
    65     0.016611
    66     0.046839
    67    -0.004736
    68     0.010097
    69    -0.003281
    70     0.022763
    71     0.047541
    72     0.000075
    73    -0.000224
    74     0.001457
    75    -0.005609
    76     0.088305
    77     0.192311
    78    -0.152241
    79    -0.153731
    80    -0.003174
    81    -0.002480
    82     0.023780
    83    -0.029485
    84    -0.016305
    85     0.753634
    86     0.046349
    87     0.065958
    88    -0.082570
    89    -0.136671
    90    -0.115127
    91    -0.070580
    92     0.013145
    93     0.011629
    94    -0.019132
    95    -0.010000
    96    -0.011399
    97    -0.013987
    98     0.139239
    99     0.140209
   100     0.585970
   101     0.044937
   102     0.058535
   103     0.074126
   104    -0.016478
   105    -0.004292
   106     0.018302
   107    -0.033116
   108    -0.042908
   109    -0.009842
   110    -0.000240
   111     0.004438
   112     0.001510
   113     0.005423
   114     0.000999
   115    -0.018564
   116    -0.001213
   117    -0.003100
   118    -0.017880
   119     0.005552
   120     0.031175
   121     0.015102
   122    -0.053205
   123    -0.000062
   124     0.011540
   125    -0.056410
   126    -0.011839
   127     0.001400
   128    -0.051786
   129    -0.016929
   130    -0.103947
   131    -0.034829
   132    -0.029782
   133    -0.027362
   134    -0.030021
   135    -0.032045
   136    -0.007259
   137    -0.009707
   138    -0.013794
   139    -0.036105
   140    -0.011804
   141    -0.017509
   142    -0.020762
   143    -0.014305
   144    -0.026695
   145     0.002823
   146     0.037898
   147     0.065995
   148    -0.567879
   149     0.973127
   150    -1.701110
   151     0.376901
   152    -0.070951
   153    -0.057054
   154     0.040730
   155     0.966794
   156     0.702640
   157     0.135876
   158    -0.693556
   159    -0.483665
   160     0.534708
   161     0.055164
   162    -0.008418
   163    -0.092979
   164     0.111350
   165     0.059117
   166     0.026695
   167     0.054781
   168    -0.081293
   169    -0.034142
   170     0.155075
   171    -0.521643
   172    -0.889649
   173     1.078060
   174     0.084096
   175    -0.167937
   176    -0.227075
   177    -0.055753
   178    -0.184536
   179    -0.257737
   180     0.122730
   181     0.161202
   182    -0.300441
   183     0.067884
   184     0.014557
   185    -0.338620
   186    -0.574165
   187    -0.004831
   188     0.013986
   189    -0.007783
   190     0.099819
   191     0.042994
   192     0.111111
   193     0.002592
   194     0.307042
   195    -0.039334
   196     0.000496
   197     0.059954
   198    -0.236713
   199    -0.193099
   200     0.105421
   201    -0.055091
   202     0.393561
   203     0.109490
   204     0.180168
   205     0.061913
   206    -0.287341
   207     0.002733
   208    -0.238574
   209    -0.102515
   210    -0.718551
   211     0.020636
   212    -0.000122
   213     0.769823
   214     0.062809
   215    -0.091571
   216    -0.668098
Sym=    63a
Ene=   -0.657978E-02
Spin= Alpha
Occup= 0.005916
     1     0.006622
     2    -0.000367
     3     0.014370
     4    -0.058344
     5    -0.063931
     6     1.386819
     7     0.030339
     8     0.000020
     9     0.000029
    10    -0.017566
    11     0.000033
    12     0.000034
    13     0.219509
    14    -0.000094
    15    -0.000213
    16     0.295091
    17    -0.000069
    18    -0.000427
    19     0.067850
    20    -0.001010
    21    -0.001212
    22    -0.001330
    23    -0.000049
    24    -0.000014
    25    -0.000044
    26    -0.142341
    27    -0.142053
    28    -0.211344
    29    -0.000206
    30    -0.000117
    31    -0.000201
    32    -0.068485
    33    -0.068867
    34     1.027476
    35    -0.000284
    36     0.000013
    37    -0.000260
    38     0.000500
    39    -0.000316
    40     0.006752
    41    -0.000673
    42     0.000417
    43    -0.005457
    44     0.000009
    45     0.000028
    46    -0.005398
    47     0.000024
    48     0.001092
    49    -0.000761
    50     0.239642
    51    -0.001539
    52     0.000837
    53    -0.039500
    54     0.000034
    55    -0.000011
    56    -0.039493
    57     0.000049
    58    -0.018093
    59     0.000004
    60     0.026399
    61     0.000197
    62     0.038986
    63     0.000007
    64    -0.000006
    65     0.000390
    66    -0.000013
    67     0.026467
    68    -0.000242
    69     0.022937
    70    -0.000279
    71    -0.000011
    72     0.039361
    73     0.087240
    74     0.006415
    75     0.143537
    76     0.091110
    77    -0.678957
    78    -0.818366
    79     0.923395
    80    -0.000067
    81    -0.000004
    82    -0.301078
    83     0.000050
    84    -0.000034
    85     0.662479
    86    -0.000005
    87     0.000355
    88    -0.462980
    89    -0.000091
    90     0.000153
    91    -0.193995
    92     0.014920
    93     0.014998
    94    -0.045339
    95     0.000000
    96    -0.000037
    97    -0.000118
    98     0.047818
    99     0.047676
   100    -0.246879
   101     0.000168
   102    -0.000093
   103    -0.000661
   104    -0.013181
   105    -0.012379
   106    -0.084682
   107     0.000068
   108     0.000036
   109    -0.000477
   110    -0.000147
   111     0.000123
   112     0.030836
   113     0.000207
   114    -0.000116
   115    -0.021532
   116     0.000012
   117     0.000044
   118    -0.021349
   119     0.000027
   120    -0.001773
   121     0.001080
   122    -0.298332
   123     0.002373
   124    -0.001469
   125    -0.186743
   126     0.000086
   127     0.000192
   128    -0.187041
   129     0.000006
   130     0.142058
   131     0.000015
   132     0.034006
   133     0.000193
   134     0.004082
   135    -0.000016
   136    -0.000002
   137     0.000278
   138    -0.000026
   139     0.033994
   140    -0.000189
   141     0.002365
   142    -0.000227
   143    -0.000036
   144     0.003984
   145    -0.000480
   146    -0.000339
   147     0.001774
   148    -0.087173
   149     0.066314
   150    -0.584044
   151    -0.203072
   152     0.000025
   153     0.000090
   154     0.005870
   155     0.000032
   156     0.000084
   157     0.042115
   158     0.000030
   159     0.000302
   160     0.706658
   161     0.000079
   162     0.000264
   163    -0.025357
   164    -0.005689
   165    -0.005680
   166    -0.007169
   167     0.000003
   168     0.000001
   169     0.000004
   170    -0.159328
   171    -0.159409
   172    -0.161128
   173     0.000004
   174    -0.000002
   175    -0.000005
   176    -0.143969
   177    -0.143839
   178    -0.436968
   179     0.000024
   180     0.000049
   181    -0.000003
   182    -0.000031
   183    -0.000036
   184     0.008506
   185     0.000037
   186     0.000050
   187     0.006185
   188    -0.000001
   189    -0.000000
   190     0.006191
   191     0.000002
   192    -0.000136
   193    -0.000348
   194     0.073171
   195     0.000162
   196     0.000507
   197     0.027830
   198    -0.000008
   199     0.000005
   200     0.027775
   201    -0.000001
   202     0.048249
   203     0.000003
   204     0.023669
   205    -0.000009
   206     0.050644
   207     0.000002
   208    -0.000002
   209     0.000030
   210     0.000000
   211     0.023660
   212     0.000018
   213     0.029648
   214    -0.000024
   215    -0.000000
   216     0.050619
Sym=    64a
Ene=    0.201681E-08
Spin= Alpha
Occup= 0.000000
     1     0.021208
     2    -0.041745
     3     0.102651
     4    -0.628094
     5     0.767124
     6   -23.563526
     7     2.435845
     8     0.039671
     9     0.069721
    10     0.043231
    11     0.452346
    12    -0.444318
    13    -0.127946
    14    -1.238644
    15    -1.933130
    16   -13.533351
    17     0.428682
    18    -0.240440
    19    -2.484183
    20    -0.532905
    21     0.682985
    22    -0.635057
    23    -0.128153
    24    -0.052084
    25     0.007471
    26     2.079688
    27    -4.948310
    28     1.102904
    29     0.732438
    30     0.323269
    31     0.297832
    32     0.197815
    33     0.268749
    34   -23.346045
    35     0.025587
    36     0.686048
    37     3.139179
    38    -0.159960
    39    -0.202380
    40    -0.171185
    41    -0.109102
    42    -0.051543
    43    -0.073590
    44    -0.018900
    45     0.041776
    46     0.033008
    47    -0.017993
    48     0.149874
    49    -0.059890
    50     2.909334
    51     0.118555
    52    -0.076076
    53    -0.376544
    54    -0.445067
    55    -1.155794
    56    -0.634270
    57    -0.006311
    58    -3.539503
    59    -0.193407
    60     0.276190
    61     0.278607
    62     3.138512
    63    -0.017917
    64    -0.096377
    65    -0.060942
    66    -0.413408
    67    -0.974770
    68     0.107529
    69     0.463111
    70    -0.179067
    71    -0.255910
    72    -1.632928
    73    -0.075507
    74     0.166846
    75    -0.934233
    76     0.463395
    77     4.424941
    78    14.178661
    79    -7.902767
    80     0.055065
    81     0.182811
    82    -0.025073
    83     0.739250
    84     2.382949
    85     6.422306
    86     0.421742
    87     1.637561
    88    -1.300384
    89     0.001939
    90     0.707258
    91    -0.860567
    92    -1.363592
    93    -0.653699
    94    -1.213411
    95    -0.110384
    96     0.085739
    97    -1.868539
    98     3.174707
    99    -0.913417
   100     4.804482
   101     0.655167
   102    -0.418185
   103    10.721232
   104     1.037420
   105     1.235375
   106     0.300798
   107    -0.054728
   108     0.595139
   109     2.426368
   110    -0.185744
   111    -0.383249
   112     0.632586
   113    -0.076441
   114    -0.178527
   115    -0.125472
   116    -0.049994
   117    -0.747566
   118    -0.157528
   119     0.020084
   120    -0.091123
   121    -0.682153
   122     1.400813
   123    -0.051414
   124    -0.293309
   125     0.791888
   126     0.194672
   127     1.616567
   128     0.824052
   129    -0.051088
   130    -1.255438
   131    -4.310013
   132    -0.218269
   133    -4.668323
   134     0.580323
   135     0.276644
   136    -0.152933
   137     0.106201
   138    -0.290290
   139    -0.947233
   140    -2.082065
   141    -0.497114
   142     0.248095
   143    -0.266311
   144    -2.145430
   145     0.006670
   146    -0.014842
   147     0.079148
   148    -1.220216
   149     1.507117
   150    16.574449
   151     9.752708
   152    -0.006107
   153    -0.056232
   154    -0.019211
   155     0.111644
   156     0.588221
   157     0.880805
   158    -0.077904
   159    -1.018748
   160   -20.231056
   161    -0.117168
   162     0.105160
   163     0.280731
   164    -0.003324
   165    -0.002844
   166    -0.125874
   167     0.031375
   168    -0.062187
   169    -0.122270
   170    -2.292712
   171    -2.310445
   172    -1.800026
   173    -0.166283
   174     0.330969
   175     0.590447
   176     2.499844
   177     2.679746
   178    10.866383
   179    -0.019777
   180    -0.008016
   181     0.426503
   182    -0.016704
   183    -0.129870
   184    -0.062948
   185    -0.005032
   186    -0.064846
   187    -0.042825
   188    -0.022446
   189     0.019706
   190     0.005562
   191     0.003075
   192    -0.006307
   193    -0.134626
   194    -1.747589
   195    -0.012403
   196    -0.047624
   197     0.372049
   198     0.028498
   199     0.013717
   200     0.182982
   201     0.014395
   202     0.806517
   203    -0.446169
   204     0.234533
   205    -0.316360
   206     0.896912
   207    -0.143793
   208     0.019325
   209    -0.069204
   210     0.082266
   211     0.192138
   212    -0.143309
   213     0.528912
   214    -0.178656
   215     0.074900
   216     0.911805
Sym=    65a
Ene=   -0.174328E-04
Spin= Alpha
Occup= 0.000000
     1     3.569498
     2    -5.530449
     3     9.641618
     4   -10.758096
     5   -15.292779
     6     9.956577
     7     2.081414
     8     0.007877
     9    -0.004836
    10     1.308973
    11     0.041543
    12    -0.040857
    13     7.941092
    14    -0.018892
    15    -0.019128
    16    19.091593
    17    -0.054962
    18     0.046242
    19     1.209172
    20     7.888534
    21     7.906383
    22    -0.074780
    23     0.006188
    24     0.054938
    25    -0.091134
    26   -25.393155
    27   -25.467363
    28    12.346790
    29    -0.019883
    30    -0.266939
    31     0.434789
    32    -4.679906
    33    -4.692695
    34   -15.519030
    35    -0.008036
    36     0.093655
    37    -0.119645
    38    -0.004985
    39    -0.004257
    40    -1.513651
    41    -0.024073
    42     0.023924
    43    -1.213738
    44    -0.007015
    45     0.007031
    46    -1.203951
    47     0.002551
    48    -0.053303
    49     0.052760
    50    -8.536093
    51     0.030371
    52    -0.019559
    53    -1.897001
    54    -0.042179
    55    -0.038293
    56    -1.896780
    57     0.012965
    58    -8.861340
    59    -0.172553
    60     1.131464
    61    -0.181603
    62    12.990096
    63     0.114203
    64    -0.010965
    65     0.035188
    66     0.013913
    67     1.135503
    68    -0.060695
    69     7.588046
    70     0.117806
    71     0.008111
    72    12.935694
    73    -0.005095
    74     0.013137
    75    -0.010096
    76    -0.232096
    77    -0.574715
    78    14.443896
    79     2.744897
    80     0.000634
    81     0.017172
    82    -0.039151
    83     0.014850
    84     0.133309
    85    -3.072269
    86     0.057121
    87    -0.017260
    88    15.374287
    89     0.033389
    90    -0.035854
    91    -0.183560
    92    -0.154189
    93    -0.164270
    94     0.525544
    95    -0.011412
    96     0.010631
    97     0.008972
    98     0.251197
    99     0.303273
   100    -2.997026
   101     0.056345
   102    -0.058192
   103    -0.052836
   104     2.851639
   105     2.860857
   106     8.742006
   107     0.011003
   108     0.061932
   109    -0.029527
   110    -0.046541
   111    -0.008867
   112     0.114743
   113     0.059749
   114    -0.055073
   115     0.015716
   116     0.000473
   117    -0.011344
   118     0.015213
   119     0.001226
   120     0.043741
   121    -0.091850
   122     1.540577
   123    -0.066138
   124     0.016505
   125    -0.202760
   126     0.022640
   127    -0.022914
   128    -0.189593
   129     0.012440
   130     1.695128
   131     0.034480
   132     0.163659
   133     0.027098
   134    -0.169148
   135     0.033670
   136     0.008331
   137     0.002670
   138    -0.027110
   139     0.154668
   140     0.023526
   141    -0.091113
   142     0.030318
   143    -0.036064
   144    -0.122748
   145    -0.006512
   146     0.007199
   147    -0.074848
   148     2.189610
   149    -1.312293
   150    -2.275500
   151    -6.441538
   152     0.002450
   153     0.003029
   154    -0.137712
   155    -0.004058
   156    -0.022403
   157     0.068660
   158    -0.058230
   159     0.065008
   160     1.676997
   161     0.035632
   162    -0.019707
   163     0.653208
   164     0.109010
   165     0.112854
   166    -0.252515
   167    -0.003914
   168     0.003092
   169     0.000388
   170     3.987783
   171     3.973417
   172     6.578034
   173     0.016685
   174    -0.014123
   175    -0.000146
   176     1.823636
   177     1.831209
   178     0.398148
   179    -0.001191
   180     0.005866
   181    -0.043043
   182     0.000770
   183     0.001147
   184    -0.489297
   185     0.005774
   186     0.009247
   187    -0.096151
   188     0.003981
   189     0.002583
   190    -0.096967
   191    -0.002084
   192     0.023468
   193     0.015008
   194    -0.120784
   195    -0.001693
   196    -0.006098
   197    -0.673349
   198     0.009501
   199     0.021583
   200    -0.678161
   201     0.001094
   202    -2.998414
   203    -0.006988
   204    -0.998820
   205     0.009173
   206    -1.129615
   207     0.006625
   208    -0.001665
   209    -0.002207
   210    -0.009297
   211    -1.004000
   212    -0.007469
   213    -0.664541
   214     0.003055
   215    -0.004906
   216    -1.136442
Sym=    66a
Ene=   -0.237711E-04
Spin= Alpha
Occup= 0.000000
     1     0.020517
     2    -0.059862
     3     0.357668
     4    -0.961963
     5    -0.092762
     6     2.285552
     7    -1.059478
     8     0.004428
     9    -0.007563
    10     0.017759
    11    -0.016311
    12    -0.038807
    13    -1.764290
    14     0.003267
    15    -0.016170
    16     8.137644
    17    -0.007204
    18     0.002337
    19     0.669807
    20     0.175813
    21     0.162345
    22     0.125339
    23     0.000984
    24     0.020672
    25    -0.000972
    26    -1.402970
    27    -1.315242
    28    -1.336897
    29    -0.015126
    30    -0.111952
    31    -0.002671
    32    -0.214907
    33    -0.211103
    34     0.899434
    35    -0.006375
    36     0.065373
    37     0.035472
    38    -0.016030
    39     0.016950
    40     0.245542
    41     0.008798
    42     0.000205
    43     0.052820
    44    -0.001899
    45     0.006165
    46     0.048884
    47    -0.000645
    48     0.005045
    49     0.017434
    50    -1.623218
    51    -0.020113
    52     0.024741
    53     0.023364
    54    -0.098477
    55     0.031161
    56     0.035899
    57     0.004834
    58     0.220558
    59     0.015018
    60     0.131911
    61    -0.010281
    62     0.482021
    63     0.056608
    64     0.001255
    65     0.010017
    66     0.008902
    67     0.145024
    68     0.014314
    69     0.303762
    70     0.047789
    71     0.009173
    72     0.546411
    73     0.004231
    74    -0.011835
    75     0.078126
    76    -0.358253
    77    -0.463630
    78     3.094952
    79     2.297078
    80     0.000275
    81    -0.000862
    82    -0.017644
    83     0.030877
    84    -0.003036
    85    -1.317686
    86     0.049135
    87     0.003465
    88     3.691714
    89    -0.005566
    90     0.002971
    91     0.095227
    92     0.005635
    93     0.008514
    94     0.128658
    95     0.001097
    96    -0.011875
    97    -0.000964
    98    -0.549784
    99    -0.558938
   100    -1.506391
   101    -0.010070
   102     0.057671
   103     0.011535
   104     0.262837
   105     0.266596
   106     1.696869
   107     0.004384
   108     0.046899
   109     0.006709
   110    -0.010982
   111     0.004902
   112    -0.011718
   113     0.017701
   114    -0.010778
   115     0.033099
   116     0.002643
   117     0.004744
   118     0.032794
   119    -0.000974
   120     0.007331
   121     0.000179
   122     0.282907
   123    -0.021124
   124     0.015086
   125    -0.084845
   126     0.044169
   127     0.001679
   128    -0.082037
   129     0.004651
   130     0.539525
   131    -0.003066
   132     0.111532
   133    -0.009554
   134     0.160943
   135     0.003100
   136     0.004272
   137    -0.008580
   138     0.004597
   139     0.109161
   140     0.000815
   141     0.092287
   142    -0.010106
   143     0.003571
   144     0.156635
   145     4.463605
   146    -6.949388
   147    11.911573
   148   -16.452119
   149    -5.899479
   150    19.444520
   151    -0.621018
   152     0.015490
   153    -0.000687
   154    -0.261150
   155    -0.075084
   156     0.005622
   157     0.173009
   158    -0.080044
   159    -0.032028
   160     5.767934
   161     0.012533
   162     0.002754
   163    -0.240391
   164     7.099574
   165     7.147394
   166     1.124901
   167     0.024174
   168     0.282583
   169    -0.049335
   170   -23.898947
   171   -24.099184
   172     2.030667
   173    -0.112895
   174    -1.246071
   175     0.217885
   176    -3.128089
   177    -3.119894
   178    -5.349804
   179     0.005733
   180     0.047652
   181     0.017219
   182     0.031507
   183    -0.002501
   184    -0.412589
   185     0.008932
   186    -0.002240
   187    -0.158242
   188     0.008111
   189     0.000961
   190    -0.156900
   191     0.001447
   192     0.054198
   193    -0.011911
   194    -1.982708
   195     0.049300
   196     0.022461
   197    -0.750807
   198     0.060312
   199    -0.018626
   200    -0.745321
   201    -0.000540
   202    -4.142417
   203    -0.081696
   204     2.238732
   205    -0.085919
   206    11.643942
   207     0.498563
   208     0.019353
   209     0.216348
   210     0.046267
   211     2.209135
   212    -0.050126
   213     6.781290
   214     0.518348
   215     0.048776
   216    11.518824
Sym=    67a
Ene=   -0.102664E-03
Spin= Alpha
Occup= 0.000030
     1    -0.001883
     2     0.055762
     3     0.030045
     4    -0.615752
     5     1.506844
     6     1.184772
     7     0.202251
     8    -0.006366
     9    -0.016004
    10    -0.020902
    11    -0.059909
    12    -0.159175
    13     0.719483
    14     0.066572
    15     0.127472
    16     2.118600
    17     0.013243
    18     0.066908
    19     0.182645
    20    -0.122363
    21     0.081305
    22    -0.209321
    23     0.089963
    24    -0.000475
    25     0.002867
    26    -0.282581
    27     0.145092
    28     0.550054
    29     0.233032
    30     0.422805
    31     1.160304
    32     0.129611
    33    -0.184776
    34     3.366160
    35    -0.137411
    36    -0.076715
    37    -0.250615
    38     0.008566
    39    -0.306496
    40    -0.069908
    41    -0.168104
    42    -0.040331
    43    -0.053436
    44    -0.051871
    45    -0.143889
    46    -0.252070
    47    -0.103142
    48     0.038537
    49     0.380867
    50     1.245748
    51     0.155537
    52     0.076961
    53     0.086893
    54    -0.233134
    55    -0.634886
    56     0.101701
    57    -0.010859
    58    -0.954065
    59    -0.417978
    60    -0.118990
    61    -0.211243
    62    -0.145312
    63    -0.155280
    64    -0.021875
    65     0.021453
    66    -0.053480
    67    -0.075309
    68    -0.124138
    69    -0.016297
    70    -0.121033
    71    -0.116033
    72     0.097585
    73     0.000587
    74    -0.026494
    75    -0.046674
    76     0.957106
    77    -0.723053
    78    -2.425440
    79    -0.429112
    80     0.006174
    81     0.018708
    82     0.099519
    83     0.035448
    84     0.096326
    85     1.573745
    86    -0.046580
    87    -0.068631
    88     0.319083
    89     0.029855
    90     0.064551
    91     0.090496
    92     0.143056
    93    -0.026174
    94     0.182036
    95    -0.080272
    96    -0.000872
    97    -0.000808
    98     1.368815
    99     1.411912
   100     1.084242
   101    -0.001257
   102     0.393060
   103     1.077488
   104     0.214125
   105     0.384139
   106     0.553078
   107     0.076421
   108    -0.029004
   109    -0.078590
   110    -0.044912
   111     0.037206
   112    -0.293659
   113     0.073701
   114    -0.029202
   115     0.021763
   116     0.140071
   117     0.393600
   118    -0.262089
   119    -0.138273
   120    -0.088648
   121    -0.356340
   122    -0.806140
   123    -0.071730
   124    -0.131784
   125    -0.227251
   126     0.162336
   127     0.437400
   128    -0.095738
   129     0.039905
   130     0.038151
   131     0.040418
   132    -0.354595
   133    -0.463688
   134    -0.219537
   135     0.007572
   136    -0.144845
   137     0.018778
   138     0.026478
   139    -0.041860
   140    -0.277025
   141    -0.176177
   142    -0.247801
   143     0.074001
   144    -0.378833
   145    -0.000348
   146    -0.002439
   147    -0.000138
   148    -0.116692
   149     0.155730
   150    -2.683802
   151    -1.128756
   152    -0.004869
   153    -0.013203
   154     0.038084
   155     0.069836
   156     0.163705
   157     0.152813
   158     0.044108
   159     0.204116
   160     2.473881
   161    -0.086562
   162    -0.275221
   163    -0.163825
   164    -0.018641
   165    -0.008916
   166    -0.017411
   167    -0.000547
   168    -0.004119
   169    -0.008385
   170    -0.197378
   171    -0.235503
   172    -0.239067
   173    -0.010084
   174     0.005278
   175     0.022049
   176    -0.487174
   177    -0.389282
   178    -1.221554
   179     0.025462
   180    -0.019066
   181    -0.106261
   182    -0.007487
   183    -0.015961
   184     0.024995
   185    -0.004350
   186    -0.019189
   187     0.032794
   188    -0.002416
   189    -0.005046
   190     0.033030
   191     0.006294
   192     0.002670
   193    -0.024883
   194     0.178186
   195    -0.004637
   196     0.030684
   197     0.166968
   198     0.032083
   199     0.085932
   200     0.141811
   201    -0.023305
   202     0.126402
   203    -0.097209
   204     0.013482
   205    -0.018732
   206     0.085343
   207    -0.035990
   208     0.005606
   209     0.000756
   210     0.001623
   211     0.016157
   212    -0.021730
   213     0.028057
   214    -0.017319
   215     0.008777
   216     0.080028
Sym=    68a
Ene=   -0.145871E-04
Spin= Alpha
Occup= 0.000003
     1     0.004302
     2     0.007556
     3    -0.118972
     4     0.935800
     5    -0.283451
     6    -3.868252
     7     0.454624
     8     0.144837
     9     0.017882
    10    -0.287075
    11     0.693165
    12     0.082390
    13    -4.108777
    14     0.294183
    15     0.002352
    16    -7.437508
    17    -0.206841
    18     0.040699
    19    -0.195626
    20     0.158659
    21     0.091450
    22     0.299411
    23     0.028034
    24    -0.202656
    25    -0.023321
    26     0.736117
    27     1.226183
    28     0.624393
    29    -0.124783
    30     1.737808
    31     0.176460
    32     0.244309
    33     0.509992
    34    -5.596044
    35    -0.042616
    36     0.035949
    37    -0.087377
    38    -0.146799
    39    -0.157195
    40     0.266314
    41    -0.374585
    42     0.129507
    43     0.440061
    44    -0.177362
    45    -0.035451
    46     0.353965
    47     0.029453
    48    -0.596036
    49    -0.002569
    50    -1.571544
    51    -0.138832
    52    -0.072922
    53     0.821221
    54    -1.070021
    55    -0.211064
    56     0.570112
    57     0.046184
    58     1.778663
    59    -0.072234
    60    -0.096732
    61     0.006247
    62    -0.068319
    63    -1.168503
    64    -0.074210
    65    -0.108507
    66    -0.260304
    67    -0.314750
    68     0.004238
    69    -0.453602
    70    -0.389876
    71     0.455542
    72     0.543248
    73     0.053973
    74    -0.040595
    75    -0.609315
    76     0.735609
    77    -1.660755
    78     2.067600
    79     0.422910
    80     0.247034
    81     0.034832
    82     0.185080
    83     2.425963
    84     0.372700
    85     0.058706
    86    -0.488999
    87    -0.171307
    88    -3.816854
    89     0.468524
    90     0.056168
    91     0.393138
    92    -0.366417
    93    -0.385250
    94    -0.067988
    95     0.005930
    96     0.086463
    97     0.002856
    98    -1.421892
    99     0.485259
   100    -4.584404
   101    -0.386725
   102    -2.319458
   103    -0.343404
   104    -1.019831
   105    -1.005356
   106    -2.934635
   107    -0.014324
   108     0.423888
   109     0.021981
   110    -0.499464
   111    -0.125315
   112    -0.925657
   113    -0.338248
   114     0.019794
   115    -0.245502
   116    -0.571679
   117    -0.057304
   118    -0.211241
   119     0.012464
   120    -0.730927
   121    -0.035636
   122    -0.710894
   123    -0.190657
   124    -0.100071
   125     0.645957
   126     0.308561
   127     0.094972
   128     0.358481
   129     0.051397
   130     1.524742
   131     0.237345
   132     0.383018
   133     0.196668
   134    -0.604512
   135     1.184100
   136     0.177400
   137     0.568104
   138     0.162486
   139     1.132870
   140     0.102180
   141     0.029286
   142     1.287538
   143     0.214217
   144     0.845470
   145     0.001095
   146    -0.000981
   147    -0.001963
   148     0.944409
   149    -1.104682
   150     4.119479
   151     1.950164
   152    -0.073415
   153    -0.013457
   154    -0.028360
   155     0.590270
   156     0.113769
   157    -0.620097
   158     0.333351
   159     0.107045
   160    -5.385287
   161    -0.139918
   162    -0.039513
   163     0.080000
   164     0.110325
   165     0.064878
   166     0.202034
   167     0.002480
   168    -0.104752
   169    -0.024459
   170     1.658922
   171     1.824674
   172     1.007638
   173    -0.011897
   174     0.506824
   175     0.118939
   176     1.172288
   177     1.126360
   178     3.077997
   179    -0.000154
   180    -0.212003
   181    -0.059667
   182    -0.174277
   183    -0.037072
   184     0.108200
   185    -0.063709
   186     0.003269
   187    -0.037768
   188     0.034378
   189    -0.005475
   190    -0.024024
   191    -0.007672
   192    -0.267700
   193    -0.033382
   194    -0.262873
   195    -0.149605
   196    -0.039940
   197    -0.194937
   198     0.156959
   199     0.009997
   200    -0.209421
   201    -0.002869
   202    -0.235263
   203    -0.088111
   204    -0.080941
   205    -0.052104
   206    -0.662135
   207    -0.506828
   208     0.004082
   209    -0.099575
   210     0.019590
   211    -0.091233
   212    -0.030421
   213    -0.349838
   214    -0.230382
   215    -0.004040
   216    -0.553671
Sym=    69a
Ene=   -0.452125E-05
Spin= Alpha
Occup= 0.000001
     1    -0.021673
     2     0.070726
     3    -0.257377
     4     0.223879
     5     0.097357
     6    -6.450767
     7    -0.247639
     8    -0.264811
     9     0.422679
    10    -0.506940
    11    -1.685790
    12     3.838451
    13    -2.418404
    14    -1.041289
    15    -0.449306
    16     3.917361
    17    -0.072846
    18     0.280238
    19     0.156019
    20     0.215196
    21     0.369965
    22     0.155875
    23    -0.294592
    24     0.490717
    25    -0.502558
    26    -1.136145
    27    -3.713493
    28    -0.809670
    29     1.355158
    30    -2.187751
    31     2.414438
    32    -0.329656
    33    -0.166838
    34    -7.183922
    35    -0.394979
    36    -0.429264
    37     0.461075
    38     0.484037
    39    -1.251424
    40     0.945770
    41     0.277080
    42    -0.447132
    43     0.414505
    44     0.301272
    45    -0.132295
    46     0.332876
    47     0.094445
    48     1.014366
    49    -0.811608
    50     3.191440
    51     0.495161
    52    -0.507344
    53     1.067173
    54     0.680884
    55    -0.624817
    56     0.570862
    57    -0.195729
    58    -0.026726
    59    -1.092032
    60     1.310911
    61    -1.449481
    62     2.386860
    63     0.369072
    64    -0.261563
    65     0.480649
    66    -0.449625
    67     0.220334
    68    -0.544354
    69     0.858520
    70     0.929361
    71    -0.493801
    72     0.599481
    73    -0.000378
    74     0.002312
    75     0.029200
    76    -0.379677
    77     1.015879
    78     9.348410
    79     1.016971
    80    -0.193300
    81     0.217647
    82     0.011108
    83    -1.780075
    84     1.707500
    85     2.060705
    86    -0.094485
    87     0.672208
    88     4.707287
    89     0.240185
    90    -0.208511
    91     0.101230
    92     0.035248
    93     0.273542
    94     0.034677
    95    -0.223321
    96    -0.073362
    97     0.270839
    98    -1.188543
    99    -2.208392
   100     0.104521
   101     1.584162
   102     0.221293
   103    -1.104553
   104     0.784266
   105     0.410718
   106     2.196296
   107     0.000290
   108    -0.076317
   109    -0.146265
   110     0.452360
   111    -0.435308
   112     0.094906
   113     0.558123
   114    -0.537920
   115     0.057163
   116    -0.095155
   117    -0.045755
   118    -0.067995
   119    -0.040816
   120     0.599172
   121    -0.666722
   122     0.042063
   123    -0.120344
   124     0.100717
   125     0.375963
   126     0.197980
   127    -1.162417
   128     0.015346
   129     0.033062
   130     0.017195
   131     0.045720
   132    -0.066992
   133     0.645458
   134     1.661977
   135    -0.415783
   136    -0.383775
   137    -0.085199
   138    -0.823469
   139     0.571768
   140     0.351091
   141     0.499771
   142    -0.181088
   143    -0.564104
   144     0.500970
   145    -0.002665
   146     0.003108
   147    -0.015022
   148     1.012741
   149    -0.408836
   150    -1.170122
   151    -1.920887
   152     0.009284
   153     0.015957
   154     0.019789
   155    -0.032355
   156    -0.072900
   157    -0.042382
   158     0.060637
   159    -0.308517
   160    -0.888263
   161     0.336533
   162    -0.030802
   163     0.479845
   164     0.080387
   165     0.098470
   166     0.018768
   167    -0.009189
   168    -0.014919
   169     0.024012
   170     1.879414
   171     1.871321
   172     2.451202
   173     0.036960
   174     0.077557
   175    -0.107923
   176     1.352776
   177     1.451835
   178     0.909120
   179     0.157085
   180    -0.359887
   181     0.200747
   182     0.000281
   183     0.022049
   184    -0.109825
   185     0.013995
   186     0.020028
   187     0.024802
   188     0.039699
   189     0.008099
   190     0.045622
   191     0.026334
   192     0.069702
   193     0.120063
   194     0.100271
   195    -0.000118
   196     0.035386
   197    -0.028032
   198     0.248570
   199    -0.061629
   200    -0.044461
   201    -0.109781
   202    -0.728094
   203     0.088656
   204    -0.439020
   205     0.019689
   206    -0.486438
   207    -0.139054
   208     0.018559
   209     0.022915
   210    -0.044914
   211    -0.361641
   212     0.021437
   213    -0.269804
   214    -0.006534
   215    -0.032216
   216    -0.493581
Sym=    70a
Ene=   -0.104579E-04
Spin= Alpha
Occup= 0.000002
     1     0.002133
     2    -0.000928
     3    -0.043457
     4     0.109714
     5    -0.006939
     6    -0.094062
     7    -0.357252
     8     0.026080
     9     0.069110
    10    -0.036455
    11     0.341217
    12     0.531035
    13    -0.254175
    14    -0.176472
    15     0.014640
    16     0.111775
    17     0.250969
    18    -0.024928
    19     0.212291
    20     0.025064
    21    -0.084014
    22    -0.075692
    23     0.056417
    24    -0.068071
    25     0.207763
    26     1.048831
    27    -0.767372
    28     0.340665
    29     1.672373
    30    -0.399716
    31    -1.823081
    32    -0.017261
    33    -0.027809
    34     0.155519
    35     0.107369
    36     0.266197
    37     0.286793
    38    -0.225037
    39    -0.128825
    40     0.054821
    41    -0.111592
    42    -0.047095
    43     0.466006
    44     0.030380
    45    -0.234118
    46    -0.403225
    47     0.650641
    48     0.036002
    49    -0.300902
    50     0.122407
    51     0.011756
    52    -0.122785
    53    -0.690265
    54    -0.193614
    55     0.218306
    56     0.826785
    57    -1.158886
    58    -0.148452
    59     1.333927
    60    -0.013051
    61     0.828543
    62     0.734330
    63     0.701071
    64    -0.032049
    65     0.076047
    66    -0.934175
    67    -0.092374
    68     0.421913
    69    -0.123383
    70     0.202328
    71    -0.922470
    72    -0.734598
    73     0.000355
    74    -0.001261
    75     0.009844
    76    -0.061086
    77    -0.002107
    78     0.033490
    79     0.617093
    80     0.061716
    81     0.072309
    82    -0.001451
    83     0.552496
    84     0.325852
    85    -0.082137
    86     0.170993
    87     0.309046
    88     0.162537
    89    -0.122887
    90     0.050022
    91     0.121274
    92     0.115609
    93    -0.126847
    94     0.016709
    95     0.170864
    96     0.054544
    97     0.084059
    98    -0.614830
    99     0.489081
   100    -0.226732
   101    -0.581807
   102    -0.130151
   103    -0.454819
   104    -0.273951
   105     0.135904
   106     0.014280
   107    -0.302601
   108     0.120470
   109     0.166033
   110    -0.142078
   111    -0.109677
   112    -0.006473
   113    -0.075900
   114    -0.055755
   115     0.020455
   116     0.065412
   117     0.054372
   118    -0.019174
   119     0.031585
   120    -0.210582
   121    -0.365882
   122    -0.017503
   123    -0.082921
   124    -0.151983
   125    -0.320354
   126     0.115566
   127     0.157309
   128     0.312201
   129    -0.526102
   130     0.074880
   131     0.478800
   132     0.043192
   133     0.098052
   134    -0.305518
   135     0.273080
   136    -0.125573
   137     0.042884
   138     0.171356
   139     0.000103
   140     0.054452
   141    -0.029184
   142     0.098102
   143     0.208451
   144     0.348193
   145     0.000118
   146    -0.000019
   147    -0.005375
   148     0.010650
   149     0.022999
   150    -0.143066
   151    -0.193215
   152    -0.044041
   153    -0.054364
   154    -0.002361
   155     0.292167
   156     0.375185
   157     0.046996
   158     0.230841
   159    -0.112013
   160     0.100736
   161    -0.267783
   162     0.064644
   163    -0.030222
   164     0.048190
   165    -0.056880
   166    -0.014076
   167     0.080383
   168    -0.109282
   169    -0.109552
   170    -0.230080
   171     0.258177
   172     0.068134
   173    -0.356933
   174     0.610334
   175     0.657799
   176     0.221902
   177    -0.219856
   178    -0.030920
   179     0.314923
   180     0.188235
   181     0.319057
   182    -0.056019
   183    -0.083761
   184    -0.011705
   185    -0.023450
   186    -0.034244
   187     0.025039
   188    -0.143921
   189    -0.156723
   190    -0.033155
   191     0.070010
   192    -0.214975
   193    -0.185310
   194     0.003027
   195    -0.095820
   196    -0.093615
   197    -0.132154
   198    -0.307044
   199    -0.400977
   200     0.145412
   201    -0.203677
   202    -0.013219
   203    -0.101912
   204     0.009044
   205    -0.329329
   206    -0.201603
   207    -0.088563
   208    -0.098617
   209    -0.146566
   210     0.190734
   211    -0.071947
   212    -0.132557
   213     0.036791
   214    -0.320345
   215     0.180171
   216     0.173856
Sym=    71a
Ene=   -0.193585E-04
Spin= Alpha
Occup= 0.000004
     1     0.004833
     2    -0.009172
     3     0.012429
     4     0.243487
     5    -0.291595
     6     2.884502
     7     1.353271
     8    -0.028168
     9    -0.003671
    10    -0.005423
    11    -0.161059
    12    -0.081069
    13     1.381509
    14     0.418423
    15    -0.123474
    16     5.925536
    17    -0.424301
    18     0.121498
    19    -0.004486
    20     0.035576
    21     0.025232
    22     0.173460
    23     0.049238
    24    -0.123983
    25    -0.063643
    26     0.514383
    27     0.490951
    28    -0.310543
    29    -0.186310
    30     0.743953
    31     0.345950
    32    -0.046119
    33     0.035772
    34     3.152571
    35    -0.036926
    36     0.456421
    37    -1.089611
    38     0.082148
    39     0.017249
    40    -0.046115
    41     0.043409
    42    -0.010960
    43    -0.025767
    44     0.016955
    45    -0.010242
    46    -0.016674
    47    -0.015229
    48     0.074353
    49    -0.057883
    50     1.982035
    51     0.024062
    52     0.061709
    53    -0.160280
    54    -0.031232
    55    -0.130617
    56     0.121537
    57    -0.192363
    58     0.565176
    59    -0.246832
    60     0.124030
    61    -0.201715
    62    -0.166970
    63    -0.511904
    64    -0.052434
    65    -0.131392
    66     0.065846
    67     0.015372
    68    -0.022064
    69    -0.100879
    70    -0.288040
    71     0.055872
    72    -0.205538
    73     0.000175
    74     0.000112
    75    -0.011412
    76     0.609199
    77     0.225291
    78    -0.784557
    79    -1.414122
    80    -0.036484
    81     0.013099
    82     0.041170
    83    -0.119397
    84     0.039837
    85     1.137293
    86    -0.154108
    87    -0.468424
    88     1.035726
    89     0.317182
    90     0.001275
    91    -0.460022
    92     0.084705
    93     0.033201
    94     0.064948
    95    -0.010031
    96    -0.003364
    97     0.051170
    98     1.084924
    99     1.378823
   100     1.410582
   101    -0.007474
   102     0.020692
   103    -0.246316
   104     0.671710
   105     0.725876
   106     1.020447
   107    -0.062124
   108     0.100064
   109    -0.316404
   110     0.061496
   111    -0.015853
   112    -0.077030
   113     0.028738
   114    -0.008753
   115    -0.008002
   116    -0.006227
   117    -0.016237
   118    -0.031848
   119     0.017107
   120     0.208434
   121    -0.069064
   122    -0.201823
   123     0.090279
   124    -0.035184
   125    -0.109742
   126     0.026784
   127    -0.122820
   128    -0.025127
   129    -0.055752
   130    -0.237769
   131     0.064628
   132    -0.151912
   133     0.097306
   134    -0.434697
   135    -0.086169
   136     0.002776
   137     0.013133
   138     0.008780
   139    -0.111118
   140     0.042191
   141    -0.192622
   142     0.010475
   143     0.013848
   144    -0.241140
   145    -0.002123
   146     0.000934
   147     0.029870
   148    -0.974758
   149     0.834343
   150    -2.434622
   151    -1.066478
   152    -0.071957
   153     0.118730
   154     0.083328
   155     0.774213
   156    -1.163422
   157    -0.428479
   158    -0.823146
   159     1.355680
   160     6.034601
   161     0.309177
   162    -0.345963
   163    -0.471127
   164    -0.023801
   165    -0.223270
   166    -0.029249
   167     0.038503
   168     0.153321
   169    -0.226136
   170    -2.199862
   171    -1.527287
   172    -1.334636
   173     0.580066
   174     1.360847
   175     1.441830
   176    -1.198289
   177    -1.558415
   178    -3.336294
   179     0.334861
   180     0.575935
   181    -0.858019
   182    -0.297594
   183     0.179360
   184     0.269176
   185    -0.037308
   186     0.295634
   187     0.493676
   188    -0.033685
   189     0.173523
   190    -0.102787
   191     0.448172
   192     0.039710
   193     0.305527
   194     0.494033
   195    -0.111825
   196    -0.152046
   197    -0.341027
   198    -0.119458
   199     0.271815
   200     0.400547
   201    -0.498740
   202    -0.138721
   203    -0.673055
   204     0.149885
   205    -0.730670
   206     0.631020
   207    -0.911706
   208    -0.095353
   209    -0.251842
   210    -0.486169
   211     0.212423
   212     0.149710
   213     0.494495
   214    -0.982326
   215    -0.364453
   216     0.922839
Sym=    72a
Ene=   -0.129244E-03
Spin= Alpha
Occup= 0.000031
     1     0.000213
     2    -0.001829
     3     0.004353
     4     0.033745
     5    -0.011372
     6    -0.247170
     7     0.045601
     8    -0.000642
     9    -0.004232
    10     0.004445
    11    -0.025347
    12    -0.010478
    13    -0.046020
    14     0.046651
    15     0.001298
    16     0.082458
    17     0.003494
    18     0.047205
    19    -0.055515
    20     0.008212
    21     0.001989
    22     0.025913
    23    -0.026126
    24     0.015627
    25    -0.000403
    26     0.054926
    27     0.084249
    28    -0.027648
    29     0.124219
    30    -0.108705
    31     0.005078
    32     0.049053
    33    -0.004375
    34    -0.151207
    35    -0.083005
    36     0.012952
    37    -0.020307
    38     0.001037
    39    -0.002641
    40    -0.010741
    41    -0.008245
    42     0.004344
    43    -0.003960
    44    -0.009256
    45    -0.001058
    46    -0.003343
    47    -0.002246
    48    -0.005893
    49     0.017000
    50    -0.052238
    51    -0.001707
    52     0.003679
    53    -0.009678
    54    -0.135848
    55     0.027161
    56    -0.020417
    57    -0.017152
    58     0.084761
    59     0.004611
    60     0.006557
    61    -0.002391
    62    -0.032262
    63     0.026568
    64    -0.027784
    65     0.002486
    66    -0.050287
    67     0.003737
    68     0.003309
    69    -0.013343
    70     0.023270
    71    -0.054714
    72    -0.004430
    73    -0.000012
    74    -0.000087
    75     0.000586
    76     0.028272
    77     0.005009
    78     0.031968
    79    -0.187886
    80    -0.000834
    81    -0.001799
    82    -0.004532
    83     0.037772
    84    -0.019214
    85    -0.055682
    86    -0.022002
    87    -0.014560
    88     0.061860
    89     0.046100
    90    -0.035917
    91    -0.043395
    92     0.000014
    93     0.004996
    94     0.007370
    95     0.004412
    96    -0.016380
    97     0.001496
    98     0.088382
    99     0.056172
   100     0.004247
   101    -0.020625
   102     0.092311
   103    -0.013068
   104     0.055406
   105     0.076583
   106     0.064147
   107     0.009251
   108     0.014479
   109    -0.018703
   110    -0.001612
   111     0.000178
   112    -0.003112
   113     0.000319
   114    -0.000118
   115     0.006134
   116     0.004328
   117     0.001001
   118     0.002796
   119    -0.001518
   120     0.010136
   121     0.003278
   122     0.000877
   123    -0.004499
   124     0.006290
   125     0.013225
   126     0.025232
   127     0.004878
   128     0.016798
   129     0.006274
   130    -0.007799
   131     0.003720
   132    -0.001382
   133     0.001572
   134    -0.012089
   135    -0.021522
   136     0.007268
   137    -0.013537
   138     0.006256
   139    -0.005810
   140     0.003922
   141    -0.007982
   142    -0.018116
   143     0.011243
   144    -0.029382
   145     0.000075
   146     0.000877
   147     0.000651
   148    -0.018600
   149    -0.003942
   150     0.163847
   151     0.063308
   152    -0.011470
   153    -0.004145
   154    -0.006679
   155     0.506840
   156     0.110808
   157    -0.009177
   158    -0.124962
   159    -0.035462
   160    -0.003552
   161    -0.159277
   162    -0.045454
   163     0.005889
   164     0.036103
   165    -0.041138
   166     0.004782
   167    -0.148285
   168    -0.048255
   169    -0.007831
   170     0.443306
   171    -0.510889
   172    -0.012922
   173    -1.488504
   174    -0.086874
   175     0.142642
   176    -0.209785
   177     0.212228
   178     0.020311
   179     0.649769
   180    -0.043458
   181    -0.029193
   182     0.032537
   183    -0.347280
   184    -0.014253
   185    -0.772170
   186     0.314409
   187     0.018148
   188     0.022483
   189     0.006555
   190     0.027328
   191    -0.066553
   192    -0.175319
   193     0.219274
   194    -0.052504
   195     0.485212
   196    -0.212225
   197    -0.055010
   198     0.056610
   199    -0.051063
   200    -0.015787
   201     0.079795
   202    -0.020230
   203    -0.075452
   204     0.073529
   205    -0.009057
   206     0.129698
   207     0.101069
   208     0.268573
   209    -0.010551
   210     0.300671
   211    -0.075251
   212    -0.039562
   213     0.238653
   214     0.029130
   215     0.743546
   216    -0.373180
Sym=    73a
Ene=   -0.164415E-04
Spin= Alpha
Occup= 0.000004
     1    -0.002262
     2     0.004690
     3    -0.026338
     4     0.194576
     5     0.140181
     6    -0.985451
     7     0.465964
     8     0.011385
     9    -0.053500
    10     0.003919
    11    -0.253735
    12    -0.410631
    13    -1.992899
    14    -0.068767
    15    -0.010525
    16    -0.817071
    17    -0.259451
    18     0.179884
    19     0.009712
    20    -0.000201
    21    -0.034907
    22    -0.049080
    23     0.037947
    24     0.031822
    25     0.006441
    26     0.340101
    27     0.576121
    28     0.792874
    29    -0.100083
    30    -0.124366
    31    -0.070421
    32     0.259734
    33     0.153019
    34     0.160164
    35     0.048668
    36    -0.385634
    37     0.524752
    38    -0.011056
    39     0.097230
    40     0.205807
    41    -0.005008
    42     0.040158
    43    -0.014186
    44     0.026487
    45     0.004504
    46    -0.011985
    47    -0.009939
    48    -0.042364
    49     0.160302
    50    -2.222815
    51    -0.031597
    52     0.053820
    53     0.145821
    54    -0.542224
    55    -0.068371
    56     0.103037
    57    -0.132704
    58     0.182044
    59     0.009654
    60    -0.222839
    61    -0.034190
    62    -0.207013
    63     0.095263
    64    -0.083827
    65    -0.014306
    66     0.035550
    67    -0.173904
    68    -0.026886
    69    -0.083948
    70    -0.018612
    71     0.036131
    72    -0.052732
    73     0.001246
    74    -0.002376
    75     0.018153
    76    -0.085331
    77    -0.659286
    78    -1.119126
    79    -0.454086
    80     0.019008
    81    -0.020675
    82    -0.031637
    83     0.251576
    84    -0.000374
    85    -1.919634
    86    -0.120372
    87     0.099551
    88    -0.522048
    89     0.301952
    90    -0.196120
    91    -0.055886
    92    -0.023721
    93     0.016434
    94     0.103464
    95     0.025264
    96    -0.016459
    97    -0.012677
    98    -0.018157
    99    -0.156218
   100    -1.496232
   101    -0.114735
   102     0.140511
   103     0.132284
   104     0.082720
   105     0.146759
   106    -0.246522
   107    -0.044139
   108     0.123628
   109     0.146329
   110    -0.023745
   111     0.028921
   112    -0.081271
   113    -0.011916
   114     0.014687
   115     0.024333
   116     0.012650
   117     0.004210
   118     0.015257
   119     0.019541
   120    -0.094443
   121     0.135074
   122     0.012328
   123    -0.036949
   124     0.055344
   125     0.122899
   126     0.121969
   127     0.152469
   128     0.132248
   129    -0.047604
   130     0.320098
   131    -0.021317
   132     0.089031
   133    -0.024772
   134     0.034393
   135     0.036234
   136     0.029415
   137    -0.002836
   138     0.051053
   139     0.076091
   140    -0.013991
   141     0.002475
   142    -0.015570
   143     0.035872
   144    -0.025745
   145     0.004130
   146     0.003032
   147    -0.143873
   148     0.306647
   149    -0.676052
   150     2.910856
   151    -0.631804
   152     0.139043
   153    -0.077442
   154    -0.133973
   155    -1.448727
   156     1.128360
   157     0.279081
   158     1.497333
   159    -1.287857
   160    -1.133338
   161    -0.456689
   162     0.338976
   163     0.468128
   164    -0.191544
   165     0.215651
   166    -0.299189
   167     0.016159
   168     0.076864
   169    -0.132460
   170    -1.064007
   171     0.057548
   172     1.591421
   173     0.629070
   174    -0.095647
   175     1.031251
   176    -0.308963
   177     0.269510
   178     0.670665
   179     0.101335
   180    -0.436302
   181     0.035925
   182     0.719806
   183    -0.026108
   184    -0.093626
   185     0.028799
   186    -0.454061
   187    -0.003969
   188    -0.047621
   189    -0.285816
   190    -0.425413
   191    -0.115961
   192    -0.201547
   193    -0.230644
   194    -0.979682
   195     0.191796
   196     0.336293
   197    -0.219643
   198     0.571082
   199     0.156098
   200     0.108388
   201    -0.007047
   202    -1.221251
   203    -0.548321
   204     0.008337
   205    -0.564852
   206    -0.681840
   207     0.066619
   208     0.143295
   209     0.126147
   210    -0.571433
   211     0.058585
   212     0.033853
   213     0.121040
   214    -0.198193
   215    -0.302506
   216     0.893948
Sym=    74a
Ene=   -0.598655E-04
Spin= Alpha
Occup= 0.000019
     1     0.001043
     2    -0.001410
     3     0.027294
     4     0.445925
     5     0.816156
     6   -12.498682
     7     0.032044
     8     0.000005
     9     0.000291
    10    -0.085331
    11     0.002091
    12     0.000386
    13    -3.136277
    14    -0.002970
    15     0.015467
    16     0.130840
    17     0.002801
    18    -0.009439
    19    -0.386221
    20     0.073438
    21     0.073748
    22     0.184026
    23    -0.001206
    24     0.000283
    25    -0.001753
    26     1.029822
    27     1.025975
    28     1.590421
    29     0.001104
    30    -0.004128
    31    -0.002057
    32    -0.128550
    33    -0.119580
    34    -8.944835
    35     0.004055
    36     0.000615
    37    -0.014769
    38    -0.012570
    39     0.008814
    40     0.055133
    41     0.015500
    42    -0.013149
    43     0.068984
    44     0.001026
    45     0.005315
    46     0.070641
    47     0.000995
    48     0.027107
    49    -0.028656
    50    -2.008118
    51    -0.035938
    52     0.024153
    53     0.507009
    54    -0.000045
    55     0.002543
    56     0.508697
    57    -0.001164
    58     0.445374
    59    -0.009391
    60    -0.013398
    61    -0.004946
    62    -0.284394
    63     0.000780
    64    -0.000801
    65    -0.012610
    66    -0.001273
    67    -0.012144
    68     0.010366
    69    -0.165564
    70     0.010926
    71     0.000369
    72    -0.284328
    73    -0.009249
    74     0.067254
    75     0.174020
    76    -1.620080
    77     0.536179
    78     9.968885
    79    -0.350364
    80    -0.000320
    81    -0.001036
    82    -0.356108
    83    -0.003471
    84    -0.015008
    85    -3.220958
    86     0.004743
    87     0.010051
    88     2.874763
    89    -0.002346
    90     0.002772
    91    -0.205819
    92    -0.007530
    93    -0.007795
    94     0.108190
    95    -0.000815
    96     0.000060
    97     0.000747
    98    -1.459250
    99    -1.457357
   100    -3.950913
   101    -0.002209
   102    -0.002162
   103     0.006121
   104     0.297420
   105     0.300618
   106     1.907808
   107     0.001771
   108     0.001297
   109    -0.003111
   110    -0.241119
   111     0.152832
   112     0.605022
   113     0.322060
   114    -0.208739
   115     0.019400
   116     0.003130
   117     0.007972
   118     0.017666
   119     0.001143
   120    -0.187962
   121     0.109010
   122     0.716217
   123     0.252275
   124    -0.162548
   125     1.471172
   126    -0.002533
   127    -0.006789
   128     1.471615
   129    -0.002156
   130     0.354320
   131    -0.031735
   132     0.263239
   133    -0.199021
   134     0.270333
   135    -0.004589
   136    -0.000114
   137    -0.440322
   138    -0.002366
   139     0.264124
   140     0.287186
   141     0.159790
   142     0.333574
   143     0.003165
   144     0.272460
   145    -0.000555
   146     0.001150
   147    -0.013852
   148     0.522941
   149    -0.413909
   150     5.101331
   151     1.486359
   152    -0.000242
   153    -0.000158
   154    -0.064883
   155     0.001031
   156     0.000908
   157    -0.579380
   158     0.002710
   159     0.003777
   160    -5.230458
   161    -0.002272
   162     0.004115
   163     0.182461
   164     0.035083
   165     0.035165
   166     0.045272
   167    -0.000100
   168    -0.000264
   169    -0.000731
   170     0.957087
   171     0.957642
   172     1.028633
   173     0.000187
   174     0.001714
   175     0.003947
   176     0.999475
   177     0.997074
   178     3.165450
   179    -0.001190
   180    -0.000755
   181    -0.005615
   182     0.000837
   183    -0.001866
   184    -0.089033
   185    -0.002037
   186     0.002192
   187    -0.053459
   188     0.000004
   189    -0.000130
   190    -0.053625
   191    -0.000083
   192    -0.005473
   193     0.004697
   194    -0.538506
   195     0.005149
   196    -0.007647
   197    -0.241537
   198    -0.000470
   199     0.003459
   200    -0.240247
   201     0.000107
   202    -0.293806
   203    -0.003690
   204    -0.130224
   205    -0.005614
   206    -0.314978
   207    -0.000689
   208     0.000182
   209    -0.004499
   210    -0.000112
   211    -0.130155
   212     0.006048
   213    -0.184400
   214     0.002544
   215     0.000387
   216    -0.314558
Sym=    75a
Ene=   -0.292745E-05
Spin= Alpha
Occup= 0.000000
     1     0.000790
     2    -0.001121
     3    -0.007313
     4     0.114951
     5    -0.049770
     6    -0.026054
     7     0.103323
     8    -0.079071
     9    -0.018809
    10     0.010788
    11    -0.677505
    12    -0.278300
    13     0.328180
    14    -0.055802
    15     0.275925
    16     0.444835
    17     0.031635
    18     0.007053
    19    -0.130948
    20     0.259704
    21    -0.261638
    22    -0.046164
    23    -0.110462
    24    -0.038054
    25    -0.037658
    26    -0.909636
    27     1.383333
    28     0.450251
    29     0.470468
    30     0.206413
    31     0.098557
    32     0.760619
    33    -0.641732
    34     0.385036
    35    -0.313718
    36     0.280349
    37     0.537557
    38     0.184571
    39     0.081827
    40    -0.046185
    41     0.097424
    42     0.032002
    43    -0.041706
    44     0.064454
    45    -0.011262
    46     0.031895
    47     0.020114
    48     0.223932
    49    -0.094829
    50     0.426786
    51     0.079051
    52    -0.032734
    53     0.096589
    54     0.228373
    55     0.225991
    56    -0.209654
    57    -0.064642
    58    -0.337899
    59     0.162559
    60    -0.281363
    61    -0.054929
    62    -0.595624
    63    -0.073353
    64    -0.079126
    65    -0.002059
    66    -0.144198
    67     0.073814
    68    -0.020113
    69    -0.028924
    70    -0.028148
    71    -0.130216
    72     0.488059
    73     0.003747
    74    -0.006255
    75     0.012339
    76     0.183537
    77     0.014830
    78    -0.579918
    79    -0.205554
    80    -0.121285
    81     0.010624
    82     0.035910
    83    -0.984025
    84    -0.259036
    85     0.594035
    86     0.294200
    87     1.037498
    88    -0.120069
    89    -0.155734
    90    -0.424650
    91     0.036581
    92    -3.353335
    93     3.469457
    94    -0.043730
    95     1.335242
    96    -0.640368
    97    -0.629146
    98    15.812510
    99   -15.342053
   100     0.938806
   101    -6.029001
   102     3.136219
   103     3.015407
   104    -1.670315
   105     1.870987
   106     0.005060
   107     0.721534
   108    -0.060252
   109    -0.073735
   110     0.332587
   111     0.062637
   112    -0.023066
   113     0.125206
   114     0.037891
   115     0.036523
   116     0.067069
   117     0.035267
   118    -0.123066
   119    -0.034114
   120     0.265932
   121    -0.266680
   122    -0.114327
   123     0.146843
   124    -0.130902
   125    -0.174836
   126     0.310556
   127     0.038709
   128     0.090342
   129     0.062481
   130    -0.325269
   131    -1.134550
   132     2.631874
   133    -1.243001
   134     9.375927
   135    -1.253712
   136     1.049017
   137    -0.587888
   138     2.396974
   139    -2.792765
   140    -0.554605
   141    -0.016827
   142    -1.322794
   143     2.329446
   144    -9.403915
   145    -0.000226
   146     0.000476
   147     0.000083
   148    -0.048597
   149     0.023290
   150    -0.429563
   151    -0.058061
   152     0.033289
   153     0.016898
   154     0.004167
   155    -0.182689
   156    -0.130061
   157     0.125909
   158    -0.482323
   159    -0.447103
   160     0.421989
   161     0.131158
   162     0.036860
   163     0.018018
   164     0.015357
   165    -0.020624
   166    -0.000362
   167    -0.004072
   168    -0.001955
   169     0.108948
   170    -0.220106
   171     0.029218
   172    -0.137745
   173     0.025942
   174     0.047359
   175    -0.582919
   176    -0.315596
   177     0.162430
   178    -0.260309
   179     0.104503
   180     0.181418
   181     0.335330
   182     0.058988
   183     0.034215
   184     0.003089
   185     0.023992
   186     0.015525
   187    -0.048463
   188     0.040994
   189     0.009782
   190     0.056738
   191     0.022602
   192     0.198832
   193     0.097701
   194     0.010232
   195     0.092672
   196     0.042675
   197     0.174210
   198     0.024313
   199    -0.143159
   200    -0.128397
   201    -0.066439
   202     0.060207
   203     0.324662
   204    -0.010768
   205     0.251016
   206    -0.105079
   207    -0.019971
   208     0.000354
   209    -0.016540
   210    -0.034376
   211     0.024732
   212     0.113005
   213     0.022821
   214    -0.035403
   215    -0.018258
   216     0.173506
Sym=    76a
Ene=   -0.733478E-02
Spin= Alpha
Occup= 0.000259
     1     1.524031
     2     0.038294
     3    -2.357506
     4     0.694413
     5     2.326293
     6    -2.127193
     7    -0.464836
     8    -0.000220
     9    -0.001035
    10    -0.002418
    11    -0.000006
    12    -0.000434
    13    -0.063314
    14    -0.001322
    15    -0.002056
    16     0.110956
    17    -0.000051
    18     0.001196
    19     0.109567
    20    -0.800850
    21    -0.801877
    22    -0.763669
    23    -0.000298
    24     0.000314
    25    -0.000401
    26     1.640093
    27     1.641156
    28     1.779877
    29     0.000055
    30    -0.002318
    31     0.000411
    32     0.255144
    33     0.251651
    34    -0.200404
    35     0.000188
    36     0.000431
    37    -0.001989
    38     0.004309
    39    -0.003379
    40     0.007008
    41    -0.005967
    42     0.004097
    43    -0.017751
    44     0.000136
    45     0.000482
    46    -0.017545
    47     0.000132
    48    -0.013075
    49     0.010361
    50    -0.173664
    51     0.017597
    52    -0.012451
    53     0.009319
    54    -0.000583
    55    -0.000535
    56     0.008745
    57    -0.000067
    58    -0.792550
    59    -0.000798
    60    -0.510560
    61    -0.002283
    62    -0.848776
    63     0.000974
    64    -0.000075
    65    -0.004597
    66    -0.000204
    67    -0.510381
    68     0.002565
    69    -0.496563
    70     0.004699
    71    -0.000011
    72    -0.847389
    73     0.001219
    74    -0.002899
    75     0.025112
    76    -0.138950
    77    -0.085524
    78     0.716224
    79     0.533853
    80     0.000046
    81     0.000351
    82     0.010554
    83     0.000319
    84    -0.000469
    85    -0.241597
    86     0.000532
    87     0.001118
    88     0.144840
    89     0.000029
    90    -0.001406
    91     0.054622
    92    -0.004039
    93    -0.004363
    94     0.022387
    95    -0.000044
    96     0.000020
    97    -0.000013
    98    -0.299028
    99    -0.296476
   100    -0.442582
   101     0.000805
   102     0.000251
   103    -0.000862
   104    -0.101624
   105    -0.103138
   106    -0.061071
   107     0.000414
   108     0.000648
   109    -0.000660
   110    -0.001005
   111     0.000682
   112     0.013013
   113     0.001482
   114    -0.001087
   115     0.004868
   116    -0.000033
   117    -0.000190
   118     0.004975
   119     0.000030
   120    -0.013880
   121     0.008393
   122     0.076701
   123     0.018562
   124    -0.011075
   125     0.028644
   126     0.000168
   127    -0.000509
   128     0.028479
   129     0.000467
   130     0.104460
   131    -0.000140
   132     0.057596
   133     0.002735
   134     0.080915
   135     0.000073
   136    -0.000009
   137     0.005566
   138    -0.000386
   139     0.057745
   140    -0.003293
   141     0.047833
   142    -0.004290
   143     0.000013
   144     0.082195
   145     0.000412
   146    -0.004816
   147     0.021564
   148     0.009689
   149    -0.038361
   150     0.322977
   151    -0.165510
   152     0.000142
   153    -0.000041
   154     0.040576
   155     0.000117
   156    -0.000277
   157     0.083248
   158    -0.000547
   159     0.001790
   160    -0.107551
   161     0.000816
   162    -0.000162
   163     0.060947
   164     0.006830
   165     0.006851
   166    -0.007331
   167    -0.000046
   168     0.000021
   169     0.000011
   170     0.003423
   171     0.003534
   172     0.010269
   173     0.000331
   174    -0.000247
   175     0.000044
   176     0.069968
   177     0.070395
   178     0.071316
   179    -0.000184
   180    -0.000526
   181    -0.001090
   182     0.000583
   183     0.001741
   184    -0.016430
   185    -0.000799
   186    -0.002169
   187    -0.008347
   188     0.000036
   189    -0.000026
   190    -0.008391
   191    -0.000025
   192     0.007924
   193     0.010014
   194    -0.055561
   195    -0.010291
   196    -0.013154
   197    -0.048406
   198     0.000148
   199     0.000428
   200    -0.048675
   201    -0.000051
   202    -0.030542
   203    -0.000262
   204    -0.008809
   205    -0.003194
   206     0.010821
   207     0.000155
   208    -0.000082
   209     0.002907
   210    -0.000283
   211    -0.008781
   212     0.004236
   213     0.006301
   214    -0.002115
   215     0.000063
   216     0.010780
Sym=    77a
Ene=   -0.741421E-05
Spin= Alpha
Occup= 0.000000
     1    -0.003389
     2     0.009651
     3    -0.082526
     4    -0.069531
     5    -0.581377
     6     2.967092
     7    -0.709374
     8     0.123205
     9     0.028721
    10    -0.086602
    11     0.167781
    12     0.058256
    13     0.671928
    14    -0.127973
    15     0.044569
    16     1.307665
    17     0.415865
    18    -0.042780
    19     0.188611
    20    -0.018947
    21    -0.097125
    22    -0.438143
    23    -0.079076
    24     0.445817
    25     0.124504
    26    -0.729003
    27    -0.344799
    28     1.248845
    29     0.393170
    30    -2.433036
    31    -0.712961
    32    -0.217773
    33    -0.296593
    34     2.086793
    35    -0.083021
    36     0.711696
    37     0.454003
    38    -0.252302
    39    -0.072705
    40     0.171234
    41    -0.129016
    42    -0.022875
    43     0.035425
    44    -0.018461
    45    -0.017955
    46     0.026762
    47     0.001923
    48    -0.133749
    49    -0.073258
    50     0.060501
    51    -0.043809
    52    -0.043121
    53     0.319129
    54    -1.863742
    55    -0.317277
    56     0.341800
    57     0.006875
    58    -2.065862
    59     0.432765
    60    -0.261813
    61     0.270133
    62    -0.010767
    63     1.254378
    64    -0.052019
    65     0.398315
    66    -0.165127
    67    -0.209677
    68     0.113011
    69     0.076742
    70     0.870904
    71    -0.159835
    72     0.235591
    73    -0.000287
    74     0.001318
    75    -0.031169
    76    -0.383251
    77     0.248646
    78     0.453703
    79     1.198386
    80     0.068162
    81     0.011361
    82    -0.018821
    83     1.078583
    84     0.213127
    85     0.030818
    86     0.435763
    87     0.203097
    88     0.564908
    89    -0.255742
    90     0.011090
    91     0.229289
    92    -0.061027
    93    -0.065717
    94    -0.258403
    95     0.015759
    96    -0.240461
    97    -0.042086
    98    -0.995495
    99    -0.925446
   100     0.825075
   101    -0.042264
   102     1.226856
   103     0.237577
   104    -0.350825
   105    -0.316884
   106     0.368033
   107     0.037454
   108     0.473070
   109     0.227380
   110    -0.143221
   111    -0.031532
   112     0.266324
   113    -0.073918
   114    -0.007578
   115    -0.012955
   116     0.048947
   117     0.018553
   118    -0.021177
   119    -0.007648
   120    -0.208853
   121    -0.027244
   122     0.538439
   123    -0.081722
   124    -0.019971
   125    -0.128001
   126     0.557978
   127     0.181729
   128    -0.109864
   129     0.012197
   130    -0.311490
   131     0.026017
   132    -0.106082
   133    -0.061130
   134     0.237331
   135    -0.025149
   136     0.000219
   137    -0.118542
   138     0.007093
   139    -0.084933
   140    -0.028432
   141     0.151399
   142    -0.263287
   143     0.011937
   144     0.293769
   145    -0.164305
   146     0.269316
   147    -0.584319
   148     0.828629
   149     0.393675
   150    -2.934260
   151    -0.364860
   152     0.286898
   153     0.056901
   154     0.274847
   155    -1.454797
   156    -0.235307
   157    -2.046888
   158    -0.999619
   159    -0.506685
   160     1.829241
   161    -0.084545
   162     0.077505
   163    -0.049992
   164    -1.244444
   165     0.468264
   166    -0.036401
   167     1.410576
   168     5.776604
   169     0.822495
   170     5.014465
   171    -2.525503
   172    -0.183864
   173    -6.350840
   174   -25.599450
   175    -3.645422
   176    -0.492451
   177    -0.080684
   178    -1.270766
   179     0.333626
   180     0.823487
   181     0.246863
   182     0.557772
   183     0.092988
   184     0.340475
   185     0.252276
   186     0.045806
   187     0.244671
   188     0.109759
   189     0.013412
   190     0.276736
   191     0.066203
   192     1.209690
   193     0.287979
   194     0.871355
   195     0.535204
   196     0.124883
   197     0.499550
   198     1.111724
   199     0.146551
   200     0.479935
   201    -0.046809
   202     0.792192
   203     1.502942
   204     0.637381
   205     1.476030
   206     1.755109
   207    10.380174
   208     1.150536
   209     4.683312
   210     2.619393
   211    -0.753382
   212     0.661925
   213    -0.355498
   214    10.458444
   215     2.634844
   216    -2.959723
Sym=    78a
Ene=   -0.144392E-04
Spin= Alpha
Occup= 0.000003
     1    -0.016575
     2     0.011334
     3     0.230118
     4    -0.791538
     5     0.591855
     6     2.025046
     7    -0.468955
     8    -0.004697
     9     0.065314
    10     0.098276
    11    -0.037451
    12     0.630553
    13     1.087526
    14    -0.091535
    15    -1.206152
    16     3.284339
    17    -0.118193
    18     0.042937
    19     0.058886
    20    -0.196758
    21     0.230187
    22     0.308219
    23     0.190287
    24     0.069790
    25     0.128644
    26     0.276224
    27    -0.213807
    28    -2.856227
    29    -0.228740
    30    -0.491186
    31    -0.760575
    32    -0.353208
    33     0.351404
    34     4.096584
    35     0.039167
    36    -0.592532
    37    -0.813639
    38    -0.087590
    39    -0.483759
    40     0.381884
    41    -0.148019
    42    -0.247056
    43    -0.155801
    44     0.168239
    45     0.317959
    46    -0.376188
    47    -0.028916
    48     0.099069
    49     0.604299
    50    -0.908500
    51     0.263825
    52     0.219165
    53    -0.085357
    54    -0.592482
    55    -1.871245
    56     0.100087
    57     0.040735
    58     0.835033
    59    -0.336124
    60     0.775719
    61     0.689619
    62    -0.635779
    63    -0.031897
    64     0.000021
    65     0.154152
    66    -0.149441
    67     0.524967
    68     0.212616
    69    -0.162982
    70     0.326472
    71     0.172140
    72    -0.338840
    73    -0.041823
    74     0.038948
    75     0.420557
    76    -1.037477
    77     0.956292
    78    -1.627832
    79    -0.126570
    80     0.004510
    81     0.052756
    82    -0.037264
    83     0.214968
    84     1.512414
    85    -0.977207
    86    -0.396079
    87    -1.348345
    88     2.162371
    89     0.055332
    90     0.389407
    91    -0.192431
    92     0.031439
    93     0.405744
    94     0.161606
    95     0.067794
    96    -0.101238
    97    -0.252862
    98    -0.704440
    99    -0.315103
   100    -0.020831
   101     0.054951
   102     0.460635
   103     0.603763
   104     0.355665
   105     0.503857
   106     1.596354
   107     0.100050
   108    -0.179451
   109    -0.038787
   110     0.044368
   111    -0.531009
   112     0.300772
   113    -0.114076
   114    -0.031425
   115    -0.011284
   116    -0.018263
   117    -0.127181
   118     0.205473
   119     0.003478
   120     0.068462
   121     0.528630
   122     0.276802
   123     0.023529
   124     0.084794
   125    -0.317658
   126    -0.029350
   127     0.009526
   128    -0.543291
   129     0.064787
   130     0.143683
   131    -0.234784
   132    -0.128768
   133     0.041285
   134    -0.272954
   135    -0.192082
   136    -0.044535
   137    -0.178073
   138     0.171068
   139     0.062716
   140     0.115618
   141    -0.003524
   142    -0.029993
   143    -0.287772
   144     0.361009
   145    -0.000974
   146     0.000860
   147     0.011028
   148    -0.819593
   149     0.814407
   150    -0.510976
   151    -0.670153
   152    -0.016264
   153    -0.057187
   154    -0.002871
   155     0.187750
   156     0.659726
   157    -0.378898
   158     0.537797
   159     1.074496
   160     3.174259
   161     0.002104
   162    -0.014926
   163    -0.078645
   164    -0.056445
   165    -0.068749
   166    -0.156875
   167    -0.007770
   168    -0.028247
   169    -0.107476
   170    -1.559218
   171    -1.536455
   172    -0.780850
   173     0.032070
   174     0.137563
   175     0.542573
   176    -0.857180
   177    -1.113116
   178    -2.028076
   179    -0.006119
   180    -0.468699
   181    -1.068183
   182    -0.037173
   183    -0.114681
   184    -0.088382
   185    -0.006172
   186    -0.066489
   187     0.005141
   188    -0.009369
   189     0.004891
   190    -0.016324
   191     0.004432
   192    -0.082422
   193    -0.265998
   194     0.180939
   195    -0.068979
   196    -0.086321
   197    -0.048392
   198     0.229602
   199     0.579619
   200     0.094036
   201    -0.015267
   202     0.132680
   203    -0.560128
   204     0.172315
   205    -0.317817
   206     0.500809
   207    -0.156632
   208     0.014093
   209    -0.014636
   210    -0.012777
   211     0.172406
   212    -0.146491
   213     0.277734
   214    -0.099623
   215    -0.025457
   216     0.477111
Sym=    79a
Ene=   -0.106555E-04
Spin= Alpha
Occup= 0.000002
     1    -0.033350
     2    -0.001514
     3     0.707591
     4    -1.403116
     5     0.606395
     6     2.600803
     7     0.308055
     8    -0.226991
     9    -0.056212
    10     0.227591
    11    -2.170069
    12    -0.585927
    13    -0.138100
    14     0.497009
    15     0.216729
    16    -9.456154
    17    -0.288623
    18    -0.131349
    19    -0.539780
    20     0.401643
    21     0.255651
    22     0.639790
    23     0.056586
    24    -0.015290
    25     0.000527
    26     0.147954
    27    -0.867049
    28    -1.618857
    29     0.304924
    30    -0.712364
    31    -0.252748
    32     0.617800
    33     0.383743
    34    -1.401311
    35     0.168023
    36    -0.022798
    37    -0.108778
    38     0.572510
    39     0.190745
    40    -0.575694
    41     0.370439
    42     0.008781
    43    -0.267755
    44     0.235643
    45     0.076939
    46    -0.270339
    47    -0.035700
    48     0.665921
    49     0.045514
    50    -2.483541
    51     0.114882
    52     0.130598
    53     0.481001
    54    -0.318360
    55    -0.089753
    56    -0.046830
    57     0.158020
    58     1.602390
    59     0.153619
    60     0.409754
    61     0.153242
    62     0.317569
    63     0.535541
    64    -0.104634
    65     0.172604
    66    -0.191014
    67    -0.170471
    68     0.089095
    69    -0.088799
    70     0.580008
    71    -0.280102
    72    -0.661141
    73     0.013706
    74    -0.023067
    75    -0.016507
    76    -1.588044
    77     0.363903
    78     0.947942
    79    -0.896388
    80     0.043869
    81     0.001249
    82    -0.143958
    83     0.416086
    84    -0.045799
    85    -2.282684
    86    -0.091612
    87     0.082257
    88    -5.138224
    89    -0.025924
    90    -0.057768
    91    -0.184304
    92    -0.278902
    93    -0.324987
    94    -0.044887
    95     0.024955
    96    -0.072401
    97    -0.018301
    98    -2.716062
    99    -2.303607
   100    -5.614989
   101     0.123355
   102    -0.032870
   103     0.154455
   104    -1.191969
   105    -1.602323
   106    -3.724326
   107     0.093795
   108     0.021609
   109     0.001654
   110    -0.253254
   111     0.149696
   112    -0.147330
   113     0.264137
   114    -0.133801
   115     0.269068
   116     0.032113
   117     0.017997
   118     0.224091
   119     0.038602
   120     0.017246
   121    -0.117062
   122    -0.056669
   123    -0.228083
   124     0.046976
   125     0.636440
   126     0.393970
   127     0.093129
   128     0.358230
   129     0.019371
   130     1.326461
   131    -0.022318
   132     0.729320
   133     0.011076
   134     0.107349
   135     0.231770
   136     0.107050
   137     0.258795
   138     0.254193
   139     1.469740
   140    -0.069795
   141     0.647903
   142     0.239111
   143    -0.565387
   144    -0.112443
   145     0.001098
   146    -0.001341
   147     0.007021
   148     0.429577
   149    -0.537615
   150     2.862030
   151     3.421700
   152     0.008217
   153     0.008180
   154     0.012780
   155     0.062495
   156    -0.038951
   157    -0.677022
   158    -0.082355
   159     0.064074
   160    -4.382319
   161     0.084170
   162     0.027278
   163    -0.175519
   164     0.046769
   165     0.039947
   166     0.146046
   167    -0.004990
   168     0.004187
   169     0.012533
   170     0.804997
   171     0.841794
   172     0.244020
   173     0.024799
   174    -0.018748
   175    -0.074711
   176     0.373474
   177     0.568247
   178     2.029979
   179    -0.092673
   180    -0.090819
   181    -0.092053
   182     0.016676
   183     0.012950
   184     0.124325
   185    -0.004812
   186     0.014518
   187    -0.005281
   188     0.010844
   189     0.001174
   190     0.032237
   191    -0.013486
   192     0.052016
   193     0.033767
   194     0.021009
   195     0.062840
   196    -0.003857
   197     0.045153
   198     0.100863
   199     0.054876
   200    -0.075088
   201     0.064389
   202     0.061232
   203     0.029105
   204    -0.020506
   205     0.027046
   206    -0.310130
   207    -0.007281
   208    -0.014019
   209    -0.050123
   210    -0.001485
   211     0.002275
   212     0.015534
   213    -0.179427
   214    -0.037223
   215    -0.000328
   216    -0.269549
Sym=    80a
Ene=   -0.196408E-02
Spin= Alpha
Occup= 0.001287
     1    -0.012385
     2     0.006483
     3    -0.028524
     4    -0.122435
     5     0.340431
     6     0.616166
     7    -0.126057
     8     0.098950
     9    -0.111075
    10    -0.037245
    11    -0.196423
    12     0.220680
    13    -0.274040
    14     0.220679
    15    -0.248790
    16     0.133009
    17     0.029946
    18    -0.037589
    19    -0.055085
    20    -0.010863
    21     0.000717
    22     0.023099
    23    -0.030423
    24     0.038618
    25    -0.043144
    26    -0.087417
    27    -0.066848
    28     0.037468
    29    -0.101913
    30     0.199632
    31    -0.235380
    32    -0.054340
    33    -0.050989
    34     0.311212
    35     0.126649
    36    -0.214255
    37     0.231005
    38     0.028679
    39    -0.024470
    40    -0.028101
    41    -0.010530
    42     0.002643
    43    -0.004124
    44    -0.062309
    45     0.071396
    46    -0.018603
    47     0.056289
    48     0.173001
    49    -0.176554
    50    -0.141128
    51     0.025954
    52    -0.054502
    53     0.059022
    54     0.066824
    55    -0.073498
    56     0.053757
    57     0.006156
    58     0.074503
    59    -0.044228
    60     0.046639
    61     0.061649
    62     0.006384
    63     0.041144
    64    -0.047956
    65     0.004869
    66     0.024871
    67     0.033737
    68     0.010947
    69    -0.002504
    70    -0.062659
    71     0.024444
    72     0.009279
    73    -0.006086
    74     0.003953
    75    -0.010551
    76    -0.146831
    77     0.196385
    78    -0.174332
    79    -0.123641
    80     0.100931
    81    -0.113622
    82     0.033819
    83    -0.261737
    84     0.293204
    85     0.066209
    86     0.084981
    87    -0.113627
    88    -0.586911
    89     0.029499
    90    -0.030217
    91    -0.238926
    92    -0.013979
    93    -0.004610
    94     0.005656
    95    -0.025232
    96    -0.035610
    97     0.039626
    98    -0.203203
    99    -0.187817
   100    -0.132951
   101    -0.087467
   102    -0.196818
   103     0.228786
   104    -0.088840
   105    -0.088018
   106    -0.311738
   107     0.087514
   108     0.006889
   109    -0.012642
   110     0.023263
   111    -0.019310
   112     0.015550
   113    -0.011118
   114     0.005038
   115     0.000237
   116    -0.050517
   117     0.058156
   118     0.012793
   119    -0.051346
   120     0.134414
   121    -0.131982
   122     0.008088
   123     0.019505
   124    -0.042422
   125    -0.044838
   126    -0.010642
   127     0.016774
   128    -0.036509
   129    -0.004407
   130     0.052068
   131     0.015040
   132     0.049603
   133    -0.052330
   134     0.051901
   135    -0.014474
   136    -0.041857
   137    -0.007089
   138     0.017432
   139     0.037692
   140    -0.006580
   141     0.024582
   142     0.053811
   143     0.016993
   144     0.052181
   145     0.001200
   146    -0.000681
   147     0.005329
   148    -0.087639
   149    -0.000536
   150     0.076618
   151     0.432769
   152     0.001506
   153    -0.003116
   154    -0.000520
   155    -0.024354
   156     0.025983
   157    -0.016149
   158     0.029367
   159    -0.013037
   160     0.117844
   161    -0.074196
   162     0.077379
   163    -0.147285
   164    -0.006365
   165    -0.007764
   166    -0.008909
   167    -0.002691
   168     0.004662
   169    -0.005404
   170    -0.175216
   171    -0.182794
   172    -0.184664
   173     0.007920
   174    -0.017389
   175     0.020875
   176    -0.151818
   177    -0.158244
   178    -0.176850
   179    -0.023710
   180     0.006704
   181    -0.014569
   182     0.005196
   183    -0.006465
   184     0.005293
   185     0.002459
   186    -0.002992
   187    -0.000544
   188     0.000224
   189    -0.000644
   190    -0.001438
   191    -0.000624
   192     0.007592
   193    -0.020219
   194     0.019302
   195     0.009677
   196    -0.000129
   197    -0.003727
   198    -0.027876
   199     0.030282
   200    -0.009192
   201    -0.004327
   202     0.039601
   203    -0.030992
   204     0.032452
   205    -0.010463
   206     0.045427
   207     0.027218
   208     0.007404
   209     0.004359
   210    -0.002493
   211     0.034724
   212    -0.006988
   213     0.026441
   214     0.010704
   215    -0.004242
   216     0.044368
Sym=    81a
Ene=   -0.193240E-02
Spin= Alpha
Occup= 0.000796
     1    -0.009118
     2     0.017359
     3    -0.055288
     4    -0.077709
     5     0.624353
     6    -1.983371
     7    -0.186131
     8     0.000243
     9    -0.000647
    10     0.020883
    11     0.001090
    12    -0.000783
    13    -1.364244
    14    -0.004950
    15    -0.006694
    16    -2.271371
    17     0.001501
    18     0.002674
    19     0.052491
    20    -0.043967
    21    -0.046199
    22     0.001344
    23     0.000373
    24     0.000256
    25    -0.000147
    26    -0.089229
    27    -0.083426
    28     1.271086
    29    -0.002541
    30     0.003288
    31    -0.000385
    32    -0.009228
    33    -0.022146
    34    -2.038167
    35     0.001565
    36    -0.001774
    37    -0.003969
    38    -0.000438
    39    -0.000763
    40     0.407448
    41     0.000319
    42     0.001329
    43    -0.028022
    44     0.000949
    45    -0.000035
    46    -0.029352
    47    -0.000115
    48    -0.007924
    49     0.013903
    50    -1.180750
    51     0.009286
    52    -0.017094
    53    -0.048404
    54    -0.001034
    55    -0.002215
    56    -0.052011
    57     0.000376
    58     0.132687
    59     0.000307
    60    -0.244429
    61    -0.001718
    62     0.037833
    63     0.000658
    64     0.000499
    65    -0.010348
    66     0.000507
    67    -0.242864
    68     0.001157
    69     0.023530
    70     0.006526
    71     0.000765
    72     0.042675
    73     0.004099
    74    -0.007637
    75     0.039119
    76    -0.049571
    77    -0.684245
    78     0.268315
    79     0.430875
    80    -0.000234
    81    -0.000266
    82     0.005261
    83     0.002286
    84    -0.000031
    85    -1.377233
    86     0.001980
    87     0.002845
    88    -0.168539
    89    -0.000552
    90    -0.002866
    91     0.193832
    92     0.004083
    93     0.002531
    94     0.100500
    95     0.000302
    96     0.000075
    97    -0.000170
    98    -0.149624
    99    -0.139559
   100    -1.380795
   101    -0.000065
   102     0.000070
   103    -0.000315
   104    -0.088861
   105    -0.095307
   106    -0.285396
   107     0.001360
   108     0.000756
   109     0.000907
   110    -0.000748
   111     0.000780
   112    -0.084338
   113     0.000510
   114    -0.000867
   115     0.017260
   116    -0.000040
   117    -0.000291
   118     0.017704
   119     0.000105
   120    -0.022840
   121     0.011265
   122     0.063452
   123     0.028667
   124    -0.014443
   125     0.150313
   126    -0.000787
   127    -0.000551
   128     0.151345
   129     0.000991
   130     0.317997
   131    -0.000073
   132     0.100596
   133     0.002394
   134     0.013768
   135     0.000540
   136     0.000184
   137     0.006225
   138     0.000234
   139     0.101189
   140    -0.003169
   141     0.009459
   142    -0.004586
   143     0.000394
   144     0.018506
   145    -0.001923
   146     0.006286
   147    -0.026525
   148     0.037295
   149     0.155599
   150     2.140900
   151     0.490219
   152    -0.000156
   153     0.000575
   154     0.008087
   155     0.000051
   156    -0.000346
   157    -0.344507
   158    -0.001145
   159     0.002980
   160    -1.863205
   161     0.001425
   162     0.002848
   163     0.285919
   164    -0.034958
   165    -0.035081
   166    -0.046771
   167    -0.000033
   168    -0.000265
   169    -0.000079
   170    -0.030334
   171    -0.029199
   172     0.781043
   173     0.000572
   174    -0.001329
   175    -0.000821
   176     0.405605
   177     0.406377
   178     1.088328
   179    -0.000729
   180    -0.002145
   181    -0.002114
   182     0.001755
   183     0.003587
   184    -0.194764
   185    -0.002610
   186    -0.004583
   187     0.022188
   188     0.000838
   189     0.000202
   190     0.022158
   191    -0.000052
   192     0.040873
   193     0.064633
   194    -0.333381
   195    -0.053686
   196    -0.086111
   197     0.025742
   198     0.001425
   199     0.000328
   200     0.025555
   201    -0.000392
   202    -0.178703
   203    -0.000001
   204    -0.146714
   205    -0.005315
   206     0.034121
   207    -0.000874
   208     0.000128
   209     0.004597
   210    -0.000229
   211    -0.146583
   212     0.007550
   213     0.020145
   214    -0.002593
   215    -0.000032
   216     0.034477
Sym=    82a
Ene=   -0.245036E-05
Spin= Alpha
Occup= 0.000001
     1    -0.002854
     2     0.008783
     3    -0.053554
     4     1.059700
     5    -0.136267
     6    10.130677
     7     4.823019
     8     0.149748
     9    -0.036543
    10    -0.024037
    11     0.822967
    12    -0.298920
    13    -0.315791
    14     0.406167
    15     0.377120
    16     5.699628
    17     0.338879
    18    -0.235230
    19     0.636270
    20     0.202407
    21     0.010145
    22     0.004206
    23    -0.118091
    24    -0.031261
    25    -0.015358
    26     1.428661
    27     2.377689
    28     2.760186
    29     0.811205
    30     0.113524
    31     0.100360
    32     0.801203
    33     0.758854
    34    12.603973
    35     0.073117
    36    -2.856219
    37     0.927837
    38    -0.277597
    39     0.102925
    40     0.088512
    41    -0.128978
    42     0.044738
    43     0.023871
    44    -0.085886
    45     0.007998
    46    -0.049887
    47    -0.017934
    48    -0.347001
    49    -0.079732
    50    -4.908522
    51    -0.157140
    52    -0.026113
    53     0.336975
    54    -1.032938
    55     0.357119
    56     0.659263
    57     0.038501
    58    -1.576316
    59     0.017074
    60    -0.244650
    61    -0.050857
    62    -0.780586
    63    -0.319728
    64    -0.152606
    65    -0.007655
    66    -0.382178
    67    -0.159920
    68    -0.008778
    69    -0.234336
    70     0.000204
    71    -0.393344
    72    -0.134332
    73    -0.004230
    74     0.009453
    75    -0.069634
    76    -0.218791
    77     0.162708
    78    -9.597540
    79    -3.552790
    80     0.078881
    81    -0.005068
    82    -0.039876
    83     0.698559
    84    -0.164559
    85    -4.050023
    86    -1.762630
    87     0.679885
    88    -2.872111
    89    -0.119351
    90    -0.039720
    91    -0.867199
    92    -0.049360
    93    -0.180237
    94    -0.264426
    95     0.001608
    96     0.140662
    97    -0.027323
    98    -0.694889
    99     0.015381
   100     0.000647
   101    -0.085400
   102    -0.737103
   103     0.121559
   104     0.797164
   105     0.857261
   106    -0.604454
   107    -0.044925
   108    -1.114529
   109     0.306385
   110    -0.156459
   111     0.026798
   112     0.158692
   113    -0.085032
   114     0.021966
   115     0.023234
   116    -0.051948
   117    -0.012272
   118     0.003444
   119     0.020496
   120    -0.186774
   121    -0.050989
   122     0.008350
   123    -0.066599
   124    -0.037287
   125    -0.225621
   126    -0.337910
   127     0.056489
   128    -0.117526
   129    -0.033256
   130    -0.455460
   131    -0.064983
   132    -0.325490
   133    -0.078598
   134    -0.090543
   135     0.323916
   136     0.051275
   137     0.183321
   138     0.042961
   139    -0.223966
   140    -0.039824
   141     0.043709
   142     0.382445
   143     0.032813
   144     0.376532
   145     0.125002
   146    -0.243134
   147     0.401035
   148     2.844832
   149    -6.684188
   150    -6.815388
   151    -6.128969
   152     1.012784
   153    -0.431899
   154     0.847460
   155    -6.752345
   156     2.914209
   157    -8.041516
   158    -1.672987
   159     0.752697
   160    10.052347
   161     0.755762
   162    -0.322959
   163     0.750230
   164    -1.344574
   165     0.365187
   166     0.789818
   167     0.963899
   168    -1.185851
   169     0.373709
   170    13.334871
   171     5.834372
   172     3.628859
   173    -4.400227
   174     5.572845
   175    -1.676319
   176    -2.213725
   177    -1.923939
   178    -6.510556
   179     0.156757
   180    -1.774006
   181     0.644177
   182     2.154223
   183    -0.938789
   184     1.258116
   185     0.966754
   186    -0.415012
   187     0.931134
   188     0.832288
   189    -0.356009
   190     0.802758
   191    -0.000455
   192     4.172615
   193    -1.765013
   194     3.218786
   195     1.862826
   196    -0.798438
   197     0.896992
   198     2.683151
   199    -1.077548
   200     1.149976
   201     0.024395
   202     0.056800
   203     0.727213
   204    -0.776614
   205     0.697433
   206    -2.640652
   207    -2.474013
   208     0.817197
   209    -1.038916
   210     1.847333
   211    -2.024431
   212     0.282924
   213    -2.960383
   214    -2.264002
   215     1.819420
   216    -7.395762
Sym=    83a
Ene=   -0.114838E-03
Spin= Alpha
Occup= 0.000025
     1     0.000099
     2    -0.004427
     3    -0.011375
     4     0.061859
     5    -0.190906
     6     0.724645
     7     0.038332
     8     0.000021
     9     0.005234
    10    -0.029826
    11     0.014915
    12    -0.098052
    13     0.458716
    14     0.035852
    15    -0.010656
    16     0.293958
    17     0.089761
    18    -0.324636
    19    -0.015453
    20    -0.021607
    21     0.018926
    22    -0.035515
    23    -0.013573
    24     0.004984
    25    -0.015143
    26     0.096124
    27    -0.109832
    28     0.107956
    29     0.070071
    30    -0.009534
    31     0.055305
    32    -0.077897
    33     0.037822
    34     0.717889
    35    -0.048779
    36     0.033755
    37    -0.231089
    38     0.004753
    39    -0.004235
    40    -0.003135
    41    -0.003435
    42    -0.002295
    43     0.019048
    44     0.002626
    45    -0.003742
    46     0.004886
    47     0.000972
    48    -0.000048
    49    -0.036988
    50     0.979068
    51    -0.002028
    52    -0.005630
    53     0.031812
    54    -0.018621
    55    -0.092061
    56     0.011638
    57    -0.025921
    58    -0.195005
    59    -0.026310
    60     0.000155
    61    -0.047115
    62     0.043990
    63    -0.010656
    64    -0.019373
    65     0.005083
    66    -0.024322
    67    -0.016867
    68    -0.020030
    69    -0.007519
    70    -0.000040
    71    -0.021091
    72    -0.067187
    73    -0.000224
    74     0.001426
    75    -0.005340
    76     0.086666
    77     0.182553
    78    -0.252271
    79    -0.169459
    80     0.000165
    81     0.003696
    82     0.022769
    83     0.002481
    84     0.032458
    85     0.696233
    86     0.023669
    87    -0.102919
    88    -0.141066
    89    -0.060993
    90     0.240197
    91    -0.065944
    92     0.016978
    93     0.007361
    94    -0.018039
    95     0.008368
    96    -0.012397
    97     0.017552
    98     0.116885
    99     0.162251
   100     0.556469
   101    -0.035349
   102     0.063261
   103    -0.096626
   104     0.014660
   105    -0.032851
   106    -0.007781
   107     0.011060
   108    -0.023430
   109     0.034798
   110    -0.001809
   111    -0.002792
   112    -0.000096
   113     0.004661
   114    -0.002932
   115    -0.021018
   116    -0.001959
   117     0.004877
   118    -0.013123
   119    -0.002811
   120     0.007070
   121    -0.030914
   122    -0.054881
   123    -0.012588
   124    -0.006406
   125    -0.037621
   126    -0.007742
   127     0.004733
   128    -0.063949
   129     0.003704
   130    -0.101638
   131     0.048267
   132    -0.037084
   133     0.035322
   134    -0.038798
   135    -0.027232
   136     0.003025
   137    -0.010137
   138     0.012778
   139    -0.027092
   140     0.016899
   141    -0.015825
   142    -0.018124
   143     0.012223
   144    -0.018650
   145     0.002795
   146     0.036634
   147     0.063823
   148    -0.568334
   149     0.959627
   150    -1.649717
   151     0.469927
   152    -0.014637
   153     0.087182
   154     0.040595
   155     0.206121
   156    -1.148163
   157     0.106650
   158    -0.107421
   159     0.782036
   160     0.570841
   161    -0.060293
   162     0.017436
   163    -0.110737
   164     0.036541
   165     0.119746
   166     0.021933
   167    -0.020073
   168     0.009324
   169     0.083630
   170    -1.127000
   171     0.714160
   172    -0.870507
   173    -0.404842
   174    -0.260188
   175     0.047053
   176     0.052326
   177    -0.389514
   178    -0.235449
   179     0.120200
   180     0.066459
   181    -0.205678
   182     0.091985
   183     0.772172
   184     0.018305
   185    -0.275312
   186    -0.193799
   187     0.051484
   188    -0.010737
   189    -0.000593
   190     0.048091
   191    -0.108203
   192     0.016109
   193    -0.006203
   194     0.316051
   195    -0.004397
   196    -0.058510
   197     0.120376
   198    -0.031381
   199     0.307200
   200     0.017198
   201     0.001549
   202     0.375800
   203    -0.056659
   204    -0.091130
   205    -0.032038
   206    -0.168443
   207     0.134180
   208     0.070640
   209    -0.109540
   210    -0.314727
   211     0.298387
   212    -0.024363
   213    -0.679848
   214     0.162109
   215     0.634515
   216     0.879426
Sym=    84a
Ene=   -0.149985E-03
Spin= Alpha
Occup= 0.000039
     1    -0.001272
     2     0.003164
     3    -0.022672
     4    -0.071698
     5     0.174844
     6    -0.513690
     7    -0.533984
     8     0.017882
     9     0.013882
    10    -0.009796
    11     0.197215
    12     0.102341
    13    -0.296443
    14    -0.106787
    15     0.055959
    16     0.113807
    17     0.073249
    18    -0.070930
    19     0.101170
    20    -0.009715
    21    -0.049553
    22    -0.091497
    23    -0.028793
    24     0.012409
    25     0.005509
    26    -0.297902
    27    -0.026781
    28     0.250885
    29     0.132438
    30    -0.030373
    31     0.041733
    32    -0.044790
    33    -0.043194
    34    -0.896342
    35    -0.019840
    36     0.036653
    37     0.034902
    38    -0.023303
    39    -0.016231
    40     0.069180
    41    -0.022147
    42     0.003778
    43    -0.023465
    44    -0.000304
    45     0.011837
    46     0.039756
    47    -0.009533
    48    -0.045021
    49    -0.032427
    50    -0.625246
    51     0.011472
    52    -0.039583
    53    -0.130409
    54     0.242538
    55    -0.028425
    56     0.175897
    57     0.025137
    58    -0.181377
    59     0.005859
    60    -0.000606
    61     0.016171
    62    -0.004724
    63     0.092448
    64    -0.039619
    65     0.038318
    66    -0.055805
    67    -0.126003
    68    -0.000198
    69     0.029727
    70     0.076993
    71    -0.051499
    72     0.113662
    73     0.000106
    74    -0.001209
    75     0.005552
    76    -0.119531
    77    -0.165741
    78     0.879191
    79     0.725621
    80     0.006051
    81    -0.001465
    82    -0.015126
    83    -0.039142
    84     0.001523
    85    -0.433258
    86     0.084612
    87    -0.004636
    88     0.570052
    89    -0.092402
    90     0.058547
    91     0.136194
    92     0.013625
    93    -0.034585
    94    -0.002364
    95     0.001961
    96     0.024060
    97    -0.003451
    98    -0.373199
    99    -0.115576
   100    -0.417522
   101    -0.011366
   102    -0.142500
   103     0.020685
   104    -0.075372
   105    -0.046706
   106     0.174148
   107     0.028660
   108    -0.007807
   109     0.023569
   110    -0.012838
   111     0.003084
   112     0.013468
   113    -0.005810
   114     0.000696
   115     0.015334
   116    -0.003616
   117     0.002754
   118     0.004000
   119    -0.003746
   120    -0.023678
   121    -0.001673
   122     0.113629
   123    -0.019557
   124     0.008009
   125    -0.007628
   126    -0.038800
   127     0.013949
   128     0.064337
   129     0.022503
   130     0.082160
   131    -0.002181
   132     0.010281
   133    -0.010631
   134    -0.008787
   135     0.049043
   136     0.007924
   137     0.007398
   138    -0.001810
   139     0.055509
   140     0.002174
   141     0.033207
   142     0.036576
   143     0.003597
   144     0.131319
   145    -0.003802
   146    -0.018215
   147    -0.017995
   148     0.292462
   149    -0.599051
   150     1.334258
   151    -0.391346
   152     0.015334
   153     0.014194
   154    -0.010939
   155    -0.233467
   156    -0.141207
   157    -0.193050
   158     0.037397
   159     0.008529
   160    -0.333523
   161     0.100740
   162     0.015449
   163     0.085678
   164    -0.039328
   165     0.004818
   166    -0.026546
   167    -0.069304
   168    -0.050788
   169     0.043387
   170    -0.060158
   171    -0.008927
   172     0.751525
   173    -0.193298
   174     0.504737
   175    -0.387303
   176     0.303911
   177     0.070337
   178     0.088425
   179     0.011805
   180     0.116517
   181     0.133266
   182     0.128670
   183     0.138055
   184     0.068931
   185     0.095991
   186     0.082856
   187    -0.330329
   188    -0.045354
   189    -0.131651
   190     0.207264
   191     0.019075
   192    -0.039634
   193     0.154889
   194    -0.023395
   195    -0.041102
   196    -0.046797
   197    -0.567625
   198    -0.195142
   199    -0.161992
   200     0.269454
   201     0.050601
   202    -0.316569
   203     0.060259
   204     0.099286
   205    -0.133147
   206    -0.101464
   207    -0.377713
   208     0.191434
   209    -0.408672
   210     0.007639
   211    -0.150427
   212     0.336272
   213     0.023254
   214     0.407780
   215     0.117405
   216     0.130673
Sym=    85a
Ene=   -0.500120E-04
Spin= Alpha
Occup= 0.000014
     1    -0.000783
     2    -0.000889
     3     0.006382
     4    -0.514392
     5    -0.909300
     6    11.408924
     7    -0.150349
     8    -0.036144
     9    -0.027699
    10     0.085900
    11    -0.367537
    12    -0.287453
    13     2.983783
    14     0.221926
    15     0.109928
    16    -0.646696
    17    -0.103267
    18    -0.075045
    19     0.258458
    20    -0.094185
    21    -0.019169
    22    -0.139973
    23     0.009107
    24     0.031698
    25     0.024444
    26    -0.954691
    27    -1.253302
    28    -1.792373
    29    -0.040420
    30     0.098471
    31     0.061844
    32     0.121186
    33     0.014936
    34     7.965547
    35     0.011496
    36    -0.054640
    37    -0.038152
    38     0.034676
    39     0.053790
    40    -0.058149
    41     0.062113
    42     0.007020
    43    -0.067871
    44    -0.107569
    45    -0.071885
    46    -0.096538
    47    -0.000610
    48     0.220888
    49     0.112008
    50     1.706681
    51     0.007885
    52     0.098461
    53    -0.546595
    54    -0.037058
    55    -0.061212
    56    -0.441442
    57     0.003842
    58    -0.412212
    59     0.167922
    60     0.072552
    61     0.007040
    62     0.381112
    63     0.236196
    64     0.003409
    65    -0.020392
    66     0.031033
    67     0.037364
    68     0.015588
    69     0.175025
    70     0.019515
    71    -0.004016
    72     0.190944
    73     0.019565
    74    -0.070922
    75    -0.262396
    76     1.579217
    77    -0.593744
    78    -8.469014
    79    -0.120159
    80     0.046057
    81     0.031495
    82     0.281097
    83     0.335146
    84     0.254538
    85     2.585937
    86    -0.294045
    87    -0.228056
    88    -2.607018
    89    -0.027079
    90    -0.003476
    91    -0.043905
    92    -0.106273
    93     0.022294
    94    -0.208592
    95     0.012196
    96    -0.053783
    97    -0.035750
    98     0.960007
    99     1.547024
   100     3.370096
   101    -0.001515
   102     0.073863
   103     0.090718
   104    -0.248315
   105    -0.481363
   106    -1.696572
   107    -0.012951
   108    -0.075592
   109    -0.023475
   110    -0.071355
   111     0.145784
   112    -0.427480
   113     0.264826
   114    -0.077542
   115     0.205407
   116    -0.202641
   117    -0.148571
   118    -0.094307
   119    -0.011730
   120    -0.141207
   121     0.035608
   122    -0.439033
   123     0.117844
   124    -0.073675
   125    -1.449916
   126     0.223287
   127     0.187404
   128    -1.076780
   129     0.011663
   130    -0.067919
   131     0.450693
   132    -0.395641
   133    -0.405393
   134    -0.319624
   135     0.638779
   136     0.006616
   137    -0.531238
   138    -0.006694
   139    -0.207874
   140     0.056239
   141    -0.132093
   142    -0.066366
   143     0.005913
   144    -0.072407
   145     0.000596
   146    -0.001497
   147     0.017938
   148    -0.522931
   149     0.376386
   150    -4.393678
   151    -0.546622
   152     0.010867
   153     0.007517
   154     0.071913
   155    -0.070157
   156    -0.044969
   157     0.436144
   158    -0.007445
   159     0.015014
   160     4.230372
   161    -0.016705
   162    -0.010682
   163    -0.292860
   164    -0.034953
   165    -0.030856
   166    -0.032872
   167    -0.001006
   168     0.022127
   169     0.014374
   170    -0.944304
   171    -0.968889
   172    -1.036883
   173     0.001631
   174    -0.124412
   175    -0.080230
   176    -0.988804
   177    -0.980796
   178    -2.690440
   179    -0.005223
   180     0.074308
   181     0.026645
   182     0.026054
   183     0.015907
   184     0.091390
   185     0.002749
   186     0.004030
   187     0.064729
   188     0.003678
   189     0.002683
   190     0.059310
   191    -0.000052
   192     0.040846
   193     0.035602
   194     0.492339
   195     0.044329
   196     0.020034
   197     0.250428
   198    -0.066908
   199    -0.035365
   200     0.261435
   201     0.002315
   202     0.331127
   203     0.064817
   204     0.136551
   205     0.022563
   206     0.316534
   207     0.101538
   208    -0.000150
   209     0.002011
   210     0.002358
   211     0.136667
   212     0.006107
   213     0.178434
   214     0.043322
   215    -0.000162
   216     0.301397
Sym=    86a
Ene=   -0.540584E-05
Spin= Alpha
Occup= 0.000000
     1     0.000733
     2    -0.002125
     3     0.016109
     4     0.038613
     5     0.072128
     6    -0.670347
     7     0.135088
     8    -0.244178
     9     0.045341
    10     0.009081
    11     0.081949
    12     0.309445
    13    -0.239273
    14     1.271645
    15    -0.115650
    16    -0.413417
    17    -0.669870
    18     0.017103
    19    -0.229294
    20     0.035918
    21     0.005331
    22     0.044398
    23     0.057623
    24     0.748717
    25    -0.069415
    26     0.122083
    27     0.089521
    28     0.053374
    29    -0.423592
    30    -3.938333
    31     0.375063
    32     0.195951
    33    -0.052345
    34    -0.488104
    35     0.052397
    36    -2.565360
    37     0.224838
    38     0.552602
    39    -0.111010
    40    -0.024345
    41     0.252711
    42    -0.062655
    43    -0.011786
    44    -0.050103
    45    -0.025619
    46     0.003996
    47     0.020112
    48     0.343169
    49    -0.091564
    50    -0.270242
    51     0.147926
    52    -0.023042
    53     0.009726
    54     3.304706
    55    -0.218231
    56    -0.043317
    57     0.001656
    58     0.107744
    59    -0.105330
    60     0.023684
    61    -0.172676
    62     0.036677
    63     1.330413
    64     0.063583
    65     0.456908
    66     0.192329
    67     0.000805
    68    -0.067935
    69     0.008831
    70     1.016224
    71     0.199885
    72    -0.077029
    73    -0.023233
    74     0.038134
    75    -0.080942
    76     0.083478
    77     0.013414
    78     0.068203
    79    -0.399313
    80     0.161374
    81     0.047414
    82    -0.039619
    83    -0.293086
    84     0.425378
    85    -0.353110
    86    -1.964949
    87     0.221794
    88    -0.343305
    89     0.573743
    90    -0.014342
    91     0.003785
    92    -0.544484
    93     0.446375
    94    -0.035253
    95    -0.635770
    96     5.978797
    97    -0.276866
    98     2.167730
    99    -2.005450
   100    -0.067298
   101     2.712582
   102   -28.701178
   103     1.289949
   104    -0.251748
   105     0.313359
   106    -0.145323
   107    -0.324943
   108    -0.329448
   109     0.016537
   110    -0.403821
   111    -0.116577
   112     0.052023
   113    -0.179133
   114    -0.053424
   115     0.049280
   116     0.151389
   117    -0.024335
   118     0.015489
   119     0.002687
   120    -0.251626
   121    -0.146038
   122     0.086565
   123    -0.113532
   124    -0.065017
   125     0.079458
   126    -2.553894
   127    -0.013230
   128     0.137561
   129    -0.005648
   130    -0.049581
   131    -0.470599
   132     0.325566
   133    -0.476416
   134     1.159384
   135    10.680800
   136    -0.453525
   137     5.043554
   138    -1.030631
   139    -0.356466
   140    -0.212150
   141     0.024587
   142    11.273876
   143    -1.066547
   144    -1.292609
   145     0.000630
   146    -0.001551
   147     0.009077
   148     0.088455
   149    -0.158447
   150     0.337074
   151     0.402704
   152    -0.018825
   153     0.001718
   154    -0.006979
   155    -0.422457
   156     0.018066
   157    -0.033988
   158     0.924966
   159    -0.101425
   160    -0.542374
   161     0.140129
   162     0.012238
   163     0.023636
   164     0.009653
   165     0.018340
   166     0.024074
   167     0.013896
   168     0.001704
   169     0.021442
   170     0.183132
   171     0.173365
   172     0.125136
   173    -0.057865
   174    -0.268950
   175    -0.108030
   176     0.005120
   177     0.097671
   178     0.301475
   179    -0.007667
   180     0.119712
   181     0.030419
   182    -0.017099
   183     0.001218
   184    -0.004880
   185    -0.007924
   186     0.001817
   187    -0.011847
   188    -0.007791
   189     0.001003
   190    -0.000794
   191    -0.013736
   192    -0.187937
   193     0.021750
   194    -0.060562
   195    -0.083602
   196     0.005884
   197     0.003905
   198    -0.664666
   199     0.007385
   200    -0.042367
   201     0.016348
   202    -0.034153
   203     0.044727
   204    -0.017640
   205     0.034757
   206    -0.076302
   207     0.471025
   208     0.006906
   209     0.143105
   210     0.024323
   211    -0.017314
   212     0.017505
   213    -0.037510
   214     0.320853
   215     0.030472
   216    -0.060597
Sym=    87a
Ene=   -0.388421E-03
Spin= Alpha
Occup= 0.000005
     1    -5.505809
     2     5.470342
     3     2.654609
     4    -3.887526
     5    -1.775032
     6     1.692730
     7     0.289608
     8    -0.000004
     9     0.000568
    10     0.116533
    11    -0.003180
    12     0.005883
    13     0.857806
    14    -0.002089
    15    -0.016167
    16     0.634311
    17    -0.008751
    18     0.016605
    19     0.074214
    20     1.320128
    21     1.322843
    22     1.606145
    23    -0.001587
    24     0.005940
    25    -0.002870
    26    -2.159206
    27    -2.170290
    28    -2.835062
    29     0.005668
    30    -0.029868
    31     0.014399
    32    -0.411623
    33    -0.411129
    34    -0.927578
    35    -0.001128
    36     0.003563
    37    -0.016823
    38     0.020264
    39    -0.015826
    40    -0.113806
    41    -0.026652
    42     0.018186
    43    -0.141400
    44     0.000545
    45     0.002944
    46    -0.141531
    47     0.000119
    48    -0.031225
    49     0.026532
    50    -0.635236
    51     0.043696
    52    -0.025648
    53    -0.078059
    54    -0.002523
    55    -0.006979
    56    -0.079339
    57     0.000558
    58     1.400566
    59    -0.012700
    60     0.735118
    61    -0.009255
    62     1.098097
    63     0.014414
    64    -0.001231
    65     0.003387
    66    -0.001782
    67     0.732120
    68     0.000823
    69     0.641104
    70     0.014390
    71    -0.002217
    72     1.092724
    73     0.001781
    74    -0.002662
    75    -0.029917
    76     0.026543
    77     0.007759
    78     0.765711
    79     0.184937
    80    -0.000309
    81    -0.000051
    82    -0.012684
    83    -0.000513
    84    -0.000132
    85    -0.087272
    86    -0.002006
    87    -0.002326
    88     0.623310
    89     0.007764
    90    -0.010063
    91     0.019478
    92    -0.042309
    93    -0.039206
    94    -0.075739
    95    -0.000694
    96    -0.000387
    97     0.000241
    98     0.034388
    99     0.026719
   100     0.236942
   101     0.002929
   102     0.001972
   103    -0.000120
   104     0.082824
   105     0.083384
   106     0.376321
   107     0.000812
   108     0.004289
   109    -0.006607
   110    -0.003068
   111     0.002751
   112     0.029646
   113     0.005973
   114    -0.003799
   115     0.013631
   116     0.000121
   117    -0.000899
   118     0.013205
   119    -0.000597
   120     0.004071
   121    -0.001786
   122     0.151793
   123    -0.003878
   124     0.004415
   125     0.026847
   126     0.004024
   127    -0.005599
   128     0.026992
   129     0.001235
   130    -0.130130
   131    -0.004174
   132    -0.049324
   133    -0.001204
   134    -0.038652
   135     0.000954
   136    -0.000860
   137    -0.005550
   138    -0.002326
   139    -0.048772
   140     0.004574
   141    -0.023981
   142     0.002172
   143     0.000368
   144    -0.043238
   145    -0.000116
   146    -0.005125
   147     0.021072
   148     0.047120
   149    -0.051527
   150     0.332073
   151    -0.328723
   152     0.000355
   153     0.000454
   154    -0.015421
   155    -0.000455
   156    -0.003026
   157     0.020464
   158    -0.004654
   159     0.014033
   160    -0.004661
   161     0.006373
   162    -0.006450
   163     0.075818
   164     0.015367
   165     0.016198
   166    -0.018044
   167    -0.000472
   168     0.000618
   169     0.000309
   170     0.074910
   171     0.072431
   172     0.318394
   173     0.002656
   174    -0.003536
   175    -0.000062
   176     0.088123
   177     0.087976
   178     0.018840
   179    -0.000002
   180    -0.001785
   181    -0.010377
   182    -0.001906
   183    -0.000000
   184    -0.051809
   185     0.003437
   186     0.001745
   187    -0.019720
   188     0.000124
   189     0.000277
   190    -0.020260
   191    -0.000177
   192     0.012880
   193     0.009134
   194    -0.024124
   195    -0.013411
   196    -0.011376
   197    -0.083346
   198     0.000713
   199     0.006616
   200    -0.082937
   201     0.000209
   202    -0.194411
   203    -0.002782
   204    -0.042720
   205    -0.004615
   206    -0.006169
   207     0.003021
   208    -0.000840
   209     0.007502
   210    -0.001943
   211    -0.043085
   212     0.006739
   213    -0.004398
   214    -0.004470
   215    -0.000253
   216    -0.007955
Sym=    88a
Ene=   -0.471979E-06
Spin= Alpha
Occup= 0.000000
     1     0.028053
     2    -0.048949
     3    -0.046957
     4     0.399554
     5     0.066474
     6   -18.789090
     7    -3.059996
     8     0.009773
     9     0.016615
    10    -0.013077
    11     0.087705
    12     0.075305
    13     7.737923
    14     0.061091
    15     0.095495
    16    46.616300
    17     0.066679
    18    -0.154115
    19     4.588117
    20    -0.476127
    21    -0.356575
    22    -0.238756
    23     0.011869
    24     0.066199
    25    -0.068452
    26     2.976954
    27     2.306370
    28     1.723991
    29    -0.060450
    30    -0.391373
    31     0.392618
    32    -1.703202
    33    -1.703961
    34   -15.611877
    35     0.009059
    36    -0.069661
    37    -0.204491
    38    -0.028239
    39    -0.023931
    40     0.305354
    41    -0.012024
    42    -0.014561
    43     0.018754
    44    -0.010583
    45    -0.009599
    46     0.030662
    47    -0.002871
    48    -0.022773
    49    -0.072889
    50    12.993751
    51     0.000706
    52    -0.018230
    53    -0.503757
    54    -0.032156
    55    -0.076648
    56    -0.529162
    57    -0.002823
    58     0.822872
    59    -0.232631
    60    -0.785435
    61    -0.159504
    62    -1.207534
    63     0.232432
    64     0.010428
    65     0.094447
    66     0.024141
    67    -0.895222
    68    -0.062608
    69    -0.855713
    70     0.126610
    71     0.024808
    72    -1.662321
    73     0.003649
    74    -0.010058
    75     0.128691
    76     2.263893
    77    -0.170504
    78    35.198761
    79    10.113467
    80     0.017676
    81     0.002330
    82    -0.042777
    83     0.173982
    84     0.019964
    85     8.988262
    86    -0.187574
    87    -0.113686
    88    28.970936
    89     0.014156
    90     0.093622
    91    -0.363344
    92     0.333893
    93     0.328975
    94     0.995069
    95     0.008012
    96    -0.004965
    97     0.009137
    98     5.009956
    99     5.040728
   100     2.878394
   101    -0.051132
   102     0.044629
   103    -0.057659
   104     3.887770
   105     3.897052
   106    15.391572
   107    -0.005606
   108    -0.095556
   109    -0.039282
   110    -0.056777
   111     0.000370
   112    -0.029185
   113    -0.034665
   114     0.009069
   115     0.028898
   116     0.019446
   117    -0.023047
   118     0.027123
   119     0.001321
   120    -0.016112
   121    -0.006430
   122     1.539898
   123     0.010710
   124    -0.016035
   125     0.500840
   126    -0.035023
   127    -0.024204
   128     0.508239
   129    -0.003216
   130     1.301938
   131    -0.003434
   132     0.193315
   133     0.026681
   134    -1.736430
   135     0.017271
   136     0.006495
   137     0.002691
   138     0.023873
   139     0.196930
   140     0.010173
   141    -1.006640
   142    -0.017732
   143     0.027704
   144    -1.712155
   145    -0.054867
   146     0.121194
   147    -0.792512
   148    -6.422914
   149     6.179220
   150    14.037416
   151   -15.105031
   152     0.033696
   153     0.017283
   154    -2.381011
   155    -0.215714
   156    -0.097989
   157    18.334638
   158    -0.065223
   159    -0.013862
   160    24.801481
   161    -0.021303
   162     0.119741
   163    -0.343118
   164    -2.013630
   165    -2.054220
   166    -1.592037
   167    -0.011712
   168     0.122195
   169    -0.033639
   170    -9.783348
   171    -9.599428
   172   -12.774743
   173     0.055018
   174    -0.546739
   175     0.155973
   176    -2.681727
   177    -2.670286
   178   -12.539194
   179    -0.001887
   180     0.011895
   181    -0.125095
   182     0.067712
   183     0.029760
   184    -4.455366
   185     0.034326
   186     0.019141
   187    -2.059831
   188     0.017538
   189     0.017489
   190    -2.057159
   191     0.000272
   192     0.145603
   193     0.081755
   194    -7.866156
   195     0.055729
   196     0.026665
   197    -5.072228
   198     0.053212
   199     0.101679
   200    -5.093271
   201    -0.001968
   202     1.679364
   203    -0.093516
   204     1.059698
   205    -0.040607
   206     1.285267
   207     0.256895
   208    -0.004916
   209     0.087793
   210    -0.023944
   211     1.078649
   212    -0.036293
   213     0.790333
   214     0.219620
   215    -0.026029
   216     1.409760
Sym=    89a
Ene=   -0.184913E-01
Spin= Alpha
Occup= 0.019116
     1     0.047575
     2     0.006308
     3     0.066728
     4     0.057629
     5    -0.258089
     6    -0.150430
     7    -0.046996
     8    -0.100773
     9    -0.288570
    10    -0.161094
    11     0.125766
    12     0.360457
    13     0.305692
    14     0.054612
    15     0.155979
    16     0.292349
    17    -0.009554
    18    -0.028238
    19     0.015916
    20     0.003216
    21    -0.017742
    22     0.013620
    23    -0.009288
    24    -0.005950
    25    -0.017000
    26     0.050023
    27    -0.064676
    28     0.015514
    29    -0.054643
    30    -0.026655
    31    -0.076356
    32     0.036985
    33    -0.009592
    34     0.288880
    35    -0.020471
    36    -0.028266
    37    -0.081192
    38    -0.002784
    39     0.010146
    40    -0.009024
    41     0.008115
    42    -0.001394
    43    -0.003039
    44     0.001083
    45     0.003076
    46     0.012875
    47     0.007267
    48    -0.017391
    49    -0.020978
    50    -0.005121
    51     0.007516
    52    -0.018299
    53    -0.019082
    54    -0.005013
    55    -0.014812
    56     0.007142
    57     0.011508
    58     0.004257
    59     0.001788
    60    -0.002956
    61    -0.000771
    62     0.002810
    63     0.000588
    64     0.000266
    65    -0.002849
    66     0.004398
    67    -0.003141
    68     0.002237
    69    -0.002582
    70     0.002403
    71     0.005818
    72    -0.011982
    73    -0.044127
    74    -0.005384
    75    -0.063360
    76     0.010750
    77     0.247719
    78    -0.038767
    79    -0.123961
    80     0.093018
    81     0.266613
    82    -0.185098
    83    -0.112087
    84    -0.321023
    85     0.312366
    86    -0.057140
    87    -0.163523
    88     0.184894
    89     0.014186
    90     0.042152
    91     0.043299
    92    -0.000949
    93     0.010926
    94     0.003381
    95     0.005478
    96    -0.003980
    97    -0.011330
    98     0.093845
    99     0.179585
   100     0.148642
   101     0.039243
   102    -0.031016
   103    -0.089067
   104     0.033639
   105     0.054541
   106     0.083468
   107     0.009489
   108    -0.018969
   109    -0.053082
   110     0.003302
   111    -0.005597
   112    -0.010673
   113    -0.006196
   114     0.002343
   115    -0.005620
   116    -0.001809
   117    -0.005230
   118     0.009133
   119     0.006829
   120     0.013127
   121     0.014695
   122    -0.051666
   123    -0.005780
   124     0.013826
   125    -0.029840
   126     0.001951
   127     0.005458
   128    -0.007500
   129     0.010064
   130    -0.020055
   131     0.004748
   132    -0.017029
   133     0.007331
   134    -0.042619
   135     0.001580
   136     0.000019
   137    -0.000215
   138    -0.004411
   139    -0.016969
   140     0.004440
   141    -0.020424
   142     0.003812
   143    -0.004965
   144    -0.026825
   145    -0.002317
   146    -0.000239
   147    -0.002697
   148    -0.014751
   149     0.010738
   150    -0.161088
   151    -0.136784
   152    -0.016282
   153    -0.046894
   154    -0.027896
   155    -0.013621
   156    -0.039327
   157    -0.004184
   158    -0.040505
   159    -0.114447
   160     0.200193
   161    -0.042561
   162    -0.122051
   163    -0.023950
   164    -0.002755
   165    -0.000546
   166    -0.001556
   167    -0.000816
   168     0.000551
   169     0.001561
   170    -0.028994
   171    -0.022214
   172    -0.023589
   173    -0.007487
   174     0.000704
   175     0.002071
   176    -0.044227
   177    -0.036552
   178    -0.111950
   179    -0.001627
   180     0.004330
   181     0.011375
   182     0.000693
   183     0.002095
   184    -0.000350
   185     0.000350
   186     0.000852
   187    -0.000403
   188     0.000238
   189     0.000657
   190    -0.000121
   191    -0.000136
   192     0.001798
   193     0.005027
   194     0.009341
   195     0.001158
   196     0.003711
   197    -0.002061
   198    -0.000654
   199    -0.002193
   200    -0.001166
   201     0.000139
   202     0.001586
   203     0.000486
   204     0.003458
   205     0.001625
   206     0.008437
   207     0.000183
   208     0.000282
   209     0.000108
   210     0.000069
   211     0.003133
   212     0.000320
   213     0.002932
   214     0.000574
   215     0.000423
   216     0.007173
Sym=    90a
Ene=   -0.197586E-02
Spin= Alpha
Occup= 0.001304
     1    -0.012775
     2     0.006497
     3    -0.029372
     4    -0.122308
     5     0.349967
     6     0.603603
     7    -0.124371
     8    -0.148934
     9    -0.029499
    10    -0.035044
    11     0.290494
    12     0.056283
    13    -0.265321
    14    -0.310695
    15    -0.068696
    16     0.154272
    17    -0.056101
    18    -0.001537
    19    -0.060592
    20     0.018789
    21    -0.029337
    22     0.023850
    23     0.009417
    24    -0.057304
    25    -0.010253
    26     0.004367
    27    -0.155671
    28     0.042896
    29     0.028775
    30    -0.301103
    31    -0.051088
    32    -0.163229
    33     0.059592
    34     0.314991
    35    -0.055117
    36     0.302415
    37     0.070003
    38    -0.011025
    39    -0.010895
    40    -0.028527
    41    -0.027368
    42     0.007493
    43    -0.056472
    44     0.092461
    45     0.016118
    46     0.034927
    47    -0.017952
    48    -0.195871
    49    -0.052496
    50    -0.126267
    51    -0.126526
    52     0.003003
    53     0.056183
    54    -0.100573
    55    -0.018126
    56     0.061214
    57     0.002112
    58     0.074136
    59    -0.010952
    60     0.000396
    61     0.020326
    62     0.033346
    63    -0.059745
    64     0.015491
    65     0.051759
    66    -0.003576
    67     0.077409
    68    -0.006918
    69     0.007492
    70     0.050865
    71    -0.012439
    72    -0.029763
    73    -0.006344
    74     0.003975
    75    -0.011115
    76    -0.145921
    77     0.205260
    78    -0.177222
    79    -0.114106
    80    -0.151080
    81    -0.029309
    82     0.031755
    83     0.386388
    84     0.072335
    85     0.074694
    86    -0.136346
    87    -0.022039
    88    -0.576565
    89    -0.046277
    90    -0.000803
    91    -0.229304
    92     0.010468
    93    -0.029253
    94     0.006505
    95     0.007825
    96     0.052314
    97     0.009494
    98    -0.123478
    99    -0.261660
   100    -0.124850
   101     0.028021
   102     0.295651
   103     0.050851
   104    -0.166410
   105    -0.009193
   106    -0.304763
   107    -0.034731
   108    -0.017855
   109    -0.001053
   110    -0.004850
   111    -0.009704
   112     0.016118
   113    -0.023385
   114     0.008123
   115     0.047519
   116     0.075161
   117     0.012977
   118    -0.035518
   119     0.016563
   120    -0.149117
   121    -0.038838
   122     0.006116
   123    -0.097480
   124     0.001334
   125    -0.043135
   126     0.017015
   127     0.000936
   128    -0.043113
   129    -0.002068
   130     0.051384
   131     0.003875
   132     0.008696
   133    -0.018149
   134     0.068512
   135     0.020278
   136     0.012543
   137    -0.045654
   138    -0.002498
   139     0.076563
   140     0.007898
   141     0.032675
   142    -0.039808
   143    -0.009141
   144     0.024425
   145     0.001211
   146    -0.000669
   147     0.005307
   148    -0.087708
   149     0.000418
   150     0.062007
   151     0.420988
   152    -0.003656
   153     0.000395
   154    -0.000276
   155     0.034861
   156     0.007395
   157    -0.011725
   158    -0.026106
   159    -0.017931
   160     0.134510
   161     0.106244
   162     0.019338
   163    -0.141922
   164    -0.005213
   165    -0.008931
   166    -0.009096
   167     0.001979
   168    -0.006967
   169    -0.001136
   170    -0.187286
   171    -0.170418
   172    -0.185068
   173    -0.000306
   174     0.026619
   175     0.004324
   176    -0.136026
   177    -0.173169
   178    -0.188216
   179     0.013282
   180    -0.016892
   181     0.003651
   182    -0.008287
   183    -0.001239
   184     0.005304
   185    -0.003459
   186    -0.000602
   187    -0.000712
   188    -0.000681
   189    -0.000038
   190    -0.001272
   191     0.000689
   192    -0.020944
   193    -0.007186
   194     0.021042
   195    -0.004114
   196     0.005182
   197    -0.004876
   198     0.040533
   199     0.007390
   200    -0.008187
   201     0.005120
   202     0.038941
   203    -0.006809
   204     0.039454
   205    -0.001684
   206     0.040283
   207    -0.040505
   208    -0.002174
   209    -0.007087
   210     0.000837
   211     0.027199
   212    -0.002925
   213     0.027235
   214    -0.015318
   215     0.001755
   216     0.049237
Sym=    91a
Ene=   -0.633457E-03
Spin= Alpha
Occup= 0.000311
     1    -0.000049
     2     0.001117
     3    -0.003182
     4    -0.010300
     5     0.031383
     6     0.224936
     7     0.020849
     8     0.093333
     9     0.065852
    10     0.009452
    11    -0.157434
    12    -0.138240
    13     0.083645
    14     0.018806
    15     0.054119
    16     0.120972
    17    -0.150270
    18    -0.130217
    19     0.029197
    20     0.016129
    21    -0.017801
    22     0.001929
    23    -0.004229
    24     0.008504
    25     0.003391
    26    -0.466888
    27     0.452406
    28    -0.006625
    29     0.095182
    30    -0.071411
    31    -0.045962
    32     0.064231
    33    -0.036967
    34     0.210553
    35    -0.007943
    36    -0.356610
    37    -0.301804
    38     0.048662
    39     0.067456
    40    -0.004650
    41    -0.032117
    42    -0.062541
    43     0.084244
    44     0.026097
    45     0.019472
    46    -0.075950
    47    -0.017851
    48     0.265152
    49     0.331540
    50     0.148067
    51    -0.101052
    52    -0.253192
    53     0.181275
    54     0.299894
    55     0.194952
    56    -0.151847
    57    -0.033677
    58     0.003222
    59     0.015719
    60     0.038244
    61    -0.129917
    62    -0.121185
    63     0.022568
    64     0.012864
    65     0.072668
    66    -0.111329
    67    -0.057233
    68     0.144637
    69    -0.035075
    70    -0.089579
    71     0.070288
    72     0.171375
    73     0.000036
    74     0.001194
    75    -0.002506
    76     0.006290
    77     0.064807
    78    -0.168390
    79     0.051515
    80     0.078151
    81     0.054256
    82    -0.004920
    83    -0.205143
    84    -0.156854
    85     0.074841
    86    -0.217908
    87    -0.157986
    88     0.012628
    89    -0.184994
    90    -0.164654
    91     0.025918
    92     0.013444
    93    -0.011972
    94     0.005106
    95    -0.001943
    96    -0.014162
    97    -0.009782
    98    -0.211418
    99     0.280629
   100     0.059506
   101     0.043395
   102    -0.033233
   103    -0.012483
   104     0.049855
   105    -0.042033
   106     0.006906
   107    -0.005411
   108    -0.078234
   109    -0.057738
   110     0.011170
   111     0.024811
   112     0.000818
   113    -0.021062
   114    -0.033128
   115    -0.061395
   116     0.021409
   117     0.015572
   118     0.054573
   119     0.013328
   120     0.182299
   121     0.238446
   122    -0.035576
   123    -0.086557
   124    -0.204628
   125    -0.130882
   126     0.176639
   127     0.130120
   128     0.083297
   129     0.026240
   130    -0.003490
   131    -0.002331
   132     0.041169
   133     0.099385
   134    -0.079780
   135     0.006559
   136     0.014453
   137    -0.064566
   138    -0.074286
   139    -0.060662
   140    -0.126736
   141    -0.030544
   142     0.065870
   143     0.055052
   144     0.094352
   145     0.000012
   146     0.000287
   147    -0.000507
   148    -0.006638
   149     0.012190
   150    -0.211112
   151    -0.145249
   152    -0.008044
   153    -0.004874
   154     0.001095
   155    -0.026443
   156    -0.018342
   157     0.036876
   158     0.137781
   159     0.122730
   160     0.255320
   161     0.133164
   162     0.099053
   163     0.001203
   164     0.002825
   165    -0.004055
   166    -0.000869
   167    -0.000081
   168    -0.004155
   169    -0.002648
   170    -0.020573
   171     0.010468
   172    -0.014700
   173     0.008873
   174     0.008208
   175     0.004725
   176    -0.056234
   177     0.010264
   178    -0.133293
   179     0.002841
   180    -0.015806
   181    -0.032380
   182    -0.006575
   183    -0.003766
   184     0.001110
   185    -0.004347
   186    -0.004125
   187    -0.003265
   188     0.002877
   189     0.002438
   190     0.004043
   191     0.000110
   192    -0.022999
   193    -0.023565
   194     0.019547
   195    -0.000777
   196     0.006391
   197     0.016420
   198    -0.024672
   199    -0.008581
   200    -0.010483
   201    -0.000061
   202    -0.001095
   203    -0.005210
   204    -0.012569
   205     0.000906
   206    -0.006566
   207    -0.006230
   208    -0.002314
   209     0.000665
   210    -0.000692
   211     0.010746
   212     0.000915
   213     0.003014
   214     0.001346
   215    -0.000770
   216     0.012288
Sym=    92a
Ene=   -0.691040E-04
Spin= Alpha
Occup= 0.000012
     1    -0.000299
     2     0.001025
     3     0.001820
     4    -0.016956
     5     0.041379
     6    -0.112237
     7     0.108462
     8    -0.010764
     9     0.022499
    10     0.010534
    11    -0.062112
    12     0.217943
    13     0.102565
    14     0.152009
    15    -0.166300
    16    -0.122290
    17     0.049243
    18    -0.030524
    19     0.118017
    20    -0.022321
    21     0.014377
    22     0.015411
    23     0.016458
    24    -0.048979
    25     0.083700
    26     0.018051
    27     0.021937
    28    -0.122139
    29    -0.151602
    30     1.221352
    31    -2.428940
    32    -0.043636
    33     0.006487
    34    -0.061755
    35     0.046548
    36    -0.236286
    37     0.066971
    38     0.070781
    39    -0.130397
    40    -0.040595
    41     0.032688
    42    -0.061027
    43    -0.053391
    44     0.246643
    45    -0.540282
    46     0.063497
    47    -0.005136
    48     0.019723
    49    -0.048573
    50     0.000700
    51     0.006840
    52    -0.024006
    53    -0.063909
    54     0.610745
    55    -0.968246
    56     0.015160
    57     0.008105
    58     0.034687
    59     1.043164
    60     0.129082
    61     0.941381
    62    -0.012908
    63    -0.573250
    64     0.090807
    65    -0.198876
    66     0.047570
    67    -0.059967
    68     0.419108
    69    -0.071095
    70    -0.445691
    71    -0.022824
    72     0.050968
    73     0.000029
    74     0.000017
    75    -0.003007
    76    -0.022470
    77     0.042606
    78     0.072155
    79     0.074990
    80    -0.041419
    81     0.080618
    82    -0.004301
    83    -0.489944
    84     0.802832
    85     0.019755
    86    -0.031107
    87    -0.106803
    88    -0.006997
    89    -0.219351
    90     0.336958
    91    -0.022921
    92    -0.005105
    93    -0.007183
    94    -0.011800
    95     0.023294
    96    -0.013085
    97     0.043143
    98    -0.066571
    99    -0.028622
   100     0.017216
   101    -0.042135
   102     0.022555
   103    -0.178856
   104    -0.015716
   105    -0.020526
   106    -0.041279
   107     0.082672
   108    -0.227934
   109     0.182431
   110     0.083356
   111    -0.146924
   112     0.012050
   113     0.035951
   114    -0.061799
   115     0.004573
   116    -0.030940
   117     0.051465
   118    -0.000489
   119    -0.018001
   120     0.133697
   121    -0.275855
   122    -0.001679
   123     0.062156
   124    -0.129948
   125     0.007883
   126    -0.190821
   127     0.228570
   128    -0.014568
   129     0.017739
   130    -0.012457
   131     0.404482
   132    -0.024967
   133     0.130589
   134     0.001704
   135    -0.215266
   136    -0.046999
   137    -0.021339
   138    -0.001240
   139     0.018720
   140     0.056029
   141     0.008725
   142    -0.049450
   143     0.014807
   144     0.016209
   145    -0.000314
   146     0.001215
   147     0.005536
   148     0.071642
   149    -0.068040
   150    -0.146914
   151    -0.148591
   152     0.013144
   153    -0.030771
   154     0.004998
   155     0.013243
   156    -0.061883
   157    -0.009927
   158    -0.156182
   159     0.592144
   160    -0.118912
   161     0.075299
   162    -0.261285
   163     0.013660
   164    -0.008405
   165     0.033000
   166     0.015723
   167     0.003855
   168    -0.050281
   169     0.088646
   170     0.195556
   171     0.092174
   172     0.175851
   173    -0.018228
   174     0.300612
   175    -0.589172
   176    -0.003824
   177     0.126929
   178     0.069283
   179    -0.037469
   180     0.111236
   181    -0.312201
   182     0.073856
   183    -0.140286
   184    -0.004215
   185     0.029329
   186    -0.063890
   187    -0.075885
   188    -0.217617
   189     0.416922
   190     0.076072
   191    -0.013504
   192    -0.000955
   193    -0.078967
   194     0.035730
   195     0.003667
   196    -0.033149
   197    -0.018386
   198    -0.236755
   199     0.462961
   200     0.046961
   201    -0.006012
   202    -0.038947
   203    -0.652056
   204    -0.151344
   205     0.548014
   206     0.013267
   207     0.384184
   208     0.108670
   209    -0.130171
   210    -0.073939
   211     0.072167
   212     0.245160
   213    -0.064091
   214    -0.293293
   215     0.039481
   216    -0.029346
Sym=    93a
Ene=   -0.124633E-03
Spin= Alpha
Occup= 0.000030
     1    -0.000452
     2    -0.001345
     3    -0.012996
     4     0.021909
     5    -0.105068
     6     0.519009
     7     0.165607
     8     0.001122
     9    -0.004244
    10    -0.023102
    11    -0.082256
    12     0.010369
    13     0.269334
    14    -0.038523
    15    -0.016777
    16     0.414778
    17    -0.168022
    18     0.155968
    19     0.002472
    20    -0.013970
    21    -0.000223
    22    -0.049052
    23    -0.022441
    24    -0.005167
    25     0.010811
    26    -0.014385
    27    -0.073886
    28     0.127558
    29     0.114549
    30    -0.008964
    31    -0.075394
    32    -0.036102
    33    -0.040947
    34     0.547307
    35    -0.071241
    36    -0.099797
    37    -0.003608
    38    -0.000409
    39    -0.000415
    40     0.012695
    41     0.001078
    42    -0.001939
    43     0.006518
    44    -0.006260
    45    -0.007452
    46     0.014254
    47     0.007478
    48    -0.014066
    49     0.018305
    50     0.611429
    51    -0.004164
    52     0.014851
    53     0.033439
    54    -0.100676
    55    -0.019504
    56     0.009581
    57     0.016084
    58    -0.196782
    59     0.025276
    60    -0.013626
    61     0.027781
    62     0.029603
    63    -0.012589
    64    -0.004273
    65    -0.004596
    66    -0.044646
    67    -0.028738
    68     0.009365
    69    -0.002233
    70    -0.029107
    71    -0.047676
    72    -0.017555
    73    -0.000111
    74     0.000903
    75    -0.003707
    76     0.056262
    77     0.109918
    78    -0.131159
    79    -0.129658
    80     0.001131
    81    -0.000881
    82     0.016846
    83     0.032508
    84     0.003015
    85     0.443443
    86    -0.045352
    87    -0.011003
    88    -0.000706
    89     0.149513
    90    -0.083125
    91    -0.051542
    92     0.002048
    93     0.013385
    94    -0.011649
    95     0.001412
    96     0.005669
    97    -0.007676
    98     0.114574
    99     0.059380
   100     0.366070
   101    -0.008499
   102    -0.023561
   103     0.042613
   104     0.002197
   105     0.020837
   106     0.057848
   107     0.022731
   108     0.050542
   109    -0.032274
   110    -0.002069
   111    -0.001994
   112     0.000871
   113     0.001847
   114    -0.001659
   115    -0.011475
   116     0.002209
   117     0.000696
   118    -0.014996
   119    -0.003269
   120    -0.005655
   121     0.007056
   122    -0.026593
   123    -0.008443
   124     0.004593
   125    -0.038373
   126     0.015944
   127     0.004544
   128    -0.041258
   129     0.012556
   130    -0.060401
   131    -0.013801
   132    -0.022251
   133    -0.010078
   134    -0.005586
   135     0.017452
   136     0.003961
   137     0.006498
   138     0.002741
   139    -0.022673
   140    -0.005621
   141    -0.006572
   142     0.011238
   143     0.001963
   144    -0.032505
   145     0.002481
   146     0.019445
   147     0.030420
   148    -0.327205
   149     0.588257
   150    -1.102362
   151     0.095133
   152     0.036880
   153    -0.025485
   154     0.025161
   155    -0.477574
   156     0.594220
   157     0.082433
   158     0.451952
   159    -0.243279
   160     0.470474
   161    -0.045589
   162    -0.121205
   163    -0.024273
   164    -0.014284
   165     0.094769
   166    -0.002696
   167    -0.101980
   168     0.027394
   169    -0.075507
   170    -0.350201
   171     0.070248
   172    -0.479467
   173    -1.357193
   174     0.016262
   175     0.201876
   176     0.010336
   177    -0.268776
   178    -0.184337
   179     0.496408
   180    -0.143389
   181    -0.039580
   182    -0.095315
   183    -0.013844
   184     0.020873
   185     0.371407
   186    -0.689212
   187     0.046352
   188     0.019712
   189     0.033550
   190    -0.027619
   191     0.046066
   192     0.219249
   193     0.021562
   194     0.201970
   195    -0.364286
   196     0.170106
   197     0.095771
   198     0.223175
   199    -0.047611
   200     0.003130
   201     0.119865
   202     0.201376
   203    -0.059913
   204     0.005577
   205    -0.059703
   206    -0.199705
   207     0.016145
   208     0.274401
   209    -0.146424
   210     0.967818
   211     0.136622
   212     0.043843
   213     0.163374
   214     0.071924
   215    -0.031555
   216    -0.003591
Sym=    94a
Ene=   -0.246138E-05
Spin= Alpha
Occup= 0.000000
     1     0.000584
     2     0.000265
     3    -0.045517
     4    -0.598532
     5    -0.016783
     6   -14.051199
     7    -5.837747
     8     0.059677
     9    -0.245319
    10    -0.052235
    11     0.258295
    12    -1.271599
    13    -0.208847
    14     0.376046
    15    -0.782300
    16    -3.288710
    17     0.165904
    18     0.998591
    19     0.527683
    20    -0.025407
    21    -0.341477
    22    -0.121627
    23     0.030477
    24     0.085942
    25    -0.399190
    26    -1.873836
    27    -0.035626
    28    -1.467150
    29    -0.030709
    30    -0.571279
    31     2.352142
    32    -1.022001
    33    -0.948084
    34   -15.059711
    35     0.068583
    36    -0.796092
    37     1.850523
    38    -0.108301
    39     0.499608
    40     0.143522
    41    -0.038511
    42     0.219554
    43     0.104831
    44    -0.046083
    45     0.200861
    46     0.009604
    47     0.016377
    48    -0.244721
    49     0.748833
    50     5.181292
    51    -0.115613
    52     0.330748
    53    -0.443579
    54    -0.322456
    55     1.338775
    56    -0.164010
    57    -0.121629
    58     1.480520
    59    -1.355802
    60    -0.212954
    61    -0.984770
    62    -0.592969
    63     0.309376
    64    -0.048589
    65     0.125084
    66    -0.009491
    67     0.049498
    68    -0.455346
    69     0.045333
    70     0.256960
    71     0.012796
    72     0.714596
    73     0.004879
    74    -0.011243
    75     0.085633
    76     0.445097
    77    -0.408553
    78    12.031409
    79     5.360853
    80     0.041266
    81    -0.134065
    82     0.051723
    83     0.299484
    84    -1.236783
    85     3.989932
    86    -0.455977
    87     1.503223
    88     5.951783
    89    -0.128822
    90    -0.774712
    91     0.854906
    92     0.167728
    93     0.091219
    94     0.399629
    95     0.086271
    96     0.033893
    97    -0.287102
    98     0.835518
    99     1.163021
   100    -0.372444
   101    -0.564885
   102    -0.152515
   103     1.516943
   104    -0.341716
   105    -0.365376
   106     2.117241
   107    -0.063581
   108    -0.337534
   109     0.460150
   110    -0.076272
   111     0.297236
   112    -0.250168
   113    -0.036900
   114     0.130655
   115    -0.019932
   116    -0.002061
   117    -0.061868
   118    -0.018496
   119     0.020078
   120    -0.149333
   121     0.349118
   122    -0.016571
   123    -0.061951
   124     0.157841
   125     0.214775
   126    -0.046672
   127    -0.006970
   128     0.248308
   129    -0.064269
   130     0.689163
   131    -1.011080
   132     0.280793
   133    -0.692098
   134    -0.452412
   135     0.147725
   136     0.109941
   137     0.031301
   138     0.283980
   139     0.315875
   140    -0.307923
   141    -0.240429
   142     0.082681
   143     0.229931
   144    -0.265831
   145    -0.133199
   146     0.233349
   147    -0.079389
   148    -3.551752
   149     6.440895
   150     9.419262
   151     4.434777
   152     0.180362
   153    -1.085173
   154    -0.899231
   155    -1.224433
   156     7.120500
   157     8.313408
   158     0.002785
   159     2.772487
   160    -9.961998
   161    -0.013234
   162    -1.589168
   163    -0.760565
   164    -0.372512
   165     2.041449
   166    -0.706459
   167    -0.485585
   168    -0.283180
   169     1.187954
   170    -5.690994
   171   -16.428346
   172    -3.767460
   173     2.145543
   174     1.362553
   175    -5.290285
   176     2.088485
   177     2.496823
   178     6.611204
   179    -0.081176
   180    -0.461592
   181     1.548760
   182     0.391385
   183    -2.330736
   184    -1.334920
   185     0.179897
   186    -1.032571
   187    -0.847110
   188     0.117357
   189    -0.849972
   190    -0.943037
   191     0.058209
   192     0.695172
   193    -4.610911
   194    -3.293773
   195     0.305668
   196    -2.071486
   197    -1.316076
   198     0.491320
   199    -2.564247
   200    -1.098218
   201    -0.104215
   202    -0.489955
   203     2.022800
   204     2.533358
   205     2.223102
   206     9.099344
   207    -0.539484
   208    -0.328970
   209    -0.253335
   210    -0.899997
   211     0.629678
   212     0.997220
   213     3.303365
   214    -0.584547
   215    -0.903988
   216     2.305318
Sym=    95a
Ene=   -0.873015E-02
Spin= Alpha
Occup= 0.007330
     1    -0.003764
     2    -0.000324
     3    -0.006426
     4     0.020721
     5     0.035098
     6     0.091369
     7     0.045440
     8     0.012568
     9     0.010921
    10    -0.008069
    11    -0.024788
    12    -0.020518
    13     0.062893
    14     0.005736
    15     0.004055
    16     0.171460
    17    -0.008164
    18    -0.010386
    19    -0.115929
    20     0.000687
    21     0.003832
    22     0.005539
    23    -0.002301
    24     0.010156
    25     0.008378
    26     0.057661
    27     0.077459
    28     0.044191
    29     0.015889
    30    -0.005766
    31    -0.004854
    32     0.034811
    33     0.058700
    34     0.089429
    35    -0.001324
    36     0.048074
    37     0.039406
    38    -0.002725
    39    -0.002161
    40    -0.002408
    41    -0.001362
    42    -0.001353
    43    -0.001242
    44    -0.000750
    45    -0.000595
    46    -0.002109
    47    -0.000038
    48    -0.006943
    49    -0.005969
    50     0.033367
    51     0.001190
    52     0.000475
    53    -0.007546
    54    -0.002466
    55    -0.002178
    56    -0.012257
    57     0.002952
    58     0.019947
    59     0.008453
    60    -0.007224
    61     0.007947
    62    -0.017406
    63     0.010271
    64    -0.001926
    65     0.005249
    66    -0.004806
    67    -0.006894
    68     0.005386
    69    -0.010323
    70     0.010610
    71    -0.004736
    72    -0.017833
    73     0.001016
    74     0.000124
    75     0.001044
    76     0.037627
    77     0.014865
    78    -0.126776
    79    -0.212441
    80     0.001136
    81     0.000644
    82     0.003603
    83     0.010166
    84     0.009014
    85     0.011609
    86    -0.046926
    87    -0.037567
    88    -0.003281
    89    -0.067886
    90    -0.054973
    91    -0.009153
    92     0.003338
    93     0.002134
    94     0.006477
    95    -0.000165
    96    -0.001953
    97    -0.001627
    98     0.091878
    99     0.073050
   100     0.056397
   101    -0.001192
   102     0.018899
   103     0.015483
   104     0.055082
   105     0.041126
   106     0.048313
   107     0.001656
   108     0.001484
   109     0.001595
   110     0.001087
   111     0.000771
   112    -0.004476
   113     0.000450
   114     0.000438
   115     0.000621
   116     0.001499
   117     0.001174
   118    -0.000812
   119    -0.000359
   120     0.003981
   121     0.004561
   122    -0.010440
   123     0.002818
   124     0.000129
   125     0.003882
   126     0.006209
   127     0.004738
   128    -0.002910
   129     0.001246
   130    -0.009923
   131    -0.002991
   132    -0.007263
   133    -0.002933
   134    -0.020398
   135    -0.003640
   136     0.000273
   137    -0.001508
   138    -0.000507
   139    -0.007228
   140    -0.001598
   141    -0.012980
   142    -0.003910
   143     0.000251
   144    -0.023126
   145    -0.067483
   146    -0.008370
   147    -0.104960
   148    -0.060018
   149     0.574516
   150    -0.089613
   151    -0.553184
   152    -0.349841
   153    -0.290320
   154     0.119636
   155    -0.265469
   156    -0.220833
   157     0.136587
   158     0.310343
   159     0.258209
   160     0.074117
   161     0.241153
   162     0.203456
   163    -0.072794
   164     0.026463
   165     0.012250
   166    -0.021769
   167     0.043980
   168    -0.017429
   169    -0.014494
   170     0.102459
   171     0.040846
   172    -0.059876
   173     0.192308
   174    -0.060240
   175    -0.049436
   176    -0.061229
   177    -0.053049
   178    -0.103114
   179    -0.027676
   180    -0.040834
   181    -0.034359
   182    -0.022076
   183    -0.009092
   184    -0.007835
   185    -0.027041
   186    -0.034808
   187     0.007080
   188    -0.003429
   189    -0.002791
   190     0.002911
   191     0.012215
   192     0.059201
   193     0.053534
   194    -0.027245
   195     0.017068
   196     0.008324
   197    -0.014887
   198     0.031992
   199     0.026619
   200    -0.018064
   201     0.009651
   202    -0.009010
   203     0.006550
   204    -0.002786
   205     0.006454
   206    -0.006279
   207     0.008097
   208    -0.011426
   209     0.000921
   210    -0.024040
   211    -0.006770
   212    -0.000805
   213    -0.003548
   214     0.006623
   215    -0.022585
   216    -0.017956
Sym=    96a
Ene=   -0.184164E-03
Spin= Alpha
Occup= 0.000070
     1    -0.000023
     2    -0.000149
     3     0.000418
     4     0.003121
     5    -0.004439
     6    -0.069729
     7     0.020281
     8     0.002780
     9     0.033590
    10    -0.000317
    11    -0.012050
    12    -0.176487
    13     0.011533
    14     0.020559
    15     0.098093
    16     0.050621
    17    -0.015585
    18    -0.085392
    19     0.007551
    20     0.001620
    21    -0.000190
    22     0.002586
    23     0.002959
    24    -0.008636
    25    -0.142976
    26     0.010144
    27    -0.000546
    28    -0.010250
    29    -0.031407
    30     0.047205
    31     0.813480
    32    -0.042429
    33     0.036636
    34    -0.028379
    35     0.061930
    36     0.006776
    37     0.213449
    38    -0.001740
    39    -0.040161
    40     0.001543
    41    -0.002402
    42    -0.017075
    43    -0.001154
    44    -0.000281
    45     0.002726
    46     0.002610
    47     0.003547
    48    -0.015775
    49    -0.098836
    50     0.006231
    51    -0.002688
    52    -0.050325
    53     0.004539
    54    -0.043045
    55    -0.661514
    56    -0.004640
    57    -0.009780
    58     0.005880
    59    -0.316189
    60    -0.000352
    61    -0.194598
    62    -0.002987
    63    -0.018267
    64     0.003029
    65    -0.005024
    66     0.010325
    67     0.002140
    68    -0.085964
    69    -0.001165
    70    -0.010746
    71     0.005746
    72     0.001078
    73     0.000030
    74     0.000100
    75    -0.000007
    76     0.001590
    77     0.003947
    78     0.048333
    79    -0.001194
    80    -0.003716
    81    -0.068769
    82     0.000711
    83     0.009646
    84     0.139440
    85     0.015658
    86    -0.011514
    87    -0.272668
    88     0.049721
    89     0.002719
    90     0.043687
    91    -0.006317
    92     0.004456
    93    -0.004804
    94     0.000779
    95    -0.006896
    96     0.009315
    97     0.152639
    98     0.081229
    99    -0.076785
   100     0.016468
   101    -0.115205
   102     0.127715
   103     2.034097
   104    -0.033815
   105     0.057762
   106     0.026009
   107     0.059503
   108    -0.032528
   109    -0.502032
   110    -0.008042
   111    -0.094554
   112    -0.005629
   113    -0.001364
   114    -0.044158
   115    -0.001350
   116    -0.032896
   117    -0.522664
   118     0.003894
   119     0.001447
   120     0.019858
   121     0.420498
   122     0.004261
   123     0.009286
   124     0.181968
   125     0.028240
   126     0.061733
   127     1.013430
   128    -0.027891
   129    -0.046636
   130     0.003578
   131    -0.560857
   132     0.014200
   133    -0.643703
   134     0.025438
   135    -0.035553
   136     0.030748
   137    -0.017632
   138     0.037152
   139    -0.024633
   140    -0.288260
   141    -0.008129
   142    -0.041302
   143     0.007614
   144    -0.017206
   145    -0.000011
   146     0.000010
   147    -0.000104
   148     0.002912
   149    -0.000222
   150     0.000256
   151    -0.039437
   152     0.000324
   153     0.010781
   154    -0.000506
   155     0.002975
   156     0.091153
   157     0.003579
   158     0.000536
   159    -0.137199
   160     0.005579
   161     0.013107
   162     0.218364
   163     0.005666
   164     0.001159
   165    -0.000698
   166     0.000009
   167     0.000200
   168     0.000379
   169     0.004141
   170     0.000605
   171     0.010723
   172     0.005338
   173     0.000446
   174     0.000366
   175    -0.010725
   176     0.024994
   177    -0.012230
   178     0.005510
   179    -0.003495
   180    -0.016095
   181    -0.166463
   182     0.000388
   183     0.005904
   184    -0.000541
   185     0.000216
   186     0.002559
   187    -0.001188
   188    -0.000068
   189     0.002203
   190     0.000404
   191    -0.000312
   192     0.000080
   193    -0.007158
   194    -0.001874
   195    -0.000721
   196    -0.002618
   197    -0.004093
   198     0.011570
   199     0.193473
   200     0.001198
   201     0.001887
   202    -0.002369
   203    -0.064817
   204     0.000962
   205    -0.024523
   206    -0.005516
   207    -0.004140
   208    -0.001431
   209    -0.000503
   210     0.002398
   211    -0.003063
   212    -0.010836
   213     0.009596
   214    -0.001373
   215    -0.007300
   216    -0.009301
Sym=    97a
Ene=   -0.127367E-02
Spin= Alpha
Occup= 0.000061
     1     0.009968
     2    -0.041235
     3     0.226486
     4    -0.847575
     5    -1.597980
     6    30.837028
     7    -1.745590
     8     0.000483
     9     0.000372
    10     0.303892
    11     0.001983
    12    -0.001388
    13    10.896885
    14     0.004562
    15     0.006341
    16    12.820949
    17    -0.000609
    18    -0.000848
    19     2.078886
    20     0.035268
    21     0.032852
    22     0.374365
    23     0.000211
    24    -0.000849
    25    -0.000466
    26    -1.215083
    27    -1.202135
    28    -6.651948
    29     0.000630
    30     0.004315
    31     0.004197
    32    -0.140089
    33    -0.152154
    34    29.711199
    35     0.000997
    36    -0.000058
    37    -0.002288
    38    -0.000226
    39    -0.000635
    40     0.189025
    41    -0.000745
    42     0.000160
    43    -0.205883
    44     0.000018
    45    -0.000345
    46    -0.206848
    47    -0.000160
    48    -0.041139
    49     0.025226
    50    10.704727
    51     0.051551
    52    -0.033777
    53    -1.568004
    54    -0.000646
    55    -0.000439
    56    -1.570803
    57    -0.000640
    58    -0.080597
    59    -0.001372
    60     0.427443
    61    -0.009290
    62     0.397337
    63    -0.003230
    64     0.000382
    65    -0.018116
    66    -0.000150
    67     0.427068
    68     0.010817
    69     0.234753
    70     0.011914
    71     0.000367
    72     0.403944
    73    -0.139941
    74     0.038615
    75     0.285740
    76     3.314602
    77     4.003294
    78   -32.243202
    79     4.015394
    80    -0.010035
    81    -0.006470
    82     4.058537
    83    -0.008347
    84    -0.005579
    85    19.192636
    86    -0.007151
    87    -0.006704
    88     2.168493
    89     0.000488
    90    -0.001060
    91     0.305883
    92     0.237232
    93     0.235021
    94     1.469302
    95    -0.000233
    96    -0.000221
    97     0.000501
    98     8.740449
    99     8.749791
   100     6.508662
   101    -0.000548
   102     0.002692
   103     0.000962
   104     0.806043
   105     0.797706
   106     1.804430
   107     0.000130
   108    -0.000144
   109    -0.000049
   110     0.002041
   111    -0.004762
   112    -1.389416
   113    -0.007375
   114     0.003328
   115    -1.175072
   116    -0.001886
   117    -0.000402
   118    -1.174564
   119    -0.000229
   120    -0.016358
   121     0.019271
   122    -8.408440
   123     0.034518
   124    -0.017648
   125    -5.332249
   126     0.002760
   127     0.002664
   128    -5.333743
   129     0.000126
   130     3.198632
   131    -0.001113
   132    -0.303908
   133     0.010490
   134    -2.556518
   135    -0.002349
   136     0.000398
   137     0.021942
   138    -0.000129
   139    -0.304798
   140    -0.014361
   141    -1.495407
   142    -0.017948
   143     0.000200
   144    -2.551446
   145     0.004894
   146    -0.014544
   147     0.097927
   148    -3.065121
   149     2.673404
   150   -18.081837
   151    -8.396669
   152    -0.000073
   153    -0.000228
   154     0.222544
   155     0.000909
   156     0.000432
   157     2.935403
   158    -0.001469
   159     0.000530
   160    22.124217
   161    -0.000210
   162    -0.001780
   163    -0.279604
   164    -0.183758
   165    -0.183764
   166    -0.317020
   167    -0.000011
   168    -0.000107
   169    -0.000053
   170    -5.681732
   171    -5.681665
   172    -5.516933
   173     0.000023
   174     0.000561
   175     0.000617
   176    -4.048039
   177    -4.045059
   178   -13.530763
   179    -0.000190
   180     0.000754
   181     0.000109
   182    -0.000574
   183    -0.000491
   184     0.240451
   185     0.000492
   186     0.000470
   187     0.162819
   188    -0.000002
   189    -0.000062
   190     0.162925
   191     0.000048
   192     0.001641
   193    -0.003345
   194     2.408879
   195    -0.002292
   196     0.004697
   197     0.741912
   198     0.000119
   199    -0.000331
   200     0.740907
   201     0.000012
   202     1.221305
   203    -0.000277
   204     0.743191
   205     0.000241
   206     1.925489
   207    -0.000676
   208    -0.000070
   209     0.000306
   210     0.000009
   211     0.743260
   212    -0.000708
   213     1.127296
   214    -0.000517
   215    -0.000007
   216     1.925476
Sym=    98a
Ene=   -0.563213E-05
Spin= Alpha
Occup= 0.000000
     1    -0.003842
     2     0.006017
     3    -0.001166
     4     0.048176
     5     0.078180
     6    -0.285987
     7     0.517827
     8     0.012821
     9     0.088529
    10     0.041957
    11    -0.465027
    12     0.493188
    13     0.132291
    14     1.027807
    15     0.383615
    16     0.203332
    17    -0.369382
    18     0.143271
    19    -0.165440
    20    -0.172133
    21     0.187568
    22     0.079042
    23    -0.299177
    24    -5.595391
    25    -2.850346
    26     0.926607
    27    -0.669704
    28    -0.221698
    29     1.210107
    30    26.559836
    31    13.866974
    32    -0.089827
    33     0.187685
    34    -0.016722
    35    -0.207136
    36    -3.589789
    37    -2.142126
    38    -0.028445
    39    -0.198365
    40    -0.087621
    41    -0.044220
    42    -0.083499
    43    -0.016264
    44     0.024266
    45    -0.014748
    46    -0.033990
    47     0.004299
    48    -0.156504
    49    -0.262771
    50    -0.226695
    51    -0.028162
    52    -0.124479
    53    -0.130802
    54    -0.689857
    55    -0.353357
    56    -0.084472
    57    -0.038102
    58     0.270586
    59    -5.566895
    60     0.247798
    61    -5.550346
    62     0.389289
    63    -9.736266
    64    -0.211201
    65    -4.716171
    66    -0.412348
    67    -0.133462
    68    -2.476818
    69     0.004240
    70   -10.550615
    71    -0.467141
    72    -0.484017
    73     0.000195
    74    -0.000337
    75    -0.001017
    76     0.097508
    77     0.065250
    78    -0.423755
    79    -0.697887
    80    -0.075702
    81    -0.026056
    82     0.000188
    83     0.438880
    84     0.217411
    85    -0.051788
    86    -2.491583
    87    -1.269504
    88    -0.109811
    89     0.475312
    90     0.034783
    91    -0.123574
    92    -0.003841
    93     0.016390
    94     0.014074
    95    -0.006668
    96    -0.645138
    97    -0.322098
    98     0.245760
    99     0.222215
   100     0.136535
   101    -0.036401
   102     3.205131
   103     1.652318
   104     0.178944
   105     0.175044
   106     0.053946
   107     0.003315
   108    -0.649728
   109    -0.529950
   110     0.141311
   111     0.067076
   112    -0.020600
   113     0.077238
   114     0.022574
   115     0.002696
   116     0.060218
   117    -0.099417
   118     0.004304
   119    -0.018830
   120     0.273644
   121     0.094647
   122    -0.057999
   123     0.103468
   124     0.053050
   125     0.017466
   126     0.963366
   127     0.161344
   128    -0.011009
   129     0.007744
   130    -0.043974
   131    -0.697285
   132    -0.044624
   133    -0.505623
   134    -0.067149
   135    -0.764077
   136    -0.030663
   137    -0.432631
   138     0.057427
   139    -0.018557
   140    -0.228371
   141    -0.004029
   142    -0.961676
   143     0.022928
   144    -0.064507
   145     0.000107
   146     0.000332
   147    -0.004431
   148     0.039899
   149    -0.081617
   150     0.080559
   151    -0.073807
   152    -0.013620
   153     0.001444
   154    -0.004087
   155    -0.251721
   156    -0.206429
   157    -0.002931
   158     1.404813
   159     0.898685
   160    -0.021754
   161     0.144918
   162    -0.058529
   163     0.079286
   164    -0.010580
   165     0.000052
   166     0.013552
   167    -0.008131
   168     0.079913
   169     0.060925
   170     0.108418
   171     0.077277
   172    -0.035000
   173     0.066824
   174    -0.582808
   175    -0.331420
   176     0.025436
   177    -0.041553
   178     0.000679
   179     0.052781
   180    -0.401444
   181    -0.345633
   182    -0.015211
   183    -0.000069
   184     0.006768
   185    -0.003476
   186    -0.001014
   187    -0.000118
   188     0.031815
   189     0.066754
   190    -0.009262
   191    -0.004929
   192    -0.059634
   193    -0.023942
   194     0.010526
   195    -0.034605
   196    -0.010088
   197    -0.047272
   198    -0.376648
   199    -0.014288
   200     0.013467
   201    -0.012485
   202     0.016805
   203     0.104766
   204    -0.026397
   205     0.247912
   206    -0.025575
   207     0.482783
   208     0.001466
   209     0.183079
   210    -0.054115
   211     0.020464
   212     0.112906
   213    -0.027563
   214     0.395214
   215    -0.034724
   216    -0.074742
Sym=    99a
Ene=    0.106021E-07
Spin= Alpha
Occup= 0.000000
     1     0.002150
     2    -0.008015
     3     0.110405
     4    -1.914587
     5     3.110630
     6   -33.679527
     7   -22.560721
     8     0.020066
     9    -0.004047
    10    -0.020271
    11     0.448646
    12     0.482472
    13    -1.438252
    14    -0.723494
    15     1.173523
    16    19.900069
    17     1.500625
    18     0.842258
    19     2.557745
    20    -0.267721
    21     0.175835
    22    -0.020714
    23     0.191672
    24    -0.051429
    25    -0.246524
    26    -2.367725
    27    -4.911006
    28    -3.705641
    29    -1.088530
    30     0.254145
    31     1.221361
    32    -0.101026
    33    -0.030949
    34   -32.033972
    35     0.019081
    36    -0.131787
    37    -2.804275
    38    -0.037709
    39    -0.012859
    40     0.053020
    41    -0.099509
    42     0.040812
    43    -0.012490
    44    -0.012249
    45     0.028333
    46     0.024009
    47     0.001313
    48     0.053537
    49     0.017688
    50    -0.885374
    51     0.113555
    52    -0.042383
    53     0.207659
    54     0.027637
    55     0.756499
    56     0.136902
    57    -0.027288
    58     0.590162
    59    -0.934007
    60     1.111911
    61    -0.565896
    62     2.020774
    63    -0.130603
    64     0.188429
    65    -0.061644
    66     0.444271
    67     0.656009
    68    -0.262275
    69     0.717307
    70    -0.151843
    71     0.507873
    72     0.311539
    73     0.011115
    74    -0.027722
    75     0.198497
    76    -9.743599
    77     0.476725
    78    76.693140
    79    23.069011
    80     0.003710
    81     0.014126
    82     0.050043
    83    -0.039163
    84    -0.143760
    85     3.739290
    86     0.325989
    87    -2.431216
    88    26.865646
    89    -0.958036
    90    -0.303437
    91     1.341736
    92    -0.923458
    93    -0.647539
    94    -1.114261
    95    -0.013523
    96     0.145014
    97    -0.145052
    98   -19.986575
    99   -21.588789
   100   -18.412757
   101     0.082159
   102    -0.816231
   103     0.721315
   104    -4.514904
   105    -4.456858
   106     4.278873
   107     0.003332
   108    -0.207881
   109    -2.165620
   110    -0.004595
   111    -0.147490
   112    -0.009817
   113    -0.049569
   114    -0.031693
   115    -0.134165
   116     0.020025
   117     0.062288
   118    -0.150388
   119    -0.006112
   120    -0.042096
   121     0.296774
   122     0.825520
   123     0.024124
   124     0.100681
   125     0.633523
   126    -0.167728
   127    -1.135557
   128     0.646780
   129     0.010216
   130     4.132091
   131    -0.710561
   132     3.024995
   133    -0.295793
   134     5.969470
   135     0.309164
   136    -0.026149
   137     0.188101
   138    -0.027399
   139     2.733477
   140    -0.141174
   141     3.190264
   142     0.404335
   143    -0.034556
   144     4.894098
   145     0.063009
   146    -0.140732
   147     0.782390
   148    -6.008519
   149     0.389017
   150    32.618702
   151    12.382847
   152    -0.078958
   153     0.005226
   154     0.019965
   155     0.392379
   156    -0.247790
   157    -2.044365
   158     0.917719
   159     1.366764
   160   -10.933665
   161    -0.946545
   162    -0.555462
   163    -1.425576
   164     0.105289
   165     0.099031
   166     0.231303
   167    -0.011172
   168    -0.146801
   169     0.030084
   170   -10.923847
   171   -10.906977
   172   -11.397286
   173     0.052114
   174     0.786641
   175    -0.107954
   176    -2.803171
   177    -2.765622
   178     2.029399
   179     0.018557
   180     0.015859
   181    -0.520328
   182    -0.151578
   183     0.019355
   184     0.009565
   185    -0.056545
   186     0.014288
   187     0.040824
   188    -0.085326
   189    -0.006043
   190     0.048744
   191     0.012985
   192    -0.444378
   193    -0.125581
   194    -1.336821
   195    -0.221130
   196    -0.060709
   197    -0.231970
   198    -0.176428
   199     0.114203
   200    -0.276358
   201    -0.036785
   202     3.843279
   203    -0.004371
   204     1.979495
   205     0.138142
   206     3.081249
   207    -0.359593
   208     0.014943
   209    -0.151288
   210    -0.018709
   211     1.978862
   212     0.053911
   213     1.773134
   214    -0.359079
   215    -0.039476
   216     3.089646
Sym=   100a
Ene=   -0.411993E-04
Spin= Alpha
Occup= 0.000010
     1    -0.003939
     2     0.009319
     3     0.046863
     4    -0.201543
     5     0.057914
     6     1.902603
     7     0.435190
     8     0.035118
     9     0.042799
    10     0.039809
    11     0.025839
    12     0.475702
    13     0.630057
    14     0.035701
    15     0.014687
    16    -0.056946
    17     0.121959
    18     0.013785
    19     0.017013
    20    -0.203080
    21     0.248799
    22    -0.010666
    23    -0.264735
    24    -0.068909
    25     0.041607
    26    -0.205711
    27    -0.296054
    28     0.127000
    29     0.176533
    30    -0.132072
    31     0.428214
    32     0.163913
    33    -0.086667
    34     1.095547
    35     0.233912
    36     0.595377
    37     0.043186
    38    -0.008610
    39    -0.489286
    40    -0.170046
    41     0.297974
    42     0.400088
    43     0.207200
    44     0.054941
    45    -0.198071
    46    -0.286664
    47     0.285771
    48    -0.071150
    49     0.180342
    50     0.389316
    51    -0.420680
    52    -0.496321
    53    -0.225201
    54     0.229455
    55     0.199494
    56     0.166814
    57    -0.173162
    58    -0.126419
    59    -0.104560
    60     0.041179
    61     0.016652
    62     0.116956
    63     0.048033
    64    -0.231874
    65    -0.195485
    66     0.075076
    67    -0.171799
    68    -0.432697
    69    -0.093901
    70     0.072578
    71    -0.103986
    72     0.191719
    73    -0.001648
    74     0.003869
    75     0.024292
    76    -0.073092
    77     0.136335
    78    -0.689992
    79    -0.439389
    80     0.047624
    81     0.030191
    82    -0.020166
    83     0.047746
    84     0.257993
    85    -0.008737
    86     0.627107
    87    -0.153292
    88    -0.575113
    89    -0.035648
    90     0.083186
    91    -0.129280
    92    -0.099832
    93     0.127294
    94    -0.001475
    95    -0.127550
    96     0.122564
    97    -0.010229
    98     0.066916
    99    -0.174690
   100     0.201087
   101     0.258796
   102    -0.490947
   103    -0.328821
   104     0.001188
   105    -0.091027
   106    -0.291475
   107     0.080671
   108     0.146685
   109    -0.003903
   110    -0.060009
   111    -0.255066
   112     0.053525
   113     0.149140
   114     0.191743
   115    -0.082785
   116    -0.034672
   117    -0.089004
   118     0.155503
   119    -0.120010
   120    -0.145150
   121     0.025984
   122    -0.045868
   123    -0.267210
   124    -0.213903
   125     0.059513
   126    -0.165646
   127     0.050017
   128    -0.071203
   129     0.095662
   130    -0.100967
   131     0.178453
   132    -0.006312
   133     0.048473
   134     0.175715
   135     0.117616
   136    -0.086086
   137     0.124201
   138    -0.066692
   139    -0.061274
   140     0.163768
   141    -0.065479
   142     0.193741
   143    -0.182664
   144    -0.038409
   145     0.000004
   146     0.000217
   147     0.000042
   148    -0.007329
   149    -0.074017
   150    -0.864858
   151    -0.145619
   152     0.007821
   153    -0.003205
   154     0.008282
   155    -0.072855
   156    -0.049189
   157     0.103338
   158    -0.387302
   159     0.018155
   160     1.031736
   161    -0.003575
   162    -0.068390
   163    -0.093112
   164    -0.019116
   165     0.015121
   166     0.009113
   167    -0.016460
   168     0.021862
   169    -0.004603
   170     0.042499
   171    -0.078141
   172    -0.118972
   173     0.066154
   174    -0.082171
   175     0.007328
   176    -0.176615
   177    -0.190920
   178    -0.605678
   179    -0.026057
   180     0.238164
   181     0.120689
   182     0.024464
   183     0.006527
   184     0.026925
   185    -0.009138
   186    -0.025433
   187     0.010304
   188     0.003773
   189     0.006669
   190     0.000986
   191    -0.001495
   192    -0.004925
   193    -0.082762
   194     0.072826
   195     0.073412
   196     0.076810
   197    -0.032181
   198    -0.058284
   199    -0.127843
   200     0.062208
   201    -0.037924
   202     0.022679
   203     0.033635
   204    -0.028483
   205     0.054572
   206     0.055968
   207     0.058946
   208     0.031687
   209    -0.010400
   210    -0.033454
   211     0.021323
   212    -0.031553
   213     0.006377
   214     0.069076
   215    -0.016380
   216    -0.018558
Sym=   101a
Ene=   -0.271521E-04
Spin= Alpha
Occup= 0.000006
     1     0.004092
     2     0.003612
     3    -0.182920
     4     0.559183
     5    -0.553510
     6     4.893786
     7    -0.155182
     8     0.047267
     9     0.001527
    10    -0.026793
    11     1.041675
    12     0.044792
    13    -0.898799
    14     0.009035
    15     0.109755
    16     0.879904
    17     0.340222
    18    -0.033997
    19     0.297003
    20    -0.211299
    21     0.112325
    22    -0.343318
    23    -0.052845
    24     0.047584
    25    -0.007401
    26    -0.150024
    27    -0.417002
    28     3.483024
    29     0.151604
    30    -0.950815
    31    -0.112426
    32     0.226470
    33    -0.186467
    34     3.127284
    35     0.130519
    36    -0.468440
    37    -0.214591
    38    -0.572152
    39    -0.069800
    40    -0.405679
    41    -0.211022
    42    -0.010966
    43    -0.064280
    44     0.425013
    45     0.085535
    46     0.143304
    47    -0.050459
    48     0.246054
    49    -0.035578
    50    -0.058476
    51    -0.086657
    52     0.102505
    53    -0.351916
    54     0.646476
    55     0.008841
    56    -0.014658
    57    -0.043555
    58    -1.768256
    59    -0.040318
    60    -0.447898
    61     0.069180
    62     0.362325
    63    -0.015791
    64     0.018142
    65     0.251861
    66    -0.179271
    67     0.045058
    68    -0.023706
    69    -0.023844
    70     0.150755
    71     0.058526
    72     0.170870
    73    -0.014365
    74     0.016149
    75     0.267797
    76    -0.542499
    77     1.349807
    78    -5.613417
    79     0.336440
    80     0.026897
    81    -0.006793
    82     0.091032
    83    -0.609975
    84    -0.216159
    85    -0.495406
    86     0.239293
    87     0.026686
    88    -0.171923
    89    -0.206838
    90    -0.044627
    91     0.090948
    92     0.333961
    93    -0.121028
    94     0.610550
    95     0.140256
    96     0.345802
    97     0.046132
    98     0.472144
    99     1.140273
   100    -3.162673
   101    -0.113669
   102    -1.774954
   103    -0.087192
   104     0.188933
   105     0.485711
   106    -0.092339
   107    -0.082222
   108    -0.602679
   109    -0.133818
   110     0.617968
   111     0.065894
   112    -0.660612
   113     0.145846
   114     0.171509
   115     0.166653
   116    -0.528211
   117    -0.063872
   118     0.161824
   119     0.058368
   120    -0.696618
   121     0.043197
   122    -1.390042
   123    -0.025600
   124    -0.189392
   125    -0.900943
   126    -0.580820
   127    -0.077031
   128    -0.346812
   129    -0.142570
   130     1.455397
   131    -0.095697
   132     0.562609
   133     0.099703
   134    -0.579615
   135    -0.010208
   136    -0.072031
   137     0.470498
   138     0.134483
   139     0.150484
   140    -0.037666
   141    -0.066925
   142     0.720824
   143    -0.065617
   144    -0.161600
   145    -0.000151
   146    -0.000837
   147    -0.000945
   148    -0.175529
   149     0.420636
   150    -1.850841
   151    -1.642885
   152    -0.001152
   153     0.004009
   154     0.019588
   155    -0.071433
   156    -0.034297
   157     0.079906
   158     0.132530
   159     0.109320
   160     2.189955
   161    -0.230348
   162    -0.012946
   163     0.155426
   164    -0.021546
   165    -0.001797
   166    -0.072733
   167    -0.006450
   168     0.016771
   169     0.011653
   170    -0.262664
   171    -0.388392
   172     0.031953
   173     0.009282
   174    -0.090948
   175    -0.052168
   176    -0.165028
   177    -0.086547
   178    -1.139488
   179    -0.048160
   180     0.173278
   181    -0.069799
   182     0.008998
   183     0.005524
   184    -0.048562
   185    -0.001054
   186     0.009527
   187     0.019706
   188    -0.015078
   189     0.002539
   190     0.024057
   191     0.000215
   192    -0.005007
   193     0.019854
   194     0.162348
   195     0.003441
   196    -0.014051
   197     0.097482
   198    -0.143044
   199     0.032281
   200     0.020854
   201     0.011361
   202     0.026838
   203     0.011059
   204    -0.006222
   205     0.015426
   206     0.183117
   207     0.087739
   208    -0.000116
   209     0.030096
   210     0.008340
   211    -0.068309
   212     0.029400
   213     0.086681
   214     0.040735
   215     0.006913
   216     0.118587
Sym=   102a
Ene=   -0.178926E-01
Spin= Alpha
Occup= 0.017964
     1     0.048988
     2     0.006397
     3     0.069012
     4     0.059585
     5    -0.270780
     6    -0.145942
     7    -0.043637
     8    -0.198972
     9     0.226925
    10    -0.169707
    11     0.250154
    12    -0.284975
    13     0.324924
    14     0.104607
    15    -0.118634
    16     0.314011
    17    -0.019934
    18     0.022705
    19     0.016758
    20    -0.005661
    21    -0.008884
    22     0.013384
    23     0.015565
    24    -0.012651
    25     0.014449
    26     0.003176
    27    -0.018798
    28     0.011003
    29     0.086400
    30    -0.057192
    31     0.065191
    32     0.017671
    33     0.010372
    34     0.302815
    35     0.033049
    36    -0.056882
    37     0.064345
    38    -0.000268
    39    -0.002184
    40    -0.009257
    41     0.009008
    42    -0.007117
    43     0.003696
    44     0.002825
    45    -0.003259
    46     0.006354
    47    -0.012142
    48    -0.027672
    49     0.026803
    50    -0.005218
    51     0.002482
    52     0.002802
    53    -0.009454
    54    -0.010149
    55     0.011280
    56    -0.005652
    57    -0.019376
    58     0.004523
    59    -0.001620
    60    -0.002770
    61    -0.002526
    62    -0.002034
    63     0.001413
    64    -0.000149
    65    -0.002508
    66    -0.007397
    67    -0.003039
    68     0.001591
    69    -0.003330
    70     0.003053
    71    -0.007868
    72    -0.005771
    73    -0.045751
    74    -0.005476
    75    -0.066003
    76     0.011806
    77     0.262020
    78    -0.047887
    79    -0.131728
    80     0.183885
    81    -0.209555
    82    -0.191721
    83    -0.222753
    84     0.254096
    85     0.328944
    86    -0.109632
    87     0.124463
    88     0.196917
    89     0.029656
    90    -0.033509
    91     0.042985
    92     0.003976
    93     0.005943
    94     0.004163
    95    -0.009060
    96    -0.008664
    97     0.009853
    98     0.136585
    99     0.151092
   100     0.162271
   101    -0.064292
   102    -0.066624
   103     0.075895
   104     0.045518
   105     0.047969
   106     0.092615
   107    -0.015223
   108    -0.038021
   109     0.043012
   110     0.002279
   111    -0.000718
   112    -0.010797
   113    -0.006391
   114     0.004710
   115     0.000251
   116    -0.004493
   117     0.005127
   118     0.002840
   119    -0.011255
   120     0.020614
   121    -0.020594
   122    -0.055135
   123    -0.001948
   124    -0.001888
   125    -0.022808
   126     0.003127
   127    -0.003412
   128    -0.019580
   129    -0.016804
   130    -0.021434
   131    -0.003856
   132    -0.018270
   133    -0.007723
   134    -0.038419
   135     0.003382
   136    -0.000079
   137     0.001347
   138     0.007734
   139    -0.018257
   140    -0.002163
   141    -0.021207
   142     0.007180
   143     0.007790
   144    -0.035620
   145    -0.002149
   146    -0.000211
   147    -0.002485
   148    -0.015751
   149     0.010969
   150    -0.171440
   151    -0.148659
   152    -0.030868
   153     0.035062
   154    -0.027040
   155    -0.025637
   156     0.029167
   157    -0.001329
   158    -0.078076
   159     0.090630
   160     0.216554
   161    -0.084036
   162     0.094700
   163    -0.024007
   164    -0.000560
   165    -0.002945
   166    -0.001814
   167    -0.000712
   168     0.001138
   169    -0.001300
   170    -0.020248
   171    -0.035164
   172    -0.025550
   173     0.000220
   174     0.001573
   175    -0.001779
   176    -0.039703
   177    -0.045857
   178    -0.119852
   179    -0.002868
   180     0.007728
   181    -0.009250
   182     0.001462
   183    -0.001667
   184    -0.000416
   185     0.000683
   186    -0.000843
   187    -0.000156
   188     0.000439
   189    -0.000537
   190    -0.000503
   191    -0.000065
   192     0.003929
   193    -0.005737
   194     0.009857
   195     0.002151
   196    -0.001026
   197    -0.001727
   198    -0.001633
   199     0.001612
   200    -0.002033
   201    -0.000491
   202     0.001557
   203    -0.000407
   204     0.003694
   205    -0.000911
   206     0.007456
   207     0.000354
   208    -0.000315
   209     0.000334
   210     0.000511
   211     0.003435
   212    -0.000831
   213     0.004963
   214     0.001102
   215    -0.001579
   216     0.007538
Sym=   103a
Ene=   -0.108410E-02
Spin= Alpha
Occup= 0.000403
     1     0.000019
     2    -0.000034
     3     0.000222
     4     0.000114
     5    -0.000894
     6     0.032669
     7    -0.003120
     8     0.006442
     9     0.107818
    10     0.000761
    11     0.002498
    12     0.006129
    13    -0.007809
    14    -0.038027
    15    -0.345820
    16    -0.015485
    17    -0.007773
    18    -0.154284
    19    -0.004172
    20     0.001111
    21    -0.000817
    22    -0.000481
    23    -0.007480
    24     0.004689
    25     0.073919
    26    -0.042537
    27     0.045925
    28    -0.001636
    29     0.121296
    30     0.061388
    31     0.839617
    32     0.026120
    33    -0.020830
    34     0.013921
    35    -0.030846
    36    -0.005324
    37    -0.124240
    38    -0.002528
    39    -0.046046
    40    -0.000186
    41    -0.001497
    42    -0.020171
    43     0.001553
    44     0.021580
    45     0.313666
    46    -0.000392
    47     0.006717
    48    -0.003541
    49    -0.073226
    50     0.004403
    51    -0.003526
    52    -0.030461
    53     0.013561
    54     0.005520
    55     0.110443
    56    -0.012330
    57     0.009217
    58     0.001572
    59     0.323221
    60    -0.008019
    61    -0.229869
    62    -0.017541
    63     0.016591
    64    -0.005264
    65    -0.007559
    66    -0.047869
    67     0.008912
    68    -0.103454
    69     0.010343
    70    -0.017761
    71    -0.012063
    72     0.004494
    73     0.000016
    74    -0.000051
    75     0.000299
    76    -0.001554
    77     0.001233
    78    -0.017849
    79    -0.002244
    80     0.001347
    81     0.036633
    82     0.000001
    83     0.018138
    84     0.278994
    85    -0.001797
    86     0.018260
    87     0.276268
    88    -0.026137
    89     0.006070
    90    -0.046332
    91     0.001252
    92     0.004830
    93    -0.004852
    94     0.000034
    95    -0.008755
    96     0.000758
    97     0.006261
    98    -0.017532
    99     0.012007
   100    -0.004142
   101     0.030511
   102     0.004023
   103     0.097151
   104     0.027853
   105    -0.035824
   106    -0.014092
   107    -0.040516
   108     0.016662
   109     0.193751
   110    -0.004030
   111    -0.067176
   112    -0.000044
   113    -0.001682
   114    -0.030200
   115    -0.000085
   116     0.002573
   117     0.042639
   118     0.000720
   119    -0.000944
   120    -0.008760
   121    -0.172307
   122    -0.000370
   123    -0.005013
   124    -0.075409
   125     0.017075
   126     0.009758
   127     0.163450
   128    -0.015704
   129    -0.022213
   130     0.000177
   131     0.154748
   132    -0.000102
   133    -0.004455
   134    -0.010954
   135     0.010754
   136    -0.005772
   137    -0.000134
   138    -0.019293
   139     0.001797
   140    -0.001285
   141     0.004187
   142     0.000723
   143    -0.007651
   144     0.008380
   145     0.000011
   146     0.000036
   147     0.000115
   148    -0.001856
   149     0.000020
   150    -0.002868
   151     0.011686
   152    -0.010719
   153    -0.165555
   154     0.000528
   155     0.003003
   156     0.055962
   157    -0.002816
   158    -0.004205
   159     0.011736
   160     0.005195
   161    -0.000903
   162    -0.095367
   163    -0.000380
   164    -0.002333
   165     0.002022
   166     0.000186
   167    -0.001378
   168    -0.000496
   169    -0.010422
   170     0.016854
   171    -0.023098
   172    -0.001423
   173     0.014387
   174    -0.004688
   175    -0.033415
   176    -0.050809
   177     0.044005
   178    -0.006027
   179    -0.031374
   180     0.003868
   181     0.090463
   182    -0.002636
   183    -0.054102
   184    -0.000192
   185    -0.001511
   186    -0.024156
   187    -0.010004
   188     0.006741
   189     0.090384
   190     0.010712
   191    -0.007903
   192    -0.001453
   193    -0.054727
   194    -0.000279
   195     0.000499
   196    -0.026102
   197    -0.041931
   198     0.008531
   199     0.115287
   200     0.044228
   201    -0.035012
   202     0.001425
   203    -0.170484
   204    -0.006247
   205     0.075606
   206     0.015310
   207    -0.010977
   208     0.008054
   209     0.002644
   210    -0.010122
   211     0.007011
   212     0.033668
   213    -0.018709
   214     0.005614
   215     0.005443
   216     0.008026
Sym=   104a
Ene=   -0.106570E-02
Spin= Alpha
Occup= 0.000534
     1    -0.001054
     2     0.006330
     3    -0.009942
     4    -0.011419
     5     0.404087
     6    -3.078950
     7    -0.360463
     8     0.005478
     9    -0.002518
    10     0.017537
    11    -0.029540
    12     0.029578
    13     0.006004
    14    -0.066744
    15     0.003767
    16     1.128958
    17     0.004348
    18    -0.008529
    19     0.538002
    20     0.010603
    21    -0.013882
    22     0.051084
    23    -0.011359
    24    -0.008367
    25     0.003800
    26     0.127993
    27     0.234063
    28     0.171962
    29     0.064731
    30    -0.067517
    31     0.022562
    32    -0.084250
    33    -0.115101
    34    -1.955377
    35    -0.010227
    36    -0.124947
    37     0.039662
    38    -0.000312
    39    -0.004519
    40    -0.012983
    41     0.001839
    42     0.001490
    43    -0.030436
    44    -0.013416
    45     0.005637
    46    -0.028017
    47     0.000236
    48    -0.007488
    49     0.007087
    50    -0.855291
    51    -0.003159
    52    -0.021705
    53    -0.179417
    54    -0.000389
    55    -0.010422
    56    -0.135422
    57     0.025038
    58     0.112357
    59     0.012731
    60    -0.016390
    61     0.002928
    62    -0.068670
    63    -0.023432
    64    -0.000062
    65    -0.002040
    66    -0.018847
    67    -0.017714
    68    -0.005387
    69    -0.026601
    70     0.011001
    71    -0.022679
    72    -0.009680
    73     0.000343
    74    -0.002290
    75     0.007341
    76    -0.036725
    77    -0.195964
    78     1.943792
    79     1.370378
    80    -0.002726
    81     0.000036
    82    -0.017528
    83    -0.034328
    84     0.017729
    85    -0.417812
    86    -0.067421
    87     0.033712
    88     1.729900
    89     0.053158
    90     0.003936
    91     0.196872
    92    -0.003650
    93    -0.008802
    94     0.017851
    95    -0.002549
    96    -0.004471
    97     0.002545
    98    -0.107077
    99    -0.080267
   100    -0.380415
   101     0.017848
   102     0.018315
   103    -0.007439
   104     0.127529
   105     0.158128
   106     0.739760
   107     0.005725
   108    -0.043386
   109     0.025831
   110     0.005176
   111    -0.002061
   112     0.003491
   113     0.001687
   114    -0.001578
   115     0.013431
   116    -0.000558
   117    -0.000064
   118     0.009683
   119    -0.000643
   120    -0.003163
   121    -0.002151
   122     0.131639
   123     0.019662
   124    -0.007292
   125     0.043817
   126    -0.013537
   127     0.002711
   128     0.067176
   129     0.009879
   130     0.082654
   131     0.010580
   132     0.017669
   133     0.005307
   134     0.008756
   135    -0.021046
   136    -0.001597
   137    -0.001790
   138    -0.006530
   139     0.021267
   140     0.001215
   141     0.009091
   142    -0.011947
   143    -0.006861
   144     0.024017
   145    -0.001373
   146     0.002406
   147    -0.012521
   148     0.216731
   149    -0.062683
   150     0.953717
   151    -1.244597
   152    -0.087110
   153     0.007235
   154     0.160391
   155     0.084443
   156    -0.011195
   157    -0.322335
   158     0.188442
   159    -0.044420
   160    -0.864215
   161    -0.197348
   162     0.033104
   163     0.730233
   164     0.037037
   165     0.028580
   166    -0.016749
   167    -0.000134
   168    -0.043976
   169     0.017073
   170     0.722321
   171     0.509927
   172     0.104781
   173    -0.039200
   174    -0.453087
   175     0.177981
   176     0.524813
   177     0.396550
   178     0.657024
   179    -0.038622
   180    -0.328760
   181     0.120505
   182     0.085943
   183    -0.010219
   184    -0.002829
   185     0.008732
   186    -0.022299
   187    -0.127900
   188    -0.099595
   189     0.033490
   190    -0.017607
   191     0.058274
   192     0.190485
   193    -0.029362
   194    -0.056699
   195     0.010145
   196    -0.022307
   197    -0.429566
   198    -0.247376
   199     0.080027
   200    -0.110172
   201     0.165778
   202    -0.018161
   203    -0.030921
   204    -0.059655
   205    -0.052082
   206    -0.126921
   207     0.075730
   208     0.048219
   209     0.033364
   210     0.023101
   211    -0.165483
   212     0.075950
   213    -0.098561
   214    -0.036207
   215    -0.042944
   216    -0.105747
Sym=   105a
Ene=   -0.105828E-02
Spin= Alpha
Occup= 0.000528
     1    -0.001020
     2     0.006549
     3    -0.010322
     4    -0.010120
     5     0.411294
     6    -3.092590
     7    -0.382688
     8    -0.001240
     9     0.006595
    10     0.017460
    11    -0.016550
    12    -0.039594
    13     0.003734
    14     0.016728
    15    -0.046354
    16     1.148707
    17     0.027560
    18    -0.023612
    19     0.524733
    20    -0.015573
    21     0.012253
    22     0.051438
    23    -0.004974
    24     0.001725
    25    -0.008818
    26     0.259250
    27     0.117005
    28     0.181036
    29     0.011479
    30     0.009826
    31    -0.067910
    32    -0.106329
    33    -0.082191
    34    -1.955613
    35    -0.004653
    36     0.044976
    37    -0.110497
    38     0.002464
    39    -0.000298
    40    -0.011845
    41     0.002998
    42     0.003246
    43    -0.028369
    44     0.001781
    45    -0.014644
    46    -0.029806
    47     0.000955
    48     0.014839
    49     0.008507
    50    -0.855505
    51     0.007906
    52    -0.021905
    53    -0.124575
    54     0.017491
    55     0.006467
    56    -0.189216
    57     0.012256
    58     0.113856
    59    -0.025454
    60    -0.019907
    61     0.010067
    62    -0.005977
    63     0.002180
    64     0.002488
    65    -0.005467
    66    -0.008994
    67    -0.017717
    68    -0.001838
    69    -0.025038
    70     0.002999
    71    -0.002336
    72    -0.078407
    73     0.000331
    74    -0.002325
    75     0.007350
    76    -0.030902
    77    -0.194777
    78     1.927288
    79     1.363781
    80    -0.000266
    81    -0.002937
    82    -0.017320
    83     0.004871
    84    -0.039022
    85    -0.418325
    86     0.013792
    87    -0.070132
    88     1.737831
    89    -0.054486
    90     0.057509
    91     0.204478
    92    -0.008472
    93    -0.003084
    94     0.018939
    95    -0.000644
    96    -0.000245
    97    -0.004706
    98    -0.063636
    99    -0.098562
   100    -0.373701
   101     0.001449
   102    -0.000190
   103     0.016917
   104     0.165116
   105     0.136160
   106     0.749899
   107     0.014938
   108    -0.000782
   109    -0.041312
   110     0.000275
   111     0.006256
   112     0.002538
   113    -0.000436
   114     0.002139
   115     0.009838
   116     0.000163
   117    -0.000359
   118     0.012868
   119    -0.001574
   120    -0.011752
   121     0.017129
   122     0.129711
   123     0.016691
   124    -0.000199
   125     0.068717
   126     0.002157
   127    -0.010882
   128     0.042099
   129     0.007294
   130     0.081397
   131    -0.022392
   132     0.020016
   133    -0.009119
   134     0.023105
   135     0.000145
   136    -0.000514
   137     0.002842
   138    -0.000891
   139     0.016443
   140    -0.005655
   141     0.007748
   142    -0.002132
   143     0.000077
   144     0.002682
   145    -0.001357
   146     0.002437
   147    -0.012548
   148     0.210904
   149    -0.056864
   150     0.962968
   151    -1.232343
   152     0.052766
   153    -0.076106
   154     0.158485
   155    -0.044062
   156     0.076033
   157    -0.319570
   158    -0.074294
   159     0.160516
   160    -0.847084
   161     0.094158
   162    -0.161597
   163     0.728002
   164     0.030649
   165     0.033895
   166    -0.018049
   167    -0.005911
   168     0.006540
   169    -0.046131
   170     0.535010
   171     0.681226
   172     0.093668
   173    -0.120555
   174     0.066270
   175    -0.482563
   176     0.400000
   177     0.514792
   178     0.648856
   179    -0.054749
   180     0.061370
   181    -0.328501
   182     0.002082
   183     0.077443
   184    -0.005156
   185    -0.039961
   186     0.022746
   187    -0.001119
   188     0.022126
   189    -0.103420
   190    -0.144572
   191     0.023770
   192     0.004771
   193     0.140701
   194    -0.062951
   195    -0.108649
   196     0.075665
   197    -0.065830
   198     0.057634
   199    -0.254804
   200    -0.473117
   201     0.069366
   202    -0.018164
   203     0.080028
   204    -0.172335
   205    -0.063044
   206    -0.101579
   207    -0.009894
   208     0.028566
   209     0.034664
   210    -0.040497
   211    -0.048672
   212     0.072184
   213    -0.089280
   214    -0.024919
   215     0.042039
   216    -0.136452
Sym=   106a
Ene=   -0.105672E-02
Spin= Alpha
Occup= 0.000527
     1    -0.001026
     2     0.006567
     3    -0.010582
     4    -0.006324
     5     0.412465
     6    -3.147724
     7    -0.350234
     8    -0.004288
     9    -0.004570
    10     0.017625
    11     0.034478
    12     0.019326
    13     0.002047
    14     0.036025
    15     0.031946
    16     1.223341
    17    -0.006158
    18     0.029632
    19     0.520936
    20     0.001868
    21    -0.005242
    22     0.051237
    23     0.017322
    24     0.007382
    25     0.005506
    26     0.168648
    27     0.224624
    28     0.189925
    29    -0.082840
    30     0.053985
    31     0.048455
    32    -0.091087
    33    -0.102050
    34    -1.971268
    35     0.017920
    36     0.099432
    37     0.070116
    38    -0.003260
    39    -0.001826
    40    -0.012235
    41     0.000501
    42     0.002705
    43    -0.029049
    44     0.011939
    45     0.009488
    46    -0.029823
    47    -0.001183
    48     0.000040
    49     0.023544
    50    -0.866491
    51    -0.000379
    52    -0.015198
    53    -0.167610
    54    -0.009297
    55     0.001054
    56    -0.152861
    57    -0.037050
    58     0.111035
    59     0.014799
    60    -0.021148
    61    -0.001994
    62    -0.058166
    63     0.021105
    64    -0.001768
    65    -0.007561
    66     0.029092
    67    -0.019846
    68    -0.007496
    69    -0.023122
    70    -0.001025
    71     0.027193
    72    -0.034702
    73     0.000312
    74    -0.002292
    75     0.007045
    76    -0.023605
    77    -0.192558
    78     1.947138
    79     1.329542
    80     0.001029
    81     0.002752
    82    -0.017312
    83     0.035974
    84     0.022474
    85    -0.421585
    86     0.058354
    87     0.049799
    88     1.782531
    89    -0.029697
    90    -0.061848
    91     0.193548
    92    -0.003613
    93    -0.007064
    94     0.019525
    95     0.003793
    96     0.004213
    97     0.002662
    98    -0.077630
    99    -0.052085
   100    -0.360399
   101    -0.019906
   102    -0.013112
   103    -0.012627
   104     0.176110
   105     0.162486
   106     0.784130
   107    -0.018303
   108     0.042487
   109     0.022202
   110    -0.004015
   111    -0.003644
   112     0.002446
   113    -0.002398
   114    -0.002206
   115     0.010906
   116     0.000317
   117    -0.000053
   118     0.012002
   119     0.002405
   120    -0.020332
   121    -0.004576
   122     0.131824
   123     0.011600
   124    -0.009353
   125     0.054390
   126     0.009826
   127     0.006791
   128     0.058374
   129    -0.015783
   130     0.078168
   131     0.013590
   132     0.015243
   133     0.007085
   134     0.001784
   135     0.018825
   136     0.002340
   137     0.006430
   138     0.008105
   139     0.016939
   140     0.001920
   141     0.005389
   142     0.006593
   143     0.007583
   144     0.015674
   145    -0.001255
   146     0.002321
   147    -0.011832
   148     0.212872
   149    -0.063413
   150     0.975519
   151    -1.280661
   152     0.061119
   153     0.064988
   154     0.159481
   155    -0.059653
   156    -0.062245
   157    -0.324078
   158    -0.141213
   159    -0.110281
   160    -0.830813
   161     0.146785
   162     0.124320
   163     0.743115
   164     0.031842
   165     0.032989
   166    -0.017925
   167     0.003512
   168     0.036280
   169     0.029835
   170     0.611216
   171     0.612569
   172     0.093903
   173     0.124042
   174     0.381194
   175     0.311506
   176     0.465342
   177     0.455254
   178     0.651091
   179     0.079608
   180     0.259855
   181     0.213678
   182    -0.042372
   183    -0.036615
   184    -0.004858
   185    -0.041058
   186    -0.038748
   187    -0.088801
   188     0.081198
   189     0.069319
   190    -0.059451
   191    -0.086089
   192    -0.085451
   193    -0.096467
   194    -0.064718
   195    -0.087845
   196    -0.065462
   197    -0.315681
   198     0.199297
   199     0.169968
   200    -0.232116
   201    -0.244637
   202    -0.018365
   203    -0.051482
   204    -0.099804
   205    -0.050344
   206    -0.156497
   207    -0.063900
   208    -0.075469
   209     0.041681
   210     0.005107
   211    -0.121155
   212     0.075827
   213    -0.032794
   214    -0.023360
   215     0.018159
   216    -0.148837
Sym=   107a
Ene=   -0.170064E-03
Spin= Alpha
Occup= 0.000055
     1    -0.001145
     2    -0.004264
     3     0.014107
     4     0.172574
     5    -0.202089
     6    -8.144344
     7    -0.187082
     8     0.000404
     9    -0.000457
    10    -0.092572
    11    -0.001582
    12    -0.001923
    13    -0.678511
    14     0.002141
    15     0.009850
    16     0.383184
    17    -0.000395
    18    -0.003497
    19    -0.263107
    20     0.021753
    21     0.018021
    22     0.136329
    23    -0.000555
    24    -0.000988
    25     0.001491
    26     0.394529
    27     0.412862
    28    -0.248111
    29     0.002379
    30     0.004640
    31    -0.007970
    32    -0.118306
    33    -0.127036
    34    -6.875082
    35    -0.000818
    36     0.006622
    37    -0.003972
    38     0.007085
    39    -0.003074
    40     0.103883
    41    -0.009667
    42     0.005724
    43     0.055892
    44    -0.000186
    45    -0.000492
    46     0.056132
    47     0.000185
    48    -0.026943
    49     0.015037
    50    -1.631850
    51     0.032433
    52    -0.020678
    53     0.311270
    54    -0.004754
    55     0.007119
    56     0.308478
    57    -0.000917
    58     0.787184
    59     0.004761
    60     0.048604
    61    -0.000596
    62    -0.136345
    63    -0.001501
    64    -0.000014
    65    -0.005536
    66    -0.000814
    67     0.050246
    68     0.005029
    69    -0.076646
    70     0.002651
    71    -0.000734
    72    -0.126211
    73     0.010406
    74     0.047863
    75     0.034191
    76    -0.785004
    77    -1.085877
    78     9.140843
    79     0.823685
    80     0.000022
    81     0.000941
    82    -0.207422
    83     0.002798
    84    -0.002305
    85    -0.895189
    86     0.002565
    87     0.002856
    88     1.260942
    89    -0.001624
    90    -0.001772
    91    -0.248803
    92     0.038232
    93     0.035778
    94     0.026663
    95    -0.000120
    96     0.001156
    97    -0.001055
    98    -2.177176
    99    -2.158692
   100     0.606552
   101     0.000501
   102     0.011778
   103    -0.018464
   104     0.052078
   105     0.046542
   106     0.375692
   107    -0.000458
   108     0.000868
   109     0.000470
   110     0.004637
   111    -0.002630
   112    -0.661737
   113    -0.006702
   114     0.004995
   115     0.331090
   116    -0.003461
   117     0.004473
   118     0.328663
   119    -0.000318
   120    -0.040696
   121     0.022270
   122     2.273474
   123     0.057435
   124    -0.037877
   125     0.914983
   126     0.006341
   127    -0.009074
   128     0.911988
   129    -0.000677
   130    -0.890372
   131     0.007034
   132    -0.396896
   133     0.011043
   134     0.753962
   135    -0.002936
   136     0.001688
   137     0.007671
   138    -0.000476
   139    -0.400844
   140    -0.003761
   141     0.445583
   142    -0.011569
   143    -0.000919
   144     0.765936
   145    -0.001133
   146     0.001312
   147    -0.019761
   148     0.509145
   149    -0.470177
   150     3.456419
   151     1.254152
   152     0.000005
   153    -0.000082
   154    -0.071458
   155     0.000842
   156    -0.001549
   157    -0.310327
   158    -0.002879
   159     0.001215
   160    -3.552642
   161     0.000255
   162    -0.001530
   163     0.013982
   164     0.026349
   165     0.026288
   166     0.023511
   167    -0.000030
   168     0.000164
   169     0.000133
   170     0.918889
   171     0.918814
   172     0.974386
   173     0.000055
   174    -0.000477
   175    -0.000733
   176     0.705433
   177     0.708513
   178     2.164173
   179     0.000470
   180     0.001108
   181     0.002754
   182     0.000451
   183     0.001735
   184    -0.067140
   185    -0.000584
   186    -0.002289
   187    -0.053233
   188    -0.000075
   189     0.000022
   190    -0.053095
   191    -0.000013
   192    -0.002033
   193    -0.009194
   194    -0.423683
   195     0.002030
   196     0.012725
   197    -0.221781
   198     0.001146
   199    -0.002805
   200    -0.223247
   201    -0.000012
   202    -0.349830
   203     0.001294
   204    -0.136618
   205     0.002228
   206    -0.315138
   207    -0.000068
   208    -0.000044
   209     0.000926
   210     0.000056
   211    -0.136651
   212    -0.001890
   213    -0.184638
   214    -0.001082
   215    -0.000197
   216    -0.314767
Sym=   108a
Ene=   -0.537396E-07
Spin= Alpha
Occup= 0.000000
     1    -0.044410
     2     0.096792
     3    -0.487501
     4     4.522081
     5    -0.570023
     6     8.820396
     7    -9.762206
     8    -0.001144
     9     0.038515
    10    -0.077644
    11     0.244466
    12     0.079653
    13    -2.652358
    14     0.726322
    15    -0.725240
    16     9.416231
    17     0.159922
    18     0.181786
    19     2.844909
    20    -0.261386
    21     0.067845
    22     0.426327
    23     0.017321
    24    -0.037346
    25    -0.051345
    26    10.457271
    27     8.536930
    28     7.613044
    29    -0.107255
    30     0.131702
    31     0.374304
    32     2.551170
    33     2.673594
    34    23.454623
    35     0.011654
    36    -0.818954
    37     0.859976
    38    -0.034448
    39    -0.105491
    40     0.098980
    41     0.020972
    42    -0.074540
    43     0.053066
    44     0.014603
    45     0.025726
    46     0.091489
    47    -0.000476
    48    -0.018173
    49    -0.020043
    50    -5.950830
    51    -0.045848
    52     0.014356
    53     0.667350
    54     0.470443
    55    -0.388263
    56     0.506951
    57    -0.012744
    58     1.492524
    59    -0.236321
    60    -1.059149
    61    -0.054463
    62    -2.397315
    63    -0.143699
    64     0.017628
    65    -0.095063
    66    -0.003496
    67    -1.430627
    68     0.002097
    69    -1.817458
    70    -0.054144
    71     0.104661
    72    -3.688860
    73     0.932456
    74    -2.006181
    75    10.304938
    76    -8.262743
    77   -31.875475
    78     6.255997
    79    14.616234
    80     0.062361
    81     0.117673
    82     0.066722
    83     0.441810
    84     1.229638
    85    -8.196461
    86    -1.172430
    87     0.432333
    88    -0.513612
    89     0.100562
    90     0.117743
    91     1.876249
    92     9.922083
    93    10.598607
    94    11.801161
    95     0.127766
    96    -0.266173
    97    -0.712247
    98   -15.061276
    99   -18.961713
   100   -29.514940
   101    -0.736999
   102     1.468580
   103     4.079642
   104    -5.121390
   105    -5.045356
   106    -5.032477
   107     0.018944
   108    -0.927707
   109     0.604626
   110    -0.287921
   111    -0.249719
   112    -0.879309
   113    -0.015505
   114    -0.174101
   115     0.115367
   116    -0.010133
   117    -0.290930
   118     0.120930
   119     0.004188
   120     0.115725
   121    -0.394258
   122    -1.776339
   123    -0.089041
   124    -0.099330
   125    -0.530954
   126    -0.545104
   127     0.326426
   128    -0.613812
   129    -0.010066
   130    14.618916
   131    -1.706295
   132     7.398174
   133    -1.754958
   134    10.658541
   135    -0.788101
   136     0.134668
   137    -0.307424
   138     0.319728
   139     6.716569
   140    -0.768307
   141     5.471249
   142    -0.615729
   143     0.326438
   144     8.037344
   145    -0.009974
   146     0.020555
   147    -0.081542
   148     0.927648
   149    -2.475816
   150   -10.133112
   151    -5.180483
   152    -0.016050
   153    -0.023289
   154     0.023867
   155     0.011734
   156     0.210127
   157    -1.942634
   158     0.334281
   159    -0.175831
   160    16.437251
   161    -0.202548
   162    -0.112082
   163    -0.847857
   164    -0.099741
   165    -0.093167
   166     0.262183
   167     0.004207
   168     0.019829
   169    -0.049122
   170     1.948227
   171     1.914003
   172     0.196679
   173    -0.027231
   174    -0.102799
   175     0.254906
   176    -3.423835
   177    -3.384326
   178    -9.297480
   179    -0.001741
   180     0.045956
   181     0.113494
   182    -0.029447
   183    -0.060629
   184     0.174722
   185    -0.016567
   186    -0.015813
   187     0.016130
   188    -0.005786
   189     0.005772
   190     0.023964
   191    -0.001209
   192    -0.100588
   193    -0.067561
   194     1.157421
   195    -0.030114
   196    -0.044793
   197    -0.336588
   198    -0.131816
   199     0.008063
   200    -0.388106
   201    -0.003457
   202    -0.070253
   203    -0.190298
   204     0.021089
   205    -0.128300
   206    -1.090981
   207     0.075042
   208     0.009757
   209     0.010178
   210     0.013426
   211    -0.000204
   212    -0.064888
   213    -0.648153
   214     0.076308
   215     0.012426
   216    -1.110540
Sym=   109a
Ene=   -0.692847E-05
Spin= Alpha
Occup= 0.000000
     1     0.008761
     2    -0.013689
     3     0.030583
     4    -0.005109
     5    -0.127425
     6    -0.132388
     7     0.031827
     8     0.045501
     9    -0.035121
    10     0.012883
    11     0.145709
    12     0.365719
    13     0.117162
    14     0.167380
    15    -0.896680
    16    -0.358508
    17     0.122185
    18     0.022221
    19     0.073684
    20     0.349905
    21    -0.173863
    22    -0.058620
    23    -0.333432
    24    -2.536801
    25     5.570258
    26    -1.371374
    27     0.749172
    28     0.418224
    29     1.382783
    30    11.821557
    31   -26.364396
    32     0.157482
    33    -0.194192
    34    -0.536562
    35    -0.275956
    36    -1.243560
    37     3.495455
    38    -0.167687
    39     0.089919
    40    -0.001746
    41    -0.051613
    42     0.022870
    43    -0.042963
    44    -0.032922
    45    -0.008104
    46    -0.002789
    47     0.014779
    48    -0.092598
    49     0.208146
    50     0.036804
    51    -0.068710
    52     0.114431
    53     0.042681
    54    -0.479139
    55     0.711403
    56    -0.036397
    57    -0.014946
    58    -0.180643
    59     9.651745
    60    -0.182365
    61    10.419357
    62    -0.409677
    63    -3.995842
    64    -0.304971
    65    -2.112213
    66    -0.508420
    67     0.179281
    68     4.659324
    69     0.119392
    70    -4.719331
    71    -0.458880
    72     0.775423
    73    -0.000558
    74     0.001127
    75     0.003118
    76    -0.017724
    77    -0.066140
    78     0.359456
    79     0.115894
    80     0.015163
    81     0.071351
    82     0.001246
    83     0.691350
    84    -0.501132
    85     0.054150
    86    -0.968631
    87     2.414647
    88    -0.042200
    89     0.140467
    90    -0.292426
    91     0.006965
    92    -0.009169
    93     0.043772
    94     0.011666
    95    -0.013195
    96    -0.268364
    97     0.745932
    98     0.064747
    99    -0.315980
   100    -0.060448
   101     0.001299
   102     1.321695
   103    -3.863807
   104    -0.061621
   105    -0.017606
   106    -0.105168
   107     0.029267
   108    -0.125073
   109     0.556381
   110    -0.070552
   111    -0.145537
   112    -0.000068
   113    -0.031160
   114    -0.066777
   115     0.012248
   116     0.059458
   117    -0.001531
   118    -0.017167
   119    -0.011430
   120    -0.001670
   121    -0.228637
   122    -0.021730
   123     0.002227
   124    -0.102120
   125     0.018662
   126     0.537352
   127    -1.077766
   128     0.022384
   129     0.042115
   130     0.004442
   131     1.047579
   132     0.039019
   133     1.271420
   134     0.190859
   135    -0.124878
   136     0.016157
   137    -0.147860
   138    -0.016983
   139     0.009622
   140     0.567392
   141     0.056726
   142    -0.333478
   143     0.034668
   144    -0.084566
   145     0.001581
   146    -0.004380
   147     0.023387
   148     0.093952
   149    -0.126274
   150    -0.017448
   151     0.010434
   152    -0.020513
   153     0.025329
   154    -0.012653
   155    -0.005043
   156     0.199853
   157     0.148060
   158     0.608285
   159    -1.549709
   160    -0.324754
   161    -0.103576
   162     0.089948
   163     0.006676
   164     0.019438
   165     0.044724
   166     0.000735
   167     0.026587
   168    -0.039848
   169    -0.037499
   170     0.209901
   171     0.138495
   172     0.349513
   173    -0.115338
   174     0.102310
   175     0.371302
   176     0.082613
   177     0.185452
   178     0.154207
   179     0.075306
   180    -0.048237
   181     0.363414
   182    -0.026138
   183     0.032972
   184    -0.025391
   185    -0.014128
   186     0.016768
   187    -0.015106
   188    -0.038373
   189    -0.018114
   190    -0.013026
   191     0.017328
   192    -0.086120
   193     0.139626
   194     0.022844
   195    -0.033274
   196     0.058375
   197    -0.011497
   198    -0.320470
   199     0.419774
   200    -0.033204
   201    -0.044656
   202    -0.186134
   203    -0.386444
   204    -0.066377
   205    -0.304153
   206    -0.020172
   207     0.179011
   208     0.025886
   209    -0.011644
   210     0.033511
   211    -0.066115
   212    -0.133863
   213    -0.014094
   214    -0.017763
   215     0.039039
   216    -0.039479
Sym=   110a
Ene=   -0.569717E-07
Spin= Alpha
Occup= 0.000000
     1    -0.023561
     2     0.056856
     3    -0.358206
     4     1.584643
     5    -0.234690
     6     7.857077
     7    -0.335457
     8     0.003803
     9    -0.001542
    10    -0.053259
    11    -0.048162
    12    -0.038669
    13     1.255063
    14    -0.364311
    15     0.377066
    16     1.680206
    17    -0.137737
    18    -0.256096
    19    -0.224436
    20    -0.304715
    21    -0.289871
    22    -0.165628
    23    -0.063650
    24     0.023723
    25    -0.012133
    26     3.576915
    27     3.495428
    28     3.072226
    29     0.368974
    30    -0.104105
    31     0.068824
    32     1.293758
    33     1.283565
    34     9.732931
    35     0.015691
    36     0.524700
    37    -0.115260
    38    -0.002698
    39     0.007215
    40    -0.136755
    41    -0.026864
    42     0.018844
    43    -0.046885
    44    -0.008768
    45     0.003422
    46    -0.038358
    47     0.001824
    48     0.002552
    49    -0.053534
    50     0.458532
    51     0.039774
    52    -0.041189
    53     0.216137
    54    -0.190438
    55     0.113796
    56     0.194039
    57    -0.028445
    58    -1.383344
    59    -0.064493
    60    -0.590934
    61    -0.017658
    62    -1.388133
    63     0.134236
    64    -0.061668
    65     0.050150
    66    -0.167200
    67    -0.598079
    68    -0.021812
    69    -0.810089
    70     0.029193
    71    -0.161806
    72    -1.448550
    73    -0.003593
    74     0.007596
    75    -0.039746
    76     0.761982
    77    -0.217570
    78    -9.415316
    79    -0.842832
    80    -0.003495
    81     0.004594
    82    -0.014672
    83     0.026968
    84     0.034737
    85    -0.591019
    86     0.520239
    87    -0.296538
    88    -3.895179
    89     0.052874
    90     0.182400
    91     0.031860
    92     0.122621
    93     0.114165
    94    -0.198162
    95     0.054631
    96     0.085267
    97    -0.089236
    98     1.027296
    99     1.078225
   100     3.193526
   101    -0.315015
   102    -0.455940
   103     0.492597
   104    -0.037276
   105    -0.038073
   106    -1.705618
   107    -0.014841
   108     0.464495
   109    -0.155763
   110     0.038978
   111    -0.025207
   112     0.174002
   113    -0.001168
   114    -0.000284
   115    -0.009379
   116    -0.005856
   117    -0.013146
   118    -0.006741
   119     0.007804
   120    -0.073434
   121     0.039033
   122    -0.304637
   123    -0.008587
   124     0.003159
   125    -0.104301
   126     0.227408
   127    -0.070760
   128    -0.109323
   129    -0.032029
   130    -1.373361
   131    -0.249926
   132    -0.448030
   133    -0.222304
   134    -0.172858
   135     0.279882
   136     0.049521
   137     0.095717
   138     0.141331
   139    -0.442097
   140    -0.103695
   141    -0.094552
   142     0.193538
   143     0.139497
   144    -0.133353
   145     1.091532
   146    -2.429506
   147    13.676008
   148   -18.366625
   149   -18.720075
   150    20.590974
   151     0.448710
   152    -0.012848
   153     0.020769
   154     0.053690
   155     0.132299
   156    -0.147281
   157    -0.304145
   158    -0.191668
   159    -0.144199
   160     7.752466
   161     0.109680
   162     0.118777
   163    -0.105340
   164    13.145669
   165    13.137845
   166    13.139728
   167     0.001168
   168    -0.038941
   169     0.028090
   170   -34.211004
   171   -34.188738
   172   -34.132253
   173    -0.007330
   174     0.171270
   175    -0.150569
   176    -3.970418
   177    -3.962499
   178    -7.523365
   179    -0.003953
   180     0.048641
   181     0.041765
   182    -0.040561
   183     0.026031
   184    -0.095364
   185     0.003480
   186     0.037036
   187     0.056973
   188    -0.014427
   189     0.032262
   190     0.061928
   191    -0.001609
   192    -0.006745
   193     0.127065
   194     0.454977
   195    -0.042378
   196     0.014557
   197     0.024553
   198    -0.026811
   199     0.013819
   200     0.009336
   201    -0.000642
   202    18.496702
   203     0.065571
   204    10.619799
   205     0.079157
   206    18.190118
   207    -0.055442
   208     0.011809
   209    -0.038487
   210     0.000040
   211    10.611870
   212     0.024677
   213    10.662004
   214    -0.090295
   215     0.002560
   216    18.206868
Sym=   111a
Ene=   -0.192430E-02
Spin= Alpha
Occup= 0.001285
     1     0.012064
     2    -0.006356
     3     0.027789
     4     0.118221
     5    -0.333357
     6    -0.625060
     7     0.136395
     8    -0.048710
     9    -0.143259
    10     0.038102
    11     0.099441
    12     0.290663
    13     0.288092
    14    -0.097546
    15    -0.320320
    16    -0.109321
    17    -0.022295
    18    -0.041979
    19     0.061548
    20     0.025083
    21    -0.017015
    22    -0.021856
    23    -0.018990
    24    -0.018489
    25    -0.053237
    26     0.141068
    27    -0.009363
    28    -0.024550
    29    -0.066126
    30    -0.103428
    31    -0.287836
    32    -0.033371
    33     0.134988
    34    -0.317126
    35     0.079951
    36     0.093077
    37     0.299384
    38    -0.021235
    39    -0.012196
    40     0.021712
    41     0.014244
    42    -0.020708
    43    -0.026617
    44     0.029577
    45     0.084382
    46     0.050337
    47     0.035641
    48    -0.102594
    49    -0.185916
    50     0.145773
    51     0.002246
    52    -0.119546
    53    -0.058446
    54    -0.033448
    55    -0.088822
    56    -0.046388
    57     0.004044
    58    -0.072479
    59    -0.052925
    60    -0.074682
    61     0.049290
    62     0.023803
    63    -0.017689
    64    -0.029605
    65    -0.014437
    66     0.020099
    67    -0.009287
    68     0.042822
    69    -0.001628
    70     0.040554
    71     0.012531
    72    -0.028416
    73     0.005993
    74    -0.003893
    75     0.010356
    76     0.144495
    77    -0.192691
    78     0.200060
    79     0.119324
    80    -0.051308
    81    -0.148557
    82    -0.033530
    83     0.135283
    84     0.382461
    85    -0.073146
    86    -0.050077
    87    -0.148467
    88     0.610106
    89    -0.023616
    90    -0.040442
    91     0.228691
    92     0.026189
    93    -0.008864
    94    -0.005623
    95    -0.015817
    96     0.017350
    97     0.050157
    98     0.251138
    99     0.123621
   100     0.143070
   101    -0.057435
   102     0.101798
   103     0.283352
   104     0.034993
   105     0.150191
   106     0.325727
   107     0.058119
   108    -0.008349
   109    -0.013806
   110    -0.018381
   111    -0.006190
   112    -0.010859
   113     0.014635
   114    -0.017361
   115     0.028713
   116     0.024294
   117     0.069354
   118    -0.042458
   119    -0.032768
   120    -0.079664
   121    -0.142705
   122    -0.000109
   123     0.002166
   124    -0.089693
   125     0.043718
   126     0.005409
   127     0.016612
   128     0.034312
   129    -0.002400
   130    -0.055462
   131     0.018443
   132    -0.074556
   133    -0.038000
   134    -0.028766
   135     0.005963
   136    -0.026717
   137     0.015374
   138     0.014571
   139    -0.016799
   140    -0.037600
   141    -0.027626
   142    -0.035768
   143     0.008798
   144    -0.065313
   145    -0.001164
   146     0.000674
   147    -0.005287
   148     0.088948
   149    -0.000271
   150    -0.086769
   151    -0.450451
   152    -0.001882
   153    -0.003012
   154     0.000336
   155     0.010072
   156     0.031608
   157     0.023181
   158     0.001064
   159    -0.027061
   160    -0.103612
   161     0.034577
   162     0.098548
   163     0.146203
   164     0.009365
   165     0.004906
   166     0.008801
   167    -0.000804
   168    -0.002378
   169    -0.006494
   170     0.177621
   171     0.185070
   172     0.184889
   173     0.008224
   174     0.008993
   175     0.024475
   176     0.174734
   177     0.138570
   178     0.169297
   179    -0.011708
   180    -0.009668
   181    -0.009776
   182    -0.002764
   183    -0.007737
   184    -0.005218
   185    -0.001370
   186    -0.003450
   187     0.001380
   188    -0.000381
   189    -0.000729
   190    -0.000038
   191     0.000050
   192    -0.003204
   193    -0.012940
   194    -0.017474
   195    -0.007580
   196    -0.013798
   197     0.009543
   198     0.012158
   199     0.034458
   200     0.000449
   201     0.001139
   202    -0.041899
   203    -0.036356
   204    -0.029102
   205    -0.015411
   206    -0.049261
   207    -0.013005
   208     0.004833
   209    -0.001975
   210    -0.001870
   211    -0.038917
   212    -0.004711
   213    -0.025741
   214    -0.005121
   215    -0.002511
   216    -0.042712
Sym=   112a
Ene=   -0.175051E-04
Spin= Alpha
Occup= 0.000004
     1     0.008556
     2    -0.011341
     3    -0.118324
     4     0.150900
     5    -0.572244
     6     1.672402
     7     0.444241
     8    -0.030019
     9    -0.003476
    10     0.098348
    11    -0.043880
    12     0.027805
    13     1.224439
    14    -0.786868
    15    -0.250736
    16    -1.063421
    17    -0.103386
    18     0.065135
    19    -0.079626
    20    -0.335314
    21     0.197048
    22    -0.446764
    23    -0.009957
    24     0.207842
    25     0.054792
    26    -0.204058
    27    -1.049649
    28     2.228735
    29     0.521063
    30    -1.331943
    31    -0.647101
    32    -0.173471
    33    -0.056478
    34    -0.487928
    35    -0.412479
    36    -1.010035
    37     0.282934
    38    -0.423401
    39     0.006958
    40    -0.603202
    41     0.094001
    42     0.112985
    43     0.121329
    44     0.370814
    45     0.104140
    46    -0.043501
    47    -0.068742
    48     0.944235
    49     0.103200
    50     1.084079
    51     0.056020
    52    -0.077512
    53    -0.604299
    54    -1.177728
    55     0.093289
    56    -0.229831
    57     0.096156
    58    -1.454464
    59     0.173827
    60    -0.524704
    61     0.206581
    62     0.422425
    63     0.079720
    64    -0.060082
    65     0.284925
    66    -0.168458
    67    -0.592868
    68     0.150754
    69     0.312206
    70     0.789566
    71    -0.247543
    72     0.226766
    73     0.015424
    74    -0.018314
    75    -0.148526
    76     0.700920
    77    -0.474840
    78    -0.445845
    79    -0.670122
    80    -0.057611
    81     0.010092
    82    -0.041678
    83     0.162203
    84     0.370674
    85     0.618300
    86    -1.105832
    87    -0.232385
    88    -1.282597
    89     0.220063
    90     0.094018
    91    -0.204132
    92    -0.134128
    93     0.061308
    94    -0.159354
    95    -0.265623
    96    -0.268765
    97    -0.021716
    98     0.993427
    99     0.264285
   100     1.985856
   101     0.185589
   102     1.533247
   103    -0.314426
   104    -0.275746
   105     0.012718
   106    -0.676786
   107     0.125827
   108    -0.328963
   109     0.082785
   110    -0.021562
   111     0.032834
   112     0.097511
   113     0.014223
   114    -0.352853
   115    -0.024661
   116     0.071017
   117    -0.129262
   118     0.010423
   119    -0.346226
   120     0.460347
   121     0.024151
   122     0.076617
   123     0.372614
   124     0.349501
   125     0.027728
   126    -0.042873
   127    -0.136668
   128     0.259386
   129     0.403982
   130    -0.782136
   131    -0.072417
   132    -0.225516
   133     0.340290
   134    -0.084097
   135    -0.665713
   136    -0.284193
   137    -0.071874
   138     0.238527
   139    -0.486166
   140    -0.020294
   141     0.322951
   142    -0.634281
   143     0.038915
   144    -0.441340
   145     0.000461
   146    -0.000793
   147    -0.004023
   148     0.274297
   149    -0.287371
   150    -1.251448
   151     0.364404
   152    -0.020669
   153    -0.002285
   154     0.010234
   155     0.356863
   156     0.035809
   157     0.664829
   158     0.837595
   159    -0.188329
   160    -0.661413
   161     0.113215
   162     0.060599
   163    -0.044977
   164     0.016539
   165     0.018454
   166     0.056606
   167     0.001983
   168    -0.054910
   169    -0.019158
   170     0.539934
   171     0.528181
   172     0.111602
   173     0.010193
   174     0.273284
   175     0.081376
   176     0.316609
   177     0.217523
   178     0.441729
   179     0.103713
   180    -0.916334
   181     0.065850
   182    -0.034545
   183    -0.002947
   184     0.044108
   185    -0.034162
   186    -0.005775
   187     0.016493
   188    -0.002710
   189     0.002772
   190     0.008162
   191     0.017570
   192    -0.126460
   193     0.000791
   194    -0.038731
   195     0.002390
   196     0.012857
   197     0.030994
   198     0.496926
   199    -0.007777
   200     0.094450
   201    -0.036308
   202    -0.000905
   203    -0.023498
   204    -0.092043
   205    -0.044990
   206    -0.148101
   207    -0.315014
   208    -0.012026
   209    -0.112489
   210    -0.022291
   211    -0.090009
   212    -0.025906
   213    -0.081330
   214    -0.162405
   215    -0.027271
   216    -0.161322
Sym=   113a
Ene=   -0.270389E-04
Spin= Alpha
Occup= 0.000006
     1     0.002990
     2     0.005167
     3    -0.166590
     4     0.517947
     5    -0.463812
     6     4.739173
     7    -0.080005
     8    -0.019254
     9     0.050152
    10    -0.036724
    11    -0.536013
    12     0.918876
    13    -0.928269
    14    -0.164131
    15     0.035765
    16     1.244157
    17    -0.235138
    18     0.242596
    19     0.086466
    20     0.014788
    21    -0.095606
    22    -0.308589
    23     0.163428
    24    -0.021528
    25     0.020838
    26    -0.204221
    27    -0.318892
    28     3.278109
    29    -0.176282
    30     0.725837
    31    -0.552949
    32     0.062657
    33     0.043527
    34     3.188812
    35    -0.292897
    36     0.297725
    37    -0.206438
    38     0.282019
    39    -0.466088
    40    -0.339865
    41     0.162978
    42    -0.169273
    43     0.011683
    44    -0.287540
    45     0.279190
    46     0.048491
    47     0.143534
    48     0.034584
    49    -0.016952
    50    -0.022373
    51    -0.169975
    52     0.083483
    53    -0.093336
    54    -0.456032
    55     0.547182
    56    -0.202562
    57     0.169988
    58    -1.719320
    59    -0.056293
    60    -0.079078
    61     0.151716
    62     0.112685
    63    -0.133863
    64    -0.257344
    65     0.046061
    66     0.058026
    67    -0.227047
    68    -0.033997
    69     0.304931
    70    -0.283607
    71     0.126827
    72     0.000608
    73    -0.015735
    74     0.018602
    75     0.276991
    76    -0.550516
    77     1.437314
    78    -5.560965
    79     0.053581
    80    -0.025853
    81     0.025611
    82     0.098116
    83     0.423651
    84    -0.426801
    85    -0.386351
    86    -0.260078
    87     0.268985
    88    -0.045622
    89     0.212039
    90    -0.145969
    91     0.101654
    92     0.111502
    93     0.127362
    94     0.618680
    95    -0.313465
    96    -0.251364
    97     0.273626
    98     0.950683
    99     0.663312
   100    -3.060830
   101     0.443355
   102     1.161310
   103    -1.453228
   104     0.421277
   105     0.410498
   106     0.055778
   107     0.187604
   108     0.426156
   109    -0.415730
   110    -0.310380
   111     0.287730
   112    -0.651064
   113    -0.268977
   114     0.304124
   115     0.193040
   116     0.329332
   117    -0.396888
   118     0.129401
   119    -0.047996
   120     0.278157
   121    -0.293689
   122    -1.384629
   123     0.387866
   124    -0.372911
   125    -0.617275
   126     0.382413
   127    -0.447877
   128    -0.658701
   129     0.353114
   130     1.441752
   131     0.052323
   132     0.383960
   133     0.675891
   134    -0.148941
   135     0.004000
   136     0.214845
   137    -0.145327
   138    -0.119756
   139     0.350158
   140     0.248221
   141    -0.281167
   142    -0.613275
   143    -0.218859
   144    -0.316902
   145    -0.000400
   146    -0.000427
   147     0.000396
   148    -0.216765
   149     0.452705
   150    -1.890550
   151    -1.527300
   152    -0.001601
   153     0.001986
   154     0.019950
   155     0.080449
   156    -0.071975
   157     0.026087
   158    -0.109852
   159    -0.047549
   160     2.424564
   161     0.200612
   162    -0.151522
   163     0.179947
   164    -0.015021
   165    -0.013739
   166    -0.078486
   167     0.010052
   168    -0.013646
   169     0.015048
   170    -0.428467
   171    -0.373206
   172     0.001256
   173    -0.051084
   174     0.071522
   175    -0.075998
   176    -0.218164
   177    -0.168606
   178    -1.296295
   179     0.073532
   180    -0.140257
   181     0.225827
   182    -0.009102
   183     0.002750
   184    -0.054993
   185    -0.007427
   186     0.008124
   187     0.025679
   188     0.018727
   189    -0.006137
   190     0.022850
   191     0.002096
   192     0.002133
   193     0.034838
   194     0.148284
   195     0.004291
   196    -0.001367
   197     0.052454
   198     0.126504
   199    -0.137661
   200     0.061902
   201    -0.048426
   202     0.036611
   203     0.075883
   204    -0.038169
   205     0.032939
   206     0.142189
   207    -0.097883
   208     0.026264
   209    -0.005199
   210     0.007929
   211    -0.007425
   212     0.030175
   213     0.099755
   214    -0.041823
   215     0.011502
   216     0.199048
Sym=   114a
Ene=   -0.693714E-04
Spin= Alpha
Occup= 0.000013
     1     0.001334
     2    -0.004604
     3    -0.003702
     4     0.071574
     5    -0.024453
     6    -0.041028
     7     0.045967
     8     0.017783
     9     0.001864
    10    -0.013059
    11     0.001815
    12    -0.050130
    13    -0.064985
    14    -0.018730
    15    -0.179231
    16     0.466194
    17    -0.235995
    18     0.121541
    19    -0.108443
    20    -0.013551
    21     0.018668
    22     0.019925
    23    -0.015943
    24     0.050982
    25     0.008244
    26     0.256521
    27    -0.059452
    28     0.005436
    29    -0.012741
    30    -2.008577
    31    -0.823806
    32    -0.001511
    33     0.059448
    34     0.070837
    35    -0.030312
    36     0.200710
    37    -0.040243
    38    -0.119132
    39    -0.058831
    40     0.011897
    41    -0.056403
    42    -0.028080
    43    -0.010280
    44    -0.441463
    45    -0.160269
    46     0.007014
    47    -0.050765
    48    -0.057501
    49     0.038789
    50     0.257910
    51    -0.019941
    52     0.019378
    53    -0.025852
    54    -1.279131
    55    -0.777832
    56     0.055063
    57    -0.088170
    58     0.168458
    59     0.461012
    60     0.106191
    61     0.241098
    62    -0.010765
    63     0.936403
    64    -0.090684
    65     0.315826
    66     0.075780
    67    -0.125566
    68     0.109631
    69     0.023546
    70     0.716364
    71    -0.031175
    72    -0.082608
    73     0.000117
    74    -0.000326
    75     0.000484
    76     0.106900
    77    -0.007510
    78    -0.108821
    79    -0.204740
    80     0.077902
    81     0.049164
    82     0.001529
    83     0.953764
    84     0.595453
    85     0.068983
    86    -0.166069
    87    -0.099928
    88     0.127409
    89     0.478316
    90     0.132487
    91    -0.004542
    92    -0.005143
    93     0.030276
    94     0.027328
    95     0.004674
    96     0.013598
    97    -0.011485
    98     0.241823
    99     0.208124
   100     0.083510
   101    -0.026159
   102     0.054714
   103     0.125651
   104     0.017400
   105     0.196184
   106     0.139782
   107    -0.000089
   108     0.320743
   109     0.109606
   110    -0.141703
   111    -0.092744
   112    -0.027343
   113    -0.068354
   114    -0.040008
   115     0.021833
   116     0.059579
   117     0.038459
   118    -0.021960
   119    -0.000599
   120    -0.244674
   121    -0.164130
   122    -0.048890
   123    -0.102589
   124    -0.075416
   125    -0.009240
   126     0.361095
   127     0.184649
   128     0.047467
   129    -0.003002
   130    -0.013438
   131     0.178717
   132    -0.058174
   133     0.029886
   134    -0.060371
   135     0.358010
   136     0.005654
   137     0.035763
   138    -0.000398
   139     0.046499
   140     0.011371
   141    -0.039819
   142     0.078178
   143     0.014569
   144    -0.053646
   145     0.000985
   146    -0.004522
   147    -0.004034
   148    -0.047853
   149     0.026330
   150    -0.021266
   151    -0.129987
   152    -0.027501
   153    -0.012121
   154    -0.005045
   155    -0.047537
   156    -0.040123
   157     0.063654
   158     0.513340
   159     0.419644
   160     0.354220
   161    -0.175250
   162    -0.174621
   163     0.021651
   164    -0.010698
   165    -0.005727
   166    -0.002021
   167    -0.022195
   168     0.087692
   169     0.043544
   170    -0.097630
   171    -0.111509
   172    -0.327386
   173     0.059561
   174    -0.640604
   175    -0.354242
   176    -0.009320
   177    -0.071706
   178    -0.148995
   179    -0.072466
   180    -0.348679
   181    -0.262853
   182    -0.136918
   183    -0.072379
   184     0.050602
   185    -0.058928
   186    -0.030880
   187    -0.000104
   188     0.437374
   189     0.241766
   190    -0.003651
   191    -0.106425
   192    -0.040796
   193    -0.014582
   194    -0.035566
   195    -0.020658
   196    -0.009739
   197    -0.030140
   198     0.503510
   199     0.257292
   200     0.008235
   201    -0.036872
   202     0.086787
   203    -0.323207
   204     0.091386
   205     0.301120
   206     0.047811
   207    -0.638662
   208     0.176965
   209     0.243433
   210     0.008464
   211     0.055637
   212     0.129796
   213    -0.064753
   214     0.554749
   215    -0.065579
   216     0.054671
Sym=   115a
Ene=   -0.148343E-03
Spin= Alpha
Occup= 0.000039
     1     0.001989
     2    -0.008048
     3     0.043353
     4     0.050606
     5    -0.200814
     6    -0.535586
     7    -0.179737
     8     0.016999
     9    -0.005571
    10     0.029450
    11     0.263600
    12    -0.063900
    13     0.144633
    14    -0.196541
    15    -0.001138
    16    -1.432885
    17     0.164825
    18    -0.003549
    19     0.052522
    20     0.055850
    21     0.028740
    22     0.166683
    23    -0.035299
    24     0.005427
    25    -0.002306
    26     0.067246
    27     0.179655
    28    -0.604310
    29     0.177211
    30     0.048209
    31    -0.045602
    32     0.090218
    33     0.067722
    34    -0.536593
    35     0.002054
    36    -0.182519
    37     0.012949
    38    -0.029266
    39     0.000328
    40    -0.111373
    41    -0.025365
    42     0.005974
    43     0.012051
    44     0.010161
    45    -0.011297
    46    -0.054008
    47     0.002529
    48    -0.032848
    49     0.025536
    50     0.426867
    51    -0.001289
    52    -0.009753
    53     0.028754
    54     0.372564
    55     0.015368
    56    -0.173054
    57     0.103475
    58     0.481796
    59    -0.004122
    60     0.024755
    61    -0.000264
    62    -0.078235
    63     0.089348
    64    -0.002928
    65     0.033117
    66    -0.072434
    67     0.216911
    68     0.001789
    69    -0.020486
    70     0.065997
    71    -0.061727
    72    -0.000960
    73     0.000233
    74    -0.000124
    75     0.004697
    76    -0.041304
    77     0.030010
    78     0.185433
    79     0.183050
    80     0.008028
    81    -0.000231
    82    -0.004862
    83    -0.108884
    84    -0.006337
    85     0.304444
    86     0.078941
    87     0.012614
    88    -0.618399
    89    -0.156617
    90    -0.016232
    91     0.003509
    92    -0.011231
    93     0.014936
    94     0.004159
    95    -0.008433
    96     0.034525
    97     0.001414
    98    -0.024053
    99    -0.144051
   100    -0.075255
   101     0.038145
   102    -0.223715
   103    -0.007663
   104    -0.199520
   105    -0.252350
   106    -0.500575
   107     0.033232
   108    -0.078075
   109    -0.001994
   110    -0.020350
   111     0.001353
   112    -0.008642
   113    -0.005669
   114     0.001291
   115    -0.000132
   116    -0.008429
   117    -0.001701
   118     0.015164
   119    -0.004523
   120    -0.058054
   121     0.000920
   122    -0.066651
   123    -0.042307
   124     0.006023
   125     0.048317
   126    -0.078802
   127    -0.010003
   128     0.006448
   129     0.032302
   130     0.014518
   131    -0.002748
   132     0.050895
   133    -0.000426
   134     0.053860
   135     0.065086
   136     0.001935
   137     0.011609
   138    -0.016247
   139     0.011220
   140     0.004059
   141     0.008326
   142     0.039373
   143    -0.019761
   144    -0.015166
   145     0.003058
   146     0.016717
   147     0.006565
   148    -0.076787
   149     0.364886
   150    -0.331406
   151     0.649381
   152     0.015074
   153    -0.003624
   154    -0.010390
   155    -0.226961
   156     0.015191
   157     0.223380
   158     0.266986
   159    -0.018774
   160    -1.080635
   161     0.028251
   162     0.031815
   163    -0.081382
   164     0.082933
   165    -0.035528
   166     0.062193
   167    -0.038128
   168    -0.024937
   169    -0.047386
   170     0.252688
   171     0.297749
   172    -0.350428
   173     0.005882
   174     0.701091
   175     0.285104
   176     0.203988
   177     0.298867
   178     0.670138
   179    -0.076966
   180     0.010379
   181    -0.055081
   182     0.118836
   183    -0.075164
   184    -0.098931
   185     0.093078
   186    -0.013433
   187     0.346428
   188    -0.066590
   189     0.093793
   190    -0.098718
   191     0.114818
   192    -0.127090
   193    -0.242337
   194    -0.155803
   195     0.132462
   196     0.171123
   197     0.340438
   198    -0.442924
   199     0.174575
   200    -0.151837
   201     0.278554
   202     0.158212
   203    -0.060979
   204    -0.023151
   205    -0.129572
   206    -0.079027
   207    -0.537379
   208     0.217611
   209    -0.405910
   210    -0.286940
   211    -0.079300
   212     0.120278
   213     0.049398
   214     0.359853
   215     0.173811
   216    -0.176527
Sym=   116a
Ene=   -0.143558E-02
Spin= Alpha
Occup= 0.000790
     1    -0.000751
     2     0.001676
     3    -0.001318
     4    -0.035349
     5     0.070180
     6     0.398803
     7    -0.211667
     8    -0.000006
     9    -0.002359
    10    -0.013023
    11    -0.034673
    12     0.176878
    13    -0.093576
    14     0.015935
    15    -0.008935
    16    -0.963523
    17     0.018958
    18    -0.105526
    19    -0.287195
    20    -0.005374
    21     0.004115
    22     0.014408
    23    -0.005489
    24    -0.000955
    25     0.004915
    26    -0.003483
    27    -0.054620
    28     0.006313
    29     0.013710
    30    -0.002008
    31     0.025508
    32     0.060432
    33     0.041294
    34    -0.105418
    35    -0.021898
    36     0.023091
    37    -0.144829
    38     0.005180
    39    -0.024891
    40     0.022018
    41     0.002199
    42    -0.011603
    43    -0.002876
    44    -0.001531
    45     0.006840
    46    -0.000769
    47    -0.000313
    48     0.009398
    49    -0.076085
    50    -0.179501
    51     0.015662
    52    -0.031277
    53     0.027900
    54     0.017291
    55    -0.077279
    56     0.014887
    57     0.000845
    58     0.061404
    59     0.036019
    60     0.007078
    61     0.005589
    62     0.024494
    63    -0.007665
    64    -0.002447
    65    -0.000200
    66    -0.008923
    67    -0.001002
    68     0.008076
    69     0.003359
    70    -0.002856
    71    -0.006381
    72    -0.000456
    73    -0.000019
    74    -0.000085
    75    -0.000455
    76    -0.005574
    77    -0.050432
    78    -0.428501
    79    -0.398445
    80    -0.001637
    81     0.017386
    82    -0.005195
    83    -0.001869
    84    -0.013848
    85    -0.174782
    86    -0.010747
    87     0.028291
    88    -0.550841
    89    -0.040356
    90     0.181911
    91     0.010468
    92    -0.002308
    93    -0.003297
    94     0.001729
    95    -0.000110
    96    -0.001171
    97     0.003928
    98    -0.013773
    99    -0.001007
   100    -0.102900
   101     0.015346
   102     0.004467
   103    -0.030276
   104    -0.045992
   105    -0.055754
   106    -0.272501
   107     0.010469
   108    -0.012276
   109     0.030658
   110     0.002115
   111    -0.009308
   112    -0.003238
   113     0.000306
   114    -0.003900
   115     0.002862
   116     0.000241
   117    -0.000180
   118     0.003466
   119     0.000681
   120     0.001708
   121    -0.024150
   122    -0.005009
   123     0.007842
   124    -0.013591
   125     0.020836
   126    -0.000487
   127     0.006708
   128     0.017669
   129     0.009155
   130     0.004505
   131     0.025956
   132     0.000906
   133     0.009803
   134    -0.002438
   135    -0.005467
   136    -0.000916
   137     0.000397
   138    -0.002215
   139     0.003386
   140     0.004315
   141    -0.001256
   142    -0.002687
   143    -0.002844
   144     0.001232
   145     0.019797
   146    -0.009534
   147     0.076488
   148     0.004219
   149    -0.504002
   150     1.014568
   151     0.598995
   152     0.085633
   153    -0.450224
   154    -0.109179
   155    -0.052620
   156     0.272958
   157     0.025947
   158    -0.050398
   159     0.211158
   160    -0.220356
   161     0.069278
   162    -0.324344
   163    -0.368551
   164    -0.016516
   165    -0.026743
   166    -0.022806
   167     0.000023
   168    -0.001219
   169     0.006055
   170    -0.236563
   171     0.187734
   172    -0.229825
   173    -0.103756
   174    -0.038976
   175     0.208486
   176    -0.166436
   177     0.327737
   178    -0.185800
   179    -0.111363
   180    -0.015534
   181     0.103571
   182     0.016087
   183     0.068812
   184    -0.037208
   185    -0.034632
   186    -0.033187
   187     0.007602
   188     0.008452
   189    -0.042472
   190     0.054060
   191    -0.010272
   192     0.064619
   193     0.449047
   194    -0.163410
   195    -0.177857
   196    -0.120969
   197     0.072039
   198     0.027039
   199    -0.132553
   200     0.157972
   201    -0.018604
   202     0.041306
   203    -0.068773
   204    -0.021111
   205     0.049407
   206     0.110709
   207     0.012674
   208     0.011751
   209    -0.020758
   210    -0.064502
   211     0.030046
   212    -0.021214
   213    -0.052755
   214     0.010252
   215     0.054214
   216     0.066497
Sym=   117a
Ene=   -0.128880E-03
Spin= Alpha
Occup= 0.000030
     1     0.000527
     2    -0.003527
     3     0.008139
     4     0.043075
     5    -0.087840
     6    -0.052788
     7     0.104566
     8     0.000854
     9    -0.002096
    10     0.004686
    11     0.005406
    12    -0.019573
    13     0.101369
    14    -0.016391
    15    -0.002469
    16    -0.143885
    17    -0.020860
    18     0.125143
    19    -0.032120
    20    -0.008568
    21     0.031035
    22     0.039439
    23     0.015617
    24    -0.009130
    25     0.013719
    26     0.152817
    27    -0.031052
    28    -0.109654
    29    -0.073493
    30     0.046137
    31    -0.100697
    32    -0.055870
    33     0.099205
    34     0.016650
    35     0.028633
    36     0.029385
    37     0.044421
    38     0.010226
    39    -0.001033
    40    -0.033720
    41    -0.005393
    42     0.005120
    43    -0.007383
    44     0.002528
    45    -0.007056
    46    -0.002200
    47     0.004939
    48    -0.002886
    49     0.007655
    50     0.204671
    51    -0.001027
    52     0.002975
    53    -0.044003
    54     0.039942
    55    -0.128055
    56    -0.003961
    57     0.012025
    58     0.092028
    59     0.014969
    60     0.047106
    61     0.012877
    62     0.041067
    63    -0.026250
    64     0.028931
    65    -0.010979
    66     0.024071
    67     0.005586
    68     0.011558
    69    -0.013272
    70    -0.010725
    71     0.029977
    72    -0.080154
    73    -0.000036
    74     0.000215
    75    -0.000478
    76     0.022815
    77     0.054760
    78    -0.039615
    79    -0.214384
    80     0.001093
    81    -0.001118
    82    -0.000522
    83    -0.004684
    84     0.036125
    85     0.132879
    86     0.026861
    87     0.009431
    88    -0.129170
    89    -0.008533
    90    -0.029852
    91    -0.071887
    92     0.008491
    93    -0.002427
    94    -0.001681
    95    -0.002489
    96     0.004680
    97    -0.020152
    98     0.021726
    99     0.073555
   100     0.105929
   101     0.007727
   102    -0.020701
   103     0.118686
   104     0.017896
   105    -0.001354
   106    -0.057303
   107     0.001395
   108     0.006051
   109     0.009243
   110     0.000921
   111     0.001601
   112     0.000595
   113     0.003397
   114    -0.000240
   115     0.000187
   116    -0.003956
   117     0.001995
   118     0.003388
   119    -0.000778
   120     0.005822
   121     0.003103
   122    -0.017870
   123    -0.011880
   124     0.009383
   125     0.007720
   126    -0.016156
   127     0.021322
   128    -0.002504
   129    -0.003048
   130    -0.027197
   131    -0.034903
   132    -0.012027
   133    -0.032517
   134    -0.027920
   135    -0.000737
   136    -0.005305
   137    -0.002604
   138     0.000455
   139     0.002015
   140    -0.010226
   141    -0.004992
   142     0.007132
   143    -0.006418
   144     0.005108
   145     0.001040
   146     0.007671
   147     0.010826
   148    -0.087640
   149     0.192308
   150    -0.342123
   151     0.206702
   152     0.000889
   153    -0.018700
   154     0.002907
   155    -0.221973
   156     0.505389
   157     0.046964
   158     0.017267
   159    -0.122880
   160    -0.059195
   161     0.111360
   162    -0.198995
   163    -0.032305
   164    -0.117384
   165     0.142618
   166     0.020709
   167     0.048683
   168     0.024216
   169    -0.032619
   170    -1.272743
   171     1.341143
   172    -0.186356
   173     0.423440
   174    -0.061755
   175    -0.227728
   176     0.580439
   177    -0.581334
   178     0.086023
   179    -0.158989
   180     0.039599
   181     0.004140
   182     0.660815
   183    -0.585026
   184    -0.017524
   185    -0.520943
   186     0.128076
   187    -0.036881
   188     0.007823
   189     0.020542
   190     0.111365
   191     0.050939
   192    -0.426693
   193     0.263592
   194     0.016842
   195     0.376440
   196    -0.190770
   197     0.059596
   198     0.023764
   199     0.056287
   200    -0.040665
   201    -0.001504
   202     0.086788
   203     0.178993
   204    -0.210089
   205     0.046612
   206    -0.830696
   207     0.033493
   208    -0.107029
   209    -0.074903
   210     0.095053
   211     0.206804
   212    -0.005540
   213     0.171181
   214     0.055816
   215    -0.404290
   216     0.595267
Sym=   118a
Ene=   -0.141366E-02
Spin= Alpha
Occup= 0.000867
     1     0.000007
     2     0.000008
     3     0.000025
     4    -0.000587
     5     0.000770
     6    -0.002047
     7     0.004059
     8     0.038560
     9    -0.001648
    10     0.000042
    11    -0.075900
    12     0.005400
    13     0.000270
    14    -0.298407
    15     0.014852
    16    -0.006501
    17     0.219867
    18    -0.012391
    19    -0.001890
    20    -0.007306
    21     0.007277
    22    -0.000128
    23    -0.006921
    24     0.017917
    25    -0.001483
    26    -0.006892
    27     0.005043
    28    -0.000152
    29    -0.001357
    30    -0.011905
    31     0.001336
    32    -0.057347
    33     0.057516
    34    -0.005261
    35    -0.051016
    36     0.293909
    37    -0.013644
    38    -0.003557
    39     0.000491
    40    -0.000017
    41    -0.001702
    42     0.000259
    43     0.001546
    44    -0.008839
    45     0.000681
    46    -0.001519
    47     0.001363
    48    -0.000963
    49    -0.000209
    50     0.000438
    51     0.002185
    52     0.002131
    53     0.011842
    54    -0.065945
    55     0.006970
    56    -0.011407
    57     0.010129
    58     0.000329
    59    -0.004660
    60     0.002668
    61    -0.001437
    62     0.005852
    63     0.063466
    64    -0.002688
    65     0.006157
    66    -0.002988
    67    -0.002693
    68    -0.001154
    69     0.007952
    70     0.015084
    71    -0.010078
    72    -0.014047
    73     0.000021
    74    -0.000027
    75     0.000080
    76    -0.000402
    77    -0.000313
    78     0.001608
    79     0.001556
    80    -0.115598
    81     0.008021
    82     0.000137
    83    -0.097282
    84     0.006090
    85    -0.001636
    86     0.439661
    87    -0.020666
    88    -0.001174
    89     0.144243
    90    -0.012831
    91     0.001917
    92    -0.002236
    93     0.002214
    94    -0.000052
    95    -0.002899
    96     0.067279
    97    -0.004073
    98     0.053125
    99    -0.056327
   100    -0.001551
   101     0.046441
   102     0.766100
   103    -0.048876
   104    -0.008952
   105     0.007190
   106    -0.001880
   107    -0.011530
   108     0.455419
   109    -0.026917
   110    -0.009821
   111     0.000466
   112     0.000274
   113    -0.004287
   114     0.000274
   115    -0.000726
   116    -0.166579
   117     0.010133
   118     0.000880
   119    -0.000381
   120     0.029003
   121    -0.003142
   122     0.001113
   123     0.015043
   124     0.000039
   125    -0.000256
   126    -0.370326
   127     0.022226
   128     0.000543
   129     0.001588
   130    -0.000118
   131    -0.002003
   132     0.006279
   133     0.006945
   134     0.010231
   135     0.031176
   136    -0.006059
   137    -0.048612
   138    -0.004601
   139    -0.005776
   140     0.003577
   141     0.012919
   142    -0.110073
   143    -0.015879
   144    -0.023728
   145    -0.000008
   146     0.000007
   147    -0.000044
   148     0.000827
   149    -0.000133
   150     0.001965
   151    -0.001617
   152    -0.002147
   153     0.001398
   154     0.000002
   155     0.007747
   156     0.000223
   157    -0.000181
   158    -0.096801
   159    -0.004221
   160    -0.003482
   161    -0.135876
   162     0.014712
   163     0.002293
   164     0.000892
   165    -0.000743
   166     0.000053
   167    -0.000411
   168     0.004976
   169    -0.000255
   170     0.002786
   171     0.000475
   172     0.001753
   173    -0.004378
   174    -0.016756
   175     0.000461
   176     0.011909
   177    -0.008132
   178     0.001708
   179     0.008190
   180     0.041919
   181     0.002242
   182     0.001912
   183     0.000020
   184    -0.000015
   185     0.000887
   186     0.000017
   187     0.000297
   188    -0.000028
   189     0.000310
   190    -0.000282
   191     0.000100
   192     0.007137
   193    -0.000040
   194     0.000126
   195     0.002949
   196    -0.000354
   197    -0.000791
   198    -0.007601
   199     0.001735
   200     0.000812
   201    -0.003705
   202    -0.000492
   203    -0.000585
   204    -0.000397
   205    -0.000453
   206    -0.000214
   207     0.011808
   208     0.000375
   209     0.002961
   210     0.002367
   211    -0.000205
   212    -0.000172
   213    -0.000989
   214     0.006485
   215    -0.001565
   216     0.000315
Sym=   119a
Ene=   -0.946123E-03
Spin= Alpha
Occup= 0.000048
     1     0.000049
     2    -0.000304
     3     0.001596
     4    -0.005961
     5    -0.008333
     6     0.189552
     7     0.003451
     8    -0.062684
     9    -0.048157
    10     0.002435
    11    -0.244193
    12    -0.176561
    13     0.083429
    14    -0.577500
    15    -0.456449
    16     0.096996
    17     0.227075
    18     0.181158
    19     0.013322
    20    -0.007120
    21     0.007357
    22     0.002669
    23     0.000941
    24     0.084016
    25     0.062669
    26     0.031056
    27    -0.049336
    28    -0.043437
    29    -0.007547
    30    -0.520846
    31    -0.385303
    32    -0.089932
    33     0.088355
    34     0.195410
    35     0.005020
    36     0.243670
    37     0.202248
    38     0.098545
    39     0.073807
    40     0.000389
    41     0.043513
    42     0.032993
    43    -0.007011
    44     0.005988
    45     0.004722
    46     0.004589
    47     0.000715
    48     0.169170
    49     0.133590
    50     0.079486
    51     0.081711
    52     0.056790
    53    -0.004346
    54    -0.148621
    55    -0.102061
    56    -0.015909
    57    -0.001132
    58     0.000919
    59     0.293745
    60    -0.001078
    61     0.124309
    62     0.021810
    63     0.400714
    64     0.000877
    65     0.074322
    66     0.013850
    67     0.005331
    68     0.056430
    69     0.008178
    70     0.170281
    71    -0.008107
    72    -0.023322
    73    -0.000308
    74     0.000094
    75     0.000827
    76     0.024582
    77     0.032659
    78    -0.214723
    79     0.017935
    80     1.545695
    81     1.164190
    82     0.025489
    83     1.505277
    84     1.137151
    85     0.128084
    86     1.325962
    87     0.997397
    88     0.033159
    89    -0.256065
    90    -0.184252
    91     0.001960
    92     0.019958
    93    -0.018417
    94     0.010676
    95    -0.002314
    96     0.128530
    97     0.096115
    98     0.121506
    99     0.007657
   100     0.051229
   101    -0.003238
   102    -0.394281
   103    -0.289247
   104    -0.036002
   105     0.056601
   106     0.026134
   107     0.002916
   108     0.185179
   109     0.148108
   110     0.437172
   111     0.330050
   112    -0.007865
   113     0.196772
   114     0.146709
   115     0.018715
   116     0.303320
   117     0.222909
   118    -0.035172
   119    -0.003423
   120    -1.189255
   121    -0.890117
   122    -0.055781
   123    -0.527968
   124    -0.399874
   125    -0.040885
   126    -0.525368
   127    -0.394015
   128    -0.032551
   129    -0.000360
   130     0.020397
   131     0.238356
   132    -0.009492
   133     0.146826
   134    -0.012028
   135     0.330071
   136    -0.003161
   137     0.091952
   138     0.023997
   139     0.001245
   140     0.063923
   141     0.000481
   142     0.200004
   143    -0.022002
   144    -0.039438
   145     0.000033
   146    -0.000082
   147     0.000531
   148    -0.019787
   149     0.018838
   150    -0.127003
   151    -0.072758
   152     0.022687
   153     0.018289
   154     0.001365
   155    -0.115133
   156    -0.084163
   157     0.023967
   158     0.048095
   159     0.021483
   160     0.156541
   161    -0.023768
   162    -0.016748
   163     0.003045
   164    -0.000591
   165    -0.001882
   166    -0.002441
   167    -0.000065
   168     0.027282
   169     0.020213
   170    -0.040208
   171    -0.032467
   172    -0.035210
   173    -0.003487
   174    -0.147440
   175    -0.110032
   176    -0.006239
   177    -0.042778
   178    -0.094783
   179     0.006474
   180    -0.081999
   181    -0.050070
   182     0.038733
   183     0.028590
   184     0.001432
   185     0.017451
   186     0.012751
   187     0.001149
   188    -0.006377
   189    -0.003937
   190     0.000594
   191     0.000134
   192     0.043446
   193     0.029656
   194     0.016721
   195     0.018543
   196     0.013331
   197     0.000207
   198     0.035823
   199     0.026862
   200     0.008215
   201    -0.000758
   202     0.006551
   203     0.081863
   204     0.004474
   205     0.038451
   206     0.008641
   207     0.110637
   208    -0.000336
   209     0.023303
   210    -0.000628
   211     0.004183
   212     0.017253
   213     0.011107
   214     0.051455
   215     0.001185
   216     0.012616
Sym=   120a
Ene=   -0.420974E-07
Spin= Alpha
Occup= 0.000000
     1     0.856324
     2    -1.846016
     3     9.621862
     4    -5.581812
     5   -28.002569
     6   -17.704426
     7    -4.768116
     8    -0.004805
     9    -0.035238
    10    -0.211241
    11    -0.104111
    12     0.125261
    13     0.416456
    14    -0.090572
    15     2.509307
    16    17.675353
    17    -0.348719
    18    -0.124078
    19    -3.227060
    20    10.563886
    21    10.392585
    22    10.566869
    23    -0.225467
    24    -0.099197
    25     0.089211
    26   -15.114891
    27   -14.158152
    28   -17.543454
    29     1.283129
    30     0.574096
    31    -0.687956
    32    -3.336486
    33    -3.287097
    34   -17.769032
    35     0.044532
    36     0.149421
    37    -1.859465
    38     0.000611
    39     0.118419
    40     0.022553
    41     0.016025
    42     0.043121
    43     0.276479
    44     0.014680
    45     0.032568
    46     0.267079
    47    -0.003787
    48     0.038323
    49    -0.240153
    50     2.937508
    51    -0.013457
    52    -0.094469
    53    -0.238071
    54    -0.091173
    55     1.324794
    56    -0.272242
    57    -0.041369
    58     9.572752
    59     0.166388
    60     5.726761
    61     0.219316
    62     9.578961
    63    -0.290524
    64    -0.210526
    65    -0.093743
    66    -0.636609
    67     5.859662
    68     0.074185
    69     5.879747
    70    -0.241194
    71    -0.508709
    72    10.239243
    73     0.015425
    74    -0.035260
    75     0.173897
    76     9.373737
    77    -3.536140
    78    -7.091022
    79    -6.146339
    80    -0.009780
    81     0.035080
    82    -0.074878
    83    -0.049646
    84     0.023463
    85     3.488963
    86     0.190505
    87    -2.720634
    88    20.615168
    89     0.191582
    90     0.287988
    91    -0.552831
    92     1.244039
    93     1.400513
    94     0.981625
    95     0.134439
    96     0.003382
    97    -0.491753
    98    18.988122
    99    18.097476
   100    21.244957
   101    -0.767800
   102    -0.018110
   103     2.695601
   104     8.216479
   105     8.192842
   106    18.106333
   107    -0.031378
   108     0.222597
   109    -2.214432
   110     0.058253
   111    -0.241318
   112     0.381006
   113    -0.002112
   114    -0.088883
   115     0.085716
   116    -0.025094
   117     0.110887
   118     0.102953
   119     0.019452
   120    -0.030720
   121     0.364038
   122     2.769602
   123     0.022248
   124     0.136129
   125     0.112145
   126     0.085701
   127    -1.116452
   128     0.034250
   129    -0.080231
   130    -4.852879
   131    -1.484362
   132    -2.942982
   133    -1.212736
   134    -4.314735
   135    -0.005585
   136     0.125389
   137     0.011151
   138     0.355032
   139    -3.080304
   140    -0.551615
   141    -2.725346
   142     0.000339
   143     0.321211
   144    -4.920045
   145    -0.008643
   146     0.017423
   147    -0.062782
   148    -5.938008
   149     1.363877
   150    23.893396
   151    15.817821
   152     0.006585
   153     0.000051
   154     0.000535
   155    -0.014102
   156    -0.220339
   157     0.101351
   158    -0.170323
   159     0.408804
   160    -5.538736
   161     0.231881
   162    -0.243843
   163    -1.219079
   164    -0.866676
   165    -0.855383
   166    -0.461048
   167     0.010551
   168     0.045911
   169     0.147998
   170   -10.517982
   171   -10.573046
   172   -13.312114
   173    -0.055272
   174    -0.240608
   175    -0.770874
   176    -5.548952
   177    -5.568027
   178    -1.687083
   179    -0.027531
   180    -0.035024
   181     0.257942
   182     0.010895
   183     0.008241
   184     0.159309
   185     0.002122
   186    -0.003773
   187    -0.007658
   188     0.018067
   189     0.017789
   190    -0.005989
   191    -0.008512
   192     0.045481
   193    -0.035253
   194    -1.589707
   195     0.024805
   196    -0.006600
   197     0.183767
   198     0.059599
   199    -0.324638
   200     0.200595
   201     0.019456
   202     4.446917
   203     0.456248
   204     1.634323
   205     0.367942
   206     2.291200
   207     0.073216
   208     0.017834
   209     0.055265
   210     0.023652
   211     1.634277
   212     0.168885
   213     1.327742
   214     0.115712
   215     0.028178
   216     2.249548
Sym=   121a
Ene=    0.102347E-07
Spin= Alpha
Occup= 0.000000
     1    -0.008424
     2     0.013931
     3     0.025426
     4    -5.246845
     5    -2.358131
     6    30.618571
     7    12.846236
     8    -0.002481
     9     0.033072
    10    -0.010816
    11     0.012939
    12     0.038430
    13    -2.610310
    14    -0.112755
    15    -2.398722
    16    12.697775
    17     0.522651
    18     0.568649
    19    -6.302940
    20    -0.532099
    21    -0.571399
    22    -0.331746
    23     0.324970
    24     0.114877
    25    -0.159580
    26   -11.458870
    27   -11.218065
    28   -12.170103
    29    -1.868499
    30    -0.652446
    31     1.032423
    32    -7.910562
    33    -7.942012
    34     3.040113
    35    -0.041128
    36     0.016779
    37     1.175369
    38    -0.037596
    39    -0.083119
    40     0.039595
    41     0.074736
    42    -0.101920
    43     0.009272
    44    -0.015468
    45    -0.009153
    46    -0.001589
    47     0.003411
    48     0.061828
    49     0.239010
    50    -2.761725
    51    -0.080108
    52     0.177506
    53     0.059829
    54     0.055747
    55    -1.130367
    56     0.113187
    57     0.029093
    58     3.943099
    59    -0.447902
    60     1.605296
    61    -0.374934
    62     2.560629
    63     0.344627
    64     0.322623
    65     0.103281
    66     0.897481
    67     1.661473
    68    -0.154215
    69     1.491433
    70     0.299710
    71     0.764842
    72     2.720853
    73    -0.010081
    74     0.031984
    75    -0.339434
    76     6.006276
    77     5.203235
    78   -32.734499
    79   -23.645939
    80    -0.003172
    81    -0.025555
    82     0.042963
    83    -0.103611
    84    -0.032261
    85    -3.916465
    86     0.182323
    87     2.240235
    88     4.968093
    89    -0.382931
    90    -0.525489
    91    -2.333341
    92     0.332786
    93     0.116838
    94     0.296759
    95    -0.124345
    96     0.047139
    97     0.403202
    98    13.104544
    99    14.339218
   100    12.065786
   101     0.714708
   102    -0.263357
   103    -2.213733
   104    10.495711
   105    10.466294
   106    11.432036
   107     0.035113
   108    -0.051906
   109     1.653514
   110     0.005316
   111     0.193222
   112    -0.317770
   113     0.028806
   114     0.071244
   115    -0.001836
   116     0.018833
   117    -0.109037
   118    -0.013561
   119    -0.027868
   120    -0.024916
   121    -0.318050
   122    -1.219577
   123    -0.034293
   124    -0.129034
   125    -0.447248
   126     0.024869
   127     0.795191
   128    -0.399408
   129     0.089228
   130    -3.327696
   131     1.150756
   132    -1.965048
   133     1.019091
   134    -3.577861
   135     0.157566
   136    -0.134138
   137     0.033589
   138    -0.324128
   139    -1.734139
   140     0.465645
   141    -1.835556
   142     0.120239
   143    -0.288329
   144    -2.768187
   145     0.126232
   146    -0.277903
   147     1.469809
   148   -12.945246
   149     0.760895
   150    32.109336
   151    20.910586
   152    -0.029206
   153     0.007359
   154    -0.001319
   155     0.152122
   156     0.109924
   157    -0.810496
   158     0.278409
   159    -0.034546
   160     9.088415
   161    -0.346153
   162     0.001488
   163    -2.390756
   164    -0.085232
   165    -0.109263
   166     0.136502
   167    -0.014711
   168    -0.073625
   169    -0.190946
   170   -23.353613
   171   -23.238060
   172   -24.363252
   173     0.077423
   174     0.380975
   175     1.002596
   176   -12.924712
   177   -12.941982
   178   -15.098390
   179     0.039317
   180     0.053948
   181    -0.389597
   182    -0.043577
   183     0.016299
   184     0.066073
   185    -0.035206
   186     0.003248
   187    -0.023291
   188    -0.040295
   189    -0.012374
   190    -0.036468
   191     0.012866
   192    -0.178661
   193     0.014933
   194    -0.126407
   195    -0.046033
   196     0.010331
   197    -0.025337
   198    -0.105613
   199     0.371860
   200    -0.003981
   201    -0.032543
   202     7.172700
   203    -0.578725
   204     4.001549
   205    -0.448199
   206     6.231679
   207    -0.135740
   208    -0.017752
   209    -0.104937
   210    -0.035885
   211     4.021500
   212    -0.205485
   213     3.663491
   214    -0.166574
   215    -0.039357
   216     6.306028
Sym=   122a
Ene=   -0.579686E-03
Spin= Alpha
Occup= 0.000283
     1    -0.000212
     2    -0.002495
     3     0.004709
     4     0.023239
     5    -0.096687
     6     0.202508
     7     0.093314
     8    -0.105279
     9     0.018449
    10    -0.008114
    11     0.218983
    12    -0.039336
    13    -0.088012
    14    -0.044357
    15     0.006659
    16    -0.173130
    17     0.190118
    18    -0.045495
    19    -0.073824
    20    -0.007006
    21     0.008155
    22    -0.002838
    23    -0.021167
    24    -0.012798
    25    -0.004489
    26     0.284813
    27    -0.277869
    28     0.000457
    29     0.429527
    30     0.075047
    31    -0.022031
    32    -0.042677
    33     0.033593
    34     0.065568
    35    -0.053217
    36     0.468437
    37    -0.092808
    38     0.010104
    39     0.060722
    40     0.002840
    41    -0.058082
    42    -0.065728
    43    -0.051837
    44    -0.026929
    45     0.012511
    46     0.045078
    47    -0.073591
    48    -0.028784
    49     0.243460
    50    -0.156770
    51    -0.297790
    52    -0.270775
    53    -0.113515
    54    -0.362833
    55     0.050613
    56     0.071332
    57    -0.163108
    58    -0.009108
    59     0.003677
    60    -0.016397
    61    -0.112756
    62     0.019512
    63    -0.034919
    64     0.044394
    65     0.123049
    66    -0.060648
    67     0.035304
    68     0.144163
    69     0.112587
    70    -0.047743
    71    -0.121448
    72    -0.160398
    73    -0.000135
    74    -0.001482
    75     0.002354
    76     0.003803
    77    -0.077448
    78    -0.094859
    79    -0.243972
    80    -0.087328
    81     0.015017
    82     0.005268
    83     0.266293
    84    -0.047871
    85    -0.100540
    86     0.273629
    87    -0.037630
    88    -0.237288
    89     0.242094
    90    -0.061565
    91    -0.066201
    92    -0.006600
    93     0.005463
    94    -0.007625
    95    -0.014953
    96     0.019584
    97     0.000509
    98     0.117998
    99    -0.160812
   100    -0.036378
   101     0.229822
   102     0.041684
   103    -0.001139
   104    -0.040339
   105     0.023085
   106    -0.101594
   107    -0.044980
   108     0.102960
   109    -0.017654
   110     0.019176
   111     0.023839
   112    -0.001325
   113    -0.021181
   114    -0.031429
   115     0.036843
   116    -0.023551
   117     0.008961
   118    -0.031295
   119     0.054201
   120     0.006835
   121     0.178197
   122     0.031012
   123    -0.219349
   124    -0.211679
   125     0.081568
   126    -0.215119
   127     0.040717
   128    -0.031190
   129     0.102591
   130    -0.008533
   131     0.000903
   132    -0.023617
   133     0.091868
   134     0.008117
   135    -0.002997
   136     0.049344
   137    -0.099519
   138    -0.032410
   139     0.035897
   140    -0.122496
   141     0.083074
   142     0.053861
   143    -0.076717
   144    -0.091766
   145     0.000070
   146     0.000017
   147     0.000736
   148    -0.027298
   149     0.000270
   150     0.131927
   151     0.233650
   152     0.009203
   153    -0.002246
   154    -0.000519
   155     0.035169
   156    -0.002023
   157    -0.042097
   158    -0.188537
   159     0.031802
   160    -0.091989
   161    -0.157122
   162     0.042030
   163    -0.043030
   164    -0.003651
   165    -0.000563
   166    -0.000795
   167    -0.003729
   168     0.004764
   169    -0.000803
   170    -0.039050
   171    -0.062278
   172    -0.047150
   173     0.011326
   174    -0.010888
   175    -0.000061
   176    -0.037663
   177    -0.072947
   178     0.038926
   179     0.036591
   180     0.031788
   181    -0.010671
   182     0.010083
   183     0.000376
   184    -0.000093
   185     0.002547
   186    -0.002477
   187     0.001401
   188    -0.003540
   189     0.000561
   190    -0.001543
   191     0.004307
   192     0.014166
   193    -0.013003
   194    -0.015593
   195     0.023657
   196     0.016121
   197    -0.003209
   198     0.027975
   199    -0.000039
   200     0.006851
   201    -0.015694
   202     0.020286
   203    -0.004224
   204     0.017172
   205    -0.000539
   206     0.015787
   207     0.005959
   208    -0.010968
   209    -0.001569
   210    -0.005998
   211     0.004032
   212    -0.000560
   213     0.004935
   214    -0.001716
   215    -0.006811
   216     0.006703
Sym=   123a
Ene=   -0.179471E-01
Spin= Alpha
Occup= 0.018058
     1    -0.048897
     2    -0.006395
     3    -0.068856
     4    -0.059397
     5     0.269745
     6     0.147391
     7     0.043915
     8    -0.297421
     9    -0.053251
    10     0.169075
    11     0.373495
    12     0.066888
    13    -0.323197
    14     0.156403
    15     0.027324
    16    -0.310547
    17    -0.029523
    18    -0.005095
    19    -0.017039
    20     0.019825
    21    -0.005266
    22    -0.013392
    23     0.005669
    24    -0.018800
    25    -0.003365
    26     0.079535
    27    -0.063870
    28    -0.011435
    29     0.028340
    30    -0.084967
    31    -0.015418
    32     0.012602
    33    -0.040561
    34    -0.300271
    35     0.012154
    36    -0.084999
    37    -0.015685
    38     0.012594
    39    -0.001880
    40     0.009244
    41    -0.003851
    42     0.004796
    43    -0.014918
    44     0.004170
    45     0.000773
    46     0.004904
    47    -0.004239
    48    -0.019754
    49    -0.009904
    50     0.005464
    51    -0.024311
    52     0.004024
    53    -0.008219
    54    -0.014954
    55    -0.002879
    56     0.023106
    57    -0.007046
    58    -0.004478
    59     0.000478
    60     0.003135
    61     0.001687
    62     0.014792
    63     0.002106
    64     0.000077
    65     0.003601
    66    -0.002550
    67     0.002695
    68    -0.001764
    69     0.001807
    70    -0.000985
    71    -0.001710
    72    -0.005261
    73     0.045631
    74     0.005473
    75     0.065796
    76    -0.011605
    77    -0.260674
    78     0.046430
    79     0.130087
    80     0.274636
    81     0.049184
    82     0.191204
    83    -0.332744
    84    -0.059581
    85    -0.327699
    86    -0.164601
    87    -0.029463
    88    -0.195428
    89     0.044066
    90     0.008109
    91    -0.043311
    92    -0.012424
    93     0.002494
    94    -0.004084
    95    -0.003119
    96    -0.012860
    97    -0.002300
    98    -0.195456
    99    -0.090501
   100    -0.160815
   101    -0.022626
   102    -0.098850
   103    -0.017802
   104    -0.059052
   105    -0.033482
   106    -0.091183
   107    -0.005377
   108    -0.057117
   109    -0.010200
   110    -0.007097
   111     0.002053
   112     0.010802
   113     0.004589
   114    -0.003647
   115    -0.010799
   116    -0.006584
   117    -0.001182
   118     0.007655
   119    -0.003908
   120     0.014938
   121     0.007603
   122     0.054840
   123     0.018278
   124    -0.003319
   125     0.007203
   126     0.004739
   127     0.000853
   128     0.034634
   129    -0.006017
   130     0.021278
   131     0.000963
   132     0.018207
   133     0.002265
   134     0.026841
   135     0.005003
   136    -0.000032
   137     0.005559
   138     0.002989
   139     0.017990
   140    -0.000122
   141     0.021714
   142     0.007900
   143     0.002595
   144     0.045970
   145     0.002130
   146     0.000208
   147     0.002459
   148     0.015488
   149    -0.010783
   150     0.170128
   151     0.147163
   152    -0.046218
   153    -0.008468
   154     0.027165
   155    -0.038465
   156    -0.007065
   157     0.001762
   158    -0.117636
   159    -0.019866
   160    -0.213523
   161    -0.124866
   162    -0.022261
   163     0.023459
   164     0.001819
   165     0.001648
   166     0.001770
   167    -0.001518
   168     0.001688
   169     0.000287
   170     0.031342
   171     0.023169
   172     0.025099
   173    -0.007334
   174     0.002306
   175     0.000462
   176     0.041664
   177     0.042698
   178     0.118299
   179    -0.004513
   180     0.011691
   181     0.001658
   182     0.002238
   183     0.000333
   184     0.000404
   185     0.000969
   186     0.000238
   187     0.000362
   188     0.000681
   189     0.000100
   190     0.000273
   191    -0.000208
   192     0.006423
   193     0.001950
   194    -0.009818
   195     0.002534
   196    -0.000679
   197     0.001477
   198    -0.002223
   199    -0.000498
   200     0.002198
   201    -0.000341
   202    -0.001510
   203     0.000066
   204    -0.003201
   205     0.000018
   206    -0.006546
   207     0.000531
   208    -0.000008
   209     0.000790
   210     0.000586
   211    -0.003807
   212     0.000425
   213    -0.005266
   214     0.001421
   215    -0.001116
   216    -0.007753
Sym=   124a
Ene=   -0.115280E-02
Spin= Alpha
Occup= 0.000650
     1     0.007050
     2    -0.011218
     3     0.042361
     4     0.112810
     5    -0.528661
     6     0.105341
     7     0.163552
     8    -0.138768
     9     0.176468
    10    -0.107662
    11     0.086017
    12    -0.117068
    13    -0.620473
    14    -0.032426
    15     0.039346
    16    -1.227789
    17     0.088820
    18    -0.124357
    19    -0.284307
    20     0.007243
    21     0.008621
    22    -0.020472
    23     0.007770
    24    -0.023501
    25     0.026013
    26     0.006824
    27     0.090446
    28    -0.084153
    29    -0.150823
    30     0.048081
    31    -0.069792
    32    -0.084721
    33    -0.011576
    34    -0.405086
    35    -0.175369
    36     0.248231
    37    -0.324282
    38     0.015151
    39    -0.001296
    40     0.052442
    41    -0.027923
    42     0.015836
    43    -0.020442
    44     0.007790
    45    -0.003302
    46    -0.036077
    47     0.028795
    48     0.055215
    49     0.038926
    50    -0.955997
    51    -0.245561
    52     0.171960
    53    -0.118259
    54    -0.257076
    55     0.329748
    56    -0.176893
    57     0.134785
    58    -0.031257
    59     0.037988
    60     0.076056
    61    -0.000543
    62    -0.066003
    63    -0.033179
    64    -0.036056
    65     0.103771
    66    -0.002985
    67     0.061485
    68    -0.064581
    69     0.042555
    70    -0.035990
    71     0.034209
    72    -0.051164
    73     0.004711
    74    -0.008104
    75     0.027248
    76     0.007356
    77    -0.528039
    78     0.081489
    79    -0.950135
    80    -0.108993
    81     0.140047
    82     0.080972
    83     0.101460
    84    -0.140145
    85    -0.508559
    86     0.145100
    87    -0.179793
    88    -0.850539
    89     0.123755
    90    -0.169805
    91    -0.317913
    92    -0.000500
    93     0.001593
    94    -0.037123
    95    -0.004941
    96     0.017903
    97    -0.021353
    98    -0.170117
    99    -0.113182
   100    -0.360811
   101    -0.095367
   102     0.013472
   103    -0.010186
   104    -0.078710
   105    -0.034478
   106    -0.391176
   107    -0.136822
   108     0.029949
   109    -0.035759
   110     0.018508
   111    -0.013558
   112    -0.032307
   113    -0.013971
   114     0.005327
   115     0.015399
   116    -0.000108
   117     0.003660
   118     0.029097
   119    -0.030593
   120     0.073441
   121    -0.005105
   122     0.143727
   123    -0.192294
   124     0.124295
   125     0.136854
   126    -0.116858
   127     0.156167
   128     0.193995
   129    -0.147354
   130     0.011188
   131    -0.002133
   132     0.066270
   133    -0.012630
   134    -0.002914
   135     0.000608
   136    -0.040968
   137    -0.091449
   138    -0.008463
   139     0.052305
   140     0.055238
   141     0.061153
   142     0.041133
   143     0.020627
   144     0.008040
   145     0.000195
   146    -0.000364
   147     0.003334
   148    -0.066724
   149    -0.036415
   150     1.133661
   151     1.280172
   152     0.005514
   153    -0.003246
   154    -0.005585
   155     0.030683
   156    -0.034641
   157    -0.283510
   158    -0.102738
   159     0.112333
   160    -1.223376
   161    -0.086877
   162     0.133398
   163    -0.143843
   164    -0.002908
   165    -0.006453
   166     0.002593
   167     0.004390
   168     0.003389
   169    -0.004407
   170    -0.138150
   171    -0.141937
   172    -0.094068
   173    -0.019787
   174    -0.003638
   175     0.003894
   176    -0.089002
   177    -0.094478
   178     0.617135
   179     0.014559
   180    -0.009836
   181     0.015818
   182     0.006084
   183    -0.006522
   184    -0.003328
   185     0.000776
   186    -0.002132
   187     0.000374
   188    -0.001566
   189     0.002945
   190     0.001244
   191    -0.001887
   192     0.000885
   193    -0.021679
   194    -0.116988
   195     0.023740
   196    -0.004035
   197     0.007104
   198     0.041358
   199    -0.043696
   200     0.003455
   201     0.006052
   202     0.077953
   203     0.008171
   204     0.033744
   205     0.004768
   206     0.018729
   207    -0.008237
   208     0.004758
   209    -0.003163
   210     0.008524
   211     0.036203
   212     0.001762
   213     0.014018
   214    -0.003076
   215     0.004774
   216     0.023741
Sym=   125a
Ene=   -0.883542E-04
Spin= Alpha
Occup= 0.000017
     1     0.001763
     2    -0.010020
     3     0.028269
     4     1.081860
     5    -1.917428
     6     4.597883
     7     0.451900
     8     0.000075
     9    -0.000462
    10    -0.217725
    11     0.000253
    12    -0.005028
    13    -2.379110
    14     0.002651
    15     0.000912
    16    -1.315230
    17     0.004618
    18     0.001285
    19    -0.391477
    20     0.228077
    21     0.225904
    22    -0.084701
    23     0.000671
    24     0.000294
    25    -0.000582
    26     0.617138
    27     0.625777
    28     5.167241
    29    -0.002257
    30     0.049237
    31    -0.013492
    32     0.458627
    33     0.457407
    34     3.991189
    35     0.003572
    36     0.023425
    37     0.007730
    38     0.031913
    39    -0.025121
    40     1.468648
    41    -0.044281
    42     0.030498
    43    -0.260463
    44     0.015319
    45    -0.003824
    46    -0.258612
    47     0.000759
    48    -0.030539
    49     0.010221
    50    -0.415774
    51     0.039899
    52    -0.011311
    53     0.618840
    54     0.031687
    55    -0.011026
    56     0.620059
    57     0.004289
    58    -0.787330
    59     0.006618
    60    -1.201214
    61    -0.038623
    62     0.165421
    63    -0.003583
    64     0.010138
    65    -0.060169
    66    -0.004932
    67    -1.208710
    68     0.056958
    69     0.095577
    70     0.018113
    71    -0.000417
    72     0.171076
    73     0.000145
    74    -0.002140
    75     0.046038
    76     0.163411
    77    -1.450901
    78    -4.166496
    79    -1.143552
    80    -0.000795
    81     0.000871
    82     0.131715
    83    -0.009837
    84     0.005582
    85    -1.426393
    86     0.012155
    87     0.014181
    88    -2.986652
    89    -0.009409
    90    -0.003476
    91    -0.179765
    92     0.069109
    93     0.066639
    94     0.225195
    95     0.000462
    96     0.000166
    97     0.001083
    98     0.336686
    99     0.345535
   100    -1.951155
   101     0.002512
   102    -0.001644
   103    -0.004734
   104    -0.341796
   105    -0.342787
   106    -1.471589
   107     0.001760
   108     0.003725
   109     0.005263
   110     0.011916
   111    -0.007950
   112    -0.370036
   113    -0.015334
   114     0.010110
   115    -0.062797
   116    -0.000077
   117     0.000033
   118    -0.063379
   119    -0.001657
   120    -0.002428
   121    -0.002410
   122    -0.231257
   123     0.009947
   124    -0.008866
   125     0.047192
   126    -0.000038
   127     0.003639
   128     0.045238
   129     0.000504
   130     0.685671
   131     0.005730
   132     0.194567
   133    -0.001823
   134    -0.122647
   135    -0.001876
   136    -0.005070
   137    -0.006068
   138    -0.001937
   139     0.197428
   140     0.007361
   141    -0.069384
   142     0.004177
   143     0.000762
   144    -0.117687
   145     0.005041
   146    -0.035982
   147    -0.074658
   148    -1.349553
   149     0.770139
   150     2.968346
   151     1.655015
   152    -0.000073
   153    -0.000422
   154    -0.140816
   155     0.006686
   156    -0.001221
   157     0.749353
   158    -0.017020
   159     0.006202
   160     2.138309
   161    -0.001436
   162    -0.007594
   163    -0.495802
   164    -0.186986
   165    -0.185728
   166    -0.248456
   167     0.000846
   168    -0.002290
   169     0.000405
   170    -2.734217
   171    -2.738995
   172    -4.307662
   173    -0.005302
   174     0.028537
   175    -0.002437
   176    -1.542106
   177    -1.534020
   178    -2.113460
   179    -0.001293
   180     0.021279
   181    -0.000706
   182     0.004508
   183    -0.000163
   184     0.444399
   185    -0.000543
   186    -0.002003
   187    -0.178303
   188    -0.016479
   189     0.003518
   190    -0.172418
   191     0.001514
   192    -0.036664
   193    -0.052842
   194     0.196638
   195     0.040672
   196     0.067756
   197    -0.258728
   198    -0.025969
   199     0.006248
   200    -0.257056
   201     0.003289
   202     1.019989
   203    -0.008695
   204     0.763017
   205     0.010805
   206     0.658938
   207     0.021900
   208    -0.003238
   209    -0.021786
   210     0.000209
   211     0.775135
   212    -0.008454
   213     0.385663
   214    -0.013818
   215     0.005234
   216     0.656017
Sym=   126a
Ene=   -0.172579E-03
Spin= Alpha
Occup= 0.000049
     1    -0.001782
     2    -0.017031
     3     0.032045
     4     0.061972
     5     0.116675
     6    -2.462632
     7    -0.328330
     8    -0.038130
     9     0.012076
    10    -0.020656
    11    -0.282780
    12     0.096038
    13    -1.191403
    14    -0.164941
    15     0.021213
    16    -0.907926
    17    -0.004400
    18    -0.007782
    19     0.343706
    20     0.014313
    21    -0.006948
    22     0.125199
    23    -0.002924
    24    -0.047495
    25     0.013411
    26     0.054898
    27     0.189752
    28    -0.517715
    29     0.010989
    30     0.137435
    31    -0.035347
    32     0.031784
    33     0.000413
    34    -2.121525
    35    -0.031452
    36    -0.583593
    37     0.198235
    38     0.027857
    39    -0.011788
    40     0.017401
    41     0.018928
    42     0.002105
    43    -0.022939
    44    -0.009567
    45     0.004898
    46     0.007676
    47     0.011090
    48     0.070478
    49    -0.005023
    50    -0.585066
    51     0.001555
    52    -0.013212
    53    -0.043730
    54     0.205668
    55    -0.102407
    56     0.006941
    57     0.010123
    58     0.700549
    59     0.012429
    60     0.067021
    61     0.036916
    62    -0.042383
    63    -0.097989
    64     0.014761
    65    -0.068675
    66    -0.002995
    67     0.010709
    68     0.003782
    69    -0.038201
    70    -0.112110
    71     0.000514
    72     0.007626
    73     0.000793
    74    -0.004194
    75     0.026181
    76    -0.123675
    77    -0.419760
    78     1.602393
    79     0.949897
    80    -0.003553
    81    -0.000884
    82    -0.044542
    83    -0.097258
    84     0.038128
    85    -0.653530
    86    -0.290718
    87     0.082987
    88     0.277037
    89    -0.029129
    90     0.045628
    91     0.085050
    92     0.001230
    93     0.008528
    94     0.074122
    95     0.005374
    96     0.037628
    97    -0.016538
    98    -0.204092
    99    -0.238202
   100    -1.039465
   101    -0.016469
   102    -0.189741
   103     0.085726
   104    -0.186071
   105    -0.148342
   106    -0.187884
   107     0.026519
   108    -0.205637
   109     0.080042
   110     0.006308
   111     0.001601
   112    -0.040849
   113    -0.003045
   114     0.001337
   115     0.043068
   116    -0.001128
   117     0.000465
   118     0.032025
   119    -0.005071
   120     0.020564
   121    -0.000580
   122     0.064273
   123     0.013845
   124     0.007488
   125     0.158890
   126    -0.082571
   127     0.027767
   128     0.160773
   129     0.019377
   130     0.223607
   131    -0.020516
   132     0.102100
   133    -0.026179
   134     0.046575
   135     0.029005
   136    -0.008208
   137     0.022550
   138     0.008741
   139     0.113992
   140    -0.008593
   141     0.022412
   142     0.060948
   143     0.006841
   144     0.034288
   145     0.001075
   146     0.010645
   147    -0.012580
   148     0.019168
   149    -0.130782
   150     2.082500
   151     0.344137
   152     0.009216
   153     0.001435
   154    -0.083134
   155    -0.098450
   156     0.022757
   157     0.096346
   158     0.735872
   159    -0.212096
   160    -1.843350
   161    -0.101131
   162     0.015770
   163     0.236962
   164    -0.019256
   165    -0.003171
   166     0.019873
   167     0.003002
   168     0.118307
   169    -0.037963
   170    -0.370390
   171    -0.197178
   172     0.973673
   173     0.010641
   174     1.502975
   175    -0.612339
   176     0.468566
   177     0.297513
   178     0.924534
   179    -0.000701
   180    -1.022858
   181     0.347077
   182    -0.212377
   183     0.065528
   184    -0.024620
   185    -0.060087
   186     0.028079
   187     0.413445
   188     0.249650
   189    -0.095881
   190     0.008477
   191    -0.241931
   192    -0.029706
   193     0.099806
   194    -0.627808
   195    -0.092974
   196    -0.070041
   197    -0.561518
   198    -0.079731
   199     0.043364
   200    -0.149435
   201     0.098500
   202    -0.618564
   203     0.214565
   204    -0.102245
   205     0.237756
   206     0.063077
   207    -0.506193
   208    -0.088326
   209    -0.190020
   210     0.062287
   211     0.043876
   212    -0.024744
   213     0.040061
   214    -0.485490
   215    -0.016665
   216     0.061990
Sym=   127a
Ene=   -0.366429E-04
Spin= Alpha
Occup= 0.000008
     1     0.005401
     2    -0.011441
     3     0.021879
     4    -0.033861
     5    -0.447419
     6     2.296058
     7     1.251603
     8     0.010917
     9    -0.072078
    10    -0.027039
    11     0.066621
    12    -0.407001
    13    -0.436514
    14    -0.033660
    15     0.244219
    16    -2.720276
    17     0.026843
    18    -0.166187
    19     0.238324
    20     0.063562
    21     0.010371
    22     0.044511
    23     0.025018
    24     0.000968
    25    -0.054597
    26    -0.344910
    27    -0.148930
    28    -0.572998
    29    -0.119655
    30     0.002408
    31     0.190609
    32     0.079028
    33     0.200390
    34     2.363293
    35     0.031280
    36    -0.084506
    37     0.779059
    38    -0.011072
    39     0.107298
    40    -0.019828
    41    -0.007666
    42     0.051155
    43    -0.002831
    44     0.006575
    45    -0.027781
    46    -0.022320
    47     0.002511
    48    -0.027790
    49     0.144122
    50     0.516709
    51    -0.018612
    52     0.065261
    53    -0.133869
    54    -0.025261
    55     0.321668
    56     0.080359
    57    -0.027024
    58    -0.075868
    59    -0.278662
    60     0.066324
    61    -0.139428
    62     0.024729
    63     0.006107
    64     0.019504
    65     0.002206
    66     0.036652
    67     0.021533
    68    -0.059026
    69     0.064433
    70     0.006481
    71     0.047446
    72     0.143732
    73     0.000662
    74    -0.001714
    75     0.007348
    76    -0.268446
    77     0.094513
    78    -2.006494
    79    -0.121995
    80     0.005894
    81    -0.042002
    82     0.026286
    83     0.023279
    84    -0.257698
    85     0.301987
    86     0.015338
    87     0.165023
    88    -2.522416
    89     0.005578
    90    -0.117326
    91    -0.056486
    92     0.012875
    93    -0.029725
    94    -0.050601
    95     0.011773
    96     0.001580
    97    -0.015252
    98    -0.785692
    99    -0.563183
   100    -0.165184
   101    -0.068031
   102    -0.001587
   103     0.071334
   104    -0.641818
   105    -0.627188
   106    -1.558866
   107    -0.026205
   108    -0.008307
   109     0.110604
   110    -0.013388
   111     0.071916
   112     0.025813
   113     0.001714
   114     0.030914
   115    -0.011585
   116    -0.001531
   117    -0.019785
   118    -0.021389
   119     0.008030
   120    -0.027155
   121     0.221789
   122    -0.141743
   123    -0.022126
   124     0.101345
   125    -0.116180
   126    -0.022604
   127     0.018593
   128    -0.077828
   129    -0.026393
   130     0.062417
   131    -0.135136
   132     0.042695
   133    -0.040069
   134     0.138928
   135    -0.001680
   136     0.017020
   137     0.001451
   138     0.033545
   139     0.079551
   140    -0.016791
   141     0.120019
   142    -0.000827
   143     0.023436
   144     0.280353
   145     0.033143
   146    -0.095567
   147    -0.361330
   148     1.453720
   149    -0.839183
   150    -2.057958
   151    -0.351215
   152     0.043975
   153    -0.229362
   154    -0.000200
   155    -0.425487
   156     2.255982
   157     0.535800
   158     0.311481
   159    -1.988241
   160    -1.251932
   161    -0.124383
   162     0.748698
   163     0.464264
   164    -0.031058
   165    -0.813472
   166    -0.017020
   167     0.166108
   168     0.042619
   169    -0.271099
   170     1.187495
   171     1.734852
   172     0.898077
   173    -0.060953
   174    -0.012880
   175     0.470038
   176     0.125475
   177    -0.831606
   178     1.139100
   179     0.184873
   180     0.001880
   181     0.123517
   182     0.141264
   183    -0.569444
   184    -0.152158
   185     0.031121
   186    -0.341761
   187    -0.034123
   188     0.067682
   189    -0.399689
   190     0.117243
   191    -0.009408
   192     0.053974
   193    -0.273283
   194    -0.111844
   195     0.023498
   196    -0.096731
   197     0.203681
   198     0.011883
   199    -0.086241
   200     0.294493
   201    -0.020844
   202    -0.279040
   203    -0.388949
   204    -0.285185
   205     0.283216
   206     0.197169
   207     0.006023
   208    -0.030454
   209    -0.116934
   210    -0.226588
   211    -0.131294
   212    -0.100914
   213    -0.307052
   214     0.032061
   215     0.038411
   216    -0.396355
Sym=   128a
Ene=   -0.219060E-04
Spin= Alpha
Occup= 0.000005
     1    -0.002337
     2     0.007317
     3    -0.035541
     4    -0.056264
     5    -0.026910
     6    -1.928706
     7     0.471429
     8     0.031846
     9     0.037085
    10    -0.037550
    11     0.487901
    12     0.528604
    13    -1.514298
    14     0.073548
    15     0.081852
    16    -6.205104
    17    -0.027145
    18     0.350739
    19    -0.079002
    20    -0.049777
    21     0.018736
    22    -0.239270
    23    -0.029878
    24     0.026522
    25     0.085335
    26    -0.110307
    27    -0.432387
    28     0.805888
    29     0.112736
    30    -0.074671
    31    -0.403427
    32     0.122595
    33     0.034841
    34    -0.316420
    35     0.076832
    36     0.816672
    37     1.000927
    38    -0.058441
    39    -0.068171
    40     0.123763
    41    -0.010646
    42    -0.030296
    43     0.027761
    44     0.026874
    45     0.034969
    46     0.027504
    47    -0.057246
    48     0.002547
    49    -0.037383
    50    -0.720659
    51    -0.034909
    52     0.004211
    53     0.056363
    54     0.323007
    55     0.360933
    56    -0.159407
    57     0.149619
    58    -1.075378
    59     0.439844
    60    -0.199574
    61     0.333310
    62     0.200324
    63     0.298629
    64    -0.020925
    65     0.074283
    66    -0.040087
    67    -0.182745
    68     0.144924
    69     0.082731
    70     0.214992
    71    -0.096912
    72     0.022428
    73    -0.000573
    74     0.000716
    75     0.007378
    76    -0.467579
    77     0.143125
    78    -1.579076
    79    -0.150036
    80     0.002020
    81     0.011391
    82    -0.002790
    83     0.020785
    84     0.011061
    85    -0.337705
    86     0.233739
    87     0.555562
    88    -2.526355
    89     0.090962
    90    -0.287141
    91     0.134513
    92    -0.046925
    93    -0.021273
    94    -0.098815
    95    -0.057065
    96     0.038304
    97    -0.000953
    98    -0.957898
    99    -1.073149
   100    -0.466002
   101     0.250322
   102    -0.185477
   103    -0.037394
   104    -0.635419
   105    -0.643894
   106    -1.517592
   107    -0.020796
   108     0.234050
   109     0.182300
   110    -0.007921
   111    -0.019390
   112     0.087941
   113    -0.009382
   114    -0.016211
   115    -0.027953
   116     0.008171
   117     0.006174
   118    -0.019405
   119     0.000998
   120    -0.011516
   121    -0.080183
   122     0.045874
   123     0.002533
   124    -0.029859
   125    -0.024500
   126     0.106702
   127     0.061245
   128    -0.056410
   129     0.037764
   130     0.046266
   131     0.082876
   132     0.061900
   133    -0.007814
   134     0.345031
   135     0.137656
   136    -0.017483
   137     0.009859
   138    -0.113168
   139     0.054694
   140    -0.005531
   141     0.177225
   142     0.036594
   143    -0.073053
   144     0.278728
   145    -0.003358
   146    -0.000214
   147     0.055333
   148     0.542001
   149     0.104201
   150    -0.396549
   151     1.147198
   152    -0.089549
   153    -0.129203
   154    -0.097886
   155     0.841532
   156     1.160319
   157     1.413182
   158    -1.098970
   159    -1.235638
   160    -6.187945
   161     0.238804
   162     0.067639
   163     0.772489
   164     0.001209
   165     0.077671
   166     0.110771
   167     0.067331
   168     0.065532
   169     0.191862
   170     2.060384
   171     2.117132
   172     0.054091
   173     0.118586
   174     1.403069
   175    -0.283765
   176     0.650881
   177     0.975871
   178     3.653427
   179     0.054184
   180     1.122766
   181     1.314443
   182    -0.477545
   183    -0.600148
   184    -0.465710
   185    -0.061132
   186     0.017909
   187    -0.488006
   188     0.207423
   189     0.081740
   190     0.137560
   191    -0.116947
   192     0.199795
   193     0.131676
   194    -0.584813
   195    -0.062092
   196    -0.247903
   197     0.669192
   198    -0.913400
   199    -0.873664
   200    -0.021559
   201     0.170628
   202     0.504911
   203     0.248204
   204     0.056660
   205    -0.364609
   206    -1.012350
   207    -0.565508
   208     0.058324
   209    -0.432722
   210    -0.170593
   211     0.151659
   212     0.002390
   213    -0.653252
   214    -1.040850
   215    -0.164291
   216    -0.822846
Sym=   129a
Ene=   -0.532393E-04
Spin= Alpha
Occup= 0.000014
     1     0.000476
     2     0.000518
     3    -0.003403
     4     0.323993
     5     0.583753
     6    -7.389687
     7    -0.000711
     8    -0.002914
     9    -0.052054
    10    -0.055429
    11    -0.036206
    12    -0.588873
    13    -1.885019
    14     0.041095
    15     0.390355
    16     0.579624
    17    -0.001393
    18    -0.197935
    19    -0.151984
    20     0.005899
    21     0.065610
    22     0.086268
    23     0.036735
    24     0.004340
    25     0.046838
    26     0.841701
    27     0.558312
    28     1.141754
    29    -0.149703
    30     0.026798
    31     0.224080
    32    -0.003894
    33    -0.117281
    34    -5.143374
    35    -0.074444
    36     0.012156
    37    -0.017845
    38     0.010581
    39     0.081649
    40     0.041353
    41    -0.007663
    42     0.049439
    43     0.051550
    44    -0.024317
    45    -0.191991
    46     0.047303
    47    -0.009247
    48     0.005303
    49     0.267865
    50    -1.041890
    51     0.039391
    52     0.098513
    53     0.249943
    54    -0.014230
    55    -0.112762
    56     0.378157
    57     0.059681
    58     0.231212
    59     0.380758
    60    -0.037944
    61    -0.004434
    62    -0.074383
    63     0.046489
    64     0.002337
    65     0.006864
    66     0.090202
    67    -0.031078
    68    -0.017058
    69    -0.122187
    70    -0.011444
    71     0.043787
    72    -0.266863
    73    -0.011821
    74     0.044245
    75     0.161412
    76    -0.991396
    77     0.389223
    78     5.525573
    79     0.191050
    80     0.011323
    81     0.087497
    82    -0.178415
    83     0.083564
    84     0.657514
    85    -1.596137
    86    -0.064048
    87    -0.490659
    88     1.786099
    89     0.000121
    90    -0.002870
    91     0.047547
    92    -0.047095
    93     0.095067
    94     0.127785
    95     0.078288
    96    -0.010411
    97    -0.081595
    98    -1.134469
    99    -0.431629
   100    -2.126464
   101     0.343701
   102     0.019055
   103     0.148327
   104     0.390865
   105     0.084714
   106     1.128082
   107    -0.154099
   108    -0.023907
   109    -0.089963
   110     0.097726
   111     0.080036
   112     0.277060
   113    -0.095958
   114     0.160741
   115     0.170911
   116    -0.040105
   117    -0.359707
   118    -0.238487
   119    -0.189776
   120     0.036810
   121    -0.145317
   122     0.279637
   123    -0.076721
   124     0.015674
   125     0.579018
   126     0.044742
   127     0.414814
   128     1.033296
   129     0.225765
   130     0.052797
   131     1.098384
   132     0.174356
   133    -0.480954
   134    -0.069776
   135     0.120806
   136    -0.055244
   137     0.148650
   138    -0.109467
   139     0.221482
   140    -0.427843
   141     0.068042
   142    -0.187995
   143    -0.112324
   144     0.320477
   145    -0.000389
   146     0.000946
   147    -0.010994
   148     0.331860
   149    -0.235291
   150     2.762031
   151     0.355239
   152     0.001347
   153     0.017445
   154    -0.044404
   155    -0.006060
   156    -0.105797
   157    -0.279201
   158    -0.013774
   159    -0.045291
   160    -2.682286
   161    -0.015660
   162    -0.030862
   163     0.172239
   164     0.018781
   165     0.024053
   166     0.021664
   167     0.000932
   168     0.003876
   169     0.037362
   170     0.622155
   171     0.592961
   172     0.659429
   173    -0.011999
   174    -0.025913
   175    -0.211267
   176     0.621206
   177     0.627689
   178     1.714095
   179     0.006929
   180     0.030673
   181     0.141201
   182     0.000387
   183     0.032180
   184    -0.057866
   185     0.004218
   186     0.015975
   187    -0.034351
   188     0.000399
   189     0.007046
   190    -0.041485
   191    -0.002603
   192     0.015007
   193     0.095443
   194    -0.313302
   195    -0.004808
   196     0.040824
   197    -0.163251
   198    -0.018277
   199    -0.114087
   200    -0.153859
   201     0.002669
   202    -0.206343
   203     0.169257
   204    -0.083673
   205     0.053748
   206    -0.186226
   207     0.021280
   208     0.001155
   209     0.007979
   210     0.004797
   211    -0.091166
   212     0.025950
   213    -0.115028
   214     0.000781
   215     0.007053
   216    -0.200741
Sym=   130a
Ene=   -0.393222E-06
Spin= Alpha
Occup= 0.000000
     1    -0.004780
     2     0.009680
     3    -0.029526
     4     0.439267
     5    -0.308566
     6     3.071778
     7     0.417459
     8     0.015435
     9     0.244577
    10     0.002585
    11     0.219780
    12     1.632725
    13     0.030550
    14    -0.326814
    15     1.529750
    16     0.777983
    17     0.033974
    18    -0.612555
    19    -0.156545
    20    -0.175069
    21     0.336454
    22    -0.045610
    23    -0.165912
    24    -0.088406
    25    -0.106467
    26     2.043801
    27    -1.015212
    28     1.372168
    29     1.002567
    30     0.501065
    31     0.500007
    32     0.313425
    33     0.191348
    34     3.601423
    35    -0.008515
    36     0.129543
    37     0.765891
    38    -0.031146
    39    -0.515012
    40    -0.096774
    41    -0.079674
    42    -0.180361
    43     0.003651
    44    -0.012610
    45    -0.123949
    46     0.045062
    47    -0.024208
    48    -0.000016
    49    -1.042610
    50     0.444045
    51     0.098766
    52    -0.540440
    53    -0.055194
    54    -0.058538
    55     0.461640
    56    -0.136731
    57     0.015590
    58    -0.411024
    59    -0.454724
    60     0.099613
    61    -0.179383
    62     0.990781
    63    -0.203529
    64    -0.143682
    65    -0.108175
    66    -0.545809
    67    -0.451991
    68    -0.085863
    69    -0.003382
    70    -0.226273
    71    -0.379245
    72    -1.125286
    73     0.063497
    74    -0.123366
    75     0.433265
    76    -0.374080
    77    -0.167086
    78    -3.054765
    79    -0.664048
    80    -0.123867
    81    -2.374753
    82     0.025715
    83    -0.652791
    84   -15.408265
    85    -0.133200
    86    -0.455438
    87    -6.423208
    88    -1.345745
    89     0.223230
    90     1.825445
    91    -0.000611
    92     0.137233
    93     0.382601
    94     0.382293
    95    -0.361181
    96     0.074405
    97     0.176134
    98     0.699524
    99    -0.551496
   100    -0.620425
   101     2.020893
   102    -0.421731
   103    -1.154287
   104    -0.049117
   105     0.154948
   106    -0.606705
   107    -0.098782
   108     0.121973
   109     0.032870
   110     0.157014
   111     4.715076
   112    -0.081327
   113     0.156411
   114     2.056154
   115     0.032567
   116     0.108883
   117     1.965743
   118    -0.033925
   119    -0.017789
   120     0.613766
   121     9.012924
   122    -0.442992
   123     0.165155
   124     4.097154
   125    -0.175501
   126     0.230621
   127     3.729686
   128    -0.075976
   129    -0.006349
   130     0.331923
   131     0.163302
   132     0.251307
   133     0.422597
   134     0.426851
   135     0.174831
   136    -0.419845
   137     0.069601
   138    -0.842267
   139     0.047376
   140     0.205128
   141    -0.013344
   142     0.210808
   143    -0.875744
   144    -0.350451
   145    -0.000343
   146     0.000746
   147    -0.005079
   148    -0.183376
   149    -0.041416
   150    -1.680520
   151    -0.426654
   152     0.003031
   153    -0.038972
   154     0.003580
   155    -0.001546
   156     0.178647
   157     0.239974
   158    -0.088404
   159    -0.719822
   160     2.401452
   161     0.030641
   162    -0.032327
   163    -0.028288
   164    -0.022165
   165    -0.044331
   166    -0.028896
   167     0.011929
   168    -0.018471
   169     0.052925
   170    -0.386531
   171    -0.264930
   172    -0.411069
   173    -0.059067
   174     0.096872
   175    -0.314680
   176    -0.648897
   177    -0.526610
   178    -1.518508
   179    -0.017874
   180     0.010572
   181     0.801073
   182    -0.000883
   183    -0.091522
   184     0.016556
   185     0.005866
   186    -0.044031
   187    -0.017514
   188     0.003950
   189     0.041715
   190     0.019292
   191    -0.001577
   192     0.038545
   193    -0.089326
   194     0.149254
   195     0.001855
   196    -0.029749
   197     0.076473
   198     0.008728
   199    -0.406595
   200    -0.027475
   201     0.019887
   202     0.060426
   203     0.144695
   204     0.018325
   205     0.146358
   206     0.010571
   207    -0.042016
   208     0.005409
   209    -0.011020
   210     0.025793
   211     0.039750
   212     0.061382
   213     0.037667
   214    -0.048074
   215     0.027418
   216     0.112583
Sym=   131a
Ene=   -0.863432E-03
Spin= Alpha
Occup= 0.000044
     1     0.000971
     2    -0.000387
     3    -0.001668
     4     0.001074
     5     0.004026
     6    -0.029265
     7    -0.002201
     8    -1.152557
     9     1.554560
    10    -0.001132
    11    -1.138098
    12     1.535944
    13    -0.008763
    14    -1.000842
    15     1.356333
    16    -0.009926
    17     0.302682
    18    -0.409625
    19     0.003084
    20    -0.002406
    21    -0.000057
    22     0.000680
    23    -0.031264
    24     0.095087
    25    -0.125241
    26    -0.006023
    27     0.009941
    28     0.002174
    29    -0.089756
    30    -0.246234
    31     0.332623
    32     0.000805
    33     0.000202
    34    -0.021571
    35     0.073069
    36     0.003271
    37    -0.005653
    38    -0.319768
    39     0.429447
    40    -0.000500
    41    -0.141369
    42     0.191705
    43     0.001541
    44    -0.215829
    45     0.287735
    46    -0.000788
    47     0.029910
    48     0.938166
    49    -1.258912
    50    -0.003726
    51     0.416366
    52    -0.567955
    53    -0.003972
    54     0.606652
    55    -0.812828
    56     0.006614
    57     0.003396
    58     0.001981
    59    -0.286501
    60    -0.000814
    61    -0.136730
    62     0.020006
    63     0.212892
    64    -0.004898
    65     0.044866
    66     0.024994
    67    -0.000580
    68    -0.059321
    69    -0.042892
    70     0.099943
    71    -0.000942
    72     0.025439
    73    -0.000020
    74    -0.000172
    75     0.000201
    76     0.000167
    77    -0.004927
    78     0.020043
    79    -0.000151
    80     0.046761
    81    -0.065283
    82    -0.000764
    83     0.098963
    84    -0.136098
    85    -0.008635
    86     0.353932
    87    -0.494220
    88     0.006254
    89    -0.233836
    90     0.320915
    91    -0.002147
    92     0.000030
    93     0.000409
    94    -0.000238
    95     0.009937
    96     0.078100
    97    -0.105094
    98    -0.001106
    99    -0.004379
   100    -0.004104
   101    -0.046653
   102    -0.456922
   103     0.614966
   104     0.000057
   105     0.002451
   106     0.002269
   107     0.078856
   108     0.113769
   109    -0.156780
   110    -0.079480
   111     0.108250
   112     0.000402
   113    -0.035581
   114     0.048663
   115     0.000949
   116    -0.005925
   117     0.006698
   118    -0.000216
   119    -0.002707
   120    -0.147170
   121     0.207939
   122     0.003074
   123    -0.067765
   124     0.089577
   125     0.003675
   126     0.007816
   127    -0.008669
   128     0.001813
   129     0.038124
   130    -0.000791
   131    -0.353872
   132    -0.000480
   133    -0.180919
   134     0.009514
   135     0.260898
   136    -0.002304
   137     0.059990
   138     0.021370
   139     0.001222
   140    -0.082041
   141    -0.013355
   142     0.135647
   143     0.012994
   144     0.008453
   145    -0.000007
   146    -0.000008
   147     0.000066
   148     0.001620
   149    -0.000412
   150     0.013856
   151    -0.000615
   152    -0.021585
   153     0.028265
   154    -0.000117
   155     0.058944
   156    -0.084255
   157    -0.000502
   158     0.183115
   159    -0.235454
   160    -0.017508
   161    -0.038299
   162     0.039389
   163     0.000076
   164    -0.000445
   165     0.000878
   166     0.000221
   167    -0.000339
   168    -0.025108
   169     0.034524
   170     0.007669
   171    -0.000944
   172     0.002489
   173     0.001396
   174     0.125514
   175    -0.168922
   176     0.005020
   177     0.004467
   178     0.013546
   179    -0.015941
   180     0.046515
   181    -0.065190
   182    -0.043201
   183     0.058065
   184    -0.000317
   185    -0.019481
   186     0.025907
   187     0.001651
   188    -0.012271
   189     0.016414
   190    -0.001597
   191    -0.000666
   192    -0.117881
   193     0.158343
   194    -0.002239
   195    -0.052223
   196     0.070971
   197    -0.006794
   198    -0.096523
   199     0.128191
   200     0.004917
   201     0.002341
   202    -0.001196
   203     0.082836
   204     0.003707
   205     0.033912
   206     0.003784
   207    -0.060643
   208     0.004113
   209    -0.010924
   210    -0.004026
   211    -0.003792
   212     0.015110
   213    -0.003359
   214    -0.024148
   215     0.003957
   216    -0.003030
Sym=   132a
Ene=   -0.361198E-05
Spin= Alpha
Occup= 0.000000
     1     0.000458
     2    -0.000843
     3    -0.005951
     4    -0.167160
     5    -0.266580
     6    -0.359171
     7    -0.406052
     8     0.033264
     9    -0.077394
    10    -0.028205
    11     0.040410
    12    -0.200307
    13     0.399723
    14     0.232121
    15    -0.475065
    16     0.945792
    17    -0.194928
    18     0.621588
    19     0.092072
    20    -0.209817
    21     0.178222
    22    -0.172798
    23    -0.040574
    24     0.141288
    25    -0.296413
    26     0.408708
    27    -1.337033
    28     0.211863
    29     0.184581
    30    -0.772516
    31     1.698185
    32    -0.511937
    33    -0.007800
    34    -0.772920
    35    -0.059721
    36     0.568980
    37    -0.982761
    38    -0.061037
    39     0.167171
    40     0.047898
    41    -0.033229
    42     0.077709
    43    -0.004111
    44    -0.015037
    45     0.042156
    46     0.023468
    47     0.004530
    48    -0.110500
    49     0.243915
    50     0.361389
    51    -0.042532
    52     0.104791
    53     0.196690
    54    -0.325146
    55     0.632390
    56    -0.045072
    57    -0.005364
    58    -0.796618
    59    -1.079782
    60     0.056465
    61    -0.622950
    62     0.630337
    63     0.463987
    64    -0.032644
    65     0.126477
    66    -0.058245
    67    -0.196531
    68    -0.282411
    69     0.061390
    70     0.274377
    71    -0.072999
    72    -0.377908
    73    -0.000768
    74     0.002088
    75    -0.017402
    76    -0.120144
    77     0.103510
    78     1.886475
    79     0.786640
    80     0.009342
    81    -0.030979
    82    -0.008552
    83     0.210455
    84    -0.507178
    85     0.429288
    86     0.208207
    87    -0.267955
    88     1.154166
    89     0.049848
    90    -0.277980
    91     0.108882
    92    -0.034307
    93    -0.000520
    94    -0.098657
    95     0.012780
    96    -0.024557
    97    -0.003032
    98    -0.240390
    99    -0.512292
   100     0.472186
   101    -0.073599
   102     0.143209
   103    -0.019132
   104     0.029749
   105    -0.207337
   106     0.594001
   107     0.016831
   108     0.238362
   109    -0.453957
   110    -0.026461
   111     0.088502
   112     0.119426
   113    -0.012547
   114     0.040855
   115    -0.033652
   116     0.026110
   117    -0.072136
   118     0.021193
   119    -0.005676
   120    -0.014609
   121     0.055612
   122     0.312676
   123    -0.004800
   124     0.023918
   125     0.067354
   126     0.184862
   127    -0.341237
   128    -0.118612
   129     0.011456
   130    -0.116886
   131    -0.284084
   132    -0.013414
   133    -0.058553
   134     0.223027
   135     0.073849
   136     0.006397
   137    -0.009595
   138     0.039585
   139    -0.041308
   140    -0.026539
   141     0.063532
   142    -0.017586
   143     0.029576
   144    -0.004207
   145     0.006452
   146    -0.011273
   147     0.044770
   148    -0.003918
   149     0.061468
   150    -0.412672
   151    -0.193955
   152     0.337350
   153    -0.781706
   154     0.074950
   155    -2.114846
   156     4.939159
   157    -0.480158
   158    -1.517523
   159     3.383061
   160    -0.047866
   161     0.342739
   162    -0.952772
   163     0.020086
   164     4.422549
   165    -4.340944
   166     0.120851
   167     0.679394
   168     0.894680
   169    -1.315787
   170   -19.775209
   171    19.872043
   172    -0.269563
   173    -3.087320
   174    -4.042356
   175     6.012491
   176     1.023677
   177    -0.781240
   178     0.063820
   179     0.152633
   180     0.332817
   181    -0.486057
   182     0.671628
   183    -1.556532
   184     0.082795
   185     0.298951
   186    -0.700543
   187     0.066914
   188     0.296807
   189    -0.695865
   190     0.080536
   191     0.004204
   192     1.484659
   193    -3.445492
   194     0.161351
   195     0.664728
   196    -1.535576
   197     0.180533
   198     0.643017
   199    -1.440518
   200     0.118550
   201    -0.008566
   202     0.380826
   203    -2.556237
   204    -3.584295
   205    -2.430073
   206   -12.562415
   207     1.674188
   208     0.581619
   209     0.734872
   210     1.296331
   211     3.721895
   212    -1.087432
   213     0.028595
   214     1.639273
   215     1.262725
   216    12.602431
Sym=   133a
Ene=   -0.130314E-03
Spin= Alpha
Occup= 0.000043
     1     0.000347
     2     0.003201
     3     0.001230
     4    -0.045207
     5     0.100434
     6     0.159896
     7    -0.079326
     8     0.015088
     9    -0.015404
    10    -0.007900
    11     0.031957
    12    -0.080645
    13     0.024021
    14    -0.552862
    15     0.189907
    16    -0.262390
    17     0.103131
    18    -0.013161
    19     0.052254
    20    -0.040649
    21     0.042204
    22    -0.006643
    23    -0.049710
    24     0.000600
    25    -0.003977
    26    -0.350842
    27     0.399222
    28    -0.141906
    29    -0.519276
    30    -0.362884
    31     0.073594
    32    -0.058566
    33     0.087677
    34     0.117326
    35    -0.114383
    36    -0.008427
    37     0.064815
    38    -0.005579
    39    -0.226914
    40     0.034886
    41     0.180051
    42     0.194244
    43     0.065050
    44     0.053690
    45     0.037693
    46    -0.057753
    47     0.121013
    48     0.024201
    49    -0.181734
    50     0.365271
    51     0.207631
    52     0.201355
    53     0.125507
    54     0.067089
    55     0.018783
    56    -0.142092
    57     0.201246
    58    -0.004566
    59    -0.112866
    60    -0.113037
    61     0.093959
    62     0.084383
    63     0.159025
    64     0.078731
    65    -0.059096
    66     0.019950
    67     0.085876
    68    -0.069425
    69    -0.228731
    70     0.077588
    71     0.116687
    72     0.191752
    73     0.000322
    74     0.004446
    75    -0.000166
    76     0.018378
    77     0.146387
    78    -0.397343
    79     0.174597
    80    -0.031357
    81     0.000678
    82     0.023825
    83    -0.109169
    84    -0.041507
    85     0.370389
    86     0.508631
    87    -0.133708
    88    -0.155095
    89    -0.147384
    90     0.058271
    91     0.043652
    92     0.024390
    93    -0.015462
    94     0.007217
    95     0.041260
    96     0.023485
    97    -0.010109
    98     0.358266
    99    -0.104777
   100     0.196217
   101     0.385457
   102    -0.298325
   103     0.036609
   104    -0.027414
   105    -0.070966
   106    -0.118202
   107     0.027644
   108     0.141860
   109    -0.019150
   110     0.051362
   111     0.112889
   112    -0.027260
   113    -0.127598
   114    -0.160998
   115     0.116151
   116    -0.060043
   117     0.032985
   118    -0.113114
   119     0.172107
   120     0.013672
   121     0.233511
   122    -0.136267
   123    -0.171367
   124    -0.209570
   125     0.168333
   126    -0.193967
   127     0.069020
   128    -0.263974
   129     0.335784
   130    -0.024176
   131     0.008992
   132    -0.084919
   133     0.189996
   134    -0.070140
   135     0.072568
   136     0.068318
   137    -0.167523
   138    -0.030409
   139     0.053472
   140    -0.270471
   141     0.171108
   142     0.115043
   143    -0.105219
   144    -0.209359
   145     0.000048
   146     0.000164
   147     0.000364
   148     0.015464
   149     0.001584
   150    -0.207015
   151    -0.074196
   152     0.003174
   153    -0.002482
   154     0.005012
   155    -0.040125
   156     0.045933
   157     0.076014
   158     0.061438
   159    -0.092944
   160    -0.054554
   161     0.064267
   162    -0.023183
   163     0.034035
   164     0.002593
   165     0.000413
   166     0.004905
   167     0.001890
   168     0.002805
   169    -0.007603
   170     0.021212
   171     0.036634
   172     0.018628
   173    -0.017258
   174     0.007485
   175     0.021897
   176     0.053313
   177     0.066203
   178     0.017533
   179    -0.005500
   180    -0.102807
   181     0.058037
   182     0.005526
   183    -0.012965
   184     0.005268
   185     0.005604
   186     0.000156
   187     0.006906
   188     0.000917
   189     0.000584
   190     0.002257
   191    -0.001244
   192     0.027794
   193    -0.002461
   194     0.018791
   195    -0.007661
   196    -0.032791
   197     0.027716
   198     0.039381
   199     0.019069
   200     0.009605
   201     0.013863
   202     0.001267
   203    -0.022439
   204    -0.009307
   205    -0.014294
   206    -0.008538
   207    -0.000170
   208     0.012718
   209     0.004208
   210     0.008439
   211    -0.002058
   212    -0.003317
   213     0.000718
   214     0.001002
   215    -0.004604
   216    -0.008629
Sym=   134a
Ene=   -0.374082E-04
Spin= Alpha
Occup= 0.000009
     1    -0.016492
     2     0.039421
     3     0.094859
     4    -0.203452
     5     0.064990
     6     1.305245
     7     0.295726
     8     0.005920
     9    -0.001099
    10     0.006826
    11    -0.291434
    12    -0.101880
    13    -0.696470
    14     1.652765
    15     0.335279
    16    -4.500080
    17    -0.482841
    18    -0.094047
    19    -0.151450
    20     0.165874
    21     0.054698
    22    -0.039669
    23     0.052523
    24    -0.075580
    25    -0.017000
    26    -0.463282
    27    -0.215610
    28     1.795723
    29    -0.075884
    30    -0.636119
    31    -0.140184
    32     0.345592
    33     0.085306
    34    -1.179205
    35     0.079414
    36    -0.685562
    37    -0.134443
    38    -0.285215
    39     0.082224
    40    -0.468345
    41     0.204405
    42    -0.116655
    43     0.014957
    44     0.351541
    45     0.072130
    46    -0.013084
    47    -0.028630
    48    -0.236470
    49    -0.000818
    50    -0.488442
    51    -0.031582
    52    -0.101402
    53     0.385820
    54    -0.649951
    55    -0.110205
    56    -0.067507
    57     0.109041
    58    -0.551927
    59    -0.002479
    60    -0.287202
    61     0.052565
    62     0.046210
    63    -0.124058
    64     0.031753
    65     0.065524
    66     0.236018
    67    -0.285542
    68     0.136487
    69     0.450368
    70     0.791066
    71    -0.328834
    72    -0.176110
    73     0.013919
    74    -0.033622
    75    -0.028852
    76    -0.302494
    77    -0.225777
    78    -0.126065
    79    -0.415183
    80    -0.043363
    81    -0.006720
    82    -0.070333
    83     0.118887
    84     0.013597
    85    -0.900667
    86    -1.877103
    87    -0.317079
    88    -2.602547
    89     0.431740
    90     0.076919
    91    -0.012423
    92    -0.113847
    93    -0.055434
    94     0.034940
    95    -0.004677
    96    -0.115685
    97    -0.012226
    98    -0.572844
    99    -0.770045
   100    -2.388077
   101     0.021726
   102    -0.046172
   103    -0.037982
   104    -0.592268
   105    -0.557963
   106    -1.798842
   107    -0.014544
   108    -0.530780
   109    -0.090189
   110     0.249683
   111    -0.053198
   112    -0.267545
   113    -0.100761
   114     0.111721
   115     0.161045
   116    -0.217255
   117    -0.032470
   118     0.077517
   119     0.028103
   120     0.683065
   121     0.019248
   122    -0.308940
   123     0.098487
   124     0.127195
   125     0.462988
   126     0.205093
   127     0.033525
   128     0.091385
   129     0.056451
   130     0.567724
   131    -0.012962
   132     0.357655
   133    -0.062304
   134     0.275910
   135    -0.195212
   136     0.009088
   137    -0.131424
   138    -0.231406
   139     0.340071
   140     0.191266
   141    -0.252837
   142     0.541455
   143     0.282718
   144     0.460052
   145     0.000202
   146    -0.001185
   147     0.002424
   148     0.434504
   149    -0.359182
   150     0.528940
   151     1.080762
   152    -0.020880
   153    -0.001353
   154     0.020434
   155     0.253705
   156     0.021013
   157    -0.148865
   158     0.265617
   159     0.080918
   160    -2.122519
   161    -0.144653
   162    -0.039165
   163     0.003438
   164     0.047516
   165     0.034360
   166     0.088036
   167    -0.002445
   168    -0.022039
   169    -0.002448
   170     0.826279
   171     0.840895
   172     0.528304
   173     0.009113
   174     0.033278
   175     0.007353
   176     0.430827
   177     0.589776
   178     1.135774
   179    -0.056959
   180    -0.148351
   181    -0.050326
   182    -0.043585
   183    -0.003075
   184     0.059864
   185    -0.016158
   186     0.000608
   187     0.006842
   188     0.020705
   189    -0.000771
   190     0.030573
   191    -0.000247
   192    -0.055770
   193    -0.012852
   194    -0.001181
   195    -0.020641
   196    -0.007116
   197     0.111261
   198     0.136204
   199     0.035541
   200    -0.040469
   201     0.034639
   202    -0.044028
   203    -0.019429
   204    -0.080317
   205    -0.013383
   206    -0.249868
   207    -0.148234
   208    -0.010260
   209    -0.044850
   210     0.002204
   211    -0.124257
   212    -0.001826
   213    -0.156005
   214    -0.071762
   215     0.004498
   216    -0.231878
Sym=   135a
Ene=   -0.135317E-03
Spin= Alpha
Occup= 0.000044
     1    -0.000011
     2    -0.001173
     3     0.000677
     4     0.006531
     5    -0.048683
     6     0.427765
     7     0.082550
     8     0.018049
     9     0.014412
    10    -0.003410
    11     0.065342
    12     0.055001
    13     0.024637
    14    -0.430064
    15    -0.374383
    16    -0.178633
    17     0.080809
    18     0.077077
    19     0.005545
    20    -0.053498
    21     0.057317
    22     0.008031
    23     0.013015
    24     0.000009
    25     0.000370
    26    -0.596966
    27     0.609224
    28    -0.096811
    29     0.109444
    30    -0.331518
    31    -0.204487
    32    -0.100172
    33     0.142778
    34     0.170095
    35     0.002906
    36    -0.006992
    37     0.001536
    38     0.180688
    39     0.240890
    40     0.017927
    41    -0.103385
    42    -0.182375
    43     0.131184
    44     0.051008
    45     0.001754
    46    -0.118089
    47    -0.033296
    48     0.165896
    49     0.258527
    50     0.192128
    51    -0.106162
    52    -0.170181
    53     0.214006
    54     0.086689
    55     0.023615
    56    -0.225830
    57    -0.035570
    58     0.029782
    59     0.124344
    60    -0.115031
    61    -0.097205
    62    -0.074320
    63     0.146370
    64     0.003870
    65     0.070672
    66    -0.212798
    67     0.111119
    68     0.097101
    69    -0.060886
    70    -0.015628
    71     0.169080
    72     0.160168
    73     0.000289
    74     0.003236
    75     0.000925
    76    -0.017654
    77     0.116479
    78    -0.304048
    79    -0.047369
    80    -0.026954
    81    -0.018057
    82     0.010535
    83    -0.098855
    84    -0.042224
    85     0.153815
    86     0.404756
    87     0.346358
    88    -0.245114
    89    -0.103539
    90    -0.127951
    91    -0.022075
    92     0.042457
    93    -0.042643
    94    -0.002927
    95    -0.013124
    96     0.018514
    97     0.014187
    98     0.446911
    99    -0.389496
   100     0.101922
   101    -0.087660
   102    -0.312508
   103    -0.152108
   104    -0.004020
   105    -0.065244
   106    -0.148059
   107     0.002956
   108     0.117336
   109     0.069029
   110    -0.106014
   111    -0.135104
   112    -0.003398
   113     0.088127
   114     0.161637
   115     0.197845
   116    -0.064014
   117    -0.042339
   118    -0.187000
   119    -0.040390
   120    -0.179955
   121    -0.238622
   122    -0.051292
   123     0.129530
   124     0.193773
   125     0.333840
   126    -0.170373
   127    -0.135289
   128    -0.387387
   129    -0.061176
   130    -0.024736
   131     0.026872
   132    -0.091315
   133    -0.186068
   134     0.083959
   135     0.071222
   136    -0.011033
   137     0.171493
   138     0.171067
   139     0.081314
   140     0.250806
   141     0.045717
   142    -0.099195
   143    -0.135529
   144    -0.154806
   145     0.000198
   146     0.000766
   147     0.000650
   148    -0.005549
   149    -0.002210
   150    -0.160630
   151     0.002718
   152     0.000307
   153     0.005605
   154     0.004117
   155    -0.043147
   156    -0.033862
   157     0.022499
   158     0.077044
   159     0.012218
   160     0.123728
   161     0.046370
   162     0.048016
   163    -0.014813
   164     0.002946
   165    -0.001581
   166     0.003495
   167    -0.000010
   168     0.004126
   169     0.003187
   170    -0.015287
   171     0.019030
   172    -0.024738
   173     0.000765
   174     0.005948
   175    -0.010937
   176    -0.025825
   177    -0.011125
   178    -0.072544
   179     0.004390
   180    -0.070303
   181    -0.065305
   182     0.007202
   183     0.010271
   184     0.005559
   185     0.000403
   186     0.001079
   187     0.001539
   188    -0.000746
   189     0.002331
   190     0.002930
   191    -0.002617
   192     0.000006
   193     0.010657
   194     0.017210
   195     0.015988
   196     0.026804
   197     0.029276
   198     0.002562
   199     0.034131
   200    -0.007862
   201     0.004683
   202     0.007512
   203     0.016712
   204    -0.009776
   205     0.006255
   206     0.001930
   207     0.000464
   208    -0.004996
   209    -0.000365
   210     0.004877
   211     0.011974
   212    -0.000299
   213    -0.002667
   214     0.008689
   215    -0.003157
   216     0.006371
Sym=   136a
Ene=   -0.368959E-04
Spin= Alpha
Occup= 0.000009
     1    -0.000706
     2     0.001544
     3     0.012260
     4    -0.040098
     5    -0.005504
     6    -0.151654
     7    -0.117223
     8     0.047879
     9    -0.076577
    10     0.009985
    11     1.144954
    12    -1.718239
    13     0.067577
    14    -0.354752
    15     0.604484
    16     0.041295
    17     0.338206
    18    -0.419628
    19     0.133717
    20     0.041895
    21    -0.024448
    22     0.020911
    23     0.025943
    24     0.053247
    25    -0.121551
    26    -0.010792
    27    -0.116422
    28    -0.064731
    29    -0.101330
    30    -1.635215
    31     2.715350
    32    -0.053740
    33     0.006554
    34    -0.181756
    35     0.013947
    36     0.117893
    37    -0.181457
    38    -0.113630
    39     0.169976
    40    -0.006451
    41    -0.052684
    42     0.077129
    43     0.117266
    44    -0.491901
    45     0.767633
    46    -0.126332
    47     0.017832
    48    -0.179994
    49     0.244069
    50    -0.061521
    51    -0.078782
    52     0.106151
    53    -0.130699
    54     1.730052
    55    -2.366694
    56     0.082094
    57    -0.035635
    58     0.005046
    59    -0.743898
    60    -0.070784
    61    -1.521623
    62     0.080189
    63     0.397066
    64     0.061014
    65     0.428461
    66     0.006713
    67     0.099593
    68    -0.681003
    69     0.011969
    70     0.960513
    71     0.036091
    72    -0.027908
    73    -0.000131
    74     0.000265
    75    -0.001294
    76    -0.026296
    77     0.019828
    78     0.198036
    79     0.263739
    80     0.003999
    81    -0.016408
    82     0.000721
    83    -0.778283
    84     1.005206
    85     0.007233
    86     0.513652
    87    -0.687047
    88     0.168093
    89    -0.325336
    90     0.361827
    91     0.012793
    92     0.010691
    93    -0.021194
    94    -0.009407
    95     0.025281
    96     0.192909
    97    -0.276939
    98    -0.113825
    99     0.018421
   100    -0.012271
   101    -0.046196
   102    -1.185528
   103     1.759442
   104    -0.030008
   105     0.000907
   106     0.036196
   107     0.036051
   108    -0.238227
   109     0.344338
   110     0.019417
   111    -0.004693
   112     0.005389
   113     0.008235
   114    -0.000137
   115    -0.007437
   116    -0.082578
   117     0.097018
   118     0.006559
   119    -0.010670
   120    -0.126770
   121     0.195806
   122     0.005930
   123    -0.055482
   124     0.085560
   125    -0.053801
   126    -0.518812
   127     0.732759
   128     0.037322
   129    -0.012938
   130     0.001766
   131    -0.326625
   132     0.027233
   133    -0.342036
   134    -0.036226
   135     0.172579
   136    -0.026518
   137     0.091208
   138     0.003994
   139    -0.026895
   140    -0.153330
   141     0.017628
   142     0.202221
   143     0.003024
   144     0.043248
   145    -0.000224
   146     0.000720
   147     0.003271
   148     0.045643
   149    -0.030104
   150     0.004770
   151    -0.184560
   152    -0.027092
   153     0.037826
   154     0.000013
   155     0.027067
   156    -0.040590
   157    -0.009774
   158    -0.307647
   159     0.466939
   160    -0.115733
   161    -0.131466
   162     0.115122
   163    -0.002727
   164     0.020344
   165    -0.006320
   166     0.012961
   167     0.000366
   168    -0.026557
   169     0.028343
   170     0.141798
   171     0.050079
   172     0.101716
   173    -0.012069
   174     0.324157
   175    -0.456343
   176     0.128061
   177     0.024066
   178     0.117842
   179    -0.004431
   180     0.592589
   181    -0.794355
   182    -0.016186
   183     0.036968
   184    -0.007630
   185    -0.007100
   186     0.012240
   187    -0.033335
   188    -0.175259
   189     0.211592
   190     0.032808
   191    -0.011727
   192    -0.158994
   193     0.186267
   194     0.016146
   195    -0.068728
   196     0.091582
   197     0.040517
   198    -0.316043
   199     0.419597
   200    -0.054183
   201     0.005659
   202    -0.044130
   203     0.016432
   204     0.057620
   205     0.119163
   206     0.018527
   207     0.044389
   208     0.037332
   209    -0.048623
   210    -0.047011
   211    -0.075642
   212     0.053660
   213    -0.037531
   214    -0.105053
   215     0.042805
   216    -0.054417
Sym=   137a
Ene=   -0.142812E-02
Spin= Alpha
Occup= 0.000785
     1     0.000726
     2    -0.001654
     3     0.001044
     4     0.037703
     5    -0.068778
     6    -0.386472
     7     0.186089
     8     0.001566
     9    -0.000705
    10     0.012447
    11    -0.171849
    12     0.056158
    13     0.099021
    14     0.030023
    15     0.007799
    16     0.972540
    17     0.080655
    18    -0.034030
    19     0.280231
    20    -0.006180
    21     0.007473
    22    -0.014897
    23     0.002207
    24    -0.004879
    25     0.001779
    26     0.058149
    27     0.009701
    28     0.001335
    29    -0.019452
    30    -0.022755
    31     0.008619
    32    -0.060514
    33    -0.033967
    34     0.124583
    35    -0.019442
    36     0.136212
    37    -0.045376
    38     0.024451
    39    -0.008299
    40    -0.021345
    41     0.010902
    42    -0.003363
    43     0.001507
    44    -0.007011
    45     0.001940
    46     0.002943
    47     0.000789
    48     0.077646
    49    -0.021344
    50     0.191453
    51     0.024719
    52    -0.012456
    53    -0.016421
    54     0.077127
    55    -0.023027
    56    -0.023061
    57    -0.006325
    58    -0.064789
    59     0.012197
    60    -0.000336
    61     0.006044
    62     0.004077
    63    -0.036079
    64     0.002855
    65    -0.004898
    66     0.001998
    67    -0.008406
    68    -0.002582
    69    -0.006768
    70    -0.008309
    71     0.007337
    72    -0.027538
    73     0.000006
    74     0.000107
    75     0.000312
    76     0.008209
    77     0.053127
    78     0.411386
    79     0.403322
    80    -0.015605
    81     0.006980
    82     0.005191
    83     0.009802
    84    -0.008212
    85     0.182005
    86    -0.029098
    87     0.006917
    88     0.548937
    89    -0.171966
    90     0.053595
    91    -0.001745
    92     0.002884
    93     0.003067
    94    -0.001583
    95    -0.000434
    96    -0.004323
    97     0.000849
    98     0.022778
    99     0.003651
   100     0.110853
   101     0.013218
   102     0.028905
   103    -0.010966
   104     0.061436
   105     0.042851
   106     0.274763
   107    -0.000006
   108    -0.037367
   109     0.007493
   110     0.008146
   111    -0.002702
   112     0.003001
   113     0.004298
   114    -0.001481
   115    -0.002985
   116     0.000244
   117     0.000105
   118    -0.003778
   119     0.000711
   120     0.027300
   121    -0.008040
   122     0.003143
   123     0.005566
   124    -0.001448
   125    -0.012649
   126    -0.008579
   127     0.004238
   128    -0.027508
   129     0.002418
   130    -0.005731
   131     0.008145
   132    -0.002795
   133     0.003212
   134     0.002527
   135    -0.025930
   136    -0.001569
   137    -0.005344
   138    -0.002599
   139    -0.003223
   140     0.001228
   141    -0.001064
   142    -0.008603
   143    -0.001928
   144    -0.002760
   145    -0.019789
   146     0.009662
   147    -0.076767
   148    -0.010428
   149     0.511114
   150    -1.026726
   151    -0.579935
   152     0.436394
   153    -0.149421
   154     0.108874
   155    -0.265323
   156     0.089988
   157    -0.023272
   158    -0.223040
   159     0.060676
   160     0.239581
   161     0.335388
   162    -0.101351
   163     0.364437
   164     0.024253
   165     0.018532
   166     0.021760
   167    -0.005936
   168    -0.005609
   169     0.001770
   170    -0.169715
   171     0.199615
   172     0.220763
   173     0.154591
   174    -0.198179
   175     0.068875
   176    -0.294303
   177     0.120478
   178     0.168129
   179     0.188363
   180    -0.095300
   181     0.037453
   182    -0.055159
   183    -0.025595
   184     0.037181
   185     0.018052
   186     0.051068
   187    -0.049732
   188     0.041903
   189    -0.014276
   190    -0.011425
   191     0.017571
   192    -0.376837
   193    -0.090942
   194     0.164544
   195     0.043006
   196     0.280139
   197    -0.148217
   198     0.130903
   199    -0.043579
   200    -0.079764
   201     0.032107
   202    -0.039883
   203    -0.022979
   204    -0.024486
   205    -0.014807
   206    -0.036188
   207     0.065965
   208    -0.020302
   209     0.008172
   210    -0.075305
   211     0.019223
   212     0.035874
   213    -0.002586
   214    -0.037786
   215     0.100468
   216    -0.071754
Sym=   138a
Ene=   -0.164441E-04
Spin= Alpha
Occup= 0.000003
     1     0.000632
     2    -0.004538
     3     0.051290
     4    -0.507085
     5     0.066639
     6    -1.101198
     7    -0.983881
     8     0.046456
     9    -0.051904
    10    -0.032492
    11     0.285002
    12    -0.950873
    13     2.011378
    14    -0.131636
    15     0.141253
    16     0.110578
    17     0.143049
    18    -0.398979
    19     0.349603
    20     0.052066
    21    -0.045160
    22    -0.053164
    23     0.035008
    24    -0.048870
    25    -0.030603
    26    -1.285021
    27    -0.817162
    28    -0.814265
    29    -0.035635
    30     0.349811
    31     0.147546
    32    -0.386489
    33    -0.491809
    34    -2.882728
    35    -0.002632
    36    -0.956019
    37    -0.625082
    38    -0.072854
    39     0.110782
    40    -0.162017
    41    -0.028292
    42     0.057391
    43     0.063465
    44     0.018660
    45     0.019656
    46     0.032455
    47    -0.004359
    48    -0.134529
    49     0.108381
    50     2.376115
    51    -0.045559
    52     0.041351
    53    -0.219088
    54    -0.062280
    55    -1.057307
    56    -0.140853
    57    -0.185542
    58    -0.555296
    59    -0.206881
    60     0.157644
    61    -0.261513
    62     0.167661
    63    -0.199957
    64    -0.083335
    65    -0.031293
    66    -0.012886
    67     0.169322
    68    -0.123444
    69     0.197120
    70    -0.096386
    71     0.000873
    72     0.500938
    73    -0.001150
    74     0.001975
    75    -0.013169
    76    -0.095430
    77     0.712631
    78     3.569855
    79     1.784678
    80     0.021499
    81    -0.002993
    82     0.041754
    83     0.016320
    84     0.363146
    85     2.396642
    86    -0.240284
    87    -0.586707
    88     1.602871
    89     0.033165
    90     0.391165
    91     0.215399
    92     0.000677
    93    -0.004037
    94    -0.130762
    95     0.053780
    96     0.005819
    97    -0.037211
    98    -0.376983
    99    -0.302838
   100     1.364673
   101    -0.219712
   102    -0.025578
   103     0.328207
   104    -0.352787
   105    -0.273677
   106     0.508745
   107    -0.008891
   108    -0.245891
   109     0.070355
   110    -0.018600
   111     0.007170
   112     0.108708
   113    -0.013627
   114     0.002080
   115    -0.017013
   116    -0.029780
   117     0.025013
   118    -0.039750
   119     0.014385
   120    -0.154256
   121     0.081063
   122     0.098806
   123    -0.066987
   124     0.041113
   125    -0.163247
   126    -0.154945
   127     0.253127
   128    -0.121094
   129    -0.057015
   130    -0.241994
   131    -0.004153
   132    -0.041426
   133    -0.022729
   134     0.101092
   135    -0.048657
   136     0.031329
   137    -0.011247
   138     0.082776
   139    -0.002386
   140    -0.004514
   141     0.062833
   142    -0.009547
   143     0.068597
   144     0.162350
   145    -0.001053
   146    -0.002516
   147     0.103464
   148     0.221931
   149    -0.017903
   150    -1.655481
   151     0.085442
   152     0.135432
   153     0.107568
   154     0.155766
   155    -1.659886
   156    -0.730302
   157    -0.323469
   158     1.903678
   159     0.942465
   160    -0.864435
   161    -0.661829
   162    -0.116224
   163    -0.319991
   164    -0.087247
   165     0.158319
   166     0.412528
   167     0.153044
   168     0.071914
   169     0.009663
   170     1.642264
   171     1.130028
   172    -1.435753
   173     0.850297
   174    -0.338481
   175     0.831965
   176     0.599723
   177     0.833148
   178     0.578877
   179     0.347300
   180    -0.354153
   181    -0.975547
   182     0.314620
   183     0.292169
   184    -0.094280
   185     0.369031
   186     0.461943
   187     0.255089
   188     0.298573
   189    -0.417036
   190     0.416456
   191    -0.090555
   192     0.160436
   193     0.085853
   194     1.177539
   195    -0.141916
   196    -0.268027
   197     0.023763
   198     0.087667
   199     1.288964
   200    -0.083033
   201    -0.045846
   202     1.343405
   203    -0.602368
   204    -0.069313
   205    -0.268658
   206    -0.542873
   207     0.238850
   208     0.087710
   209    -0.086756
   210    -0.704847
   211     0.020896
   212    -0.364333
   213    -0.128286
   214     0.163152
   215    -0.692998
   216    -0.723596
Sym=   139a
Ene=   -0.164021E-04
Spin= Alpha
Occup= 0.000003
     1    -0.001309
     2     0.008407
     3    -0.074753
     4     0.937967
     5     0.037211
     6     0.703961
     7     1.841404
     8    -0.095715
     9    -0.054259
    10     0.081704
    11    -1.189249
    12    -0.800114
    13    -1.851709
    14     0.688881
    15     0.196863
    16     0.640841
    17    -0.670149
    18    -0.164348
    19    -0.821119
    20     0.002615
    21     0.036770
    22     0.221098
    23     0.077278
    24    -0.153069
    25    -0.168368
    26     2.087652
    27     1.908392
    28     1.034289
    29    -0.345912
    30     0.843245
    31     1.046300
    32     0.643808
    33     0.687803
    34     4.037998
    35     0.021228
    36    -0.278183
    37    -0.773049
    38     0.218430
    39     0.156946
    40     0.031997
    41     0.088663
    42     0.055242
    43    -0.072422
    44     0.011151
    45     0.018456
    46    -0.070703
    47     0.031207
    48     0.184329
    49     0.146926
    50    -2.916559
    51     0.085809
    52     0.082737
    53     0.176379
    54    -1.006016
    55    -0.870653
    56     0.155602
    57    -0.106652
    58     1.028885
    59    -0.929836
    60    -0.043178
    61    -0.612787
    62    -0.587713
    63    -0.823641
    64     0.006990
    65    -0.263938
    66     0.166778
    67    -0.123080
    68    -0.275323
    69    -0.373084
    70    -0.586947
    71     0.161164
    72    -0.651294
    73    -0.000096
    74     0.000994
    75    -0.006252
    76     0.491375
    77    -0.492234
    78    -5.927323
    79    -4.140096
    80    -0.033765
    81    -0.014100
    82    -0.053752
    83     0.203334
    84     0.193621
    85    -2.924771
    86    -0.671056
    87    -0.629384
    88    -1.854843
    89     0.394909
    90     0.201134
    91    -0.597407
    92    -0.012329
    93     0.027026
    94     0.168125
    95    -0.010166
    96    -0.048052
    97    -0.058062
    98     1.371716
    99     1.266854
   100    -0.814082
   101     0.016933
   102     0.294838
   103     0.375705
   104     1.037359
   105     1.087430
   106    -0.084796
   107    -0.048759
   108    -0.043982
   109    -0.165229
   110     0.055286
   111     0.034267
   112    -0.148905
   113     0.026790
   114     0.020716
   115     0.047619
   116     0.010093
   117    -0.036464
   118     0.036709
   119     0.012087
   120     0.273460
   121     0.146538
   122    -0.279915
   123     0.125932
   124     0.051844
   125     0.188740
   126     0.133462
   127     0.012433
   128     0.169560
   129    -0.033364
   130     0.030942
   131    -0.217774
   132    -0.125355
   133    -0.028907
   134    -0.377811
   135    -0.118082
   136     0.000182
   137     0.031253
   138     0.013180
   139    -0.110050
   140    -0.026309
   141    -0.229784
   142     0.030433
   143    -0.013194
   144    -0.407753
   145    -0.004116
   146    -0.005664
   147     0.050398
   148    -0.827031
   149     1.220671
   150     0.201766
   151     0.360446
   152    -0.022822
   153     0.059388
   154    -0.170053
   155     0.752548
   156    -0.299955
   157     0.225145
   158    -0.435561
   159     0.688466
   160     2.095276
   161     0.431196
   162    -0.102313
   163     0.213419
   164    -0.051405
   165    -0.110509
   166    -0.388189
   167    -0.235164
   168     0.094400
   169     0.215509
   170    -1.135732
   171    -1.810076
   172     0.695080
   173     0.673875
   174     1.162559
   175     0.023464
   176    -0.842781
   177    -0.946432
   178    -1.268662
   179    -0.093263
   180    -0.681144
   181    -0.734753
   182     0.002517
   183     0.270333
   184     0.222552
   185     0.052113
   186     0.188910
   187    -0.634045
   188    -0.575297
   189    -0.374590
   190    -0.277536
   191    -0.034171
   192    -0.157137
   193    -0.100980
   194    -1.096437
   195    -0.122979
   196    -0.124246
   197     0.115163
   198     1.286955
   199     1.255890
   200    -0.198747
   201     0.011728
   202    -0.761313
   203    -0.452945
   204    -0.024408
   205     0.052326
   206     0.850401
   207    -1.081710
   208     0.007408
   209    -0.365641
   210    -0.246728
   211     0.041979
   212    -0.227532
   213     0.464283
   214    -0.442014
   215    -0.242296
   216     0.117470
Sym=   140a
Ene=   -0.103330E-02
Spin= Alpha
Occup= 0.000582
     1    -0.002132
     2     0.008890
     3    -0.018359
     4    -0.181471
     5     0.164035
     6     0.580617
     7     0.189963
     8     0.000159
     9     0.000516
    10     0.044036
    11    -0.001270
    12    -0.000806
    13    -1.122443
    14    -0.001936
    15    -0.015830
    16    -2.856658
    17    -0.001899
    18     0.005360
    19    -0.374722
    20    -0.003295
    21    -0.001821
    22    -0.023066
    23    -0.000127
    24    -0.000020
    25     0.000401
    26    -0.243393
    27    -0.254116
    28     0.305177
    29    -0.000662
    30    -0.000628
    31    -0.002616
    32     0.058049
    33     0.066245
    34    -1.659262
    35     0.000326
    36    -0.002209
    37     0.009896
    38     0.000640
    39    -0.000220
    40    -0.071961
    41    -0.000596
    42     0.000286
    43     0.004160
    44     0.000235
    45     0.000140
    46     0.004756
    47     0.000205
    48     0.017852
    49    -0.009912
    50    -1.004297
    51    -0.022246
    52     0.013565
    53     0.106627
    54     0.001005
    55    -0.001457
    56     0.108905
    57     0.000135
    58     0.125824
    59     0.002209
    60     0.016476
    61     0.002082
    62     0.066917
    63     0.000105
    64    -0.000201
    65     0.003950
    66     0.000139
    67     0.016042
    68    -0.001861
    69     0.037601
    70    -0.002953
    71    -0.000029
    72     0.061925
    73    -0.009287
    74     0.013780
    75    -0.058163
    76    -0.570340
    77     0.001200
    78     1.187872
    79    -0.330820
    80     0.000222
    81    -0.002468
    82     0.126592
    83    -0.000657
    84    -0.001710
    85    -1.483472
    86    -0.000813
    87     0.016916
    88    -2.230106
    89     0.000910
    90     0.004622
    91    -0.258726
    92    -0.020653
    93    -0.018969
    94    -0.103353
    95    -0.000040
    96    -0.000014
    97     0.001499
    98    -0.804117
    99    -0.805205
   100    -1.807658
   101    -0.000237
   102     0.001621
   103     0.021016
   104    -0.362860
   105    -0.350968
   106    -1.770423
   107     0.000974
   108    -0.000731
   109     0.008692
   110    -0.000329
   111    -0.000123
   112     0.297100
   113     0.000455
   114    -0.000411
   115     0.024309
   116    -0.000081
   117    -0.004690
   118     0.022164
   119    -0.000182
   120    -0.000872
   121     0.003210
   122     1.089473
   123     0.002383
   124    -0.002038
   125     0.242928
   126     0.000222
   127    -0.010247
   128     0.236653
   129    -0.000088
   130    -0.164992
   131     0.001461
   132     0.177816
   133    -0.006692
   134     0.219862
   135    -0.000240
   136     0.000175
   137    -0.005988
   138     0.000408
   139     0.176765
   140     0.001832
   141     0.127473
   142     0.003929
   143    -0.000322
   144     0.216925
   145     0.000123
   146    -0.000250
   147     0.002107
   148     0.095521
   149    -0.133323
   150     1.655626
   151     1.661844
   152    -0.000043
   153     0.000108
   154    -0.008135
   155    -0.000302
   156    -0.000135
   157    -0.293911
   158     0.001411
   159    -0.002947
   160    -2.043032
   161     0.002233
   162     0.001401
   163    -0.096153
   164     0.009288
   165     0.009374
   166     0.023276
   167     0.000021
   168    -0.000057
   169     0.000061
   170     0.169657
   171     0.169174
   172     0.160973
   173    -0.000026
   174     0.000062
   175    -0.000512
   176     0.178549
   177     0.176943
   178     0.979768
   179     0.000141
   180    -0.000971
   181     0.000391
   182    -0.000019
   183    -0.000058
   184     0.004630
   185     0.000012
   186     0.000164
   187    -0.001714
   188     0.000019
   189     0.000060
   190    -0.001727
   191     0.000001
   192    -0.001010
   193     0.000336
   194    -0.095398
   195     0.001234
   196    -0.000349
   197    -0.014476
   198     0.000200
   199     0.000379
   200    -0.014016
   201     0.000026
   202    -0.016487
   203     0.000195
   204    -0.009627
   205     0.000743
   206    -0.065288
   207    -0.000101
   208     0.000048
   209    -0.000822
   210     0.000013
   211    -0.009698
   212    -0.000854
   213    -0.038208
   214     0.000550
   215     0.000010
   216    -0.065454
Sym=   141a
Ene=   -0.253985E-05
Spin= Alpha
Occup= 0.000000
     1     0.032918
     2    -0.076961
     3     0.435176
     4    -0.987137
     5    -1.689528
     6    47.764012
     7    -2.637963
     8    -0.001730
     9    -0.007543
    10     0.197057
    11     0.002107
    12    -0.066428
    13    14.984038
    14    -0.033783
    15    -0.020471
    16    17.281355
    17    -0.001321
    18    -0.031053
    19     3.259683
    20     0.203060
    21     0.219803
    22     0.866834
    23    -0.005040
    24     0.014513
    25     0.006721
    26    -0.889241
    27    -0.990497
    28    -7.946009
    29     0.032411
    30    -0.075824
    31    -0.027136
    32     0.739265
    33     0.739198
    34    46.032480
    35     0.002021
    36     0.011786
    37     0.033853
    38    -0.010083
    39     0.028791
    40    -0.221784
    41     0.017867
    42    -0.002271
    43    -0.126391
    44    -0.004023
    45    -0.002430
    46    -0.124976
    47    -0.000744
    48     0.016096
    49     0.016379
    50    14.265294
    51    -0.003724
    52     0.012794
    53    -1.632381
    54    -0.001581
    55    -0.007869
    56    -1.625930
    57     0.004709
    58     3.363659
    59     0.030018
    60     0.453072
    61     0.005131
    62     0.466274
    63     0.044895
    64    -0.007325
    65    -0.001650
    66    -0.012880
    67     0.438196
    68     0.011653
    69     0.250553
    70     0.033332
    71    -0.016313
    72     0.396033
    73     0.582350
    74    -1.034083
    75     2.946278
    76     2.954630
    77    -2.134205
    78   -44.621562
    79     5.591580
    80     0.013096
    81     0.041808
    82     3.869073
    83     0.081169
    84     0.271816
    85    29.584280
    86     0.052518
    87     0.142150
    88     1.245316
    89    -0.005291
    90    -0.008191
    91     0.095241
    92     3.443155
    93     3.378186
    94     1.767888
    95    -0.060017
    96     0.079827
    97     0.027620
    98     5.601144
    99     5.925171
   100    16.007806
   101     0.295869
   102    -0.409802
   103    -0.157811
   104     0.500479
   105     0.482211
   106     0.421661
   107    -0.023631
   108     0.035169
   109     0.041983
   110    -0.072265
   111    -0.046725
   112    -6.698034
   113     0.049993
   114    -0.076846
   115    -3.194652
   116    -0.004098
   117    -0.036016
   118    -3.192335
   119     0.002475
   120    -0.000487
   121    -0.199208
   122   -13.302597
   123    -0.089733
   124    -0.031107
   125    -8.089409
   126    -0.022093
   127    -0.041091
   128    -8.086731
   129    -0.000843
   130    -1.915494
   131     0.085319
   132    -0.675217
   133     0.051751
   134     0.321540
   135     0.176774
   136    -0.051384
   137     0.047779
   138    -0.120122
   139    -0.623182
   140     0.049682
   141     0.249306
   142     0.191136
   143    -0.122900
   144     0.529573
   145     0.004350
   146    -0.010223
   147     0.073467
   148    -3.752903
   149     3.290759
   150   -28.550756
   151   -13.272327
   152     0.000695
   153     0.000212
   154     0.060995
   155    -0.002444
   156     0.003524
   157     5.689538
   158    -0.002558
   159    -0.020236
   160    34.971697
   161     0.005881
   162     0.021837
   163    -0.384903
   164    -0.198546
   165    -0.207127
   166    -0.678355
   167     0.001015
   168    -0.001295
   169    -0.003506
   170    -7.353318
   171    -7.311994
   172    -5.936371
   173    -0.005656
   174     0.008527
   175     0.014391
   176    -5.733272
   177    -5.733803
   178   -21.615701
   179    -0.002002
   180    -0.003712
   181    -0.002068
   182     0.003754
   183     0.003885
   184     0.295279
   185    -0.001957
   186    -0.004367
   187     0.048445
   188    -0.002493
   189    -0.001848
   190     0.048450
   191     0.000094
   192    -0.001046
   193    -0.001673
   194     3.931047
   195     0.006769
   196     0.007411
   197     0.482099
   198    -0.000304
   199     0.001895
   200     0.482557
   201     0.001737
   202    -0.076740
   203    -0.003335
   204     0.733879
   205    -0.002757
   206     2.588285
   207     0.000342
   208    -0.000412
   209    -0.004777
   210     0.003870
   211     0.744076
   212    -0.007056
   213     1.523601
   214    -0.001847
   215     0.002211
   216     2.614461
Sym=   142a
Ene=   -0.478736E-08
Spin= Alpha
Occup= 0.000000
     1    -0.421587
     2     0.914232
     3    -4.862619
     4     8.968699
     5    16.219709
     6    -5.437477
     7   -28.330547
     8    -0.039985
     9    -0.029856
    10     0.062379
    11    -0.622920
    12    -0.426684
    13     0.644558
    14     0.283986
    15     0.427796
    16   -15.239546
    17    -1.626743
    18    -0.558235
    19    -3.142464
    20    -4.274567
    21    -4.889302
    22    -4.717913
    23    -0.466219
    24     0.036033
    25     0.248993
    26    18.792164
    27    22.267964
    28    21.954945
    29     2.626398
    30    -0.134984
    31    -1.357246
    32    11.383853
    33    11.326011
    34    25.277787
    35    -0.038410
    36     0.429239
    37     1.261574
    38     0.120739
    39     0.088579
    40     0.258833
    41     0.025589
    42     0.064537
    43    -0.127968
    44     0.033488
    45    -0.019329
    46    -0.154193
    47    -0.003581
    48     0.012435
    49    -0.090074
    50    -0.990733
    51     0.050977
    52    -0.069892
    53     0.430015
    54    -0.209839
    55     0.147262
    56     0.476165
    57     0.023436
    58    -7.905423
    59     0.863501
    60    -5.141365
    61     0.565568
    62    -9.087383
    63     0.106224
    64    -0.474592
    65     0.058859
    66    -1.142551
    67    -4.513086
    68     0.257891
    69    -4.633276
    70     0.097433
    71    -1.146899
    72    -6.765132
    73    -0.008418
    74     0.015402
    75    -0.001697
    76    -4.413362
    77    -1.882585
    78    -4.255995
    79    12.083987
    80    -0.005756
    81    -0.002655
    82     0.028472
    83     0.097263
    84    -0.038115
    85    -1.874975
    86     0.003478
    87     0.694103
    88   -18.585074
    89     1.058610
    90     0.181475
    91     3.831115
    92    -0.501551
    93    -0.479924
    94    -0.296960
    95     0.045509
    96    -0.050918
    97     0.012234
    98    -9.349293
    99    -9.471112
   100   -11.089115
   101    -0.261711
   102     0.301941
   103    -0.058122
   104    -8.134565
   105    -8.154418
   106   -14.379199
   107    -0.014477
   108     0.574061
   109     0.562110
   110     0.024841
   111     0.039900
   112    -0.186844
   113     0.054397
   114    -0.011258
   115    -0.023951
   116    -0.032789
   117     0.035805
   118     0.009026
   119     0.022756
   120     0.008697
   121    -0.079854
   122    -0.644703
   123    -0.043458
   124    -0.003110
   125    -0.010182
   126     0.337479
   127     0.316840
   128    -0.072960
   129    -0.050551
   130     2.781279
   131     0.196831
   132     1.423911
   133    -0.015383
   134     2.250680
   135    -0.036733
   136     0.076877
   137    -0.072318
   138     0.109734
   139     1.365634
   140    -0.008386
   141     1.267161
   142    -0.182518
   143     0.084197
   144     2.201938
   145     0.012084
   146    -0.023398
   147    -0.006816
   148   -10.397231
   149     3.416491
   150    25.738102
   151    28.401703
   152     0.065162
   153    -0.006683
   154    -0.042881
   155    -0.271398
   156     0.067336
   157     0.410275
   158    -0.938432
   159    -0.789324
   160     5.881782
   161     1.044263
   162     0.176680
   163    -3.262148
   164    -1.391356
   165    -1.364159
   166    -1.573377
   167     0.004806
   168     0.141320
   169     0.044008
   170   -18.821059
   171   -18.941054
   172   -17.627481
   173    -0.016508
   174    -0.778414
   175    -0.256842
   176   -11.561279
   177   -11.608662
   178   -14.605371
   179    -0.039396
   180    -0.071758
   181     0.595229
   182     0.114068
   183    -0.019089
   184    -0.168253
   185     0.058238
   186    -0.005981
   187    -0.035950
   188     0.074221
   189     0.012624
   190    -0.049111
   191    -0.022138
   192     0.410169
   193     0.055976
   194     0.876722
   195     0.168523
   196     0.023163
   197    -0.205180
   198     0.197559
   199    -0.288979
   200    -0.147707
   201     0.056286
   202     3.378952
   203     0.211328
   204     2.469032
   205     0.054862
   206     4.473782
   207     0.345421
   208    -0.013690
   209     0.168522
   210    -0.004717
   211     2.453177
   212     0.033509
   213     2.620585
   214     0.338419
   215     0.029746
   216     4.394425
Sym=   143a
Ene=   -0.100654E-02
Spin= Alpha
Occup= 0.000038
     1     0.004635
     2     0.036180
     3    -0.049289
     4     0.354714
     5     0.659381
     6   -10.402042
     7    -1.292422
     8     0.000252
     9     0.000023
    10     0.299195
    11     0.001632
    12     0.002201
    13     1.702096
    14    -0.004132
    15    -0.002222
    16    10.415363
    17     0.001708
    18     0.003896
    19     1.102756
    20    -0.033701
    21    -0.035279
    22     0.843848
    23    -0.000318
    24     0.000624
    25     0.000623
    26     1.607776
    27     1.615254
    28    -2.477631
    29     0.001883
    30    -0.004429
    31    -0.002741
    32    -0.394074
    33    -0.398257
    34    -8.545647
    35     0.000510
    36     0.003023
    37     0.002099
    38    -0.001414
    39    -0.000594
    40    -0.356619
    41     0.000848
    42     0.000552
    43    -0.215218
    44    -0.000132
    45    -0.000013
    46    -0.214827
    47     0.000048
    48    -0.003473
    49     0.007013
    50     1.655441
    51     0.003982
    52    -0.010825
    53    -0.784889
    54    -0.003190
    55     0.000219
    56    -0.785425
    57     0.000445
    58     4.961624
    59     0.001692
    60     0.241310
    61     0.004096
    62    -0.647978
    63     0.002917
    64    -0.000427
    65    -0.001661
    66    -0.000821
    67     0.242197
    68    -0.002947
    69    -0.378115
    70     0.003932
    71    -0.000844
    72    -0.643821
    73     0.008083
    74    -0.019417
    75     0.138533
    76     1.434712
    77    -1.418329
    78     8.469471
    79     2.392488
    80     0.000023
    81     0.000033
    82    -0.007122
    83     0.002085
    84     0.000727
    85     1.227462
    86     0.002466
    87     0.003491
    88     7.966666
    89    -0.000650
    90    -0.003551
    91    -0.013798
    92     0.264972
    93     0.264387
    94     0.772667
    95     0.000049
    96     0.000100
    97     0.000009
    98     3.280306
    99     3.282948
   100    -1.012832
   101    -0.000281
   102     0.000088
   103     0.000107
   104     1.635839
   105     1.634338
   106     4.143762
   107     0.000464
   108     0.002758
   109     0.000706
   110    -0.000227
   111     0.000255
   112    -0.596500
   113     0.000392
   114    -0.000741
   115     0.035863
   116     0.000028
   117    -0.000036
   118     0.035891
   119    -0.000020
   120    -0.007062
   121     0.002291
   122    -0.353908
   123     0.008258
   124    -0.004192
   125     0.433456
   126     0.001705
   127    -0.000399
   128     0.433411
   129     0.000246
   130     0.805982
   131     0.000141
   132     0.218384
   133     0.001529
   134    -1.020386
   135     0.001152
   136     0.000189
   137     0.003050
   138     0.000028
   139     0.218367
   140    -0.001994
   141    -0.597047
   142    -0.002010
   143     0.000027
   144    -1.018881
   145     0.203180
   146    -0.070232
   147    -0.411282
   148    -2.005104
   149     2.525839
   150     7.821627
   151    -3.176336
   152     0.000990
   153     0.000756
   154    -2.513754
   155    -0.000874
   156     0.000025
   157     6.239910
   158    -0.002715
   159     0.000946
   160     2.313907
   161     0.000889
   162    -0.002751
   163     0.267348
   164    -0.231507
   165    -0.230590
   166    -1.005428
   167     0.000190
   168     0.002527
   169    -0.000033
   170    -4.511809
   171    -4.514189
   172    -1.984187
   173    -0.000367
   174    -0.011284
   175     0.000883
   176     0.122163
   177     0.121710
   178    -0.556749
   179    -0.000946
   180    -0.000538
   181     0.001268
   182     0.001676
   183     0.002189
   184     0.164392
   185    -0.001676
   186    -0.003906
   187    -0.237769
   188    -0.000525
   189    -0.000445
   190    -0.237634
   191    -0.000064
   192    -0.005606
   193    -0.019223
   194    -2.671907
   195     0.010751
   196     0.025532
   197    -1.954999
   198     0.000430
   199    -0.001188
   200    -1.955126
   201     0.000037
   202    -1.636575
   203    -0.000496
   204     0.214607
   205    -0.023144
   206     1.527472
   207     0.004524
   208    -0.000344
   209     0.019639
   210     0.000074
   211     0.214766
   212     0.030599
   213     0.893866
   214    -0.008698
   215     0.000748
   216     1.525661
Sym=   144a
Ene=   -0.111398E-04
Spin= Alpha
Occup= 0.000002
     1     0.013355
     2    -0.006929
     3    -0.201524
     4     0.229331
     5    -0.354466
     6    -0.496760
     7    -0.085348
     8     0.095704
     9    -0.068711
    10     0.007063
    11     1.136477
    12    -1.058699
    13     1.478539
    14    -0.282765
    15     0.946967
    16     5.055574
    17     0.312957
    18    -0.322365
    19     0.364151
    20     0.146622
    21    -0.351962
    22    -0.392074
    23     0.123720
    24    -0.037178
    25    -0.127524
    26    -0.246076
    27    -0.851783
    28     1.250575
    29     0.595182
    30     0.648856
    31     0.680049
    32    -0.470247
    33    -0.274328
    34     0.642954
    35    -0.282574
    36     0.197424
    37     0.183933
    38    -0.325665
    39     0.713776
    40    -0.085445
    41    -0.338402
    42    -0.190826
    43    -0.033222
    44    -0.064013
    45    -0.127011
    46     0.061006
    47    -0.050311
    48    -0.315425
    49    -0.488518
    50     2.299081
    51     0.102065
    52     0.180811
    53     0.067365
    54     0.314372
    55     0.136022
    56    -0.805637
    57     0.325123
    58    -1.701543
    59    -0.205902
    60     0.223899
    61     0.111245
    62     0.643085
    63    -0.382364
    64    -0.375814
    65    -0.352793
    66    -0.433485
    67    -0.523554
    68    -0.317428
    69     0.233534
    70    -0.259326
    71    -0.114837
    72    -0.008113
    73    -0.014424
    74     0.008206
    75     0.162125
    76     0.337735
    77     0.576923
    78     0.472189
    79     0.465407
    80     0.046473
    81     0.121362
    82    -0.074459
    83    -0.161844
    84     0.797797
    85     1.086203
    86     0.663577
    87     0.196359
    88     2.693427
    89    -0.145444
    90     0.059840
    91    -0.024048
    92     0.133609
    93     0.202495
    94    -0.077885
    95    -0.237714
    96     0.168687
    97     0.168497
    98     0.493639
    99     1.426600
   100     3.984227
   101     0.359921
   102    -0.763048
   103    -1.834850
   104     0.929696
   105     0.411720
   106     1.856164
   107     0.194093
   108    -0.037380
   109     0.242336
   110    -0.007059
   111    -0.344232
   112     0.459079
   113     0.318970
   114     0.167576
   115    -0.039392
   116    -0.145051
   117    -0.256968
   118     0.130628
   119    -0.166015
   120    -0.231112
   121    -0.285299
   122     0.373075
   123    -0.546741
   124    -0.588662
   125     0.298933
   126    -0.196617
   127     0.290815
   128    -0.558276
   129     0.454791
   130    -1.323344
   131     0.948763
   132    -0.996038
   133     0.936061
   134    -0.406797
   135     0.180633
   136     0.019312
   137     0.069901
   138     0.017967
   139    -0.305980
   140     0.339245
   141    -0.081020
   142     0.259938
   143    -0.136762
   144     0.192864
   145    -0.000538
   146     0.000600
   147    -0.003776
   148    -0.129131
   149     0.270424
   150    -2.666040
   151    -1.898066
   152    -0.004698
   153    -0.013115
   154     0.014292
   155    -0.033246
   156     0.068873
   157     0.710726
   158    -0.109996
   159    -0.244919
   160     2.225735
   161    -0.174208
   162     0.033707
   163     0.067915
   164    -0.005674
   165    -0.028322
   166    -0.055660
   167     0.003325
   168     0.002586
   169    -0.022867
   170    -0.248226
   171    -0.192140
   172    -0.052678
   173    -0.029702
   174    -0.004859
   175     0.094728
   176    -0.173816
   177    -0.062281
   178    -0.950109
   179     0.010728
   180     0.263894
   181     0.208837
   182    -0.010883
   183    -0.031027
   184    -0.042835
   185    -0.003700
   186    -0.016722
   187    -0.007661
   188    -0.004044
   189     0.023513
   190     0.037362
   191    -0.000453
   192    -0.011543
   193    -0.035086
   194     0.032765
   195    -0.005622
   196    -0.008078
   197     0.165244
   198    -0.145259
   199    -0.068494
   200     0.055347
   201    -0.011047
   202    -0.009690
   203    -0.088076
   204    -0.076785
   205    -0.014882
   206     0.110919
   207     0.033787
   208     0.036709
   209     0.000630
   210     0.002339
   211    -0.056209
   212    -0.025935
   213     0.069296
   214     0.021449
   215    -0.004130
   216     0.128872
Sym=   145a
Ene=   -0.134604E-03
Spin= Alpha
Occup= 0.000044
     1     0.000558
     2     0.004775
     3     0.001662
     4    -0.071048
     5     0.139026
     6     0.491809
     7    -0.046403
     8     0.009700
     9     0.024103
    10    -0.011526
    11     0.093369
    12     0.092243
    13     0.068690
    14     0.073883
    15    -0.555085
    16    -0.276273
    17    -0.046430
    18     0.102038
    19     0.087659
    20    -0.008162
    21     0.009653
    22    -0.010648
    23     0.069159
    24     0.002125
    25     0.002379
    26    -0.164156
    27     0.227231
    28    -0.232843
    29     0.643482
    30     0.136164
    31    -0.373828
    32    -0.026907
    33     0.066690
    34     0.387589
    35     0.125130
    36    -0.032855
    37    -0.042192
    38    -0.068984
    39    -0.053391
    40     0.055257
    41     0.133624
    42     0.277588
    43     0.065390
    44    -0.085803
    45     0.027126
    46    -0.061782
    47    -0.128287
    48    -0.151314
    49    -0.039776
    50     0.582290
    51     0.115902
    52     0.249895
    53     0.064794
    54    -0.052746
    55     0.058310
    56    -0.095998
    57    -0.232906
    58    -0.013296
    59     0.206199
    60    -0.004827
    61     0.074105
    62    -0.138963
    63     0.041955
    64    -0.133652
    65    -0.104261
    66    -0.224127
    67    -0.026445
    68    -0.091610
    69     0.153929
    70    -0.012285
    71     0.073066
    72    -0.014263
    73     0.000518
    74     0.006687
    75    -0.000805
    76     0.040718
    77     0.228950
    78    -0.738199
    79     0.178003
    80     0.018035
    81    -0.028236
    82     0.037395
    83     0.118049
    84    -0.083235
    85     0.577521
    86    -0.121575
    87     0.512073
    88    -0.279507
    89     0.013179
    90    -0.168805
    91     0.035784
    92     0.030730
    93    -0.015853
    94     0.013132
    95    -0.040728
    96    -0.001805
    97     0.023849
    98     0.393014
    99     0.035650
   100     0.338659
   101    -0.441080
   102     0.141122
   103    -0.308087
   104    -0.050032
   105    -0.070616
   106    -0.183322
   107    -0.031185
   108    -0.053489
   109     0.110947
   110     0.111845
   111     0.093474
   112    -0.042321
   113    -0.097180
   114    -0.170263
   115     0.073048
   116    -0.006677
   117    -0.073122
   118    -0.069889
   119    -0.204978
   120     0.086147
   121     0.079682
   122    -0.214747
   123    -0.134780
   124    -0.287004
   125     0.057683
   126     0.023806
   127    -0.215828
   128    -0.223478
   129    -0.380421
   130    -0.045951
   131     0.065041
   132    -0.033819
   133     0.210427
   134     0.058082
   135    -0.064797
   136    -0.100873
   137    -0.142268
   138     0.205695
   139    -0.023840
   140    -0.247292
   141    -0.153928
   142     0.130281
   143    -0.034646
   144    -0.022946
   145     0.000128
   146     0.000401
   147     0.000623
   148     0.006927
   149     0.007263
   150    -0.437581
   151    -0.154278
   152     0.002843
   153     0.004445
   154     0.009063
   155    -0.032805
   156    -0.061989
   157     0.109395
   158     0.034715
   159     0.095902
   160     0.125040
   161     0.005441
   162     0.069716
   163     0.023677
   164     0.001792
   165    -0.000410
   166     0.006317
   167    -0.001891
   168     0.006736
   169     0.006555
   170     0.006245
   171     0.027246
   172    -0.006085
   173     0.016494
   174    -0.032514
   175    -0.006798
   176     0.039334
   177     0.039268
   178    -0.079743
   179     0.010199
   180     0.003992
   181    -0.113989
   182     0.006648
   183     0.008383
   184     0.009364
   185     0.006400
   186     0.009036
   187     0.005572
   188    -0.000629
   189     0.001437
   190     0.009920
   191    -0.001361
   192     0.029856
   193     0.040538
   194     0.037109
   195    -0.004911
   196    -0.009925
   197     0.034206
   198    -0.043370
   199     0.021551
   200     0.029335
   201    -0.015331
   202     0.011730
   203     0.014337
   204    -0.014477
   205     0.008855
   206     0.000136
   207     0.032633
   208    -0.010364
   209     0.007073
   210    -0.001184
   211     0.006170
   212     0.005765
   213    -0.008511
   214     0.011353
   215    -0.001558
   216     0.006165
Sym=   146a
Ene=   -0.570918E-04
Spin= Alpha
Occup= 0.000015
     1    -0.009729
     2     0.040512
     3     0.138886
     4    -0.826396
     5     0.765205
     6     2.551527
     7    -0.135169
     8     0.096266
     9    -0.119265
    10     0.083932
    11     0.995227
    12    -1.130277
    13     2.244828
    14     0.058312
    15    -0.139974
    16     0.907955
    17     0.107372
    18    -0.153331
    19     0.357238
    20     0.063629
    21     0.035975
    22    -0.050154
    23    -0.209733
    24     0.095783
    25    -0.086950
    26    -0.839846
    27    -0.840646
    28    -0.003885
    29    -0.046756
    30     0.674615
    31    -0.719565
    32    -0.040928
    33     0.097793
    34     1.738767
    35    -0.107458
    36     0.407442
    37    -0.536205
    38    -0.125378
    39     0.102448
    40    -0.438625
    41    -0.224498
    42     0.265961
    43    -0.155157
    44    -0.351958
    45     0.370286
    46    -0.091477
    47     0.175034
    48    -0.259421
    49     0.499410
    50     2.154669
    51    -0.337182
    52     0.257601
    53    -0.034717
    54     0.679260
    55    -0.791363
    56    -0.034808
    57    -0.242117
    58    -0.332285
    59     0.223311
    60    -0.279743
    61     0.556419
    62     0.043951
    63    -0.211796
    64     0.153235
    65    -0.109303
    66    -0.085135
    67    -0.155358
    68     0.099116
    69     0.602758
    70    -0.489529
    71     0.105401
    72     0.013940
    73    -0.005657
    74     0.024762
    75     0.090296
    76    -0.248945
    77     0.786287
    78    -0.340005
    79     0.647505
    80     0.068885
    81    -0.087161
    82    -0.016196
    83     0.457815
    84    -0.522146
    85     0.899155
    86    -0.273492
    87     0.223492
    88     0.560535
    89     0.253640
    90    -0.282696
    91     0.100308
    92     0.067294
    93     0.057294
    94     0.035929
    95    -0.123246
    96    -0.004180
    97    -0.025146
    98    -0.083539
    99     0.000787
   100     1.096767
   101    -0.035045
   102    -0.901263
   103     1.150337
   104    -0.110651
   105    -0.065137
   106     0.241442
   107    -0.077926
   108    -0.009346
   109     0.011322
   110    -0.109991
   111     0.099187
   112     0.202103
   113    -0.074759
   114     0.110793
   115     0.106775
   116    -0.240466
   117     0.262259
   118     0.076007
   119    -0.108050
   120    -0.140170
   121     0.270725
   122    -0.215585
   123    -0.196421
   124     0.166258
   125    -0.152298
   126     0.038806
   127    -0.011683
   128    -0.104942
   129     0.001761
   130    -0.324600
   131    -0.468715
   132    -0.200814
   133    -0.518529
   134    -0.072950
   135     0.357875
   136     0.101520
   137     0.105588
   138    -0.048516
   139    -0.119787
   140    -0.148359
   141     0.243909
   142     0.420109
   143     0.038464
   144    -0.036681
   145    -0.000137
   146     0.000872
   147    -0.002669
   148     0.102864
   149    -0.031909
   150    -2.855970
   151    -1.302822
   152    -0.006484
   153     0.010213
   154     0.019590
   155    -0.093641
   156     0.102627
   157     0.692279
   158    -0.299809
   159     0.355245
   160     2.098394
   161    -0.115514
   162     0.156530
   163     0.071617
   164     0.004760
   165     0.001233
   166     0.025341
   167    -0.009593
   168    -0.007989
   169     0.003480
   170     0.229434
   171     0.240187
   172    -0.060946
   173     0.031763
   174    -0.002487
   175     0.017004
   176     0.050294
   177     0.009858
   178    -1.222604
   179     0.083768
   180     0.467240
   181    -0.563718
   182    -0.013246
   183     0.016753
   184     0.058220
   185    -0.010891
   186     0.014655
   187     0.021293
   188     0.009074
   189    -0.007693
   190     0.017058
   191     0.016377
   192    -0.029885
   193     0.042916
   194     0.310223
   195     0.006702
   196     0.006415
   197     0.069448
   198    -0.303355
   199     0.371738
   200     0.065074
   201    -0.061033
   202    -0.036161
   203    -0.105766
   204    -0.048709
   205    -0.066699
   206    -0.033454
   207     0.092390
   208     0.007155
   209     0.012932
   210    -0.020179
   211    -0.069556
   212    -0.031230
   213    -0.026524
   214     0.053342
   215    -0.022008
   216    -0.030959
Sym=   147a
Ene=   -0.365699E-04
Spin= Alpha
Occup= 0.000008
     1     0.000070
     2    -0.000393
     3     0.010306
     4    -0.033912
     5     0.015374
     6     0.222838
     7     0.209061
     8    -0.088681
     9    -0.055965
    10     0.002986
    11    -1.775594
    12    -1.186655
    13     0.117217
    14     0.660524
    15     0.299285
    16    -0.025256
    17    -0.458990
    18    -0.205726
    19    -0.070235
    20    -0.009864
    21     0.020137
    22     0.026688
    23     0.045136
    24    -0.119000
    25    -0.078611
    26     0.008543
    27    -0.095032
    28    -0.142722
    29     0.064696
    30     2.911869
    31     1.878805
    32    -0.011704
    33    -0.010770
    34     0.088315
    35    -0.030449
    36    -0.178986
    37    -0.089514
    38     0.196738
    39     0.137843
    40    -0.019232
    41     0.088186
    42     0.061525
    43    -0.015146
    44     0.842866
    45     0.523076
    46     0.021926
    47     0.159251
    48     0.289602
    49     0.205578
    50     0.139097
    51     0.132663
    52     0.094791
    53     0.022294
    54    -2.202666
    55    -1.607641
    56    -0.059124
    57    -0.144266
    58     0.057686
    59    -0.528414
    60     0.076964
    61    -1.064559
    62     0.037246
    63    -0.832724
    64     0.118560
    65    -0.720138
    66    -0.058185
    67    -0.003042
    68    -0.468941
    69    -0.008898
    70    -1.623186
    71    -0.041979
    72     0.005847
    73    -0.000132
    74     0.000309
    75    -0.003810
    76     0.014039
    77     0.073498
    78    -0.103510
    79    -0.224034
    80    -0.023149
    81    -0.009335
    82    -0.003177
    83     0.883378
    84     0.720308
    85     0.082822
    86    -0.603921
    87    -0.494142
    88    -0.128117
    89     0.297811
    90     0.238482
    91    -0.035271
    92    -0.022173
    93     0.015296
    94    -0.010716
    95     0.019474
    96    -0.289645
    97    -0.193711
    98     0.062191
    99     0.005933
   100     0.118676
   101    -0.076555
   102     1.774485
   103     1.224553
   104    -0.012616
   105     0.035472
   106    -0.043358
   107    -0.021446
   108     0.249238
   109     0.238690
   110     0.011635
   111    -0.007752
   112     0.010151
   113     0.004405
   114    -0.004879
   115     0.011315
   116     0.105130
   117     0.063728
   118    -0.006794
   119    -0.010111
   120     0.208072
   121     0.147973
   122    -0.008788
   123     0.093757
   124     0.068983
   125     0.013707
   126     0.632890
   127     0.499070
   128    -0.014397
   129    -0.064528
   130    -0.038172
   131    -0.239073
   132    -0.037716
   133    -0.232701
   134    -0.008453
   135    -0.379995
   136    -0.042327
   137    -0.152138
   138     0.019263
   139     0.012799
   140    -0.104267
   141    -0.006942
   142    -0.340078
   143     0.039616
   144    -0.007633
   145     0.000271
   146    -0.000391
   147    -0.000372
   148     0.052868
   149    -0.042648
   150    -0.340668
   151     0.066106
   152     0.041089
   153     0.031940
   154     0.011116
   155    -0.024477
   156    -0.049004
   157    -0.037435
   158     0.331686
   159     0.268317
   160     0.089924
   161     0.184132
   162     0.066965
   163    -0.002006
   164     0.000069
   165     0.001950
   166     0.026100
   167     0.015015
   168     0.014589
   169     0.021094
   170     0.132886
   171     0.101471
   172    -0.019616
   173     0.048466
   174    -0.365838
   175    -0.264820
   176    -0.011555
   177    -0.001792
   178    -0.084731
   179     0.067300
   180    -0.746961
   181    -0.548038
   182     0.049943
   183     0.032979
   184     0.032745
   185     0.023951
   186     0.017338
   187     0.014795
   188     0.155977
   189     0.135650
   190    -0.001508
   191    -0.025951
   192     0.210459
   193     0.163743
   194     0.067531
   195     0.092490
   196     0.071241
   197     0.024086
   198     0.372208
   199     0.309430
   200     0.022644
   201     0.047942
   202     0.033614
   203    -0.010462
   204     0.034121
   205     0.061036
   206    -0.011657
   207     0.102944
   208    -0.082328
   209     0.016187
   210    -0.012127
   211    -0.021932
   212     0.021281
   213    -0.063938
   214     0.040027
   215    -0.038699
   216    -0.014357
Sym=   148a
Ene=   -0.143299E-03
Spin= Alpha
Occup= 0.000037
     1     0.002142
     2    -0.004408
     3     0.039287
     4     0.049054
     5    -0.214928
     6     0.243415
     7     0.283259
     8     0.026953
     9    -0.009444
    10     0.026626
    11     0.297172
    12    -0.159879
    13     0.341665
    14    -0.077484
    15     0.106047
    16    -0.862289
    17     0.134351
    18    -0.070434
    19     0.014223
    20     0.072000
    21     0.014913
    22     0.147279
    23    -0.012586
    24     0.017107
    25    -0.000209
    26    -0.000055
    27     0.290543
    28    -0.510301
    29     0.028383
    30    -0.002107
    31    -0.019894
    32     0.040007
    33     0.064538
    34     0.487291
    35    -0.031842
    36     0.032451
    37    -0.036857
    38    -0.043347
    39     0.023323
    40    -0.111782
    41    -0.006701
    42    -0.000086
    43    -0.011336
    44     0.010812
    45     0.000008
    46    -0.022834
    47    -0.035199
    48    -0.042414
    49    -0.007810
    50     0.631406
    51    -0.048305
    52     0.009491
    53    -0.115648
    54     0.204297
    55    -0.277777
    56     0.011559
    57    -0.118866
    58     0.350162
    59    -0.041769
    60     0.088486
    61    -0.052512
    62    -0.126211
    63     0.084722
    64    -0.093489
    65     0.039313
    66    -0.031325
    67     0.141944
    68    -0.020037
    69    -0.029969
    70     0.085452
    71    -0.023715
    72     0.033927
    73    -0.000001
    74     0.000807
    75    -0.002853
    76     0.046396
    77     0.138457
    78    -0.616147
    79    -0.305451
    80     0.007340
    81    -0.004940
    82     0.010121
    83    -0.036184
    84     0.062566
    85     0.462045
    86     0.109453
    87    -0.098509
    88    -0.758340
    89    -0.107847
    90     0.120503
    91    -0.067285
    92     0.014076
    93    -0.003671
    94    -0.002670
    95     0.023715
    96     0.012596
    97    -0.024674
    98     0.041401
    99     0.135260
   100     0.253620
   101    -0.128739
   102    -0.081659
   103     0.152932
   104    -0.114128
   105    -0.087496
   106    -0.414497
   107     0.012061
   108    -0.016639
   109     0.032745
   110    -0.013961
   111     0.008618
   112    -0.010335
   113    -0.005813
   114     0.005768
   115    -0.004166
   116    -0.005506
   117     0.005707
   118    -0.006677
   119     0.002552
   120    -0.049969
   121     0.029191
   122    -0.118506
   123    -0.015323
   124     0.002135
   125    -0.039298
   126    -0.043522
   127     0.065020
   128     0.006203
   129    -0.015953
   130    -0.049351
   131    -0.037643
   132    -0.007224
   133    -0.030811
   134    -0.051175
   135     0.024645
   136     0.029106
   137     0.010373
   138     0.044356
   139    -0.007694
   140    -0.019393
   141    -0.016185
   142     0.003089
   143     0.040981
   144     0.008068
   145     0.003436
   146     0.017889
   147     0.013897
   148    -0.176510
   149     0.518863
   150    -1.184462
   151     0.469302
   152     0.017077
   153    -0.008909
   154     0.006618
   155    -0.117942
   156     0.240052
   157     0.248876
   158     0.023465
   159     0.084981
   160    -0.306173
   161    -0.004719
   162    -0.188122
   163    -0.115163
   164     0.048579
   165    -0.005653
   166     0.055436
   167    -0.106211
   168    -0.016560
   169     0.041336
   170    -0.104129
   171     0.609194
   172    -0.685892
   173    -0.450745
   174     0.032269
   175    -0.524400
   176     0.243866
   177    -0.234100
   178     0.269408
   179     0.275330
   180     0.234224
   181    -0.101343
   182    -0.035698
   183    -0.150487
   184    -0.097517
   185     0.303891
   186    -0.154286
   187    -0.018504
   188    -0.161407
   189     0.012026
   190     0.188213
   191    -0.228459
   192     0.114021
   193    -0.129145
   194    -0.035059
   195    -0.045234
   196     0.302054
   197     0.069688
   198    -0.389134
   199     0.170783
   200     0.312847
   201    -0.264233
   202     0.331537
   203     0.366729
   204     0.108520
   205     0.126502
   206    -0.354944
   207    -0.252833
   208     0.118539
   209     0.391838
   210    -0.042319
   211    -0.156134
   212    -0.247223
   213     0.086548
   214    -0.068098
   215     0.421029
   216     0.073661
Sym=   149a
Ene=   -0.216868E-04
Spin= Alpha
Occup= 0.000005
     1    -0.002155
     2     0.006661
     3    -0.032755
     4    -0.102788
     5    -0.021847
     6    -0.717135
     7     0.436988
     8     0.013566
     9    -0.040802
    10    -0.042914
    11     0.195441
    12    -0.689443
    13    -1.351708
    14     0.082868
    15    -0.101285
    16    -6.632846
    17     0.195483
    18    -0.324220
    19    -0.086693
    20     0.022680
    21    -0.056303
    22    -0.239032
    23    -0.012988
    24     0.060469
    25    -0.061322
    26    -0.530882
    27    -0.222817
    28     0.714050
    29     0.044855
    30    -0.313387
    31     0.228934
    32     0.020176
    33     0.178669
    34     0.301845
    35     0.016054
    36     0.669091
    37    -1.099466
    38    -0.034705
    39     0.066718
    40     0.128992
    41    -0.003434
    42     0.024619
    43     0.068505
    44     0.007673
    45    -0.036339
    46    -0.007451
    47     0.030686
    48    -0.000121
    49    -0.005415
    50    -0.618173
    51    -0.033414
    52     0.033140
    53    -0.193765
    54     0.184932
    55    -0.535623
    56     0.144692
    57     0.106897
    58    -1.055533
    59    -0.396465
    60    -0.155504
    61    -0.317797
    62     0.019435
    63     0.200276
    64     0.078698
    65     0.062537
    66    -0.028159
    67    -0.160382
    68    -0.136317
    69     0.106696
    70     0.194260
    71     0.027219
    72     0.243524
    73    -0.000662
    74     0.000755
    75     0.007342
    76    -0.504851
    77     0.168746
    78    -2.152839
    79    -0.190935
    80     0.000573
    81    -0.002160
    82     0.000182
    83    -0.040610
    84     0.076083
    85    -0.324718
    86     0.415319
    87    -0.504941
    88    -3.061226
    89    -0.227927
    90     0.218548
    91     0.134640
    92     0.012444
    93    -0.087869
    94    -0.110084
    95     0.010131
    96    -0.026600
    97    -0.023177
    98    -1.317361
    99    -0.879615
   100    -0.481321
   101    -0.020797
   102     0.106733
   103     0.157728
   104    -0.732195
   105    -0.763290
   106    -1.826293
   107     0.035203
   108     0.121931
   109    -0.178705
   110    -0.000261
   111     0.010995
   112     0.089681
   113    -0.003290
   114    -0.004399
   115    -0.022835
   116    -0.002886
   117    -0.007461
   118    -0.025922
   119    -0.013536
   120    -0.022187
   121     0.036331
   122     0.013556
   123    -0.004967
   124     0.023477
   125    -0.093606
   126     0.022137
   127    -0.048929
   128    -0.026287
   129     0.018673
   130     0.047730
   131    -0.114188
   132     0.045895
   133    -0.013436
   134     0.217658
   135    -0.032707
   136    -0.011887
   137    -0.027693
   138     0.020020
   139     0.078776
   140    -0.008470
   141     0.181095
   142    -0.049025
   143    -0.007305
   144     0.465897
   145    -0.000579
   146    -0.006432
   147     0.038996
   148     0.531302
   149     0.239508
   150    -0.975833
   151     1.535835
   152    -0.069304
   153     0.122504
   154    -0.071282
   155     0.678816
   156    -1.162241
   157     1.245094
   158    -0.855557
   159     1.525372
   160    -5.790632
   161     0.071289
   162    -0.155549
   163     0.643923
   164    -0.013309
   165    -0.008821
   166     0.113740
   167    -0.075309
   168     0.143753
   169    -0.170905
   170     2.069194
   171     2.179860
   172    -0.062495
   173    -0.113945
   174    -1.084290
   175    -0.914533
   176     0.748434
   177     0.594427
   178     3.296560
   179    -0.237951
   180     0.682585
   181    -1.595844
   182    -0.285556
   183     0.343092
   184    -0.428044
   185     0.032275
   186     0.478975
   187     0.106470
   188    -0.063321
   189    -0.245487
   190    -0.380258
   191    -0.311795
   192     0.047976
   193     0.062408
   194    -0.391387
   195    -0.140772
   196    -0.324199
   197     0.038406
   198    -0.281745
   199     1.177655
   200     0.653567
   201     0.361418
   202     0.582193
   203     0.325043
   204     0.151076
   205     0.810262
   206    -1.086502
   207     0.510594
   208    -0.057444
   209     0.189843
   210     0.253109
   211     0.053410
   212     0.556472
   213    -0.495721
   214     0.339511
   215     0.135951
   216    -0.928896
Sym=   150a
Ene=   -0.366482E-04
Spin= Alpha
Occup= 0.000009
     1    -0.004998
     2     0.010583
     3    -0.015810
     4    -0.010369
     5     0.451730
     6    -2.018799
     7    -1.306512
     8    -0.057928
     9    -0.048702
    10     0.032353
    11    -0.297392
    12    -0.257392
    13     0.502705
    14     0.160136
    15     0.176996
    16     1.905504
    17    -0.040391
    18    -0.124622
    19    -0.253779
    20    -0.032580
    21    -0.036537
    22    -0.027443
    23     0.040975
    24    -0.040532
    25    -0.040151
    26     0.153879
    27     0.165130
    28     0.385734
    29    -0.166931
    30     0.121212
    31     0.158672
    32    -0.169529
    33    -0.073464
    34    -2.388974
    35    -0.043871
    36     0.527449
    37     0.504879
    38     0.086458
    39     0.074586
    40    -0.002781
    41     0.041822
    42     0.030428
    43     0.014551
    44    -0.022755
    45    -0.022765
    46     0.004372
    47     0.010969
    48     0.123495
    49     0.103164
    50    -0.476673
    51     0.060315
    52     0.045982
    53     0.002051
    54     0.281129
    55     0.240967
    56     0.025439
    57    -0.109359
    58     0.136928
    59    -0.213320
    60    -0.003886
    61    -0.102723
    62    -0.077689
    63    -0.209962
    64    -0.005892
    65    -0.042970
    66     0.052592
    67    -0.003806
    68    -0.048166
    69    -0.036343
    70    -0.099654
    71     0.074809
    72    -0.058518
    73    -0.000618
    74     0.001620
    75    -0.006657
    76     0.212333
    77    -0.091919
    78     1.876200
    79     0.174484
    80    -0.030519
    81    -0.030952
    82    -0.026085
    83    -0.221206
    84    -0.198715
    85    -0.247642
    86     0.146432
    87     0.084254
    88     2.096239
    89    -0.162162
    90    -0.064507
    91     0.069947
    92     0.004789
    93     0.005246
    94     0.040035
    95     0.026551
    96    -0.013888
    97    -0.012020
    98     0.548583
    99     0.534589
   100     0.102507
   101    -0.143864
   102     0.040440
   103     0.052223
   104     0.512897
   105     0.473612
   106     1.256822
   107    -0.018220
   108     0.016883
   109     0.054900
   110     0.058143
   111     0.050616
   112    -0.019750
   113     0.018069
   114     0.024416
   115     0.010799
   116    -0.010028
   117    -0.013353
   118     0.021711
   119     0.006537
   120     0.149050
   121     0.163335
   122     0.126853
   123     0.076683
   124     0.069465
   125     0.105479
   126    -0.029270
   127     0.000179
   128     0.076781
   129    -0.027140
   130    -0.050293
   131    -0.104354
   132    -0.039632
   133    -0.031028
   134    -0.170091
   135    -0.100696
   136     0.023482
   137    -0.010099
   138     0.066403
   139    -0.056839
   140    -0.014457
   141    -0.095216
   142    -0.020694
   143     0.058106
   144    -0.175518
   145    -0.032069
   146     0.094871
   147     0.352666
   148    -1.386846
   149     0.853182
   150     1.912493
   151     0.681208
   152    -0.176185
   153    -0.149121
   154     0.007419
   155     1.715236
   156     1.481084
   157    -0.532802
   158    -1.475701
   159    -1.363721
   160     0.842020
   161     0.541164
   162     0.510491
   163    -0.504485
   164     0.483110
   165     0.348282
   166     0.032041
   167     0.468577
   168    -0.203317
   169    -0.170063
   170    -1.387716
   171    -1.231057
   172    -0.874269
   173    -0.278211
   174     0.363702
   175     0.258288
   176     0.507409
   177     0.318770
   178    -0.951453
   179     0.569048
   180     0.077562
   181     0.105584
   182    -0.491836
   183    -0.465946
   184     0.161419
   185    -0.189767
   186    -0.113311
   187    -0.060594
   188    -0.297906
   189    -0.251419
   190    -0.011181
   191    -0.077764
   192    -0.202774
   193    -0.126291
   194     0.171434
   195    -0.088013
   196    -0.087478
   197    -0.218949
   198    -0.071506
   199    -0.052735
   200    -0.233570
   201    -0.050982
   202     0.332159
   203    -0.238028
   204     0.162039
   205    -0.000680
   206     0.327353
   207    -0.302045
   208     0.036783
   209     0.153550
   210    -0.165816
   211     0.195322
   212     0.220409
   213    -0.128713
   214     0.047566
   215    -0.329317
   216     0.266658
Sym=   151a
Ene=   -0.492446E-03
Spin= Alpha
Occup= 0.000264
     1     0.000006
     2     0.000076
     3    -0.000201
     4     0.000521
     5     0.003852
     6    -0.002050
     7    -0.019366
     8     0.006052
     9    -0.002761
    10     0.000369
    11    -0.062965
    12     0.025921
    13     0.010874
    14    -0.078371
    15     0.042758
    16     0.021802
    17     0.000104
    18    -0.002874
    19     0.012175
    20     0.015543
    21    -0.015563
    22     0.000258
    23     0.031130
    24     0.004599
    25    -0.002157
    26    -0.068596
    27     0.073469
    28    -0.000194
    29    -0.140116
    30    -0.010413
    31     0.004412
    32     0.032406
    33    -0.028297
    34     0.009196
    35     0.061611
    36    -0.029516
    37     0.008768
    38     0.008512
    39    -0.003922
    40     0.001022
    41     0.003646
    42    -0.002558
    43    -0.003983
    44     0.000649
    45    -0.000057
    46     0.004889
    47    -0.008796
    48     0.041312
    49    -0.025516
    50     0.019062
    51     0.026208
    52    -0.008400
    53     0.007306
    54     0.042005
    55    -0.026125
    56    -0.005619
    57     0.013855
    58    -0.001157
    59    -0.010711
    60    -0.020794
    61     0.000460
    62    -0.033963
    63     0.022670
    64     0.039499
    65    -0.000834
    66     0.048665
    67     0.019195
    68     0.002698
    69    -0.010025
    70    -0.001719
    71     0.051637
    72     0.044608
    73    -0.000005
    74    -0.000200
    75     0.000537
    76     0.003820
    77     0.002467
    78    -0.013236
    79     0.047356
    80     0.008385
    81    -0.003365
    82    -0.000029
    83     0.018993
    84    -0.009466
    85     0.021289
    86     0.058139
    87    -0.029590
    88     0.019083
    89    -0.071865
    90     0.034731
    91     0.018768
    92     0.000452
    93     0.000046
    94     0.001014
    95     0.000782
    96    -0.000482
    97     0.000828
    98    -0.385420
    99     0.395759
   100     0.010593
   101    -0.762732
   102    -0.026910
   103     0.014675
   104    -0.072007
   105     0.068833
   106     0.003871
   107    -0.135528
   108     0.046956
   109    -0.020492
   110     0.005731
   111    -0.003736
   112    -0.002257
   113     0.003145
   114    -0.001477
   115     0.089209
   116    -0.008793
   117     0.004213
   118    -0.091462
   119     0.176292
   120     0.003682
   121    -0.009050
   122    -0.010077
   123     0.013568
   124     0.002774
   125     0.222809
   126    -0.033339
   127     0.022232
   128    -0.235933
   129     0.448213
   130     0.003344
   131    -0.007951
   132     0.027137
   133    -0.001021
   134    -0.114341
   135     0.013497
   136    -0.053808
   137     0.000187
   138     0.145270
   139    -0.027911
   140    -0.003421
   141    -0.002026
   142     0.003108
   143     0.146111
   144     0.113522
   145    -0.000005
   146     0.000022
   147    -0.000114
   148     0.002996
   149     0.002034
   150    -0.024487
   151    -0.042131
   152     0.000040
   153    -0.001996
   154     0.000333
   155    -0.010327
   156     0.002475
   157     0.004143
   158     0.024230
   159     0.004883
   160     0.019335
   161     0.044847
   162    -0.030971
   163     0.006740
   164     0.000155
   165     0.000487
   166     0.000101
   167     0.000067
   168     0.000440
   169    -0.000204
   170     0.006755
   171     0.005288
   172     0.006091
   173     0.000836
   174    -0.003621
   175     0.002974
   176    -0.004487
   177     0.018147
   178    -0.006267
   179    -0.020402
   180    -0.011450
   181    -0.002249
   182    -0.000449
   183     0.000085
   184     0.000109
   185    -0.000181
   186     0.000089
   187    -0.000464
   188     0.000855
   189    -0.000799
   190     0.000727
   191    -0.002060
   192    -0.003980
   193     0.003425
   194     0.002552
   195    -0.002699
   196     0.000643
   197     0.007449
   198    -0.001455
   199     0.000069
   200    -0.006438
   201     0.013661
   202    -0.001926
   203    -0.002276
   204     0.001082
   205    -0.000575
   206    -0.001201
   207     0.002830
   208    -0.004289
   209     0.000762
   210     0.000013
   211    -0.003389
   212    -0.000153
   213    -0.001372
   214     0.001351
   215     0.002665
   216    -0.000026
Sym=   152a
Ene=   -0.981943E-08
Spin= Alpha
Occup= 0.000000
     1    -0.018970
     2     0.032206
     3     0.070850
     4     0.058663
     5    -2.057957
     6    54.216015
     7     4.455367
     8     0.007127
     9     0.003700
    10    -0.039073
    11     0.398378
    12     0.365439
    13    -0.446578
    14     1.196228
    15     1.799891
    16     5.982250
    17     0.032840
    18     0.314343
    19     1.057656
    20    -0.086869
    21     0.101336
    22     1.459465
    23    -0.145421
    24    -0.085539
    25    -0.082837
    26     1.058533
    27    -0.071141
    28    -4.986996
    29     0.843975
    30     0.362350
    31     0.329533
    32    -0.258425
    33    -0.033818
    34    43.129838
    35     0.045395
    36    -1.183444
    37    -1.743831
    38    -0.059759
    39     0.002731
    40     0.382652
    41     0.006709
    42    -0.028982
    43    -0.002554
    44     0.020132
    45     0.055964
    46     0.049751
    47    -0.002726
    48    -0.096617
    49    -0.187617
    50    -3.230454
    51    -0.057871
    52    -0.074411
    53     0.748198
    54     0.654718
    55     0.943723
    56     0.501612
    57    -0.034029
    58     6.742105
    59    -0.449704
    60     1.302167
    61    -0.138594
    62    -0.363234
    63    -0.290257
    64    -0.156989
    65    -0.132912
    66    -0.495011
    67     1.050096
    68    -0.062386
    69    -0.444859
    70    -0.192108
    71    -0.249890
    72    -1.116082
    73    -0.544206
    74     1.199343
    75    -6.655601
    76     1.186380
    77    22.204845
    78   -42.598280
    79     0.038707
    80     0.071691
    81     0.124017
    82     0.085640
    83     0.536670
    84     0.952293
    85    -9.102952
    86    -1.807892
    87    -2.631685
    88   -13.819161
    89     0.274599
    90     0.217339
    91     0.875645
    92    -8.594660
    93    -7.286484
    94    -7.585538
    95     0.290923
    96    -0.338526
    97    -0.901610
    98    10.981214
    99     3.434465
   100     1.726786
   101    -1.675717
   102     1.861736
   103     5.033213
   104    -1.242489
   105    -1.119544
   106    -6.360674
   107     0.017208
   108    -1.333884
   109    -1.988408
   110    -0.357586
   111    -0.422528
   112    -0.998449
   113    -0.044374
   114    -0.250037
   115     0.125780
   116     0.006696
   117    -0.107204
   118     0.155859
   119     0.019088
   120     0.216115
   121     0.075867
   122    -2.985693
   123    -0.036717
   124     0.099410
   125    -1.130859
   126    -0.780860
   127    -1.029890
   128    -1.328855
   129    -0.059567
   130    -5.472435
   131    -2.520105
   132    -2.826370
   133    -2.191134
   134    -3.707085
   135    -1.040013
   136     0.314728
   137    -0.371475
   138     0.737497
   139    -4.181247
   140    -0.972955
   141    -3.663152
   142    -0.788884
   143     0.719449
   144    -8.755797
   145    -0.005177
   146     0.013013
   147    -0.105975
   148     0.196477
   149    -0.821424
   150   -23.523518
   151   -10.592850
   152    -0.019132
   153    -0.017622
   154     0.022469
   155    -0.010327
   156    -0.078334
   157    -0.410131
   158     0.437162
   159     0.652371
   160    30.101095
   161    -0.210290
   162    -0.465306
   163    -0.482527
   164    -0.166528
   165    -0.142134
   166    -0.153149
   167     0.004810
   168     0.064403
   169     0.085507
   170     0.476211
   171     0.348013
   172     0.561563
   173    -0.031456
   174    -0.339899
   175    -0.425117
   176    -5.020319
   177    -5.002558
   178   -17.627873
   179    -0.026079
   180     0.067855
   181     0.108765
   182    -0.033720
   183    -0.035674
   184     0.096503
   185    -0.019060
   186    -0.014653
   187     0.001765
   188    -0.001178
   189     0.018540
   190     0.007456
   191    -0.009608
   192    -0.121326
   193    -0.128871
   194     2.973033
   195    -0.043353
   196    -0.057891
   197    -0.210232
   198    -0.181563
   199    -0.199653
   200    -0.251658
   201     0.010208
   202    -1.062299
   203     0.188247
   204    -0.008276
   205     0.223893
   206    -0.369566
   207     0.187730
   208     0.023910
   209     0.071369
   210     0.014101
   211    -0.040243
   212     0.098435
   213    -0.255585
   214     0.185766
   215     0.015571
   216    -0.462728
Sym=   153a
Ene=   -0.181784E-05
Spin= Alpha
Occup= 0.000000
     1    -0.012968
     2     0.022155
     3    -0.028675
     4    -0.102111
     5    -0.294486
     6    -1.345930
     7    -0.105041
     8     0.351078
     9    -0.277422
    10    -0.113817
    11     2.280222
    12    -1.667449
    13    -0.498918
    14     1.362395
    15    -1.813879
    16     0.303884
    17    -0.083639
    18     0.734532
    19     0.748112
    20     3.490881
    21    -3.364630
    22    -0.076919
    23    -2.591091
    24     0.203738
    25    -0.505601
    26   -17.516566
    27    16.041702
    28    -0.012385
    29    12.598817
    30    -0.970715
    31     2.480656
    32     1.087446
    33    -1.775498
    34    -1.974110
    35    -1.057823
    36    -0.141597
    37    -0.366400
    38    -0.642989
    39     0.436842
    40     0.261651
    41    -0.321013
    42     0.207583
    43     0.102652
    44    -0.288244
    45     0.288995
    46     0.045779
    47    -0.005486
    48    -1.444947
    49     1.353533
    50     0.245279
    51    -0.601794
    52     0.590953
    53     0.273953
    54    -0.400728
    55     0.076402
    56     0.321872
    57    -0.047863
    58    -0.137206
    59    -1.026845
    60    -2.934975
    61    -0.946734
    62   -10.165828
    63     0.249742
    64    -2.243813
    65     0.168402
    66    -5.140354
    67     3.088988
    68    -0.418645
    69     0.179381
    70     0.368252
    71    -5.104044
    72    10.726120
    73     0.003125
    74    -0.006919
    75     0.033068
    76    -0.220738
    77    -0.078390
    78     2.701246
    79     0.896556
    80     0.059229
    81    -0.038100
    82    -0.011243
    83     0.242224
    84     0.112698
    85    -0.111101
    86     0.057828
    87    -0.551444
    88     1.882579
    89    -0.225884
    90     0.094730
    91    -0.180184
    92    -0.187909
    93     0.186355
    94     0.023426
    95     0.375158
    96    -0.049671
    97    -0.221115
    98     0.426473
    99    -1.200836
   100    -0.591826
   101    -2.020108
   102     0.289786
   103     1.276716
   104    -0.219311
   105     0.323857
   106     0.842799
   107     0.206398
   108    -0.321996
   109     0.129271
   110    -0.100611
   111     0.053008
   112     0.017530
   113    -0.035700
   114     0.017263
   115     0.019794
   116    -0.076338
   117    -0.035032
   118     0.009507
   119    -0.002108
   120    -0.220292
   121     0.250725
   122     0.194703
   123    -0.112428
   124     0.122052
   125     0.058237
   126    -0.323399
   127     0.337478
   128    -0.044335
   129    -0.081031
   130     0.241857
   131    -0.484109
   132     0.171913
   133    -0.487189
   134     0.489495
   135    -0.254587
   136     0.313476
   137    -0.053764
   138     0.870367
   139    -0.034456
   140    -0.218234
   141     0.089795
   142    -0.124265
   143     0.808617
   144    -0.347197
   145     0.001566
   146    -0.002854
   147    -0.001322
   148     0.174646
   149     0.152446
   150     0.226151
   151    -1.045859
   152     0.012359
   153    -0.014064
   154     0.010645
   155    -0.055801
   156     0.056029
   157    -0.164667
   158    -0.125689
   159     0.602757
   160    -0.594580
   161    -0.060835
   162    -0.254814
   163     0.020886
   164    -0.014340
   165     0.061265
   166    -0.031792
   167     0.043032
   168    -0.071729
   169     0.004388
   170     0.388256
   171     0.216233
   172     0.670257
   173    -0.134081
   174     0.395434
   175    -0.033016
   176     0.356751
   177     0.652698
   178     0.558738
   179     0.122789
   180     0.043305
   181    -0.311677
   182     0.024578
   183    -0.027274
   184    -0.015162
   185     0.014457
   186    -0.011767
   187     0.013080
   188    -0.002805
   189    -0.000100
   190     0.015330
   191     0.000353
   192     0.063222
   193    -0.110761
   194     0.068654
   195     0.020016
   196    -0.049462
   197    -0.067988
   198     0.051570
   199     0.096203
   200     0.051902
   201     0.035773
   202    -0.254475
   203    -0.047640
   204    -0.122105
   205     0.040633
   206    -0.035243
   207    -0.183621
   208    -0.014628
   209    -0.080720
   210     0.027094
   211    -0.032882
   212     0.018023
   213    -0.028061
   214    -0.192474
   215     0.029785
   216    -0.033522
Sym=   154a
Ene=   -0.694485E-02
Spin= Alpha
Occup= 0.000184
     1    -0.001002
     2    -0.007735
     3     0.032685
     4    -0.004849
     5    -0.099214
     6     0.173223
     7     0.170993
     8     0.000080
     9     0.000065
    10     0.013436
    11    -0.000393
    12     0.000201
    13    -0.156473
    14     0.000100
    15    -0.002639
    16    -0.481591
    17    -0.002093
    18     0.006092
    19     0.015661
    20     0.014463
    21     0.014294
    22    -0.035451
    23    -0.000062
    24     0.000136
    25     0.000276
    26    -0.075166
    27    -0.074264
    28     0.087874
    29     0.000363
    30    -0.001321
    31    -0.001909
    32     0.019931
    33     0.019682
    34     0.173095
    35     0.000003
    36    -0.001475
    37    -0.001780
    38    -0.000466
    39     0.000511
    40     0.012311
    41     0.000313
    42    -0.000614
    43     0.012904
    44    -0.000185
    45    -0.000009
    46     0.012783
    47    -0.000071
    48     0.000093
    49     0.000162
    50     0.018326
    51    -0.000274
    52     0.001110
    53     0.043146
    54    -0.001600
    55    -0.000056
    56     0.043340
    57     0.000580
    58    -0.196796
    59     0.000857
    60    -0.008785
    61     0.000540
    62     0.038192
    63     0.000664
    64     0.000197
    65    -0.000256
    66    -0.000196
    67    -0.008852
    68     0.000852
    69     0.022582
    70     0.000940
    71    -0.000197
    72     0.038907
    73    -0.000359
    74    -0.000854
    75     0.002859
    76    -0.075684
    77     0.036548
    78    -0.111500
    79    -0.021970
    80    -0.000028
    81     0.000037
    82    -0.000868
    83     0.000447
    84     0.000044
    85    -0.028382
    86    -0.001707
    87     0.000158
    88    -0.277226
    89     0.001894
    90    -0.003655
    91     0.006305
    92    -0.005137
    93    -0.005160
    94    -0.027985
    95    -0.000032
    96     0.000057
    97    -0.000144
    98    -0.184860
    99    -0.184452
   100    -0.002708
   101     0.000154
   102    -0.000226
   103     0.000816
   104    -0.087509
   105    -0.087548
   106    -0.168015
   107     0.000058
   108     0.000364
   109    -0.001072
   110    -0.000003
   111    -0.000176
   112     0.025521
   113     0.000108
   114     0.000047
   115     0.001049
   116     0.000036
   117    -0.000027
   118     0.001060
   119    -0.000010
   120     0.000459
   121     0.000466
   122     0.023636
   123    -0.000312
   124    -0.000858
   125    -0.004177
   126     0.000718
   127    -0.000144
   128    -0.003984
   129     0.000150
   130    -0.022607
   131    -0.000235
   132     0.002996
   133    -0.000067
   134     0.058734
   135     0.000451
   136     0.000041
   137     0.000037
   138    -0.000062
   139     0.003055
   140    -0.000391
   141     0.034392
   142     0.000087
   143    -0.000004
   144     0.058972
   145     1.590387
   146    -0.007197
   147    -2.539713
   148     1.520796
   149     1.221606
   150    -2.485579
   151    -0.496672
   152    -0.000016
   153    -0.000410
   154     0.162541
   155    -0.001432
   156     0.000322
   157    -0.222372
   158     0.000028
   159     0.003296
   160    -0.281437
   161     0.001541
   162    -0.003505
   163     0.051484
   164    -0.700611
   165    -0.699862
   166    -0.704356
   167     0.000260
   168     0.000452
   169     0.000203
   170     2.482666
   171     2.480006
   172     2.437692
   173    -0.001064
   174    -0.001979
   175    -0.000419
   176     0.320797
   177     0.320913
   178     0.488338
   179    -0.000167
   180    -0.001605
   181    -0.000720
   182     0.004658
   183     0.006877
   184    -0.024733
   185    -0.004983
   186    -0.009364
   187     0.009204
   188     0.000112
   189    -0.000082
   190     0.009153
   191     0.000053
   192    -0.020950
   193    -0.039573
   194     0.106377
   195     0.029636
   196     0.052213
   197     0.047410
   198     0.001549
   199    -0.000333
   200     0.047174
   201     0.000675
   202    -1.006989
   203     0.000011
   204    -0.626968
   205    -0.002378
   206    -1.103973
   207     0.000878
   208    -0.000186
   209     0.002901
   210     0.000864
   211    -0.627036
   212     0.003510
   213    -0.647121
   214    -0.001209
   215     0.000071
   216    -1.105606
Sym=   155a
Ene=   -0.264848E-04
Spin= Alpha
Occup= 0.000006
     1     0.004324
     2     0.000454
     3    -0.154719
     4     0.397431
     5    -0.453253
     6     4.299504
     7     0.119906
     8    -0.003574
     9    -0.022095
    10     0.003889
    11    -0.069528
    12    -0.753564
    13    -0.338578
    14    -0.006447
    15     0.060035
    16     1.055300
    17     0.028027
    18    -0.260299
    19     0.231857
    20     0.078053
    21    -0.196072
    22    -0.312315
    23    -0.065264
    24     0.065324
    25    -0.071281
    26    -0.427933
    27    -0.202553
    28     2.626082
    29     0.229791
    30    -0.072432
    31     0.802516
    32    -0.165879
    33     0.150441
    34     2.670210
    35     0.096779
    36     0.312386
    37     0.267474
    38     0.097844
    39     0.466366
    40    -0.316904
    41    -0.053111
    42     0.103546
    43     0.153923
    44    -0.060566
    45    -0.349294
    46    -0.136288
    47     0.027617
    48    -0.074793
    49    -0.132550
    50    -0.011789
    51    -0.199092
    52    -0.055733
    53    -0.110802
    54     0.238415
    55    -0.640968
    56    -0.291322
    57    -0.141682
    58    -1.447346
    59     0.056871
    60     0.199892
    61     0.045825
    62    -0.106988
    63     0.026039
    64    -0.191612
    65    -0.033335
    66     0.223470
    67    -0.512180
    68    -0.392543
    69     0.168747
    70     0.081386
    71    -0.130027
    72     0.346847
    73    -0.010822
    74     0.012700
    75     0.196126
    76    -0.331312
    77     0.985229
    78    -4.416824
    79     0.010881
    80     0.013891
    81    -0.029958
    82     0.078088
    83     0.305201
    84     0.399736
    85    -0.225899
    86     0.087641
    87    -0.318210
    88    -0.129722
    89     0.027412
    90     0.185198
    91    -0.031395
    92     0.021690
    93     0.164562
    94     0.442314
    95     0.246042
    96    -0.052430
    97    -0.267921
    98     1.008846
    99     0.325961
   100    -1.983686
   101     0.041745
   102    -0.194695
   103     1.537000
   104     0.318082
   105     0.277154
   106    -0.016182
   107    -0.223785
   108     0.237140
   109     0.439006
   110    -0.123590
   111    -0.198507
   112    -0.468013
   113    -0.359410
   114    -0.341733
   115     0.246330
   116     0.014347
   117     0.431882
   118    -0.040606
   119     0.201425
   120    -0.162346
   121     0.400862
   122    -1.029675
   123     0.289358
   124     0.253411
   125    -0.377277
   126     0.013319
   127     0.549119
   128    -0.637909
   129    -0.246470
   130     1.001322
   131    -0.050323
   132     0.040076
   133    -0.519637
   134    -0.088189
   135     0.235251
   136    -0.164712
   137     0.012217
   138    -0.096201
   139     0.336804
   140    -0.451692
   141     0.016665
   142    -0.099662
   143     0.123980
   144    -0.491606
   145    -0.000168
   146    -0.000399
   147    -0.003122
   148    -0.139324
   149     0.268083
   150    -1.667025
   151    -1.321328
   152    -0.011883
   153    -0.002444
   154     0.014518
   155     0.024509
   156     0.074422
   157     0.070105
   158    -0.093140
   159     0.014801
   160     2.165593
   161    -0.011550
   162     0.127482
   163     0.060899
   164    -0.002494
   165    -0.021393
   166    -0.059669
   167     0.000901
   168    -0.011131
   169    -0.007830
   170    -0.319081
   171    -0.233768
   172     0.017865
   173     0.000481
   174     0.044380
   175     0.043695
   176    -0.154265
   177    -0.266495
   178    -1.139852
   179     0.011521
   180     0.138175
   181    -0.155869
   182    -0.012814
   183    -0.002027
   184    -0.035296
   185    -0.016106
   186    -0.012397
   187     0.006150
   188    -0.008492
   189     0.012419
   190     0.023043
   191    -0.010111
   192    -0.092100
   193    -0.036831
   194     0.126974
   195    -0.006138
   196     0.029357
   197    -0.014034
   198    -0.091982
   199     0.084588
   200     0.086981
   201    -0.031504
   202    -0.003742
   203    -0.060906
   204    -0.063243
   205    -0.021367
   206     0.110224
   207     0.002010
   208     0.025692
   209    -0.011808
   210    -0.007246
   211     0.003056
   212    -0.033280
   213     0.072661
   214     0.008762
   215     0.006605
   216     0.143534
Sym=   156a
Ene=   -0.160115E-03
Spin= Alpha
Occup= 0.000048
     1     0.001858
     2     0.010442
     3     0.008052
     4    -0.202533
     5     0.263170
     6     3.580657
     7    -0.028362
     8     0.037205
     9     0.002939
    10    -0.054621
    11     0.309557
    12     0.037289
    13     0.240518
    14    -0.086257
    15     0.041619
    16    -1.804260
    17    -0.125528
    18    -0.018572
    19     0.255942
    20     0.033055
    21    -0.006652
    22    -0.006573
    23     0.007673
    24     0.023407
    25     0.003449
    26     0.273406
    27     0.072374
    28    -1.252316
    29    -0.105502
    30     0.513428
    31     0.131426
    32     0.192211
    33     0.112085
    34     2.122724
    35    -0.024332
    36    -0.183221
    37    -0.029097
    38     0.229638
    39     0.033763
    40     0.290483
    41     0.048314
    42    -0.016181
    43     0.145943
    44    -0.421448
    45    -0.071126
    46    -0.068546
    47     0.064830
    48     0.095516
    49     0.048202
    50     2.810650
    51     0.043380
    52    -0.071316
    53    -0.096751
    54    -0.298370
    55    -0.088809
    56    -0.062599
    57     0.044126
    58     0.077479
    59     0.024810
    60     0.191590
    61    -0.095408
    62    -0.036627
    63     0.280866
    64    -0.062884
    65    -0.219759
    66     0.065044
    67    -0.312862
    68     0.040715
    69    -0.014542
    70    -0.301356
    71     0.031825
    72     0.181782
    73     0.004239
    74     0.039952
    75     0.000411
    76     0.012138
    77     1.349527
    78    -3.950121
    79     0.572030
    80     0.060351
    81     0.016411
    82     0.180442
    83     0.559360
    84     0.116932
    85     2.711332
    86    -0.284466
    87    -0.127001
    88    -2.098479
    89    -0.118004
    90     0.002248
    91     0.073484
    92     0.079600
    93    -0.032866
    94     0.037225
    95     0.039702
    96     0.012956
    97     0.000631
    98     1.025221
    99     0.688702
   100     1.437533
   101     0.160805
   102     0.670175
   103     0.187638
   104    -0.491650
   105    -0.349973
   106    -1.346568
   107    -0.026712
   108    -0.184430
   109    -0.038261
   110     0.185380
   111    -0.024096
   112    -0.185531
   113     0.010401
   114     0.089960
   115     0.066740
   116    -0.051199
   117     0.008793
   118    -0.011097
   119     0.063371
   120    -0.207953
   121    -0.013105
   122    -1.023883
   123     0.030626
   124     0.004279
   125    -0.386589
   126     0.016359
   127     0.046353
   128    -0.408664
   129     0.084087
   130    -0.182882
   131    -0.065840
   132     0.000681
   133    -0.042692
   134    -0.205584
   135    -0.297924
   136    -0.023304
   137     0.026459
   138    -0.048856
   139    -0.200756
   140     0.037561
   141    -0.119067
   142    -0.030641
   143     0.010005
   144    -0.245864
   145     0.001414
   146     0.004507
   147     0.006488
   148    -0.043508
   149     0.036267
   150    -2.113790
   151    -0.213233
   152     0.027620
   153     0.003428
   154     0.049325
   155    -0.143377
   156    -0.014507
   157     0.465285
   158     0.058667
   159     0.021147
   160     0.848255
   161     0.072760
   162    -0.006462
   163    -0.010442
   164     0.002701
   165     0.001903
   166     0.033546
   167     0.001534
   168     0.027479
   169     0.003379
   170    -0.025983
   171    -0.010093
   172    -0.189160
   173    -0.006044
   174    -0.171403
   175    -0.021046
   176     0.006965
   177     0.001920
   178    -0.589812
   179     0.005211
   180    -0.072668
   181    -0.013948
   182     0.047421
   183     0.002332
   184     0.055066
   185     0.022963
   186     0.007976
   187     0.037717
   188     0.004784
   189     0.000080
   190     0.035375
   191    -0.000744
   192     0.138178
   193     0.031513
   194     0.198586
   195     0.057214
   196    -0.007238
   197     0.127697
   198    -0.058894
   199    -0.012867
   200     0.204495
   201     0.003145
   202     0.097461
   203     0.021434
   204    -0.026305
   205     0.006935
   206     0.025384
   207     0.174918
   208     0.009242
   209     0.013688
   210     0.004291
   211     0.030279
   212    -0.001551
   213     0.010280
   214     0.056721
   215    -0.005705
   216     0.032359
Sym=   157a
Ene=   -0.587157E-04
Spin= Alpha
Occup= 0.000018
     1     0.000057
     2     0.000432
     3     0.006819
     4    -0.045688
     5     0.114585
     6    -0.861412
     7    -0.418235
     8     0.039149
     9     0.016115
    10    -0.003710
    11     0.114005
    12    -0.087328
    13     0.103960
    14    -0.043958
    15    -0.082043
    16     0.398141
    17     0.150625
    18     0.093507
    19     0.069283
    20    -0.241811
    21     0.238191
    22     0.013473
    23     0.018212
    24    -0.040211
    25    -0.066936
    26     0.095349
    27    -0.076109
    28    -0.206129
    29    -0.019250
    30    -0.182053
    31    -0.092920
    32     0.285288
    33    -0.331491
    34    -0.458954
    35    -0.019679
    36     0.511035
    37     0.362226
    38     0.230546
    39     0.288864
    40     0.036776
    41    -0.209447
    42    -0.245135
    43     0.331406
    44     0.095605
    45     0.102332
    46    -0.347547
    47    -0.020018
    48    -0.330401
    49    -0.387473
    50     0.180250
    51     0.040266
    52     0.314464
    53    -0.142986
    54     0.083160
    55    -0.053354
    56     0.161890
    57     0.029340
    58     0.077581
    59    -0.004491
    60     0.331914
    61    -0.181176
    62    -0.087081
    63    -0.051703
    64     0.045036
    65     0.244872
    66    -0.086125
    67    -0.299956
    68     0.239555
    69     0.113090
    70    -0.130514
    71     0.032454
    72    -0.043680
    73    -0.001455
    74     0.008160
    75     0.018849
    76    -0.090048
    77     0.195052
    78     0.504446
    79     0.616749
    80     0.024178
    81     0.021385
    82     0.009173
    83     0.065039
    84    -0.043913
    85     0.187755
    86     0.234618
    87     0.587123
    88     0.640941
    89     0.091309
    90    -0.053420
    91     0.168911
    92    -0.138212
    93     0.160420
    94     0.010822
    95    -0.015475
    96     0.063562
    97     0.081620
    98     0.306967
    99    -0.386606
   100     0.099359
   101     0.015607
   102    -0.332728
   103    -0.109378
   104     0.157000
   105    -0.129445
   106     0.302622
   107     0.005793
   108     0.130453
   109     0.122251
   110     0.098493
   111     0.123250
   112     0.031712
   113    -0.112191
   114    -0.127528
   115    -0.180250
   116    -0.020400
   117     0.083464
   118     0.198723
   119    -0.022804
   120    -0.151664
   121    -0.292464
   122     0.020759
   123     0.080367
   124     0.060038
   125     0.165413
   126    -0.079824
   127    -0.111553
   128    -0.250746
   129     0.031969
   130    -0.009331
   131     0.083009
   132     0.226013
   133     0.058178
   134     0.151288
   135     0.118997
   136    -0.012543
   137    -0.018244
   138     0.030287
   139    -0.222707
   140    -0.057581
   141     0.052634
   142     0.171153
   143    -0.017423
   144    -0.188388
   145    -0.000049
   146     0.000138
   147    -0.001661
   148     0.026219
   149     0.058813
   150     0.002997
   151    -0.258176
   152    -0.002874
   153     0.005521
   154    -0.000759
   155     0.031792
   156    -0.022650
   157     0.058114
   158    -0.306463
   159    -0.171233
   160    -0.225168
   161    -0.035062
   162    -0.010790
   163     0.101836
   164    -0.018241
   165     0.020700
   166    -0.001223
   167     0.002255
   168     0.004555
   169     0.014902
   170     0.132613
   171    -0.019148
   172     0.073749
   173    -0.005256
   174    -0.023231
   175    -0.035448
   176     0.105227
   177     0.191521
   178     0.134481
   179    -0.000716
   180     0.181652
   181     0.040353
   182    -0.011618
   183    -0.005675
   184    -0.004577
   185     0.005011
   186     0.020395
   187     0.000649
   188     0.000750
   189     0.002870
   190     0.000868
   191     0.000905
   192     0.019245
   193     0.075298
   194     0.028565
   195    -0.040870
   196    -0.062306
   197    -0.045815
   198    -0.003962
   199     0.041522
   200     0.049234
   201     0.005841
   202    -0.024155
   203    -0.002781
   204    -0.052774
   205    -0.005934
   206     0.028308
   207    -0.004152
   208    -0.002941
   209     0.024002
   210    -0.005639
   211     0.033799
   212     0.038668
   213    -0.007220
   214    -0.011635
   215     0.006323
   216    -0.059772
Sym=   158a
Ene=   -0.148196E-04
Spin= Alpha
Occup= 0.000003
     1    -0.005997
     2    -0.008107
     3     0.289028
     4    -0.895348
     5     0.120029
     6     3.677913
     7     0.911938
     8     0.000548
     9    -0.000821
    10     0.149111
    11     0.002332
    12     0.024716
    13     0.695538
    14     0.043022
    15    -0.129669
    16    -4.487751
    17    -0.036448
    18     0.134673
    19     0.225183
    20     0.111612
    21     0.122730
    22     0.496857
    23     0.002860
    24     0.001054
    25     0.010743
    26    -0.872672
    27    -1.035066
    28    -2.896779
    29     0.010821
    30    -0.030820
    31    -0.142804
    32    -0.121061
    33    -0.092765
    34    -0.028493
    35     0.004144
    36    -0.040607
    37    -0.029691
    38    -0.306158
    39     0.155358
    40    -0.305041
    41     0.400479
    42    -0.233621
    43    -0.063265
    44    -0.004552
    45    -0.000519
    46    -0.132569
    47    -0.001521
    48    -0.048242
    49     0.067783
    50    -0.637870
    51     0.046593
    52    -0.019484
    53    -0.299937
    54     0.002411
    55    -0.026206
    56    -0.211193
    57     0.023214
    58     1.874685
    59     0.092418
    60     0.255122
    61     0.402523
    62     0.364796
    63     0.028686
    64     0.002356
    65     0.784278
    66    -0.004608
    67     0.280241
    68    -0.411474
    69     0.174544
    70    -0.565880
    71    -0.007768
    72     0.246259
    73     0.001642
    74    -0.000115
    75    -0.019584
    76    -0.230593
    77    -0.733004
    78    -0.663700
    79     0.410616
    80     0.000044
    81    -0.004273
    82     0.038850
    83     0.004779
    84    -0.010289
    85     0.097846
    86    -0.057395
    87    -0.014359
    88    -3.311531
    89     0.032545
    90    -0.061174
    91    -0.025275
    92    -0.019674
    93    -0.019715
    94     0.053646
    95     0.001499
    96     0.000977
    97    -0.004664
    98    -0.759389
    99    -0.741426
   100    -1.518454
   101    -0.005996
   102    -0.002900
   103     0.041543
   104    -1.055826
   105    -1.027152
   106    -2.432355
   107     0.004308
   108    -0.017121
   109    -0.000592
   110    -0.027551
   111     0.024227
   112    -0.161735
   113     0.035597
   114    -0.029222
   115    -0.002048
   116     0.002006
   117     0.011428
   118    -0.001672
   119    -0.002675
   120    -0.036917
   121     0.032079
   122    -0.229695
   123     0.054304
   124    -0.006934
   125     0.051437
   126     0.004192
   127     0.027162
   128     0.093761
   129     0.009766
   130     0.479090
   131     0.000938
   132     0.302356
   133     0.027759
   134     0.160565
   135     0.007582
   136    -0.003740
   137     0.110122
   138     0.001887
   139     0.296035
   140    -0.065161
   141     0.097769
   142    -0.085719
   143     0.012037
   144     0.166666
   145     0.006537
   146    -0.006732
   147    -0.046024
   148     0.289453
   149    -0.303636
   150     0.512979
   151     1.215481
   152     0.000921
   153    -0.006269
   154     0.103460
   155    -0.007653
   156     0.036077
   157    -0.751622
   158     0.013229
   159     0.110056
   160    -1.855576
   161     0.013162
   162    -0.077272
   163    -0.148747
   164    -0.050678
   165    -0.057340
   166     0.255024
   167    -0.000765
   168    -0.002734
   169    -0.007009
   170     0.647653
   171     0.658117
   172    -1.202085
   173     0.016254
   174     0.020264
   175     0.065103
   176     0.083628
   177     0.042046
   178     0.774068
   179    -0.001804
   180    -0.014198
   181    -0.017133
   182    -0.031758
   183    -0.010835
   184     0.432174
   185     0.047134
   186     0.003711
   187     0.066495
   188    -0.002697
   189    -0.021273
   190     0.053062
   191     0.002875
   192     0.100090
   193    -0.078371
   194     0.460392
   195    -0.130122
   196     0.031297
   197     0.169338
   198     0.000074
   199    -0.013010
   200     0.176446
   201     0.011609
   202     0.614356
   203    -0.032285
   204     0.345009
   205     0.029269
   206    -0.316502
   207    -0.004381
   208    -0.035896
   209     0.102534
   210    -0.004366
   211     0.286212
   212    -0.091836
   213    -0.177449
   214    -0.084025
   215     0.003217
   216    -0.295895
Sym=   159a
Ene=   -0.899795E-03
Spin= Alpha
Occup= 0.000424
     1     0.000008
     2    -0.000793
     3     0.001055
     4    -0.002253
     5    -0.035633
     6     0.224620
     7    -0.017838
     8     0.000475
     9     0.000635
    10    -0.002407
    11     0.046106
    12     0.153693
    13     0.003128
    14    -0.000241
    15    -0.020269
    16    -0.075666
    17    -0.020667
    18    -0.127532
    19    -0.001170
    20    -0.003714
    21     0.003035
    22    -0.006883
    23    -0.007695
    24     0.000130
    25    -0.000953
    26     0.001120
    27    -0.053304
    28    -0.024762
    29     0.024913
    30     0.016298
    31     0.024779
    32     0.004475
    33    -0.001914
    34     0.146092
    35    -0.039513
    36    -0.057945
    37    -0.210837
    38    -0.007005
    39    -0.022332
    40     0.001463
    41    -0.002532
    42    -0.010512
    43     0.002466
    44     0.002327
    45     0.003888
    46     0.004835
    47    -0.000723
    48    -0.023727
    49    -0.078699
    50     0.110333
    51    -0.008957
    52    -0.035428
    53     0.022867
    54    -0.025759
    55    -0.088234
    56     0.012564
    57    -0.002198
    58    -0.014358
    59     0.021526
    60     0.005116
    61    -0.001494
    62     0.019733
    63     0.006869
    64    -0.004412
    65     0.002656
    66    -0.011637
    67    -0.001868
    68    -0.003413
    69    -0.000205
    70    -0.005169
    71    -0.011534
    72    -0.001797
    73     0.000023
    74     0.000246
    75    -0.000176
    76    -0.006501
    77     0.014210
    78    -0.093307
    79     0.022339
    80     0.003671
    81     0.013652
    82     0.002092
    83    -0.002798
    84    -0.028516
    85     0.067727
    86     0.001458
    87    -0.002387
    88    -0.107493
    89     0.053051
    90     0.231094
    91     0.013088
    92     0.000552
    93     0.000148
    94    -0.001442
    95     0.001230
    96     0.002464
    97     0.005521
    98    -0.025143
    99    -0.001087
   100     0.020994
   101     0.003558
   102    -0.013227
   103    -0.042057
   104    -0.034279
   105    -0.033829
   106    -0.063680
   107     0.017514
   108     0.005125
   109     0.019805
   110    -0.002918
   111    -0.008088
   112    -0.000754
   113    -0.001329
   114    -0.003627
   115    -0.003098
   116    -0.000097
   117     0.000070
   118    -0.000407
   119    -0.000833
   120    -0.009040
   121    -0.022502
   122    -0.013676
   123    -0.002035
   124    -0.011448
   125    -0.009896
   126    -0.000811
   127    -0.000594
   128    -0.005882
   129     0.011000
   130    -0.000127
   131     0.026319
   132     0.000208
   133     0.013615
   134     0.001885
   135     0.009457
   136    -0.000209
   137     0.003378
   138     0.000989
   139     0.003033
   140     0.005054
   141     0.002031
   142     0.004205
   143    -0.000362
   144     0.006094
   145    -0.000479
   146     0.000726
   147    -0.003738
   148    -0.014173
   149     0.030217
   150    -0.131789
   151     0.053766
   152    -0.056748
   153    -0.253162
   154    -0.008072
   155     0.043403
   156     0.191186
   157     0.040447
   158     0.073210
   159     0.256864
   160     0.044879
   161    -0.121014
   162    -0.419421
   163    -0.044100
   164     0.015176
   165    -0.015574
   166     0.001944
   167     0.016887
   168     0.007131
   169     0.004514
   170     0.280805
   171    -0.378431
   172     0.018605
   173     0.483548
   174     0.075981
   175     0.088923
   176     0.030692
   177    -0.078911
   178    -0.034264
   179     0.098811
   180     0.014562
   181    -0.031948
   182     0.117439
   183     0.005763
   184     0.001716
   185    -0.132795
   186     0.110984
   187     0.032085
   188     0.001246
   189    -0.038177
   190    -0.019666
   191     0.022272
   192     0.372079
   193     0.037144
   194     0.007469
   195    -0.416780
   196     0.372605
   197     0.076551
   198    -0.011445
   199    -0.127439
   200    -0.030440
   201     0.044936
   202    -0.009563
   203    -0.036727
   204     0.030180
   205    -0.010639
   206     0.160627
   207    -0.019298
   208    -0.043854
   209    -0.042460
   210    -0.067716
   211    -0.011868
   212     0.021061
   213    -0.193439
   214     0.032464
   215     0.003869
   216     0.080188
Sym=   160a
Ene=   -0.874026E-02
Spin= Alpha
Occup= 0.007349
     1    -0.003600
     2    -0.000308
     3    -0.006210
     4     0.021618
     5     0.035073
     6     0.077504
     7     0.047117
     8     0.002336
     9    -0.016527
    10    -0.009145
    11    -0.004761
    12     0.031672
    13     0.064822
    14     0.000999
    15    -0.009312
    16     0.179570
    17    -0.002723
    18     0.017205
    19    -0.115844
    20     0.004858
    21    -0.000432
    22     0.005752
    23    -0.000412
    24     0.002261
    25    -0.012898
    26     0.061685
    27     0.075985
    28     0.045806
    29    -0.017633
    30    -0.001260
    31     0.007490
    32     0.054311
    33     0.038420
    34     0.087406
    35    -0.011096
    36     0.010765
    37    -0.061323
    38    -0.000560
    39     0.003910
    40    -0.002558
    41    -0.000364
    42     0.001348
    43    -0.001908
    44    -0.000167
    45     0.000982
    46    -0.001483
    47     0.000437
    48    -0.003602
    49     0.004844
    50     0.033470
    51     0.002976
    52     0.005169
    53    -0.013426
    54    -0.000730
    55     0.003216
    56    -0.006667
    57     0.000769
    58     0.019697
    59    -0.012983
    60    -0.008674
    61    -0.014831
    62    -0.023873
    63     0.002364
    64     0.001101
    65     0.001442
    66     0.002249
    67    -0.005820
    68    -0.004800
    69    -0.010606
    70     0.002182
    71     0.002195
    72    -0.012205
    73     0.000790
    74     0.000114
    75     0.000660
    76     0.038675
    77     0.015850
    78    -0.121393
    79    -0.217371
    80     0.000453
    81    -0.001489
    82     0.002645
    83     0.002302
    84    -0.013143
    85     0.013560
    86    -0.010866
    87     0.059396
    88     0.004429
    89    -0.014101
    90     0.083915
    91    -0.009498
    92     0.002750
    93     0.002956
    94     0.006478
    95     0.000650
    96    -0.000372
    97     0.002510
    98     0.081326
    99     0.089862
   100     0.058940
   101     0.010023
   102     0.004287
   103    -0.024045
   104     0.046422
   105     0.055609
   106     0.052736
   107     0.005862
   108     0.000951
   109    -0.002161
   110     0.000246
   111    -0.001384
   112    -0.004551
   113     0.000051
   114    -0.000499
   115    -0.000161
   116     0.000356
   117    -0.001884
   118     0.000004
   119     0.000902
   120     0.000390
   121    -0.004626
   122    -0.010410
   123     0.001024
   124    -0.003855
   125    -0.001919
   126     0.001517
   127    -0.007632
   128     0.003252
   129     0.002731
   130    -0.010538
   131     0.004659
   132    -0.007551
   133     0.004955
   134    -0.023497
   135    -0.000723
   136    -0.000113
   137    -0.000172
   138    -0.000549
   139    -0.007805
   140     0.001926
   141    -0.013548
   142    -0.000971
   143    -0.001182
   144    -0.021432
   145    -0.067473
   146    -0.008377
   147    -0.104925
   148    -0.059503
   149     0.573736
   150    -0.088712
   151    -0.559484
   152    -0.076101
   153     0.447802
   154     0.120652
   155    -0.058304
   156     0.340121
   157     0.137863
   158     0.068273
   159    -0.395607
   160     0.072754
   161     0.052677
   162    -0.313699
   163    -0.072345
   164    -0.017111
   165     0.055778
   166    -0.021654
   167    -0.014794
   168    -0.003870
   169     0.022557
   170    -0.087030
   171     0.231173
   172    -0.058663
   173    -0.065270
   174    -0.012908
   175     0.077593
   176    -0.033167
   177    -0.078791
   178    -0.101636
   179     0.009744
   180    -0.009466
   181     0.052170
   182     0.002585
   183     0.057470
   184    -0.007881
   185    -0.015924
   186    -0.004968
   187    -0.005271
   188    -0.000787
   189     0.004435
   190     0.015324
   191    -0.004071
   192     0.016452
   193    -0.061047
   194    -0.027836
   195    -0.002020
   196    -0.042359
   197    -0.024631
   198     0.006806
   199    -0.041035
   200    -0.008757
   201    -0.003350
   202    -0.009498
   203    -0.010401
   204    -0.014408
   205    -0.004908
   206    -0.039128
   207     0.001667
   208     0.003687
   209    -0.001071
   210     0.006203
   211     0.004616
   212    -0.005906
   213    -0.008362
   214     0.002173
   215     0.009340
   216     0.020003
Sym=   161a
Ene=   -0.143368E-02
Spin= Alpha
Occup= 0.000789
     1    -0.000755
     2     0.001691
     3    -0.001351
     4    -0.035466
     5     0.069780
     6     0.379304
     7    -0.180240
     8     0.001612
     9     0.001383
    10    -0.012549
    11    -0.133519
    12    -0.120975
    13    -0.100871
    14     0.010988
    15     0.016190
    16    -0.971333
    17     0.060814
    18     0.066733
    19    -0.291467
    20    -0.002041
    21     0.000737
    22     0.014295
    23     0.008067
    24    -0.003953
    25    -0.003446
    26    -0.033078
    27    -0.024933
    28     0.006613
    29    -0.034674
    30    -0.019586
    31    -0.014775
    32     0.030516
    33     0.069731
    34    -0.126624
    35     0.004374
    36     0.109183
    37     0.096093
    38     0.018955
    39     0.017357
    40     0.021807
    41     0.008386
    42     0.007362
    43    -0.001687
    44    -0.005354
    45    -0.004783
    46    -0.002428
    47     0.001049
    48     0.049026
    49     0.050473
    50    -0.189286
    51     0.032180
    52     0.025050
    53     0.017706
    54     0.058546
    55     0.054198
    56     0.022563
    57    -0.006950
    58     0.061608
    59    -0.024530
    60     0.002716
    61    -0.009456
    62     0.010411
    63    -0.028100
    64     0.005334
    65    -0.002122
    66     0.011328
    67     0.003258
    68     0.001237
    69     0.008892
    70    -0.007479
    71     0.014306
    72     0.007131
    73    -0.000003
    74    -0.000107
    75    -0.000410
    76    -0.004927
    77    -0.050785
    78    -0.421721
    79    -0.424938
    80    -0.013993
    81    -0.010464
    82    -0.005066
    83     0.012335
    84     0.004576
    85    -0.180280
    86    -0.018942
    87    -0.022777
    88    -0.553016
    89    -0.127758
    90    -0.125076
    91     0.000484
    92    -0.002877
    93    -0.002688
    94     0.001692
    95    -0.000170
    96    -0.002844
    97    -0.002939
    98     0.007063
    99    -0.019739
   100    -0.103001
   101    -0.002771
   102     0.023513
   103     0.018465
   104    -0.041359
   105    -0.053368
   106    -0.271874
   107    -0.009889
   108    -0.024721
   109    -0.022840
   110     0.006963
   111     0.006261
   112    -0.002903
   113     0.002430
   114     0.003132
   115     0.003982
   116     0.000032
   117     0.000315
   118     0.002644
   119    -0.000032
   120     0.013482
   121     0.021195
   122    -0.002970
   123     0.012768
   124     0.006225
   125     0.026061
   126    -0.008802
   127    -0.002537
   128     0.014300
   129    -0.006167
   130     0.003703
   131    -0.017682
   132     0.003178
   133    -0.006452
   134     0.001998
   135    -0.019737
   136    -0.000612
   137    -0.002213
   138    -0.000135
   139     0.000790
   140    -0.002891
   141    -0.000648
   142    -0.008068
   143     0.001219
   144    -0.004363
   145     0.019817
   146    -0.009560
   147     0.076601
   148     0.007821
   149    -0.506633
   150     1.027983
   151     0.587261
   152     0.347464
   153     0.301076
   154    -0.108529
   155    -0.210554
   156    -0.183508
   157     0.023086
   158    -0.167427
   159    -0.153559
   160    -0.240402
   161     0.261130
   162     0.228536
   163    -0.361921
   164    -0.024227
   165    -0.018642
   166    -0.022216
   167    -0.005378
   168    -0.004704
   169    -0.004304
   170     0.007605
   171    -0.044035
   172    -0.223273
   173     0.264299
   174    -0.159779
   175    -0.138570
   176     0.125180
   177     0.049109
   178    -0.170870
   179     0.302366
   180    -0.079830
   181    -0.065586
   182    -0.000154
   183     0.012635
   184    -0.036976
   185    -0.042796
   186    -0.057934
   187     0.034341
   188     0.033057
   189     0.028751
   190     0.027152
   191     0.028221
   192    -0.087383
   193    -0.001121
   194    -0.163920
   195    -0.248574
   196    -0.320139
   197     0.120488
   198     0.102376
   199     0.090822
   200     0.107848
   201     0.049983
   202     0.040461
   203     0.045307
   204     0.007802
   205     0.007786
   206    -0.019500
   207     0.052646
   208    -0.031908
   209    -0.027694
   210    -0.010915
   211    -0.001155
   212    -0.038975
   213     0.124061
   214    -0.005264
   215     0.045491
   216    -0.008978
Sym=   162a
Ene=   -0.187252E-03
Spin= Alpha
Occup= 0.000078
     1    -0.000029
     2    -0.000110
     3    -0.000106
     4    -0.002431
     5    -0.004137
     6    -0.022241
     7    -0.013625
     8    -0.023857
     9     0.001012
    10     0.000227
    11     0.165496
    12    -0.019940
    13    -0.003802
    14    -0.238104
    15     0.021880
    16     0.010078
    17     0.152831
    18    -0.007888
    19     0.010618
    20     0.000985
    21    -0.002100
    22    -0.000733
    23    -0.001776
    24     0.116967
    25    -0.006834
    26    -0.031589
    27     0.017314
    28    -0.005820
    29    -0.001257
    30    -0.667294
    31     0.039722
    32     0.047164
    33    -0.058150
    34    -0.036903
    35     0.047367
    36    -0.005278
    37    -0.012670
    38     0.023405
    39    -0.000944
    40    -0.001266
    41     0.011098
    42    -0.000825
    43     0.003960
    44     0.000679
    45     0.000017
    46    -0.004360
    47     0.002753
    48     0.068192
    49    -0.006756
    50    -0.015438
    51     0.025942
    52    -0.002048
    53    -0.007980
    54     0.580891
    55    -0.037885
    56     0.008364
    57    -0.005024
    58     0.003497
    59    -0.011664
    60     0.000284
    61    -0.008283
    62    -0.006020
    63     0.239271
    64    -0.003918
    65     0.071436
    66    -0.004620
    67     0.001055
    68    -0.002979
    69    -0.003184
    70     0.156961
    71    -0.001547
    72     0.013887
    73     0.000106
    74     0.000352
    75     0.000133
    76    -0.010271
    77    -0.005572
    78     0.064955
    79     0.032651
    80     0.073779
    81    -0.004508
    82    -0.002000
    83    -0.003325
    84    -0.003020
    85    -0.014149
    86     0.295005
    87    -0.011485
    88     0.008533
    89    -0.031619
    90    -0.007961
    91    -0.002640
    92    -0.006213
    93     0.005406
    94    -0.000723
    95    -0.004028
    96    -0.134956
    97     0.008683
    98    -0.129544
    99     0.087795
   100    -0.008007
   101    -0.102939
   102    -1.860011
   103     0.114125
   104     0.047592
   105    -0.058748
   106    -0.001512
   107     0.053121
   108     0.753150
   109    -0.046716
   110     0.082210
   111    -0.005258
   112    -0.002112
   113     0.034367
   114    -0.003947
   115     0.001490
   116     0.459374
   117    -0.027916
   118     0.001638
   119     0.002733
   120    -0.400796
   121     0.021591
   122     0.017015
   123    -0.187063
   124     0.008065
   125    -0.034027
   126    -0.849038
   127     0.056837
   128     0.050066
   129    -0.036713
   130    -0.005469
   131    -0.025898
   132    -0.035682
   133    -0.035386
   134    -0.018896
   135     0.442383
   136     0.036248
   137     0.243950
   138     0.013053
   139     0.036774
   140    -0.013284
   141    -0.010064
   142     0.540741
   143     0.021120
   144     0.044008
   145    -0.000006
   146     0.000011
   147    -0.000078
   148     0.005374
   149    -0.004042
   150     0.010642
   151    -0.001796
   152    -0.014347
   153     0.000392
   154    -0.000408
   155    -0.064043
   156     0.001224
   157    -0.002790
   158     0.100418
   159     0.009704
   160    -0.019420
   161    -0.276453
   162     0.011959
   163    -0.004330
   164     0.000519
   165     0.000287
   166     0.000686
   167    -0.001142
   168    -0.004308
   169     0.000299
   170     0.010566
   171     0.009585
   172     0.009319
   173     0.006531
   174     0.015477
   175     0.000994
   176     0.002311
   177     0.007524
   178     0.017929
   179    -0.022690
   180     0.198505
   181    -0.020511
   182    -0.012108
   183     0.000553
   184    -0.000281
   185    -0.005591
   186     0.000228
   187    -0.000403
   188    -0.002337
   189    -0.000153
   190    -0.000027
   191     0.000918
   192    -0.006507
   193    -0.000351
   194    -0.003196
   195    -0.002189
   196    -0.000476
   197     0.000269
   198    -0.183302
   199     0.011352
   200    -0.002156
   201     0.002944
   202    -0.002483
   203    -0.003462
   204    -0.000456
   205    -0.001357
   206     0.003302
   207     0.046795
   208     0.002434
   209     0.007555
   210     0.010611
   211    -0.002185
   212    -0.000600
   213    -0.007290
   214     0.017992
   215    -0.007982
   216    -0.003646
Sym=   163a
Ene=   -0.248803E-05
Spin= Alpha
Occup= 0.000000
     1    -0.000521
     2     0.002018
     3    -0.021389
     4     0.073454
     5     0.029959
     6    -0.011091
     7    -0.130203
     8     0.015997
     9     0.082766
    10     0.001330
    11    -0.180481
    12     0.660072
    13    -0.181836
    14    -0.110632
    15     0.069577
    16     0.143688
    17     0.228533
    18    -0.091420
    19     0.039222
    20     0.072437
    21    -0.128885
    22     0.006932
    23     0.254983
    24    -0.092658
    25    -0.006162
    26    -0.189783
    27     0.607847
    28     0.039445
    29    -1.007818
    30     0.398928
    31     0.038107
    32     0.267671
    33    -0.299037
    34     0.179959
    35     0.832054
    36     0.921934
    37    -0.423787
    38    -0.034740
    39    -0.183187
    40     0.009428
    41     0.011098
    42    -0.100073
    43    -0.018989
    44    -0.008713
    45    -0.056779
    46     0.016114
    47    -0.056837
    48    -0.088055
    49    -0.238733
    50    -0.273703
    51    -0.070436
    52    -0.077349
    53     0.059720
    54    -0.168417
    55    -0.299452
    56    -0.035815
    57     0.182628
    58     0.100230
    59    -0.077604
    60    -0.093689
    61    -0.082208
    62    -0.234284
    63     0.066645
    64     0.169848
    65    -0.041729
    66     0.258071
    67     0.055736
    68    -0.014332
    69    -0.085675
    70    -0.111251
    71     0.247712
    72     0.093943
    73    -0.003530
    74     0.006050
    75    -0.016221
    76     0.000508
    77    -0.033899
    78    -0.245206
    79     0.219176
    80    -0.001481
    81     0.172802
    82    -0.011880
    83    -0.056911
    84     1.230522
    85    -0.304258
    86     1.106194
    87     0.013242
    88    -0.048901
    89    -0.429593
    90     0.057104
    91     0.093999
    92    -1.143602
    93     1.053420
    94     0.045268
    95    -4.005623
    96    -1.183680
    97     0.538674
    98     5.151412
    99    -4.834767
   100    -0.433831
   101    18.519716
   102     5.827568
   103    -2.695099
   104    -0.615719
   105     0.591958
   106    -0.005940
   107    -2.064726
   108     0.120029
   109    -0.006281
   110     0.071007
   111    -0.384254
   112     0.003424
   113     0.018517
   114    -0.174938
   115     0.042384
   116    -0.009905
   117    -0.116926
   118    -0.025272
   119     0.099993
   120    -0.200112
   121    -0.549703
   122     0.012816
   123    -0.072114
   124    -0.245126
   125    -0.031938
   126     0.375905
   127    -0.427689
   128     0.099643
   129    -0.172894
   130     0.180263
   131     1.068897
   132     0.897354
   133     1.151369
   134     2.865133
   135    -2.196144
   136    -3.258995
   137    -1.052760
   138    -7.334355
   139    -0.852064
   140     0.519725
   141    -0.022159
   142    -2.371304
   143    -7.337599
   144    -3.121957
   145    -0.000486
   146     0.001170
   147    -0.005501
   148    -0.050492
   149     0.038799
   150     0.215829
   151    -0.029185
   152     0.003383
   153    -0.026189
   154    -0.003338
   155     0.005789
   156     0.145513
   157    -0.070320
   158    -0.429746
   159     0.517259
   160     0.121479
   161    -0.095234
   162    -0.056097
   163    -0.023616
   164    -0.012659
   165    -0.011404
   166    -0.001670
   167     0.021022
   168     0.071315
   169     0.031721
   170    -0.090901
   171    -0.088043
   172    -0.136799
   173    -0.143208
   174    -0.373073
   175    -0.193108
   176    -0.160108
   177     0.025313
   178    -0.060963
   179    -0.290500
   180     0.323515
   181    -0.278611
   182     0.008440
   183    -0.045480
   184     0.000488
   185     0.001106
   186    -0.017244
   187    -0.024759
   188    -0.004200
   189    -0.031114
   190     0.017816
   191    -0.061530
   192     0.033033
   193    -0.169988
   194    -0.016447
   195     0.019966
   196    -0.083567
   197     0.041435
   198    -0.103806
   199     0.044717
   200    -0.077921
   201     0.186149
   202     0.049587
   203     0.059610
   204     0.034517
   205     0.104482
   206    -0.000869
   207     0.194571
   208     0.018548
   209     0.057898
   210     0.107057
   211     0.025591
   212     0.049324
   213    -0.002999
   214     0.139184
   215     0.104804
   216     0.041979
Sym=   164a
Ene=   -0.141033E-05
Spin= Alpha
Occup= 0.000000
     1    -0.002377
     2     0.005182
     3    -0.034518
     4     0.236253
     5    -0.205694
     6    -0.379892
     7    -0.277642
     8     0.253663
     9     0.318420
    10    -0.004306
    11     1.540261
    12     1.902548
    13    -0.087161
    14     1.205462
    15     1.240880
    16     1.257616
    17    -0.111416
    18    -0.299564
    19     0.438408
    20    -2.259453
    21     2.215154
    22    -0.045762
    23    -4.082544
    24     0.406686
    25     0.098132
    26    11.354332
    27   -10.392160
    28     0.638410
    29    20.282691
    30    -1.962201
    31    -0.470124
    32    -1.063862
    33     0.839233
    34     0.431284
    35    -1.620223
    36     0.163268
    37    -0.286965
    38    -0.441373
    39    -0.563451
    40    -0.015212
    41    -0.171229
    42    -0.271943
    43     0.009644
    44    -0.245036
    45    -0.269260
    46     0.003706
    47    -0.047174
    48    -1.116799
    49    -1.331044
    50     0.059904
    51    -0.533780
    52    -0.563039
    53    -0.041685
    54    -0.186784
    55    -0.594334
    56     0.043213
    57     0.064646
    58    -0.240261
    59     0.068312
    60     1.789545
    61     0.190070
    62     6.571611
    63     0.733448
    64    -3.649952
    65     0.355289
    66    -8.300942
    67    -2.087915
    68     0.111255
    69    -0.103179
    70     0.774957
    71    -8.345619
    72    -6.907367
    73     0.004713
    74    -0.009589
    75     0.025153
    76     0.041604
    77     0.072515
    78    -0.339751
    79     0.839338
    80     0.018755
    81     0.039556
    82     0.002920
    83    -0.101121
    84     0.098235
    85    -0.099275
    86     0.374757
    87     0.197216
    88     0.686216
    89    -0.312021
    90    -0.156576
    91     0.129735
    92     0.265454
    93    -0.324467
    94     0.053379
    95     0.192526
    96     0.073336
    97     0.046703
    98    -1.139619
    99     1.980637
   100    -0.083704
   101    -0.803066
   102    -0.384088
   103    -0.280989
   104     0.323797
   105    -0.060368
   106     0.357665
   107     0.294909
   108    -0.112801
   109    -0.146086
   110    -0.008504
   111    -0.010492
   112    -0.007375
   113    -0.033193
   114    -0.003180
   115    -0.012071
   116    -0.017373
   117    -0.066709
   118    -0.000049
   119     0.007247
   120    -0.178629
   121    -0.254668
   122    -0.076605
   123    -0.044069
   124    -0.118624
   125    -0.063931
   126    -0.191077
   127    -0.145637
   128     0.050994
   129    -0.070545
   130     0.068558
   131     0.070294
   132    -0.250348
   133     0.124754
   134    -1.161431
   135     0.089446
   136     0.116259
   137     0.053552
   138     0.274813
   139     0.233364
   140     0.061725
   141    -0.161662
   142     0.112666
   143     0.224721
   144     0.785961
   145    -0.000737
   146     0.001064
   147     0.007153
   148    -0.133592
   149     0.208108
   150    -0.204245
   151    -0.998015
   152     0.002859
   153     0.037355
   154    -0.000664
   155    -0.024739
   156    -0.177709
   157     0.021191
   158    -0.130322
   159    -0.148011
   160     0.686303
   161    -0.099278
   162     0.131693
   163    -0.013733
   164     0.037100
   165    -0.026306
   166     0.010437
   167     0.020308
   168    -0.034400
   169    -0.064141
   170    -0.350742
   171    -0.180367
   172    -0.306827
   173     0.016534
   174     0.200766
   175     0.370199
   176     0.105258
   177    -0.136839
   178    -0.170331
   179     0.134839
   180     0.141609
   181    -0.152517
   182     0.013912
   183     0.076740
   184     0.008691
   185     0.003116
   186     0.036081
   187     0.000999
   188    -0.013675
   189     0.008219
   190    -0.006267
   191    -0.003488
   192    -0.008205
   193     0.169690
   194    -0.027509
   195     0.002645
   196     0.069333
   197     0.026736
   198    -0.026109
   199     0.207891
   200    -0.022290
   201     0.094239
   202     0.133503
   203    -0.199216
   204     0.092731
   205    -0.172426
   206     0.095134
   207    -0.079352
   208    -0.074511
   209    -0.050292
   210    -0.043199
   211     0.037986
   212    -0.072433
   213     0.064583
   214    -0.102220
   215    -0.053048
   216     0.128630
Sym=   165a
Ene=   -0.713237E-05
Spin= Alpha
Occup= 0.000000
     1     0.001193
     2    -0.003314
     3     0.032482
     4     0.094567
     5     0.298935
     6     0.533113
     7     0.347843
     8    -0.027613
     9     0.150544
    10     0.044106
    11    -0.073410
    12     0.252059
    13    -0.467921
    14    -0.223655
    15     0.096757
    16    -1.291403
    17     0.112761
    18    -0.337931
    19    -0.239699
    20    -0.062081
    21     0.132681
    22     0.210353
    23    -0.060414
    24     0.028851
    25     0.505377
    26     0.818873
    27    -0.138643
    28    -0.438988
    29     0.211865
    30    -0.202545
    31    -2.787534
    32     0.191682
    33     0.394308
    34     0.755411
    35    -0.100606
    36     0.195213
    37     1.117430
    38     0.036411
    39    -0.321258
    40    -0.082176
    41     0.021064
    42    -0.148111
    43    -0.024520
    44     0.005738
    45    -0.047976
    46    -0.010069
    47    -0.010078
    48     0.097325
    49    -0.268018
    50    -0.436381
    51     0.038071
    52    -0.114865
    53    -0.075416
    54     0.231613
    55    -1.985716
    56    -0.173209
    57     0.057647
    58     0.940277
    59     1.543178
    60     0.185266
    61     1.012227
    62     0.229843
    63     0.188599
    64    -0.021321
    65     0.034579
    66    -0.072362
    67     0.033666
    68     0.454269
    69    -0.038128
    70     0.095347
    71    -0.067390
    72    -0.359466
    73     0.000905
    74    -0.002516
    75     0.021210
    76     0.111476
    77    -0.122893
    78    -2.074785
    79    -0.900001
    80    -0.003829
    81     0.088391
    82     0.004947
    83    -0.073117
    84     1.300944
    85    -0.467991
    86     0.128050
    87     0.519240
    88    -1.481945
    89    -0.031578
    90     0.231377
    91    -0.072172
    92     0.023397
    93     0.019944
    94     0.106412
    95    -0.014631
    96     0.048659
    97    -0.194789
    98     0.377463
    99     0.329425
   100    -0.537936
   101     0.112138
   102    -0.237606
   103     1.005331
   104     0.093322
   105    -0.009936
   106    -0.779155
   107     0.054554
   108     0.080399
   109     0.777017
   110    -0.002259
   111    -0.193417
   112    -0.124496
   113     0.007516
   114    -0.089583
   115     0.001180
   116     0.019008
   117     0.059625
   118     0.021953
   119    -0.014483
   120     0.012685
   121    -0.260899
   122    -0.330184
   123    -0.004901
   124    -0.112681
   125     0.074362
   126     0.017872
   127     0.668373
   128     0.000776
   129     0.044796
   130     0.124385
   131     0.143101
   132     0.036326
   133    -0.182226
   134    -0.067991
   135     0.111960
   136    -0.019117
   137     0.031209
   138    -0.065784
   139     0.038749
   140    -0.082018
   141    -0.050733
   142     0.074228
   143    -0.046702
   144    -0.130074
   145    -0.006968
   146     0.010186
   147    -0.020090
   148     0.054321
   149    -0.301234
   150     0.524343
   151     0.580760
   152    -0.058211
   153     0.292464
   154    -0.094723
   155     0.287296
   156    -1.417345
   157     0.613420
   158     0.232218
   159    -1.477351
   160    -0.182809
   161    -0.138485
   162     0.361385
   163    -0.045085
   164     1.448241
   165    -1.387565
   166    -0.169018
   167     0.962058
   168    -0.709742
   169     5.796997
   170    -6.511379
   171     6.238217
   172     0.686318
   173    -4.227545
   174     3.169900
   175   -25.770027
   176     0.168225
   177    -0.477969
   178     0.052701
   179     0.238551
   180     0.003046
   181     0.910437
   182    -0.098123
   183     0.566299
   184    -0.105632
   185    -0.042378
   186     0.257047
   187    -0.048262
   188    -0.045552
   189     0.109123
   190    -0.135824
   191     0.022470
   192    -0.269452
   193     1.304405
   194    -0.275011
   195    -0.120991
   196     0.578931
   197    -0.193907
   198    -0.255843
   199     1.073833
   200    -0.158487
   201    -0.000333
   202    -0.632195
   203    10.514798
   204    -1.269003
   205    10.525731
   206    -3.994837
   207    -1.242536
   208     0.740157
   209    -0.592347
   210     1.741565
   211     1.033102
   212     4.709328
   213     0.056447
   214    -1.318485
   215     1.734311
   216     4.065546
Sym=   166a
Ene=   -0.155534E-03
Spin= Alpha
Occup= 0.000046
     1    -0.001676
     2    -0.009060
     3    -0.008218
     4     0.191964
     5    -0.202562
     6    -3.465691
     7     0.076658
     8     0.011717
     9     0.033357
    10     0.048863
    11     0.094603
    12     0.268189
    13    -0.316709
    14    -0.095879
    15    -0.051203
    16     1.918479
    17    -0.019342
    18    -0.112528
    19    -0.294775
    20    -0.004469
    21    -0.021838
    22     0.004369
    23    -0.011830
    24     0.008979
    25     0.023081
    26    -0.142788
    27    -0.120602
    28     1.193388
    29    -0.096953
    30     0.143328
    31     0.540581
    32    -0.123007
    33    -0.184352
    34    -1.853050
    35    -0.057231
    36    -0.040456
    37    -0.159246
    38     0.057788
    39     0.161373
    40    -0.252897
    41     0.055800
    42     0.094504
    43     0.068370
    44    -0.136627
    45    -0.402395
    46    -0.167166
    47    -0.085771
    48     0.069826
    49     0.061150
    50    -2.847684
    51     0.026687
    52     0.100626
    53     0.108417
    54    -0.108491
    55    -0.362944
    56     0.063303
    57     0.019238
    58    -0.090767
    59     0.244385
    60     0.287627
    61    -0.270840
    62    -0.165861
    63     0.107223
    64     0.214527
    65     0.028398
    66    -0.075708
    67    -0.115262
    68    -0.208897
    69    -0.068938
    70    -0.174411
    71    -0.039119
    72     0.060352
    73    -0.004119
    74    -0.041089
    75    -0.003358
    76     0.029353
    77    -1.384510
    78     3.707213
    79    -0.691967
    80     0.017442
    81     0.065355
    82    -0.173272
    83     0.183265
    84     0.583190
    85    -2.660820
    86    -0.029377
    87    -0.299714
    88     2.015937
    89    -0.065645
    90    -0.102005
    91    -0.077310
    92     0.034878
    93    -0.077454
    94    -0.024342
    95    -0.041669
    96     0.003861
    97     0.006689
    98    -0.580808
    99    -0.998001
   100    -1.438929
   101    -0.115957
   102     0.223434
   103     0.763941
   104     0.390959
   105     0.495311
   106     1.338159
   107     0.055506
   108    -0.044686
   109    -0.162376
   110    -0.001296
   111     0.194925
   112     0.162124
   113     0.084448
   114    -0.003673
   115     0.025848
   116    -0.018830
   117    -0.031229
   118    -0.094394
   119    -0.020068
   120     0.000529
   121    -0.154409
   122     0.983820
   123    -0.103245
   124    -0.056202
   125     0.446949
   126    -0.008387
   127     0.056712
   128     0.316637
   129     0.003495
   130     0.206511
   131    -0.312603
   132     0.184259
   133    -0.022258
   134     0.221861
   135    -0.099373
   136     0.086671
   137    -0.026353
   138    -0.002511
   139     0.024632
   140    -0.050990
   141     0.140335
   142     0.004911
   143     0.015850
   144     0.149968
   145    -0.001387
   146    -0.004636
   147    -0.006070
   148     0.007237
   149    -0.011522
   150     2.063465
   151     0.253192
   152     0.009413
   153     0.023979
   154    -0.046975
   155    -0.042153
   156    -0.115202
   157    -0.508024
   158     0.009889
   159     0.072195
   160    -0.708493
   161     0.022184
   162     0.034612
   163    -0.014273
   164    -0.004547
   165    -0.006404
   166    -0.038206
   167     0.000679
   168     0.007979
   169     0.024964
   170    -0.056931
   171    -0.046219
   172     0.142934
   173     0.004106
   174    -0.056025
   175    -0.158134
   176    -0.075694
   177    -0.072872
   178     0.508108
   179     0.004165
   180    -0.025383
   181    -0.074682
   182     0.017503
   183     0.048251
   184    -0.056412
   185     0.006119
   186     0.013279
   187    -0.035257
   188     0.000035
   189     0.002167
   190    -0.033958
   191    -0.000501
   192     0.042040
   193     0.109939
   194    -0.197476
   195     0.023874
   196     0.076748
   197    -0.171380
   198    -0.006847
   199    -0.052398
   200    -0.140412
   201     0.035896
   202    -0.076330
   203     0.156730
   204    -0.013346
   205     0.040606
   206    -0.002024
   207     0.057908
   208    -0.024244
   209     0.015368
   210    -0.003133
   211     0.031152
   212     0.020181
   213    -0.012756
   214     0.006343
   215    -0.000593
   216    -0.003268
Sym=   167a
Ene=   -0.146764E-04
Spin= Alpha
Occup= 0.000003
     1     0.007822
     2    -0.008274
     3    -0.092862
     4     0.187609
     5    -0.556316
     6     0.923204
     7     0.479558
     8    -0.033394
     9     0.107327
    10     0.049407
    11    -0.082815
    12     1.162610
    13     0.826161
    14    -0.920564
    15    -0.434755
    16    -0.880861
    17    -0.151073
    18     0.225741
    19    -0.106615
    20    -0.131238
    21     0.114123
    22    -0.369164
    23    -0.361363
    24     0.215412
    25    -0.048826
    26     0.091648
    27    -1.281650
    28     2.216955
    29    -0.402153
    30    -1.591218
    31     0.943111
    32    -0.277273
    33     0.089661
    34    -0.606796
    35     0.064684
    36    -0.777331
    37    -0.075986
    38    -0.039094
    39    -0.242464
    40    -0.515080
    41    -0.223644
    42    -0.541050
    43     0.053406
    44     0.368940
    45    -0.139548
    46     0.093799
    47     0.259147
    48     0.551311
    49    -0.277239
    50     1.587555
    51     0.478756
    52     0.315487
    53    -0.321773
    54    -1.016572
    55    -0.259274
    56    -0.422531
    57    -0.539710
    58    -1.485152
    59    -0.429634
    60    -0.339835
    61    -0.394405
    62     0.762684
    63     0.297855
    64     0.151087
    65     0.257185
    66     0.425815
    67    -0.634821
    68    -0.279171
    69     0.326324
    70     0.839008
    71     0.376176
    72    -0.024656
    73     0.009318
    74    -0.011035
    75    -0.092156
    76     0.448729
    77     0.124387
    78    -0.378415
    79    -0.534092
    80    -0.064308
    81     0.012108
    82    -0.064180
    83     0.053645
    84    -0.022747
    85     0.669930
    86    -0.728138
    87     0.084868
    88    -1.073109
    89     0.173285
    90    -0.000887
    91    -0.110411
    92    -0.199593
    93     0.112133
    94    -0.161607
    95     0.083340
    96    -0.257452
    97    -0.004149
    98     0.778457
    99     0.360397
   100     1.916285
   101     0.092106
   102     1.404940
   103     0.281803
   104    -0.040540
   105    -0.091379
   106    -0.578247
   107    -0.286608
   108    -0.240452
   109    -0.109338
   110    -0.240537
   111    -0.036072
   112     0.125677
   113     0.246152
   114     0.185229
   115    -0.066454
   116     0.117237
   117     0.079588
   118     0.169376
   119     0.247659
   120     0.762578
   121     0.072413
   122     0.053992
   123    -0.030320
   124    -0.337545
   125     0.265014
   126    -0.143288
   127    -0.040684
   128    -0.016045
   129    -0.525638
   130    -0.828528
   131     0.014537
   132    -0.194396
   133    -0.146654
   134    -0.117130
   135    -0.710607
   136     0.126794
   137    -0.108318
   138    -0.000443
   139    -0.367759
   140    -0.135950
   141    -0.011982
   142    -0.450787
   143    -0.353011
   144    -0.139423
   145     0.000576
   146    -0.000911
   147    -0.003450
   148     0.251543
   149    -0.219035
   150    -1.334724
   151     0.187493
   152    -0.008725
   153    -0.004843
   154     0.011547
   155     0.251264
   156     0.047371
   157     0.755561
   158     0.687564
   159     0.125227
   160    -0.804822
   161     0.231567
   162    -0.130126
   163     0.042723
   164     0.011818
   165     0.013200
   166     0.055424
   167    -0.009205
   168    -0.032970
   169    -0.000758
   170     0.508217
   171     0.541338
   172     0.069684
   173     0.024277
   174     0.171658
   175     0.031150
   176     0.346619
   177     0.298778
   178     0.549680
   179     0.103795
   180    -0.859135
   181    -0.016318
   182    -0.025140
   183    -0.025592
   184     0.040939
   185    -0.002002
   186     0.006309
   187     0.021377
   188    -0.000393
   189    -0.000198
   190     0.008645
   191     0.015145
   192    -0.037626
   193     0.019441
   194    -0.047955
   195    -0.036616
   196    -0.036318
   197     0.078360
   198     0.437959
   199     0.000635
   200     0.107511
   201    -0.105919
   202     0.029145
   203    -0.046236
   204    -0.100482
   205    -0.021701
   206    -0.154533
   207    -0.218110
   208     0.012921
   209    -0.055400
   210    -0.009702
   211    -0.083642
   212    -0.001284
   213    -0.094740
   214    -0.126213
   215    -0.002782
   216    -0.141437
Sym=   168a
Ene=   -0.377558E-04
Spin= Alpha
Occup= 0.000009
     1     0.015689
     2    -0.038577
     3    -0.089302
     4     0.199217
     5    -0.107692
     6    -1.145856
     7    -0.327154
     8     0.010873
     9    -0.010645
    10    -0.003951
    11    -0.118299
    12     0.184495
    13     0.763193
    14     1.135531
    15    -1.231781
    16     4.604659
    17    -0.322693
    18     0.394208
    19     0.217981
    20    -0.045787
    21    -0.165436
    22     0.035342
    23     0.077611
    24    -0.041729
    25     0.064611
    26     0.274433
    27     0.405381
    28    -1.760194
    29    -0.187355
    30    -0.380744
    31     0.505052
    32    -0.235443
    33    -0.229973
    34     1.327629
    35     0.199722
    36    -0.430057
    37     0.406969
    38     0.035929
    39    -0.090408
    40     0.448688
    41    -0.237505
    42     0.244026
    43    -0.026792
    44     0.219490
    45    -0.267049
    46     0.026341
    47     0.005511
    48    -0.090688
    49     0.161354
    50     0.546666
    51    -0.182306
    52     0.072129
    53    -0.092139
    54    -0.388986
    55     0.507773
    56    -0.237359
    57     0.275105
    58     0.516983
    59     0.070235
    60     0.275894
    61    -0.374182
    62    -0.443813
    63    -0.112805
    64     0.024047
    65     0.359975
    66    -0.187893
    67     0.260840
    68    -0.342241
    69     0.397610
    70     0.249768
    71     0.003087
    72    -0.388355
    73    -0.013116
    74     0.032351
    75     0.023144
    76     0.310120
    77     0.208924
    78     0.122606
    79     0.559422
    80    -0.024983
    81     0.032750
    82     0.070387
    83     0.110157
    84    -0.078664
    85     0.927769
    86    -1.223276
    87     1.384949
    88     2.605539
    89     0.277051
    90    -0.368465
    91     0.030863
    92     0.116210
    93     0.036066
    94    -0.039978
    95    -0.026222
    96    -0.075119
    97     0.069038
    98     0.653988
    99     0.688366
   100     2.411823
   101     0.097006
   102    -0.116296
   103     0.048160
   104     0.519714
   105     0.567636
   106     1.781422
   107    -0.018595
   108    -0.341604
   109     0.365141
   110    -0.084424
   111    -0.080022
   112     0.271537
   113     0.225220
   114    -0.104614
   115    -0.072603
   116    -0.163542
   117     0.148131
   118    -0.170619
   119     0.054770
   120     0.266640
   121    -0.344670
   122     0.310501
   123     0.280928
   124    -0.326759
   125    -0.264048
   126     0.123492
   127    -0.149126
   128    -0.291562
   129     0.207535
   130    -0.577263
   131     0.153855
   132    -0.352490
   133    -0.148944
   134     0.015061
   135    -0.092264
   136    -0.004027
   137     0.384529
   138     0.201891
   139    -0.352791
   140    -0.281274
   141    -0.524252
   142     0.029749
   143    -0.058918
   144     0.117732
   145    -0.000170
   146     0.001128
   147    -0.001675
   148    -0.424620
   149     0.342818
   150    -0.686756
   151    -1.190311
   152    -0.013901
   153     0.014333
   154    -0.017346
   155     0.149948
   156    -0.194906
   157     0.151921
   158     0.193410
   159    -0.107358
   160     2.262130
   161    -0.125361
   162     0.080703
   163    -0.023539
   164    -0.029247
   165    -0.048627
   166    -0.081897
   167     0.002978
   168    -0.014649
   169     0.014234
   170    -0.842179
   171    -0.789799
   172    -0.540204
   173     0.005582
   174     0.022051
   175    -0.015237
   176    -0.527438
   177    -0.522676
   178    -1.185428
   179    -0.117376
   180    -0.081800
   181     0.072872
   182    -0.023527
   183     0.034733
   184    -0.051382
   185    -0.017739
   186     0.007384
   187    -0.025893
   188     0.013166
   189    -0.018130
   190    -0.008917
   191    -0.012528
   192    -0.052192
   193     0.009649
   194     0.006630
   195    -0.014068
   196     0.025963
   197    -0.003744
   198     0.077755
   199    -0.097455
   200    -0.048388
   201     0.095221
   202     0.060252
   203     0.106438
   204     0.106094
   205     0.066044
   206     0.237614
   207    -0.092195
   208    -0.026522
   209    -0.017094
   210     0.013957
   211     0.092858
   212     0.017365
   213     0.136917
   214    -0.048326
   215    -0.002995
   216     0.261023
Sym=   169a
Ene=   -0.586128E-04
Spin= Alpha
Occup= 0.000011
     1     0.037017
     2    -0.108702
     3    -0.054365
     4     0.266383
     5     0.680844
     6     7.418786
     7     1.612119
     8    -0.002642
     9     0.002615
    10    -0.212793
    11     0.017938
    12     0.023943
    13     0.392002
    14     0.006558
    15     0.000309
    16    -9.677931
    17     0.026282
    18    -0.022809
    19    -0.115532
    20    -0.132927
    21    -0.130595
    22     0.595292
    23     0.001919
    24    -0.015990
    25     0.002777
    26     0.544338
    27     0.536330
    28    -4.982907
    29    -0.010416
    30     0.142506
    31    -0.018747
    32     0.674066
    33     0.670712
    34     1.829775
    35     0.003739
    36    -0.069995
    37     0.021802
    38     0.032309
    39    -0.024270
    40    -0.759768
    41    -0.020632
    42     0.023377
    43     0.186851
    44     0.007343
    45    -0.001948
    46     0.185732
    47     0.000816
    48     0.033164
    49    -0.023577
    50     8.418856
    51    -0.032324
    52     0.011250
    53    -0.046475
    54     0.116670
    55     0.035526
    56    -0.050383
    57     0.002753
    58     5.120588
    59     0.020538
    60     1.002923
    61    -0.042742
    62    -0.400551
    63    -0.111785
    64     0.008048
    65    -0.111346
    66    -0.001078
    67     1.006576
    68     0.078919
    69    -0.237482
    70     0.019192
    71     0.004380
    72    -0.409076
    73     0.004118
    74    -0.011587
    75     0.060944
    76     0.533731
    77     1.026498
    78    -5.821210
    79    -1.153788
    80    -0.004523
    81    -0.001153
    82    -0.066825
    83    -0.083598
    84    -0.020881
    85     2.966702
    86    -0.004946
    87     0.019165
    88    -7.811987
    89    -0.040697
    90     0.007920
    91     0.013407
    92     0.117825
    93     0.114810
    94     0.296829
    95    -0.000664
    96     0.002265
    97     0.004869
    98     1.283945
    99     1.288737
   100     0.133041
   101     0.002211
   102    -0.029607
   103    -0.026371
   104    -1.246668
   105    -1.254771
   106    -5.005080
   107     0.000438
   108    -0.060730
   109     0.010337
   110     0.023531
   111    -0.008371
   112    -0.348782
   113    -0.013601
   114     0.014114
   115     0.109346
   116    -0.009574
   117     0.001963
   118     0.109265
   119    -0.000044
   120     0.005234
   121     0.003562
   122    -1.755289
   123     0.013879
   124    -0.002438
   125     0.254849
   126    -0.061378
   127    -0.001287
   128     0.255519
   129    -0.000906
   130    -0.142041
   131     0.009817
   132     0.247429
   133    -0.006399
   134    -0.352540
   135    -0.034302
   136    -0.000558
   137    -0.014589
   138    -0.000844
   139     0.246756
   140     0.016344
   141    -0.207277
   142     0.011379
   143    -0.001702
   144    -0.354154
   145     0.026318
   146    -0.087344
   147    -0.120704
   148     1.313002
   149    -0.774807
   150    -6.044395
   151     0.833899
   152     0.002277
   153    -0.001589
   154     0.152344
   155    -0.011341
   156     0.016823
   157     1.416507
   158    -0.020889
   159    -0.029268
   160    -1.009353
   161     0.009213
   162     0.020395
   163    -0.206907
   164    -0.024743
   165    -0.029490
   166     0.470871
   167     0.001995
   168    -0.003758
   169    -0.005217
   170     2.361237
   171     2.374619
   172    -3.677607
   173    -0.005701
   174     0.024237
   175     0.037217
   176     1.058613
   177     1.058557
   178     0.532711
   179     0.003124
   180     0.012297
   181     0.015379
   182     0.005044
   183    -0.015660
   184     1.406590
   185     0.005903
   186     0.019555
   187     0.107838
   188    -0.014885
   189    -0.015078
   190     0.108460
   191     0.005557
   192    -0.011170
   193    -0.001912
   194     0.966631
   195     0.028015
   196    -0.007597
   197     0.613886
   198    -0.008762
   199    -0.019019
   200     0.609341
   201    -0.000597
   202     1.888252
   203     0.011318
   204     0.511557
   205     0.027244
   206    -0.833224
   207     0.014929
   208    -0.003349
   209    -0.056929
   210     0.001766
   211     0.507884
   212    -0.077543
   213    -0.480113
   214     0.022895
   215     0.000758
   216    -0.824440
Sym=   170a
Ene=   -0.876927E-02
Spin= Alpha
Occup= 0.007383
     1    -0.003697
     2    -0.000315
     3    -0.006360
     4     0.021571
     5     0.035570
     6     0.085533
     7     0.043632
     8    -0.014733
     9     0.005753
    10    -0.008607
    11     0.029688
    12    -0.011329
    13     0.063079
    14    -0.008083
    15     0.004979
    16     0.173153
    17     0.011648
    18    -0.006085
    19    -0.119023
    20     0.001427
    21     0.003097
    22     0.005590
    23     0.002788
    24    -0.012403
    25     0.004596
    26     0.085240
    27     0.053182
    28     0.046327
    29     0.001664
    30     0.006943
    31    -0.002625
    32     0.052666
    33     0.042383
    34     0.089038
    35     0.013003
    36    -0.059491
    37     0.022316
    38     0.003487
    39    -0.001088
    40    -0.002315
    41     0.001398
    42    -0.000910
    43    -0.001867
    44     0.000950
    45    -0.000406
    46    -0.001437
    47    -0.000434
    48     0.003198
    49    -0.004066
    50     0.032752
    51     0.005795
    52     0.001262
    53    -0.008709
    54     0.002930
    55    -0.000920
    56    -0.010785
    57    -0.003728
    58     0.019433
    59     0.004657
    60    -0.005921
    61     0.003894
    62    -0.013056
    63    -0.012503
    64     0.000856
    65    -0.005567
    66     0.002612
    67    -0.008837
    68     0.003577
    69    -0.010527
    70    -0.013535
    71     0.002634
    72    -0.023127
    73     0.000934
    74     0.000126
    75     0.000871
    76     0.038692
    77     0.015377
    78    -0.128317
    79    -0.218440
    80    -0.001792
    81     0.000665
    82     0.003246
    83    -0.011913
    84     0.004398
    85     0.011839
    86     0.058177
    87    -0.021504
    88    -0.001471
    89     0.081860
    90    -0.030195
    91    -0.008853
    92     0.002495
    93     0.003126
    94     0.006498
    95    -0.000449
    96     0.002362
    97    -0.000861
    98     0.079298
    99     0.091036
   100     0.058539
   101    -0.009058
   102    -0.023196
   103     0.008660
   104     0.048544
   105     0.051824
   106     0.050508
   107    -0.007420
   108    -0.002245
   109     0.000866
   110    -0.001310
   111     0.000406
   112    -0.004520
   113    -0.000618
   114     0.000331
   115    -0.000716
   116    -0.001868
   117     0.000701
   118     0.000545
   119    -0.000542
   120    -0.006246
   121     0.003056
   122    -0.010453
   123    -0.001705
   124    -0.000345
   125    -0.000095
   126    -0.007755
   127     0.002846
   128     0.001398
   129    -0.003923
   130    -0.010542
   131    -0.001666
   132    -0.007860
   133    -0.001546
   134    -0.023587
   135     0.004473
   136    -0.000111
   137     0.002279
   138     0.001116
   139    -0.007416
   140    -0.000947
   141    -0.012721
   142     0.004490
   143     0.001011
   144    -0.022037
   145    -0.067338
   146    -0.008380
   147    -0.104647
   148    -0.060148
   149     0.571884
   150    -0.084415
   151    -0.551672
   152     0.426086
   153    -0.158105
   154     0.119533
   155     0.324350
   156    -0.120036
   157     0.136431
   158    -0.377947
   159     0.138273
   160     0.074478
   161    -0.295041
   162     0.110634
   163    -0.073334
   164     0.048545
   165    -0.010045
   166    -0.021865
   167    -0.029055
   168     0.021265
   169    -0.007870
   170     0.198614
   171    -0.057596
   172    -0.060387
   173    -0.126363
   174     0.072867
   175    -0.027514
   176    -0.074763
   177    -0.038414
   178    -0.104479
   179     0.017297
   180     0.050317
   181    -0.018211
   182     0.048034
   183     0.002927
   184    -0.007933
   185     0.004464
   186    -0.029287
   187     0.013107
   188     0.004151
   189    -0.001552
   190    -0.003094
   191    -0.008232
   192    -0.059495
   193     0.032643
   194    -0.027837
   195    -0.035597
   196     0.000093
   197    -0.009997
   198    -0.039014
   199     0.014503
   200    -0.022651
   201    -0.006595
   202    -0.009125
   203     0.003757
   204     0.002875
   205     0.004580
   206     0.013535
   207    -0.009722
   208     0.007597
   209    -0.004302
   210     0.017507
   211    -0.012187
   212    -0.001734
   213    -0.006506
   214    -0.005231
   215     0.013209
   216    -0.033525
Sym=   171a
Ene=   -0.172015E-03
Spin= Alpha
Occup= 0.000050
     1     0.001681
     2     0.016711
     3    -0.033602
     4    -0.062149
     5    -0.111103
     6     2.639104
     7     0.305906
     8    -0.007730
     9     0.038291
    10     0.014874
    11    -0.052965
    12     0.277000
    13     1.154335
    14    -0.054420
    15     0.243202
    16     1.023681
    17     0.013150
    18    -0.148244
    19    -0.458785
    20     0.004384
    21    -0.015304
    22    -0.132985
    23     0.009347
    24    -0.008466
    25     0.046358
    26    -0.186600
    27    -0.074969
    28     0.543532
    29    -0.066478
    30     0.019464
    31    -0.139297
    32     0.030575
    33    -0.026565
    34     2.304704
    35    -0.005123
    36    -0.089485
    37     0.663443
    38     0.011941
    39    -0.026352
    40    -0.005965
    41    -0.001043
    42    -0.019057
    43    -0.005682
    44    -0.000574
    45     0.004067
    46     0.026087
    47    -0.007021
    48    -0.004237
    49    -0.071029
    50     0.621891
    51     0.027596
    52    -0.022342
    53     0.008206
    54     0.023891
    55    -0.221518
    56     0.046077
    57    -0.010369
    58    -0.709867
    59     0.086647
    60    -0.027003
    61     0.112225
    62     0.015490
    63    -0.020201
    64    -0.012826
    65     0.001656
    66     0.033885
    67    -0.068658
    68     0.060710
    69     0.007918
    70    -0.035543
    71     0.004766
    72     0.061830
    73    -0.000797
    74     0.004219
    75    -0.026322
    76     0.157381
    77     0.424557
    78    -1.798761
    79    -1.139973
    80    -0.001284
    81     0.000681
    82     0.047483
    83    -0.012211
    84     0.100659
    85     0.662729
    86    -0.047543
    87     0.269705
    88    -0.314534
    89     0.001000
    90     0.139233
    91    -0.089557
    92    -0.006534
    93     0.004414
    94    -0.067927
    95    -0.001214
    96     0.004424
    97    -0.038949
    98     0.310850
    99     0.272995
   100     1.091420
   101     0.009829
   102    -0.018917
   103     0.192210
   104     0.182500
   105     0.234791
   106     0.226093
   107    -0.000598
   108    -0.028509
   109     0.234508
   110    -0.002066
   111     0.001318
   112     0.034448
   113     0.006205
   114    -0.000211
   115    -0.034174
   116     0.000232
   117     0.002833
   118    -0.044447
   119     0.001986
   120     0.012376
   121    -0.000853
   122    -0.075674
   123    -0.002264
   124    -0.007261
   125    -0.173780
   126    -0.014586
   127     0.088999
   128    -0.150523
   129     0.012732
   130    -0.231290
   131    -0.030847
   132    -0.122125
   133    -0.054793
   134    -0.048014
   135     0.000043
   136     0.001211
   137     0.006478
   138     0.000822
   139    -0.106741
   140    -0.028083
   141    -0.031020
   142     0.004607
   143    -0.001753
   144    -0.067706
   145    -0.001044
   146    -0.010582
   147     0.013563
   148    -0.078735
   149     0.172488
   150    -2.103372
   151    -0.193207
   152     0.005849
   153    -0.006243
   154     0.080396
   155    -0.022531
   156     0.091754
   157    -0.075690
   158     0.168633
   159    -0.844039
   160     2.004486
   161    -0.053058
   162     0.177688
   163    -0.253419
   164    -0.001288
   165     0.013349
   166    -0.030622
   167    -0.007343
   168     0.023926
   169    -0.123938
   170     0.137425
   171     0.247178
   172    -1.085564
   173    -0.102347
   174     0.233802
   175    -1.577882
   176    -0.417580
   177    -0.510071
   178    -1.013581
   179     0.095343
   180    -0.185698
   181     1.082707
   182    -0.018367
   183     0.206281
   184     0.006838
   185    -0.053134
   186     0.097382
   187     0.070381
   188     0.037943
   189    -0.266551
   190    -0.477612
   191     0.085033
   192    -0.052984
   193     0.034286
   194     0.610072
   195     0.061049
   196     0.129015
   197     0.178177
   198    -0.019217
   199     0.100849
   200     0.527884
   201    -0.140412
   202     0.620647
   203     0.516396
   204    -0.035738
   205     0.424647
   206    -0.052309
   207    -0.073058
   208     0.016055
   209    -0.056183
   210     0.033538
   211     0.152526
   212     0.307254
   213     0.017634
   214    -0.083059
   215     0.007674
   216    -0.092245
Sym=   172a
Ene=   -0.152345E-03
Spin= Alpha
Occup= 0.000040
     1    -0.002341
     2     0.010582
     3    -0.052530
     4    -0.105092
     5     0.296566
     6     0.260240
     7    -0.208720
     8     0.020107
     9     0.017891
    10    -0.028629
    11     0.266690
    12     0.228214
    13    -0.227867
    14    -0.162346
    15    -0.110935
    16     1.244029
    17     0.144539
    18    -0.002202
    19     0.087764
    20    -0.068723
    21    -0.041299
    22    -0.206522
    23    -0.044991
    24     0.006895
    25     0.009974
    26    -0.165504
    27    -0.289573
    28     0.682171
    29     0.206327
    30     0.075286
    31     0.005018
    32    -0.109967
    33    -0.098090
    34     0.004919
    35    -0.027529
    36    -0.123005
    37    -0.127357
    38    -0.036618
    39    -0.035585
    40     0.133572
    41    -0.007894
    42    -0.017101
    43     0.033067
    44     0.018346
    45     0.007259
    46     0.013888
    47    -0.035361
    48    -0.034065
    49    -0.054280
    50    -0.754115
    51    -0.020103
    52    -0.011605
    53     0.149891
    54     0.295500
    55     0.331758
    56     0.004302
    57    -0.034937
    58    -0.570505
    59     0.104482
    60    -0.161971
    61     0.072155
    62     0.111020
    63     0.078857
    64    -0.111861
    65     0.021864
    66    -0.086056
    67    -0.113677
    68     0.031254
    69     0.047618
    70     0.060170
    71    -0.078479
    72     0.028503
    73    -0.000197
    74    -0.000424
    75    -0.002416
    76    -0.049028
    77    -0.106392
    78     0.295453
    79     0.398446
    80     0.005537
    81     0.007591
    82    -0.002267
    83    -0.081105
    84    -0.096841
    85    -0.503025
    86     0.051242
    87     0.082281
    88     0.867940
    89    -0.123906
    90    -0.055791
    91     0.095701
    92    -0.013020
    93    -0.007945
    94    -0.012861
    95     0.011361
    96     0.029271
    97     0.032339
    98    -0.101739
    99    -0.110844
   100    -0.160300
   101    -0.051908
   102    -0.179382
   103    -0.215820
   104     0.181050
   105     0.095642
   106     0.515462
   107     0.007484
   108    -0.054618
   109    -0.049296
   110    -0.011310
   111    -0.015406
   112     0.019570
   113    -0.009449
   114    -0.008066
   115    -0.010449
   116    -0.003968
   117    -0.002831
   118     0.004016
   119     0.003031
   120    -0.054989
   121    -0.061628
   122     0.119182
   123    -0.008674
   124    -0.029868
   125     0.005961
   126    -0.051041
   127    -0.073906
   128    -0.046202
   129     0.007527
   130     0.029758
   131     0.069306
   132    -0.008141
   133     0.040716
   134     0.039968
   135     0.058603
   136     0.024723
   137     0.016132
   138     0.015067
   139    -0.012055
   140     0.016941
   141     0.014291
   142     0.030775
   143     0.017046
   144     0.022487
   145    -0.005513
   146    -0.028052
   147    -0.016624
   148     0.301693
   149    -0.746137
   150     1.009939
   151    -0.924696
   152     0.019108
   153     0.018805
   154     0.009203
   155    -0.305338
   156    -0.259776
   157    -0.326613
   158     0.239477
   159     0.268227
   160     0.745777
   161     0.024150
   162     0.074719
   163     0.100328
   164    -0.052921
   165    -0.005780
   166    -0.064850
   167    -0.109283
   168     0.021381
   169    -0.028969
   170    -0.381849
   171     0.027854
   172     0.788965
   173    -0.100974
   174     0.373873
   175     0.711954
   176    -0.032714
   177    -0.143365
   178    -0.522633
   179     0.028159
   180     0.063222
   181     0.002305
   182     0.293048
   183     0.092948
   184     0.140890
   185     0.029749
   186     0.114098
   187    -0.075543
   188    -0.132464
   189    -0.060263
   190    -0.267068
   191    -0.185411
   192     0.103290
   193     0.169370
   194     0.181008
   195    -0.088142
   196    -0.282266
   197     0.054509
   198    -0.478492
   199    -0.376736
   200    -0.353377
   201    -0.078430
   202    -0.296723
   203    -0.515995
   204    -0.124205
   205     0.043318
   206    -0.131015
   207    -0.411073
   208     0.215009
   209     0.306137
   210     0.022204
   211     0.149061
   212    -0.000396
   213     0.298433
   214    -0.143354
   215     0.077164
   216    -0.047200
Sym=   173a
Ene=   -0.541875E-04
Spin= Alpha
Occup= 0.000015
     1    -0.000450
     2    -0.000156
     3     0.002698
     4    -0.246440
     5    -0.435351
     6     5.619098
     7    -0.045976
     8     0.055739
     9    -0.014560
    10     0.039443
    11     0.593843
    12    -0.173831
    13     1.446135
    14    -0.328608
    15     0.134600
    16    -0.310255
    17     0.160608
    18    -0.075662
    19     0.109122
    20     0.005128
    21    -0.058813
    22    -0.068179
    23     0.049685
    24    -0.051291
    25     0.012296
    26    -0.645770
    27    -0.409929
    28    -0.864531
    29    -0.201844
    30    -0.174227
    31     0.105729
    32    -0.007867
    33     0.085689
    34     3.935946
    35    -0.087799
    36     0.054640
    37     0.016755
    38    -0.102884
    39     0.037847
    40    -0.021377
    41    -0.035680
    42    -0.005011
    43    -0.048218
    44     0.177300
    45    -0.072458
    46    -0.030401
    47    -0.014644
    48    -0.260984
    49     0.066977
    50     0.850315
    51    -0.146627
    52     0.064227
    53    -0.187062
    54     0.095556
    55    -0.034132
    56    -0.286687
    57     0.086375
    58    -0.205284
    59     0.124543
    60     0.024729
    61    -0.026052
    62     0.083361
    63    -0.376340
    64     0.011626
    65    -0.009803
    66     0.082086
    67     0.029667
    68    -0.004116
    69     0.050785
    70     0.004035
    71     0.092888
    72     0.231761
    73     0.008996
    74    -0.034535
    75    -0.123502
    76     0.770335
    77    -0.285185
    78    -4.204868
    79    -0.074324
    80    -0.080413
    81     0.033178
    82     0.140907
    83    -0.595709
    84     0.237844
    85     1.293373
    86     0.473872
    87    -0.154693
    88    -1.317868
    89     0.034214
    90    -0.009996
    91    -0.001865
    92     0.045257
    93    -0.078865
    94    -0.098746
    95     0.098495
    96     0.085538
    97    -0.030393
    98     0.897774
    99     0.333406
   100     1.664775
   101     0.511258
   102    -0.176214
   103     0.046011
   104    -0.299178
   105    -0.049573
   106    -0.850971
   107    -0.207797
   108     0.103338
   109    -0.033388
   110    -0.224134
   111     0.120564
   112    -0.214403
   113     0.018965
   114    -0.052983
   115    -0.131550
   116     0.351949
   117    -0.140463
   118     0.181033
   119    -0.270737
   120     0.028891
   121     0.001035
   122    -0.232521
   123     0.099611
   124    -0.062274
   125    -0.443217
   126    -0.387769
   127     0.133227
   128    -0.801584
   129     0.312487
   130    -0.037009
   131     0.401108
   132    -0.105957
   133    -0.317406
   134     0.038636
   135    -1.038385
   136    -0.107319
   137     0.114108
   138    -0.165404
   139    -0.191631
   140     0.036359
   141    -0.046275
   142     0.709463
   143    -0.155034
   144    -0.246680
   145     0.000319
   146    -0.000767
   147     0.008105
   148    -0.258945
   149     0.185990
   150    -2.159321
   151    -0.286590
   152    -0.017295
   153     0.006594
   154     0.035296
   155     0.109692
   156    -0.036306
   157     0.212699
   158     0.006886
   159    -0.046713
   160     2.111523
   161     0.037810
   162     0.001800
   163    -0.133574
   164    -0.017007
   165    -0.017105
   166    -0.017549
   167     0.003438
   168    -0.036225
   169     0.014169
   170    -0.481835
   171    -0.469110
   172    -0.511722
   173    -0.019626
   174     0.202789
   175    -0.084102
   176    -0.485804
   177    -0.487775
   178    -1.345818
   179     0.007262
   180    -0.113815
   181     0.066742
   182    -0.030962
   183     0.012698
   184     0.044251
   185    -0.017261
   186     0.004793
   187     0.028001
   188    -0.007334
   189     0.003629
   190     0.032733
   191    -0.004341
   192    -0.094194
   193     0.038239
   194     0.244012
   195    -0.032002
   196     0.017236
   197     0.129642
   198     0.103795
   199    -0.044601
   200     0.120025
   201     0.007214
   202     0.162392
   203     0.065416
   204     0.067622
   205     0.023050
   206     0.145767
   207    -0.162070
   208     0.001623
   209    -0.029025
   210     0.005493
   211     0.068510
   212     0.008844
   213     0.090206
   214    -0.050031
   215     0.008251
   216     0.157608
Sym=   174a
Ene=   -0.386705E-03
Spin= Alpha
Occup= 0.000005
     1     0.001247
     2    -0.002188
     3    -0.026275
     4     0.215695
     5     0.295185
     6    -3.930201
     7    -0.401010
     8    -0.000287
     9    -0.001553
    10    -0.016782
    11     0.000807
    12    -0.012352
    13    -0.719549
    14    -0.009012
    15    -0.001068
    16     0.313891
    17     0.005174
    18    -0.007059
    19    -0.048324
    20    -0.013724
    21    -0.014166
    22    -0.047955
    23    -0.001591
    24    -0.000435
    25     0.001684
    26     0.439448
    27     0.442426
    28     0.968796
    29     0.007243
    30     0.001862
    31    -0.008160
    32     0.088681
    33     0.085949
    34    -2.678196
    35     0.000054
    36    -0.001776
    37     0.006017
    38     0.002453
    39     0.002814
    40    -0.008609
    41    -0.003198
    42     0.003016
    43     0.008741
    44     0.000967
    45    -0.000147
    46     0.009424
    47     0.000729
    48     0.004013
    49     0.003010
    50    -0.509799
    51     0.000839
    52     0.003167
    53     0.127562
    54    -0.000137
    55     0.002576
    56     0.127417
    57    -0.000430
    58    -0.132355
    59     0.008089
    60    -0.086444
    61     0.003759
    62    -0.138310
    63    -0.001938
    64    -0.001746
    65     0.001548
    66    -0.002374
    67    -0.085080
    68    -0.000428
    69    -0.080195
    70    -0.003076
    71    -0.003826
    72    -0.136848
    73    -5.530635
    74     5.514395
    75     2.580601
    76    -4.051770
    77    -1.836143
    78     5.761861
    79     0.366547
    80     0.001471
    81     0.003865
    82    -0.249956
    83     0.007948
    84     0.021182
    85    -1.603022
    86     0.007787
    87     0.019254
    88     0.859680
    89    -0.004848
    90    -0.000902
    91     0.047477
    92     1.293022
    93     1.289509
    94     1.394394
    95    -0.001792
    96     0.002651
    97     0.006465
    98    -2.693274
    99    -2.675345
   100    -2.821828
   101     0.007696
   102    -0.011073
   103    -0.030005
   104    -0.220011
   105    -0.220927
   106     0.162864
   107     0.000220
   108     0.000444
   109     0.006521
   110     0.016518
   111    -0.018759
   112     0.269077
   113    -0.026649
   114     0.014003
   115     0.166616
   116    -0.001008
   117    -0.001613
   118     0.165896
   119     0.000234
   120    -0.036598
   121     0.003564
   122     0.736754
   123     0.039199
   124    -0.034258
   125     0.481460
   126    -0.004786
   127    -0.004030
   128     0.483646
   129    -0.000068
   130     0.903518
   131     0.015183
   132     0.673170
   133     0.015957
   134     1.251188
   135     0.003043
   136     0.000110
   137     0.010543
   138    -0.004607
   139     0.675373
   140    -0.000627
   141     0.735911
   142    -0.001311
   143    -0.003701
   144     1.263576
   145    -0.000747
   146     0.000692
   147    -0.007327
   148     0.215975
   149    -0.138412
   150     1.239847
   151     0.271832
   152     0.000084
   153     0.000084
   154    -0.029251
   155    -0.000664
   156    -0.000564
   157    -0.049306
   158     0.002442
   159    -0.004376
   160    -1.409759
   161    -0.001137
   162     0.004400
   163     0.058206
   164     0.010451
   165     0.010351
   166    -0.002048
   167     0.000076
   168    -0.000252
   169     0.000313
   170     0.400171
   171     0.400183
   172     0.500682
   173    -0.000456
   174     0.000817
   175    -0.002031
   176     0.353080
   177     0.353853
   178     0.902671
   179     0.000050
   180    -0.001987
   181     0.001696
   182     0.000183
   183    -0.000582
   184    -0.050288
   185     0.000111
   186     0.001158
   187    -0.025702
   188     0.000039
   189    -0.000113
   190    -0.025499
   191     0.000060
   192     0.000115
   193     0.001797
   194    -0.189366
   195     0.000199
   196    -0.001041
   197    -0.088503
   198     0.000893
   199    -0.001640
   200    -0.089208
   201    -0.000153
   202    -0.182128
   203     0.002319
   204    -0.076219
   205     0.000508
   206    -0.127281
   207    -0.000454
   208     0.000277
   209    -0.000479
   210     0.000224
   211    -0.076661
   212     0.000798
   213    -0.074392
   214     0.000005
   215     0.000093
   216    -0.127112
Sym=   175a
Ene=   -0.725589E-07
Spin= Alpha
Occup= 0.000000
     1     0.008577
     2     0.019127
     3    -1.034734
     4    -2.084405
     5     5.442850
     6   -11.138066
     7    -1.216405
     8     0.009372
     9     0.024948
    10     1.162830
    11     0.119130
    12     0.017723
    13     8.887039
    14     0.504081
    15    -0.144451
    16    34.223516
    17     0.211016
    18    -0.343267
    19     0.218222
    20    -2.765313
    21    -3.471813
    22    -1.584069
    23    -0.143789
    24    -0.276408
    25     0.308938
    26     2.245691
    27     6.180411
    28    -5.083316
    29     0.790776
    30     1.541287
    31    -1.699739
    32    -3.075101
    33    -3.154816
    34   -10.600844
    35    -0.019675
    36    -0.992273
    37     1.334351
    38     0.016204
    39    -0.079313
    40    -2.610687
    41     0.019462
    42    -0.019264
    43    -0.742393
    44     0.019292
    45    -0.026845
    46    -0.779731
    47     0.008828
    48    -0.114521
    49    -0.102926
    50    -1.009033
    51    -0.051993
    52    -0.068578
    53    -3.281161
    54     0.261391
    55    -0.182845
    56    -3.257247
    57    -0.027817
    58    -0.958342
    59     1.020760
    60    -1.504519
    61     0.703978
    62    -5.788105
    63    -1.044333
    64    -0.143347
    65    -0.301752
    66    -0.334181
    67    -0.805619
    68     0.335755
    69    -2.587715
    70    -0.604545
    71    -0.342446
    72    -3.171894
    73    -0.028178
    74     0.063483
    75    -0.358516
    76     3.908872
    77     1.870444
    78     8.124456
    79     3.929999
    80    -0.017417
    81     0.007684
    82     0.048125
    83    -0.376814
    84     0.197883
    85     5.388237
    86    -0.365186
    87     0.732301
    88    18.600698
    89    -0.288580
    90     0.188723
    91     1.000899
    92     0.183556
    93     0.073157
    94    -0.183270
    95     0.098537
    96    -0.137518
    97    -0.057418
    98     7.186163
    99     7.834882
   100    12.114657
   101    -0.562434
   102     0.694905
   103     0.382503
   104     5.201185
   105     5.116134
   106    12.009726
   107     0.010379
   108    -0.664292
   109     0.727604
   110    -0.003450
   111     0.029641
   112     0.264259
   113     0.144848
   114    -0.083140
   115    -0.122278
   116    -0.066005
   117     0.018260
   118    -0.103536
   119     0.008833
   120     0.100812
   121    -0.116075
   122     0.878857
   123    -0.114511
   124     0.056515
   125    -0.175294
   126    -0.396019
   127     0.406787
   128    -0.239206
   129    -0.031165
   130    -3.153380
   131     0.030582
   132    -1.510332
   133    -0.191804
   134    -2.025391
   135    -0.561678
   136     0.109150
   137    -0.171707
   138     0.247124
   139    -1.358973
   140    -0.050952
   141    -1.058543
   142    -0.278490
   143     0.227795
   144    -1.613951
   145    -0.052266
   146     0.096610
   147    -0.067125
   148    -2.553108
   149     2.507715
   150     4.358274
   151    -8.084270
   152    -0.016319
   153    -0.010535
   154     0.065115
   155     0.025074
   156     0.154816
   157    -0.722167
   158     0.500221
   159    -0.692709
   160     6.276012
   161    -0.153287
   162     0.153243
   163     1.030005
   164    -0.148847
   165    -0.135365
   166     0.689586
   167     0.013721
   168    -0.009195
   169    -0.008720
   170    -4.887927
   171    -4.945342
   172    -9.732508
   173    -0.076468
   174     0.077423
   175     0.016108
   176    -0.930995
   177    -0.980072
   178    -1.840411
   179     0.000172
   180    -0.208975
   181     0.423382
   182    -0.035425
   183    -0.027557
   184     0.242932
   185    -0.017626
   186    -0.010398
   187     0.086901
   188     0.015361
   189    -0.014626
   190     0.073537
   191     0.002931
   192    -0.125703
   193     0.042236
   194    -1.005840
   195    -0.051547
   196     0.014739
   197    -0.019610
   198     0.092990
   199    -0.208229
   200     0.033384
   201    -0.003263
   202     5.186508
   203     0.099594
   204     1.745170
   205    -0.075474
   206     1.583074
   207    -0.167356
   208     0.015844
   209     0.008674
   210     0.046236
   211     1.726592
   212    -0.033794
   213     0.920427
   214     0.037066
   215     0.022147
   216     1.548984
Sym=   176a
Ene=   -0.500958E-03
Spin= Alpha
Occup= 0.000019
     1    -0.000041
     2     0.000247
     3    -0.000690
     4     0.005251
     5     0.010687
     6     0.000230
     7    -0.015733
     8    -0.055587
     9     0.023549
    10    -0.000394
    11    -0.205399
    12     0.081278
    13    -0.018885
    14    -0.119709
    15     0.079749
    16    -0.014908
    17     0.336852
    18    -0.176843
    19    -0.007353
    20    -0.009517
    21     0.008838
    22     0.000577
    23     0.005533
    24    -0.108095
    25     0.046659
    26     0.069002
    27    -0.039333
    28     0.018705
    29    -0.026075
    30     0.494637
    31    -0.212100
    32    -0.011611
    33     0.028414
    34     0.008118
    35    -0.007900
    36    -0.097291
    37     0.052384
    38     0.087482
    39    -0.037639
    40     0.003521
    41     0.038818
    42    -0.016898
    43     0.001831
    44     0.007722
    45    -0.003869
    46    -0.000936
    47    -0.001923
    48     0.184394
    49    -0.079764
    50    -0.018419
    51     0.083345
    52    -0.036051
    53     0.005540
    54     0.356522
    55    -0.149197
    56    -0.001946
    57    -0.009854
    58     0.009263
    59     0.166246
    60     0.003584
    61     0.079368
    62     0.021941
    63    -0.380647
    64     0.003242
    65    -0.082458
    66     0.006282
    67    -0.010030
    68     0.035149
    69     0.000790
    70    -0.184088
    71     0.011010
    72    -0.033611
    73     0.000008
    74    -0.000031
    75     0.000316
    76     0.004721
    77    -0.005994
    78    -0.045761
    79    -0.012316
    80    -0.019412
    81     0.007977
    82     0.000308
    83    -0.207986
    84     0.083121
    85    -0.019014
    86    -0.093194
    87     0.040944
    88    -0.014948
    89    -0.218601
    90     0.106099
    91     0.003600
    92     0.000546
    93     0.000510
    94     0.003014
    95    -0.001010
    96     0.006292
    97    -0.002664
    98     0.017272
    99     0.008604
   100    -0.014757
   101     0.014359
   102    -0.050227
   103     0.017121
   104     0.015423
   105    -0.003157
   106    -0.004554
   107    -0.007756
   108    -0.173748
   109     0.076009
   110     0.043496
   111    -0.018699
   112    -0.003297
   113     0.019436
   114    -0.008151
   115    -0.001071
   116    -0.029456
   117     0.013935
   118     0.001152
   119     0.000428
   120     0.065425
   121    -0.025912
   122    -0.006368
   123     0.029715
   124    -0.012204
   125     0.007761
   126    -0.119798
   127     0.054332
   128    -0.005677
   129    -0.001918
   130     0.004000
   131     0.046009
   132     0.002504
   133     0.004820
   134    -0.001715
   135    -0.101725
   136    -0.003672
   137    -0.003329
   138    -0.003949
   139    -0.001566
   140     0.001947
   141    -0.001347
   142    -0.007630
   143    -0.002914
   144    -0.006714
   145    -0.000932
   146     0.000513
   147     0.001060
   148    -0.007965
   149    -0.003400
   150     0.050430
   151     0.011259
   152    -1.431123
   153     0.612100
   154    -0.002072
   155     0.408812
   156    -0.168802
   157     0.006087
   158     0.710566
   159    -0.329788
   160     0.006838
   161    -0.148580
   162     0.079846
   163    -0.000744
   164     0.063132
   165    -0.064677
   166    -0.002512
   167    -0.060127
   168    -0.032143
   169     0.009683
   170    -0.072235
   171     0.040676
   172    -0.006072
   173     0.056135
   174     0.220897
   175    -0.088259
   176    -0.094982
   177     0.087118
   178    -0.012370
   179     0.078603
   180     0.006800
   181     0.008294
   182     0.952549
   183    -0.408072
   184    -0.003316
   185     0.426365
   186    -0.182797
   187     0.001318
   188     0.460298
   189    -0.197347
   190    -0.003715
   191    -0.006236
   192    -0.975458
   193     0.415634
   194    -0.004315
   195    -0.433584
   196     0.192298
   197     0.003277
   198    -0.336433
   199     0.142654
   200    -0.012982
   201    -0.004472
   202    -0.008853
   203     0.010897
   204    -0.034857
   205     0.049992
   206    -0.055875
   207    -0.025747
   208    -0.033199
   209    -0.055727
   210    -0.154026
   211     0.040958
   212     0.022688
   213     0.014424
   214    -0.125227
   215     0.097166
   216     0.045624
Sym=   177a
Ene=   -0.360679E-04
Spin= Alpha
Occup= 0.000009
     1     0.017617
     2    -0.041439
     3    -0.094907
     4     0.232466
     5    -0.089026
     6    -1.324303
     7    -0.534301
     8    -0.002719
     9     0.001288
    10    -0.026978
    11    -0.133440
    12    -0.336173
    13     0.559215
    14     0.541368
    15     1.740922
    16     4.255634
    17    -0.148179
    18    -0.552725
    19     0.175510
    20    -0.054472
    21    -0.171385
    22     0.070651
    23    -0.078554
    24    -0.035491
    25    -0.059281
    26     0.308430
    27     0.459671
    28    -1.830839
    29     0.065811
    30    -0.235955
    31    -0.732740
    32    -0.076724
    33    -0.328164
    34     1.105628
    35    -0.085048
    36    -0.238178
    37    -0.628593
    38     0.117992
    39    -0.202458
    40     0.477226
    41    -0.181022
    42     0.108915
    43    -0.000493
    44     0.129487
    45     0.352427
    46     0.043523
    47     0.022802
    48     0.056473
    49    -0.256921
    50     0.706582
    51    -0.133771
    52    -0.039930
    53     0.060237
    54    -0.240936
    55    -0.596322
    56    -0.338692
    57    -0.204082
    58     0.589407
    59    -0.061912
    60     0.242888
    61     0.734756
    62     0.093968
    63    -0.016095
    64    -0.002863
    65     0.290029
    66     0.493570
    67     0.321004
    68     0.189856
    69    -0.210651
    70     0.086284
    71    -0.341143
    72    -0.221790
    73    -0.014894
    74     0.035326
    75     0.033638
    76     0.253017
    77     0.248865
    78     0.213542
    79     0.794981
    80    -0.015211
    81    -0.037649
    82     0.067577
    83     0.044665
    84     0.172490
    85     0.979972
    86    -0.679316
    87    -1.901872
    88     2.426054
    89     0.153919
    90     0.491496
    91     0.126767
    92     0.043516
    93     0.126522
    94    -0.043532
    95     0.010521
    96    -0.034949
    97    -0.093925
    98     0.686570
    99     0.509913
   100     2.335946
   101    -0.084075
   102     0.001486
   103    -0.214363
   104     0.459945
   105     0.456027
   106     1.605395
   107     0.019437
   108    -0.199168
   109    -0.509232
   110    -0.058935
   111     0.147670
   112     0.260893
   113     0.174830
   114    -0.010823
   115    -0.103800
   116    -0.061805
   117    -0.218663
   118    -0.108995
   119    -0.030490
   120     0.099805
   121     0.642446
   122     0.295513
   123     0.243384
   124     0.129943
   125    -0.104943
   126     0.069626
   127     0.194561
   128    -0.426407
   129    -0.150594
   130    -0.583429
   131    -0.102228
   132    -0.281184
   133     0.488047
   134    -0.283484
   135    -0.073704
   136     0.044053
   137     0.308014
   138    -0.426615
   139    -0.356295
   140     0.025416
   141    -0.015266
   142    -0.065378
   143     0.302699
   144    -0.127580
   145    -0.000185
   146     0.001148
   147    -0.000819
   148    -0.404654
   149     0.330529
   150    -0.609263
   151    -0.987479
   152    -0.007573
   153    -0.021145
   154    -0.017674
   155     0.099420
   156     0.247162
   157     0.184525
   158     0.074650
   159     0.230459
   160     1.980371
   161    -0.044008
   162    -0.133433
   163    -0.024254
   164    -0.037017
   165    -0.034764
   166    -0.076483
   167    -0.008568
   168    -0.008602
   169    -0.021708
   170    -0.764211
   171    -0.788610
   172    -0.521071
   173     0.013394
   174     0.016240
   175     0.038657
   176    -0.559212
   177    -0.385763
   178    -1.044962
   179     0.058133
   180    -0.042681
   181    -0.111472
   182    -0.010065
   183    -0.040580
   184    -0.049891
   185    -0.013656
   186    -0.020786
   187    -0.021759
   188     0.007557
   189     0.016827
   190    -0.011452
   191     0.013462
   192    -0.018644
   193    -0.061593
   194    -0.000111
   195     0.004360
   196    -0.021520
   197     0.043932
   198     0.043053
   199     0.114428
   200    -0.091620
   201    -0.068152
   202     0.056265
   203    -0.139491
   204     0.119574
   205    -0.074167
   206     0.233428
   207    -0.054702
   208     0.020457
   209    -0.014486
   210    -0.012886
   211     0.072860
   212    -0.040436
   213     0.132184
   214    -0.034826
   215     0.002767
   216     0.241141
Sym=   178a
Ene=   -0.583940E-05
Spin= Alpha
Occup= 0.000001
     1     0.000039
     2    -0.036201
     3     0.310445
     4    -0.230309
     5    -0.677233
     6     7.527221
     7     1.224585
     8    -0.416388
     9     0.030252
    10     0.431759
    11    -3.287490
    12     0.073212
    13     2.130906
    14     0.176813
    15    -0.328742
    16    -5.445841
    17    -0.143348
    18     0.055145
    19    -0.835787
    20    -0.263476
    21     0.231477
    22    -0.192112
    23     0.057488
    24     0.573017
    25    -0.101107
    26     3.161958
    27    -0.388300
    28     1.760309
    29    -0.736463
    30    -2.993624
    31     1.017580
    32     0.386954
    33     0.531697
    34     6.745490
    35    -0.546176
    36    -0.832918
    37     0.520233
    38     1.151244
    39    -0.104384
    40    -1.008120
    41     0.309559
    42     0.186612
    43    -0.275313
    44     0.288069
    45    -0.253501
    46    -0.262899
    47     0.226816
    48     0.947183
    49     0.057692
    50    -1.725256
    51     0.644862
    52    -0.169388
    53    -0.894652
    54     1.042628
    55    -0.447616
    56    -0.766486
    57     0.021500
    58    -0.845240
    59    -0.220355
    60    -0.452262
    61    -0.431602
    62     0.300273
    63     1.131717
    64    -0.283252
    65     0.748652
    66     0.476435
    67    -1.033928
    68    -0.045434
    69    -0.457321
    70     1.415490
    71     0.684443
    72    -2.160726
    73    -0.000590
    74    -0.005323
    75     0.002497
    76     0.235993
    77    -0.101923
    78    -9.736840
    79    -3.045583
    80    -0.223009
    81     0.035817
    82    -0.089826
    83    -2.139220
    84     0.900296
    85    -1.750413
    86    -0.540657
    87    -0.596777
    88    -6.017434
    89     0.094051
    90     0.426586
    91    -0.460098
    92    -0.266778
    93     0.019092
    94    -0.189703
    95    -0.087336
    96    -0.278261
    97    -0.039721
    98     2.789346
    99     0.011577
   100     1.119258
   101    -0.825157
   102     1.220385
   103    -0.392943
   104    -0.472503
   105    -0.412744
   106    -2.775276
   107     0.155208
   108    -0.387448
   109     0.403464
   110     0.938016
   111    -0.293304
   112     0.087444
   113     0.084352
   114    -0.098408
   115     0.101734
   116     0.021498
   117     0.039682
   118     0.080412
   119    -0.018275
   120     0.179613
   121     0.191994
   122    -0.018648
   123     0.425718
   124     0.081774
   125    -0.139916
   126     0.587788
   127     0.456932
   128    -0.053456
   129     0.302092
   130    -0.677857
   131     0.594803
   132     0.035896
   133     0.213646
   134     0.187555
   135    -0.495094
   136     0.640702
   137    -0.288504
   138     0.335359
   139    -0.670268
   140     0.146977
   141    -0.524019
   142    -0.677709
   143     0.319240
   144    -1.749189
   145     0.002841
   146    -0.004428
   147     0.020484
   148    -0.892376
   149     0.350045
   150     0.342966
   151     2.756059
   152     0.008135
   153    -0.021607
   154    -0.006942
   155    -0.097493
   156     0.205509
   157     0.446180
   158     0.218151
   159    -0.142246
   160     0.186844
   161     0.160175
   162    -0.065067
   163    -0.336916
   164    -0.092135
   165    -0.062370
   166    -0.016130
   167     0.021770
   168    -0.012594
   169    -0.046671
   170    -1.562765
   171    -1.657609
   172    -2.209641
   173    -0.083974
   174     0.060961
   175     0.256082
   176    -1.208188
   177    -1.220043
   178    -0.652612
   179     0.208128
   180    -0.217821
   181     0.086099
   182     0.008754
   183    -0.050366
   184     0.089805
   185     0.022000
   186    -0.032578
   187    -0.011480
   188     0.009889
   189     0.002545
   190    -0.024169
   191     0.019049
   192     0.045201
   193    -0.065485
   194    -0.134885
   195    -0.027155
   196    -0.010003
   197     0.121480
   198     0.071450
   199    -0.013875
   200     0.146920
   201    -0.151676
   202     0.718968
   203    -0.166596
   204     0.304868
   205    -0.132841
   206     0.451557
   207    -0.020580
   208     0.061681
   209     0.027070
   210     0.001671
   211     0.312321
   212    -0.051142
   213     0.249256
   214    -0.027463
   215     0.005405
   216     0.384292
Sym=   179a
Ene=   -0.163186E-04
Spin= Alpha
Occup= 0.000004
     1    -0.002953
     2     0.003028
     3     0.036336
     4    -0.132599
     5    -0.032734
     6     0.590081
     7     0.027475
     8    -0.048382
     9    -0.053608
    10     0.025902
    11    -0.486878
    12    -0.548317
    13     0.263236
    14    -0.001035
    15     0.073960
    16     0.181180
    17    -0.161011
    18    -0.065724
    19    -0.030071
    20    -0.239753
    21     0.281567
    22     0.014753
    23    -0.043157
    24     0.045766
    25     0.026846
    26    -0.618418
    27     0.386412
    28    -0.305709
    29     0.136677
    30    -0.856604
    31    -0.620416
    32     0.284985
    33    -0.345170
    34     0.646916
    35    -0.172343
    36     0.078039
    37     0.323098
    38     0.439489
    39     0.521383
    40     0.028694
    41    -0.152075
    42    -0.147497
    43     0.170264
    44     0.171157
    45     0.060862
    46    -0.252223
    47     0.027389
    48    -0.143511
    49    -0.249752
    50    -0.048191
    51     0.337590
    52     0.293655
    53    -0.455943
    54     0.029867
    55     0.327701
    56     0.370818
    57     0.019165
    58    -0.001038
    59     0.348959
    60    -0.060147
    61     0.295680
    62    -0.563007
    63     0.247301
    64    -0.060974
    65     0.138538
    66     0.010597
    67     0.211869
    68     0.018097
    69    -0.008863
    70     0.395253
    71    -0.024075
    72     0.517610
    73    -0.007062
    74     0.007625
    75     0.063678
    76    -0.201377
    77     0.248637
    78    -0.374942
    79    -0.106544
    80     0.005987
    81     0.010754
    82    -0.014531
    83     0.263824
    84     0.174663
    85    -0.153621
    86    -0.076042
    87     0.055926
    88     0.153108
    89     0.023470
    90     0.034171
    91    -0.059273
    92     0.238377
    93    -0.179940
    94    -0.004077
    95    -0.082809
    96    -0.048752
    97     0.048013
    98    -0.185480
    99    -0.099057
   100     0.095364
   101    -0.042138
   102    -0.256314
   103    -0.453684
   104    -0.254777
   105     0.306010
   106     0.137956
   107     0.021274
   108     0.031199
   109     0.170730
   110    -0.293177
   111    -0.333701
   112     0.076320
   113     0.116232
   114     0.224252
   115     0.384888
   116    -0.112520
   117    -0.072126
   118    -0.345848
   119    -0.052982
   120     0.367133
   121     0.349102
   122     0.061187
   123    -0.194808
   124    -0.343361
   125    -0.665269
   126    -0.156940
   127    -0.044877
   128     0.533106
   129     0.097731
   130    -0.030921
   131     0.067248
   132    -0.267009
   133     0.218205
   134     0.363662
   135    -0.114551
   136     0.056226
   137     0.120102
   138    -0.119165
   139     0.230026
   140     0.119869
   141    -0.046736
   142     0.271722
   143     0.228920
   144    -0.246999
   145    -0.000040
   146    -0.000161
   147     0.003081
   148    -0.144486
   149     0.141084
   150    -0.088711
   151     0.049045
   152     0.002262
   153     0.004825
   154    -0.001223
   155     0.032613
   156    -0.070721
   157     0.034801
   158    -0.161225
   159    -0.223392
   160     0.276810
   161     0.212971
   162     0.085639
   163     0.004807
   164    -0.018694
   165    -0.007470
   166    -0.025331
   167     0.009821
   168    -0.018882
   169     0.007624
   170    -0.242690
   171    -0.262972
   172    -0.166077
   173    -0.015540
   174     0.068272
   175    -0.055474
   176    -0.144472
   177    -0.139701
   178    -0.245825
   179     0.059058
   180    -0.077886
   181     0.153918
   182    -0.004221
   183     0.005403
   184    -0.014873
   185     0.015819
   186     0.015662
   187    -0.004821
   188     0.004438
   189     0.003940
   190     0.002781
   191     0.001242
   192     0.052971
   193     0.039572
   194     0.034940
   195    -0.026732
   196    -0.019370
   197    -0.018822
   198     0.078504
   199    -0.098557
   200     0.054041
   201    -0.015797
   202     0.029426
   203     0.080922
   204     0.015622
   205     0.025805
   206     0.050355
   207    -0.027045
   208    -0.004681
   209     0.001126
   210    -0.013309
   211     0.038538
   212     0.023442
   213     0.052250
   214    -0.058328
   215     0.003727
   216     0.084603
Sym=   180a
Ene=   -0.729629E-05
Spin= Alpha
Occup= 0.000001
     1    -0.007452
     2     0.009765
     3     0.054258
     4    -0.015258
     5    -0.036803
     6    -1.388700
     7     0.665397
     8     0.000062
     9     0.021863
    10     0.122634
    11     0.012493
    12     0.247320
    13     0.570254
    14     0.466050
    15     0.560767
    16     3.250883
    17    -0.831711
    18     0.577761
    19    -0.181296
    20     0.088369
    21     0.016552
    22     0.284277
    23     0.042457
    24    -0.134384
    25    -0.204695
    26     0.559895
    27    -0.328125
    28    -1.021609
    29     0.411564
    30     1.745279
    31     2.627609
    32     0.088205
    33    -0.355840
    34    -0.366306
    35     0.079098
    36    -1.068037
    37    -3.184437
    38     0.067490
    39     0.222001
    40    -0.194983
    41     0.056180
    42     0.100883
    43     0.064729
    44     0.097928
    45     0.037163
    46    -0.276197
    47     0.085621
    48    -0.003798
    49    -0.161273
    50    -0.931778
    51    -0.017577
    52    -0.072847
    53    -0.719269
    54     0.084322
    55     0.584225
    56     0.254713
    57    -0.280182
    58     0.718083
    59    -3.369724
    60     0.110844
    61    -0.869982
    62     0.529963
    63    -2.030608
    64    -0.204352
    65    -0.282147
    66    -0.171358
    67     0.236799
    68    -0.372903
    69    -0.068427
    70    -0.676521
    71    -0.277365
    72    -0.469714
    73    -0.000924
    74     0.001758
    75    -0.007588
    76     0.249714
    77     0.019268
    78     0.554408
    79    -0.651603
    80    -0.116331
    81    -0.167474
    82     0.011692
    83    -0.954029
    84    -1.911986
    85    -0.097151
    86    -0.684279
    87    -1.143674
    88     1.610305
    89     0.429952
    90    -0.685366
    91    -0.115484
    92     0.106704
    93    -0.087490
    94     0.047244
    95     0.012351
    96    -0.005088
    97    -0.084241
    98     0.437562
    99     0.758697
   100     0.264127
   101    -0.031375
   102    -0.166344
   103     0.198224
   104     0.462583
   105     0.742091
   106     1.188096
   107    -0.111922
   108    -0.437783
   109    -1.546567
   110     0.253001
   111     0.481821
   112    -0.049890
   113     0.123395
   114     0.196082
   115     0.017574
   116    -0.185381
   117    -0.388127
   118    -0.027486
   119     0.045292
   120     0.447371
   121     0.410914
   122     0.036122
   123     0.191373
   124     0.207735
   125    -0.291522
   126    -0.499440
   127    -1.081931
   128     0.281966
   129    -0.110498
   130    -0.012815
   131    -1.226625
   132     0.091131
   133    -0.250241
   134    -0.205344
   135    -0.585339
   136     0.032847
   137     0.019891
   138     0.018618
   139    -0.192726
   140    -0.101042
   141    -0.136683
   142     0.032778
   143    -0.029770
   144    -0.089750
   145     0.001127
   146     0.000664
   147    -0.029159
   148    -0.068041
   149     0.060320
   150     0.475720
   151    -1.152787
   152     0.065738
   153     0.083195
   154    -0.005676
   155    -0.484095
   156    -0.791814
   157    -0.319472
   158     0.016406
   159     1.285447
   160     1.038182
   161     0.552422
   162    -0.127132
   163     0.198057
   164    -0.030303
   165    -0.031352
   166    -0.022545
   167    -0.089570
   168     0.315707
   169     0.449587
   170    -0.198355
   171    -0.109430
   172    -0.306147
   173     0.399018
   174    -1.617659
   175    -2.197004
   176    -0.060611
   177    -0.147048
   178    -0.346226
   179     0.008563
   180    -0.454940
   181    -1.047250
   182     0.086295
   183     0.100665
   184     0.015973
   185     0.038834
   186     0.041139
   187    -0.007175
   188     0.314376
   189     0.441337
   190     0.014683
   191    -0.071441
   192     0.306654
   193     0.241983
   194    -0.114242
   195     0.136397
   196     0.110963
   197    -0.155590
   198     0.583685
   199     0.957712
   200    -0.012135
   201    -0.070841
   202     0.132609
   203     0.168643
   204    -0.008118
   205     1.146368
   206     0.000142
   207     0.240337
   208     0.193304
   209     0.356142
   210    -0.248650
   211     0.199262
   212     0.505635
   213    -0.048816
   214     0.797766
   215    -0.206721
   216     0.018792
Sym=   181a
Ene=   -0.366590E-04
Spin= Alpha
Occup= 0.000008
     1     0.005627
     2    -0.011913
     3     0.027886
     4    -0.005156
     5    -0.458519
     6     2.382283
     7     1.439729
     8    -0.067672
     9     0.022354
    10    -0.018104
    11    -0.349532
    12     0.125853
    13    -0.350770
    14     0.230137
    15    -0.060108
    16    -2.978809
    17    -0.073316
    18     0.024108
    19     0.231025
    20     0.016888
    21     0.077023
    22     0.080121
    23     0.014041
    24    -0.032071
    25     0.014119
    26    -0.059849
    27    -0.292680
    28    -0.663674
    29    -0.044492
    30     0.077580
    31    -0.026846
    32     0.171166
    33     0.157186
    34     2.541190
    35    -0.078777
    36     0.692164
    37    -0.264943
    38     0.100703
    39    -0.035702
    40    -0.056592
    41     0.041870
    42    -0.015405
    43    -0.018773
    44    -0.025266
    45     0.008183
    46    -0.013764
    47     0.007899
    48     0.150376
    49    -0.043132
    50     0.593349
    51     0.062056
    52    -0.013205
    53     0.045936
    54     0.338707
    55    -0.105596
    56    -0.138143
    57    -0.093290
    58     0.002013
    59     0.067580
    60     0.055687
    61     0.025114
    62     0.141004
    63    -0.182850
    64    -0.027004
    65    -0.038092
    66     0.017961
    67     0.095238
    68     0.018465
    69     0.034019
    70    -0.084878
    71     0.026001
    72     0.015674
    73     0.000591
    74    -0.001541
    75     0.005817
    76    -0.267026
    77     0.138101
    78    -2.243390
    79    -0.288586
    80    -0.034514
    81     0.013103
    82     0.024610
    83    -0.242864
    84     0.081396
    85     0.346925
    86     0.190370
    87    -0.074395
    88    -2.795550
    89    -0.191719
    90     0.060900
    91    -0.086285
    92    -0.033014
    93     0.012717
    94    -0.056168
    95     0.012677
    96    -0.016695
    97     0.005036
    98    -0.548211
    99    -0.790487
   100    -0.114819
   101    -0.067786
   102     0.046329
   103    -0.023797
   104    -0.629574
   105    -0.679600
   106    -1.705081
   107     0.002315
   108     0.038018
   109    -0.041581
   110     0.053424
   111    -0.021311
   112     0.028698
   113     0.032686
   114    -0.010327
   115    -0.023530
   116    -0.008700
   117     0.005250
   118    -0.003758
   119     0.000596
   120     0.184385
   121    -0.070755
   122    -0.171119
   123     0.071767
   124    -0.029836
   125    -0.065482
   126    -0.011924
   127    -0.007596
   128    -0.129288
   129    -0.007478
   130     0.038625
   131     0.040729
   132     0.081871
   133     0.011455
   134     0.280492
   135    -0.102099
   136     0.006361
   137    -0.009582
   138     0.029368
   139     0.030277
   140     0.005967
   141     0.126274
   142    -0.024361
   143     0.030732
   144     0.129190
   145     0.033845
   146    -0.096693
   147    -0.363923
   148     1.525097
   149    -0.882340
   150    -2.395242
   151    -0.272756
   152    -0.230440
   153     0.081123
   154     0.002654
   155     2.246618
   156    -0.775288
   157     0.569516
   158    -1.877073
   159     0.629013
   160    -1.306195
   161     0.682109
   162    -0.235554
   163     0.457486
   164    -0.736793
   165    -0.098921
   166    -0.003653
   167     0.297695
   168    -0.256123
   169     0.097614
   170     1.718292
   171     1.435910
   172     0.979945
   173    -0.182584
   174     0.382612
   175    -0.205495
   176    -0.735993
   177     0.029190
   178     1.130771
   179     0.382967
   180     0.137927
   181    -0.031760
   182    -0.615132
   183     0.247700
   184    -0.127792
   185    -0.291698
   186     0.043291
   187     0.069542
   188    -0.390501
   189     0.139836
   190    -0.009031
   191    -0.061771
   192    -0.269201
   193     0.102023
   194    -0.077327
   195    -0.129271
   196     0.062718
   197     0.338729
   198    -0.139646
   199     0.048546
   200     0.215356
   201    -0.041887
   202    -0.255680
   203     0.149865
   204    -0.201503
   205     0.090550
   206    -0.499424
   207    -0.306967
   208     0.069229
   209    -0.025774
   210     0.008263
   211    -0.297394
   212    -0.184695
   213    -0.157840
   214     0.239944
   215    -0.345315
   216     0.109326
Sym=   182a
Ene=   -0.114268E-04
Spin= Alpha
Occup= 0.000002
     1     0.006262
     2    -0.010467
     3     0.065665
     4    -0.301703
     5    -0.488971
     6     2.362349
     7     0.814796
     8    -0.012085
     9     0.097444
    10     0.087055
    11    -0.058330
    12     0.448090
    13     0.955902
    14     0.271553
    15    -0.336676
    16    -8.797957
    17     0.088096
    18    -0.003091
    19     0.508632
    20     0.031503
    21     0.099239
    22     0.290325
    23    -0.026761
    24    -0.216254
    25     0.411843
    26    -0.528637
    27    -0.907129
    28    -2.588048
    29     0.497253
    30     1.330378
    31    -2.412741
    32    -0.010534
    33     0.105604
    34     0.842905
    35     0.020495
    36    -0.776234
    37     0.320920
    38     0.035688
    39    -0.225380
    40    -0.495722
    41     0.031048
    42    -0.102623
    43    -0.050963
    44     0.072548
    45    -0.045823
    46    -0.048421
    47    -0.023411
    48     0.055514
    49    -0.308649
    50     1.345687
    51    -0.000410
    52    -0.121574
    53    -0.344262
    54    -0.001276
    55    -0.394948
    56    -0.195489
    57    -0.488243
    58     0.448971
    59     1.857500
    60     0.613541
    61     0.991988
    62     0.324054
    63    -0.775020
    64    -0.452829
    65    -0.226665
    66    -0.218570
    67     0.437570
    68     0.465285
    69     0.130052
    70    -0.535400
    71    -0.205680
    72     0.111345
    73    -0.000488
    74     0.000103
    75    -0.004832
    76    -0.735453
    77     0.607419
    78    -1.737745
    79     0.900107
    80    -0.001943
    81     0.073427
    82    -0.017771
    83    -0.023673
    84     0.602152
    85     1.207618
    86    -0.500473
    87     0.327002
    88    -4.959770
    89    -0.103870
    90     0.072291
    91     0.120637
    92    -0.054615
    93    -0.094063
    94    -0.229042
    95     0.069709
    96     0.003956
    97     0.045543
    98    -1.770965
    99    -1.551840
   100     0.076854
   101    -0.280106
   102    -0.056318
   103    -0.148164
   104    -1.644067
   105    -1.656225
   106    -3.483591
   107    -0.102466
   108    -0.430325
   109     0.407020
   110    -0.000386
   111    -0.139159
   112     0.185510
   113     0.001558
   114    -0.065729
   115     0.014701
   116    -0.034212
   117     0.104933
   118     0.007558
   119     0.062859
   120     0.044318
   121    -0.331518
   122    -0.148422
   123     0.019369
   124    -0.142430
   125    -0.120984
   126    -0.213941
   127     0.409981
   128    -0.106058
   129    -0.147512
   130    -0.138435
   131     0.517299
   132     0.062168
   133     0.044648
   134     0.407840
   135    -0.104732
   136     0.080152
   137     0.026571
   138     0.084475
   139     0.113160
   140     0.030183
   141     0.254984
   142     0.053811
   143     0.091805
   144     0.535524
   145     0.017255
   146    -0.015498
   147    -0.189991
   148     1.705605
   149    -0.633308
   150    -4.237690
   151     1.681740
   152    -0.098164
   153    -0.095174
   154     0.067354
   155     0.852062
   156     0.720816
   157     0.673166
   158     0.015661
   159     0.255846
   160    -5.202394
   161     0.127983
   162     0.046778
   163     0.035031
   164     0.003466
   165    -0.082845
   166     0.258508
   167    -0.063746
   168    -0.097102
   169     0.009331
   170     3.063485
   171     2.994659
   172     1.354362
   173    -0.601102
   174     0.385058
   175    -0.684660
   176     1.043927
   177     0.833976
   178     2.833507
   179    -0.026559
   180    -0.303349
   181    -0.208615
   182    -0.304886
   183    -0.139637
   184     0.210580
   185    -0.221558
   186    -0.155659
   187    -0.051161
   188     0.062560
   189    -0.191520
   190    -0.123875
   191     0.092070
   192    -0.235733
   193    -0.415782
   194     0.241939
   195    -0.022480
   196    -0.100059
   197     0.540424
   198    -0.023246
   199    -0.379754
   200     0.722428
   201    -0.429403
   202     0.692655
   203     0.929612
   204    -0.696684
   205     0.103434
   206    -0.541626
   207    -0.040924
   208     0.930923
   209    -0.061060
   210     0.216227
   211    -0.517341
   212     0.180101
   213    -0.472246
   214    -0.269472
   215     0.117934
   216    -0.824558
Sym=   183a
Ene=   -0.197389E-04
Spin= Alpha
Occup= 0.000004
     1     0.003888
     2    -0.005921
     3    -0.018489
     4     0.356503
     5    -0.371041
     6     3.595552
     7     1.261257
     8    -0.005609
     9     0.023504
    10    -0.018221
    11    -0.195297
    12     0.047104
    13     0.888086
    14    -0.230506
    15    -0.219190
    16     5.957083
    17     0.057116
    18     0.114505
    19     0.048391
    20    -0.033035
    21     0.060704
    22     0.098056
    23    -0.012484
    24     0.046482
    25     0.137506
    26     0.881003
    27     0.457573
    28     0.211625
    29     0.067309
    30    -0.364124
    31    -0.753541
    32     0.090592
    33     0.019484
    34     3.999884
    35    -0.045136
    36    -0.646237
    37     0.274653
    38    -0.023526
    39    -0.053344
    40     0.054709
    41    -0.010174
    42    -0.047291
    43    -0.015487
    44    -0.017312
    45    -0.003438
    46    -0.030058
    47     0.012481
    48    -0.012643
    49    -0.114625
    50     1.266130
    51    -0.003523
    52     0.034675
    53     0.276570
    54    -0.253856
    55    -0.096376
    56    -0.053363
    57    -0.061889
    58     0.360796
    59     0.517974
    60    -0.029166
    61     0.233377
    62    -0.139170
    63     0.276218
    64    -0.031092
    65     0.044096
    66    -0.029508
    67    -0.028056
    68     0.163622
    69    -0.152489
    70     0.080436
    71    -0.005128
    72    -0.343638
    73     0.000186
    74     0.000075
    75    -0.011036
    76     0.570343
    77     0.044920
    78    -1.625386
    79    -1.459307
    80     0.025515
    81     0.031404
    82     0.029216
    83     0.214023
    84     0.198694
    85     0.426830
    86    -0.227932
    87     0.411613
    88     0.828100
    89     0.023296
    90    -0.152880
    91    -0.452796
    92     0.042591
    93     0.054726
    94     0.069747
    95     0.028962
    96     0.045446
    97    -0.025719
    98     1.271363
    99     1.095145
   100     1.073342
   101    -0.136615
   102    -0.189094
   103     0.117009
   104     0.785627
   105     0.689746
   106     0.982278
   107     0.007081
   108    -0.067151
   109     0.179713
   110    -0.057095
   111    -0.056942
   112    -0.076036
   113    -0.024761
   114    -0.024046
   115    -0.031904
   116     0.021852
   117     0.011693
   118    -0.000325
   119     0.002617
   120    -0.107396
   121    -0.150573
   122    -0.153602
   123    -0.046744
   124    -0.076629
   125     0.013120
   126     0.051025
   127     0.087410
   128    -0.107215
   129    -0.012074
   130    -0.189496
   131     0.063786
   132    -0.116396
   133    -0.035781
   134    -0.269338
   135     0.177563
   136     0.020611
   137     0.046415
   138     0.055030
   139    -0.146432
   140    -0.022863
   141    -0.201300
   142     0.082192
   143     0.051793
   144    -0.396270
   145    -0.002187
   146     0.000873
   147     0.015832
   148    -1.058961
   149     0.875750
   150    -2.097311
   151    -1.113516
   152     0.127274
   153     0.003015
   154     0.067354
   155    -1.205249
   156    -0.086792
   157    -0.573896
   158     1.213745
   159     0.071996
   160     6.484633
   161    -0.338620
   162    -0.073373
   163    -0.419642
   164    -0.220043
   165    -0.048709
   166    -0.128270
   167     0.052201
   168    -0.262134
   169     0.017576
   170    -2.316134
   171    -1.983809
   172    -1.048720
   173    -0.449252
   174     0.805499
   175    -1.944568
   176    -1.906295
   177    -1.256883
   178    -3.696799
   179     0.018235
   180    -0.876020
   181    -0.101006
   182     0.341235
   183     0.007107
   184     0.288409
   185     0.229860
   186     0.160611
   187    -0.394377
   188     0.043518
   189    -0.111158
   190     0.665143
   191     0.050449
   192     0.180260
   193     0.028011
   194     0.297627
   195    -0.032631
   196    -0.224620
   197     0.604182
   198     0.340244
   199     0.117935
   200    -0.502887
   201    -0.110737
   202    -0.355137
   203     1.125991
   204     0.047254
   205     0.682748
   206     0.600718
   207    -0.278105
   208     0.061704
   209     0.109064
   210     0.190937
   211     0.381159
   212     0.807008
   213     0.483696
   214    -0.206158
   215     0.261337
   216     1.157708
Sym=   184a
Ene=   -0.304847E-04
Spin= Alpha
Occup= 0.000006
     1    -0.012062
     2     0.024279
     3    -0.172670
     4    -0.182873
     5     2.305493
     6    -2.400646
     7     1.013963
     8     0.000754
     9     0.000405
    10     0.048872
    11    -0.000429
    12    -0.000734
    13    -3.187721
    14     0.007123
    15    -0.038026
    16     0.002569
    17    -0.003852
    18     0.010472
    19     0.015057
    20    -0.196766
    21    -0.187560
    22    -0.675403
    23     0.005278
    24     0.000078
    25    -0.002346
    26    -0.644612
    27    -0.674428
    28     6.053098
    29    -0.029599
    30    -0.003159
    31     0.001424
    32    -0.200675
    33    -0.185671
    34    -2.732816
    35     0.008272
    36    -0.005249
    37    -0.004193
    38     0.010304
    39    -0.008952
    40    -0.942642
    41    -0.014087
    42     0.007995
    43    -0.012790
    44     0.000240
    45     0.009209
    46    -0.021801
    47    -0.005180
    48    -0.012324
    49     0.009991
    50    -4.128738
    51     0.005569
    52    -0.002487
    53     0.710353
    54    -0.001050
    55    -0.007872
    56     0.707185
    57    -0.004448
    58    -0.207273
    59    -0.019588
    60    -0.576629
    61     0.004083
    62     0.166057
    63     0.000039
    64     0.016382
    65     0.004666
    66     0.011427
    67    -0.598218
    68     0.001105
    69     0.095958
    70    -0.000890
    71     0.009500
    72     0.157230
    73    -0.030994
    74     0.079747
    75     0.104171
    76    -0.243066
    77    -4.142889
    78     4.957460
    79    -1.205655
    80     0.000508
    81    -0.000995
    82    -0.800860
    83    -0.000346
    84     0.005127
    85    -9.350546
    86     0.006640
    87    -0.009038
    88     0.224650
    89    -0.002747
    90    -0.000339
    91     0.340742
    92     0.297274
    93     0.301976
    94     0.269380
    95     0.002755
    96    -0.000170
    97     0.001795
    98    -2.702188
    99    -2.663906
   100     0.023153
   101     0.004866
   102     0.010898
   103     0.054850
   104     0.016685
   105     0.010759
   106     0.910740
   107    -0.005385
   108     0.002336
   109     0.023161
   110     0.050815
   111    -0.027444
   112     0.006949
   113    -0.066099
   114     0.038611
   115     0.907703
   116    -0.003317
   117    -0.014607
   118     0.905680
   119     0.000090
   120    -0.075123
   121     0.051513
   122     1.680199
   123     0.091175
   124    -0.051156
   125     1.422298
   126     0.000634
   127     0.007648
   128     1.419691
   129    -0.005513
   130    -4.943192
   131    -0.046359
   132    -0.021777
   133    -0.049519
   134     1.351036
   135    -0.007895
   136    -0.027080
   137    -0.041259
   138     0.005321
   139     0.028841
   140     0.013727
   141     0.795928
   142     0.022581
   143     0.009655
   144     1.356071
   145    -0.001792
   146     0.004298
   147    -0.041463
   148     0.981613
   149    -0.805518
   150     1.048213
   151    -0.894214
   152     0.000172
   153     0.000010
   154    -0.123862
   155    -0.001036
   156     0.002027
   157    -0.222409
   158     0.001556
   159     0.008225
   160    -0.641277
   161     0.002401
   162     0.000157
   163     0.144150
   164     0.054402
   165     0.054575
   166    -0.007316
   167    -0.000097
   168    -0.000190
   169    -0.001578
   170     1.768446
   171     1.769800
   172     2.087511
   173     0.000967
   174     0.002450
   175     0.008328
   176     0.633040
   177     0.629159
   178     0.626400
   179    -0.001365
   180    -0.003562
   181    -0.014075
   182     0.000554
   183    -0.001074
   184    -0.111135
   185    -0.000327
   186     0.000953
   187    -0.111797
   188     0.000041
   189     0.000675
   190    -0.113054
   191    -0.000084
   192     0.000708
   193     0.001256
   194    -0.087686
   195    -0.000244
   196    -0.001706
   197    -0.436577
   198     0.001981
   199     0.010228
   200    -0.431883
   201     0.001588
   202    -1.035268
   203    -0.008647
   204    -0.298362
   205    -0.002226
   206    -0.577910
   207    -0.001114
   208    -0.001688
   209    -0.002791
   210    -0.000010
   211    -0.296072
   212    -0.002379
   213    -0.338711
   214     0.000941
   215    -0.000015
   216    -0.577775
Sym=   185a
Ene=   -0.143543E-07
Spin= Alpha
Occup= 0.000000
     1     0.014048
     2    -0.030345
     3     0.114286
     4    -2.758931
     5     0.098172
     6    24.497233
     7    16.290340
     8     0.002741
     9    -0.035789
    10     0.008488
    11    -0.089144
    12     0.356420
    13    -4.296852
    14     0.113735
    15     2.486841
    16   -44.807783
    17    -0.323178
    18     0.229696
    19    -4.125208
    20    -0.078383
    21    -0.405207
    22    -0.455520
    23    -0.052130
    24     0.022662
    25    -0.036212
    26    -6.473962
    27    -4.596714
    28    -5.033216
    29     0.296335
    30    -0.114199
    31    -0.045367
    32     0.160476
    33     0.226022
    34    -4.698122
    35     0.039267
    36     0.176203
    37    -2.857037
    38    -0.000572
    39     0.109214
    40    -0.005336
    41     0.010572
    42     0.040361
    43    -0.001783
    44    -0.004200
    45     0.033753
    46    -0.024714
    47    -0.001362
    48    -0.055080
    49    -0.145633
    50    -1.187178
    51    -0.030912
    52    -0.059614
    53    -0.167407
    54    -0.070645
    55     1.345955
    56    -0.156038
    57    -0.028185
    58     0.127351
    59    -0.222763
    60     0.428965
    61    -0.132940
    62     0.685818
    63     0.080030
    64    -0.046578
    65     0.012990
    66    -0.174078
    67     0.729185
    68    -0.050468
    69     0.835740
    70     0.062983
    71    -0.094598
    72     1.978031
    73     0.534865
    74    -1.113619
    75     5.185923
    76    -7.423284
    77    -9.705546
    78    -2.180834
    79   -18.131396
    80    -0.015512
    81     0.045229
    82     0.083616
    83    -0.118430
    84    -0.120349
    85     2.062060
    86     0.149149
    87    -2.933599
    88   -34.659494
    89     0.146003
    90    -0.046173
    91    -0.541019
    92     4.314690
    93     4.471917
    94     5.330221
    95     0.171899
    96     0.033214
    97    -0.079275
    98   -12.585361
    99   -13.475643
   100   -17.775480
   101    -0.982610
   102    -0.181781
   103     0.332332
   104    -3.921036
   105    -3.960627
   106   -18.973008
   107     0.003467
   108     0.177131
   109    -2.738521
   110     0.017068
   111    -0.218200
   112     0.220430
   113     0.077277
   114    -0.137990
   115    -0.311982
   116     0.008027
   117     0.188815
   118    -0.297334
   119     0.005554
   120     0.049527
   121     0.266884
   122    -1.148399
   123    -0.056193
   124     0.164078
   125     1.008338
   126     0.114202
   127    -1.553921
   128     0.935885
   129    -0.037806
   130     9.016824
   131    -0.572366
   132     4.394976
   133    -0.174175
   134     5.861613
   135     0.111773
   136     0.169723
   137     0.004524
   138     0.446066
   139     4.250891
   140    -0.054824
   141     3.245223
   142     0.086341
   143     0.420927
   144     5.252758
   145     0.000934
   146    -0.001642
   147     0.010461
   148     1.643859
   149     0.145725
   150     5.650614
   151     7.797993
   152     0.006723
   153     0.012375
   154    -0.007021
   155    -0.026301
   156    -0.336788
   157     0.329046
   158    -0.156461
   159     0.943080
   160   -18.959227
   161     0.167341
   162    -0.359849
   163     0.443574
   164     0.206818
   165     0.215230
   166     0.271736
   167    -0.002936
   168     0.038957
   169     0.127105
   170     3.184198
   171     3.145671
   172     2.880051
   173     0.015658
   174    -0.209561
   175    -0.635405
   176     4.142478
   177     4.086192
   178    11.552297
   179    -0.012278
   180     0.016121
   181    -0.104416
   182     0.016700
   183     0.035490
   184     0.011429
   185     0.002805
   186     0.013677
   187    -0.020003
   188     0.008677
   189     0.009398
   190    -0.031758
   191    -0.005948
   192     0.035791
   193    -0.038388
   194    -1.105733
   195     0.025136
   196    -0.013749
   197     0.318144
   198     0.012788
   199    -0.167030
   200     0.373670
   201     0.005726
   202    -0.280078
   203     0.365635
   204    -0.409722
   205     0.340897
   206    -0.698630
   207     0.098038
   208     0.007000
   209     0.034992
   210    -0.011600
   211    -0.395065
   212     0.151426
   213    -0.427961
   214     0.092893
   215    -0.003008
   216    -0.738731
Sym=   186a
Ene=   -0.106146E-02
Spin= Alpha
Occup= 0.000052
     1     0.012625
     2    -0.008521
     3     0.011707
     4    -0.596182
     5    -0.797766
     6    -7.348367
     7    -0.803299
     8     0.008974
     9     0.007508
    10     3.116753
    11     0.007618
    12     0.006893
    13     9.146364
    14     0.008018
    15     0.007725
    16    17.314449
    17    -0.001495
    18    -0.003338
    19     0.717466
    20    -0.005178
    21    -0.001992
    22    -0.103191
    23     0.000244
    24     0.000605
    25     0.001063
    26    -1.620248
    27    -1.629644
    28    -1.498708
    29     0.000592
    30    -0.002275
    31     0.000191
    32    -1.685797
    33    -1.673719
    34    -5.565401
    35    -0.000863
    36     0.000095
    37     0.002044
    38     0.000610
    39     0.003559
    40    -0.075725
    41     0.003688
    42    -0.000707
    43    -0.637434
    44     0.001494
    45     0.000688
    46    -0.637021
    47    -0.000192
    48     0.028425
    49    -0.028154
    50    -8.025954
    51    -0.049121
    52     0.028152
    53    -2.460193
    54    -0.002885
    55    -0.002103
    56    -2.457976
    57     0.000183
    58    -0.069397
    59    -0.002260
    60     0.193441
    61     0.014309
    62     0.489791
    63     0.000900
    64    -0.000003
    65     0.029007
    66     0.000750
    67     0.194093
    68    -0.018539
    69     0.285064
    70    -0.020347
    71    -0.000768
    72     0.484001
    73    -0.017344
    74     0.053398
    75    -0.334626
    76     1.227626
    77     0.220954
    78     5.835853
    79     2.063167
    80    -0.000349
    81    -0.000526
    82     0.300745
    83    -0.002135
    84    -0.001109
    85     0.880799
    86    -0.003812
    87    -0.005776
    88    11.958040
    89     0.001195
    90     0.004762
    91    -0.117003
    92    -0.278614
    93    -0.276727
    94    -0.285068
    95     0.000275
    96    -0.000873
    97    -0.000989
    98     2.786950
    99     2.778087
   100     3.361989
   101    -0.001719
   102     0.004029
   103     0.005962
   104     2.537027
   105     2.543599
   106     7.375658
   107    -0.001078
   108    -0.001393
   109    -0.001231
   110    -0.000726
   111     0.001951
   112     0.027761
   113     0.001970
   114    -0.000714
   115    -0.228159
   116     0.000337
   117     0.000149
   118    -0.228698
   119     0.000003
   120     0.036424
   121    -0.020564
   122     0.831289
   123    -0.045629
   124     0.030448
   125    -0.638508
   126     0.001141
   127     0.000313
   128    -0.638531
   129    -0.001308
   130    -0.307792
   131    -0.003132
   132    -0.678073
   133    -0.009853
   134    -1.007226
   135    -0.001984
   136    -0.000301
   137    -0.017148
   138     0.001127
   139    -0.677386
   140     0.009637
   141    -0.591238
   142     0.011025
   143     0.000203
   144    -1.012033
   145    -0.012490
   146     0.004618
   147    -0.121911
   148    -0.340469
   149     0.428638
   150     3.821864
   151    -4.077533
   152     0.000084
   153     0.000191
   154    -0.345834
   155    -0.000313
   156    -0.001020
   157     0.838125
   158    -0.000183
   159    -0.002891
   160     3.006084
   161    -0.001260
   162     0.000112
   163     0.352233
   164    -0.127366
   165    -0.127253
   166    -0.605108
   167     0.000027
   168     0.000248
   169     0.000337
   170    -1.166042
   171    -1.165876
   172     1.281068
   173    -0.000017
   174    -0.000947
   175    -0.001423
   176    -0.400391
   177    -0.403784
   178    -0.951373
   179    -0.000023
   180     0.000141
   181     0.000909
   182     0.001647
   183     0.003173
   184    -0.521298
   185    -0.001988
   186    -0.003324
   187    -0.294797
   188    -0.000023
   189     0.000125
   190    -0.294883
   191    -0.000075
   192     0.003336
   193     0.010733
   194    -1.048082
   195    -0.003801
   196    -0.012487
   197    -1.027719
   198    -0.000453
   199     0.000262
   200    -1.026757
   201     0.000004
   202    -1.540052
   203     0.000616
   204    -0.103593
   205    -0.007439
   206     0.332776
   207     0.001190
   208    -0.000123
   209     0.005805
   210    -0.000253
   211    -0.103420
   212     0.011041
   213     0.194679
   214    -0.004189
   215     0.000326
   216     0.332587
Sym=   187a
Ene=   -0.383099E-05
Spin= Alpha
Occup= 0.000000
     1    -0.001068
     2     0.003031
     3    -0.025238
     4     0.053821
     5    -0.098562
     6     0.700124
     7    -0.349927
     8     0.054751
     9     0.040045
    10    -0.025333
    11     0.167212
    12     0.101031
    13    -0.034972
    14     0.194468
    15     0.104006
    16     0.170299
    17    -0.014047
    18    -0.142290
    19     0.072735
    20    -0.042452
    21     0.018979
    22    -0.096917
    23     0.240168
    24     0.193606
    25     0.234408
    26     0.153961
    27    -0.114960
    28     0.449771
    29    -1.087728
    30    -1.129617
    31    -1.343387
    32    -0.041175
    33     0.073638
    34     0.767356
    35     0.308779
    36     0.508163
    37     0.711355
    38    -0.123343
    39    -0.097730
    40     0.053985
    41    -0.059660
    42    -0.042884
    43     0.012412
    44    -0.015300
    45    -0.025775
    46     0.012271
    47     0.017620
    48    -0.104463
    49    -0.101469
    50    -0.191090
    51    -0.042767
    52    -0.046253
    53     0.118459
    54    -0.529619
    55    -0.378892
    56     0.072495
    57    -0.155504
    58    -0.470501
    59     0.844060
    60    -0.051088
    61     0.510464
    62     0.056785
    63     0.704239
    64     0.164901
    65     0.180538
    66     0.402710
    67    -0.098417
    68     0.226383
    69    -0.004504
    70     0.402476
    71     0.418604
    72    -0.080446
    73     0.000184
    74    -0.000255
    75    -0.005014
    76    -0.098189
    77     0.036882
    78    -0.306948
    79     0.310299
    80     0.021609
    81     0.026460
    82    -0.003986
    83     0.368587
    84     0.369353
    85    -0.194603
    86     0.153364
    87     0.263771
    88    -0.004811
    89    -0.089121
    90     0.062693
    91     0.064231
    92    -0.012212
    93    -0.022728
    94    -0.054590
    95     0.014924
    96    -0.017162
    97    -0.006684
    98    -0.251111
    99    -0.173827
   100     0.071945
   101    -0.126238
   102     0.112989
   103     0.072169
   104    -0.039119
   105    -0.091904
   106     0.004306
   107    -0.147833
   108     0.180078
   109     0.325325
   110    -0.061585
   111    -0.071789
   112     0.048083
   113    -0.030937
   114    -0.029520
   115    -0.009509
   116     0.050840
   117     0.045223
   118     0.002349
   119     0.033302
   120    -0.037567
   121    -0.062363
   122     0.081994
   123    -0.013218
   124    -0.031565
   125    -0.003263
   126     0.213523
   127     0.246640
   128    -0.049974
   129    -0.119261
   130    -0.061634
   131     0.179555
   132    -0.033041
   133     0.012928
   134     0.032650
   135     0.161809
   136     0.004382
   137     0.012419
   138     0.070028
   139    -0.009000
   140     0.005256
   141     0.032110
   142     0.028240
   143     0.077527
   144     0.081336
   145     0.002130
   146    -0.003216
   147     0.008415
   148    -0.014166
   149     0.002134
   150    -0.407822
   151     0.013419
   152     0.744486
   153     0.337947
   154     0.077256
   155    -4.752367
   156    -2.108183
   157    -0.636091
   158    -2.824952
   159    -1.539808
   160     0.429428
   161     0.605159
   162     0.321149
   163    -0.032975
   164     0.632679
   165    -0.641768
   166     0.065078
   167    -5.142877
   168     1.095070
   169     0.823506
   170    -2.862553
   171     2.904995
   172    -0.234018
   173    23.240240
   174    -4.973429
   175    -3.733751
   176    -0.002155
   177    -0.280610
   178    -0.340620
   179    -1.063143
   180     0.297199
   181     0.344230
   182     1.484032
   183     0.673966
   184     0.108986
   185     0.665047
   186     0.303362
   187     0.074500
   188     0.663824
   189     0.279878
   190     0.070681
   191     0.011413
   192     3.225441
   193     1.491976
   194     0.244825
   195     1.440574
   196     0.664696
   197     0.136638
   198     1.434893
   199     0.595631
   200     0.129266
   201    -0.042217
   202     0.259965
   203     1.604098
   204    -0.466791
   205     1.494342
   206    -1.832872
   207     2.073782
   208    -4.276188
   209     0.902062
   210    -9.631598
   211     0.584253
   212     0.668850
   213    -0.036707
   214     2.014888
   215    -9.675587
   216     1.827177
Sym=   188a
Ene=   -0.452521E-05
Spin= Alpha
Occup= 0.000001
     1    -0.008337
     2     0.055948
     3    -0.336926
     4     0.168093
     5     0.707048
     6   -10.154135
     7    -1.305220
     8    -0.264588
     9    -0.438911
    10    -0.532638
    11    -2.387658
    12    -3.417023
    13    -2.798043
    14     1.090843
    15    -0.634043
    16     4.828815
    17    -0.171189
    18     0.210653
    19     1.104716
    20    -0.085098
    21     0.296370
    22     0.302889
    23     0.301719
    24     0.371412
    25     0.656184
    26    -1.618026
    27    -2.441136
    28    -2.495686
    29    -2.441500
    30    -2.265114
    31    -3.138297
    32    -0.948495
    33    -0.041745
    34   -10.062339
    35     0.065069
    36    -0.782673
    37    -0.649233
    38     0.666807
    39     1.073437
    40     1.257694
    41     0.411614
    42     0.412151
    43     0.459574
    44     0.188417
    45     0.305739
    46     0.207289
    47     0.005861
    48     0.442190
    49     1.330337
    50     1.837280
    51     0.124950
    52     0.650912
    53     0.878788
    54     0.722411
    55     0.773815
    56     1.284703
    57    -0.005416
    58     1.371076
    59     1.061087
    60     1.135766
    61     1.611883
    62     1.112249
    63     1.051429
    64     0.463799
    65     0.504542
    66     1.117766
    67     0.890753
    68     0.742672
    69     0.792722
    70     1.138513
    71     1.163875
    72     1.127965
    73     0.003354
    74     0.009166
    75    -0.081409
    76    -0.433398
    77     0.320636
    78    13.252697
    79     3.184680
    80    -0.156675
    81    -0.313082
    82     0.115355
    83    -1.630796
    84    -2.222085
    85     2.064380
    86    -0.305670
    87    -1.376274
    88     7.420763
    89    -0.254006
    90     0.392851
    91     0.222095
    92    -0.040474
    93     0.231821
    94     0.153743
    95     0.245591
    96    -0.228248
    97    -0.444230
    98    -1.720095
    99    -2.813715
   100    -2.029745
   101    -2.243875
   102     1.361563
   103     2.277546
   104     0.516380
   105     0.517129
   106     3.275490
   107    -0.056378
   108    -0.455846
   109    -0.093659
   110     0.354941
   111     0.890193
   112    -0.179806
   113     0.440417
   114     0.242741
   115    -0.171000
   116     0.108859
   117     0.022117
   118    -0.040963
   119    -0.009933
   120     0.378037
   121     0.860847
   122     0.024723
   123    -0.133687
   124     0.561689
   125     0.202730
   126     0.382660
   127     1.024161
   128     0.053605
   129    -0.006065
   130     0.997124
   131    -0.885724
   132     0.638988
   133    -1.164332
   134     1.447375
   135    -0.479394
   136     0.462353
   137    -0.345469
   138     1.117020
   139     0.376546
   140    -0.510830
   141     0.768908
   142    -0.733793
   143     1.041612
   144     0.842937
   145    -0.003621
   146     0.005056
   147    -0.025553
   148     1.267056
   149    -0.467653
   150     0.539840
   151    -2.945714
   152     0.001180
   153    -0.005566
   154    -0.009587
   155    -0.103559
   156     0.029024
   157    -0.494061
   158     0.364363
   159     0.411199
   160    -1.897115
   161    -0.069854
   162    -0.040238
   163     0.488835
   164     0.108292
   165     0.102740
   166     0.017176
   167     0.019649
   168     0.029193
   169    -0.045172
   170     2.334615
   171     2.333422
   172     3.135386
   173    -0.048954
   174    -0.166225
   175     0.247834
   176     2.099078
   177     1.706732
   178     1.674650
   179     0.025257
   180    -0.080958
   181    -0.340450
   182     0.017568
   183    -0.022928
   184    -0.143121
   185     0.010097
   186     0.007386
   187     0.041087
   188    -0.023618
   189     0.013635
   190    -0.022967
   191    -0.001331
   192    -0.059035
   193    -0.031265
   194     0.146915
   195    -0.027902
   196    -0.050803
   197    -0.339020
   198    -0.058049
   199     0.174905
   200    -0.076302
   201    -0.002112
   202    -1.060978
   203    -0.191516
   204    -0.460535
   205    -0.105643
   206    -0.582883
   207     0.143022
   208    -0.013924
   209     0.033257
   210     0.028499
   211    -0.433328
   212    -0.034136
   213    -0.371119
   214     0.081735
   215     0.012490
   216    -0.658766
Sym=   189a
Ene=   -0.545709E-04
Spin= Alpha
Occup= 0.000014
     1    -0.009316
     2     0.035183
     3     0.133259
     4    -0.762214
     5     0.659711
     6     2.441467
     7    -0.117456
     8    -0.156548
     9    -0.014715
    10     0.078130
    11    -1.464475
    12    -0.246313
    13     2.093700
    14    -0.220117
    15    -0.019437
    16     1.091919
    17    -0.188496
    18     0.011487
    19     0.358618
    20     0.172512
    21    -0.076957
    22    -0.033967
    23     0.155999
    24    -0.118705
    25    -0.045416
    26    -0.739773
    27    -0.840565
    28    -0.084158
    29    -0.011940
    30    -0.863611
    31    -0.220169
    32     0.107773
    33    -0.102226
    34     1.636981
    35    -0.049635
    36    -0.680783
    37     0.024212
    38     0.375362
    39    -0.064488
    40    -0.387360
    41     0.016410
    42     0.245311
    43    -0.222354
    44     0.472681
    45     0.119216
    46    -0.015186
    47    -0.165986
    48     0.828717
    49     0.046408
    50     1.970441
    51     0.110441
    52    -0.013872
    53     0.124598
    54    -0.959506
    55    -0.144305
    56    -0.184395
    57     0.145889
    58    -0.275280
    59     0.059805
    60    -0.035131
    61     0.234571
    62     0.458564
    63     0.285747
    64     0.031256
    65     0.328143
    66    -0.287949
    67    -0.321434
    68    -0.110319
    69    -0.203765
    70     0.516183
    71     0.268112
    72     0.466934
    73    -0.006684
    74     0.025763
    75     0.097028
    76    -0.296813
    77     0.802934
    78    -0.213641
    79     0.679686
    80    -0.113622
    81    -0.008790
    82    -0.018885
    83    -0.735196
    84    -0.127271
    85     0.782599
    86     0.368906
    87     0.242980
    88     0.629856
    89    -0.367930
    90    -0.080767
    91     0.102777
    92     0.150489
    93    -0.026725
    94     0.032423
    95     0.089166
    96    -0.018942
    97     0.027183
    98    -0.052971
    99    -0.148612
   100     0.987178
   101    -0.074785
   102     1.422420
   103     0.152811
   104    -0.012749
   105    -0.124709
   106     0.279574
   107    -0.004388
   108     0.010128
   109     0.036155
   110     0.190693
   111    -0.011552
   112     0.204404
   113     0.071980
   114     0.091731
   115     0.178922
   116     0.365376
   117     0.065120
   118     0.011939
   119     0.091267
   120     0.422772
   121    -0.010693
   122    -0.165636
   123     0.050460
   124     0.002833
   125    -0.136518
   126    -0.017093
   127    -0.055383
   128    -0.116584
   129    -0.051028
   130    -0.300513
   131    -0.071070
   132    -0.061332
   133    -0.121369
   134     0.182266
   135    -0.554823
   136     0.013127
   137    -0.332677
   138    -0.092478
   139    -0.213825
   140     0.038458
   141    -0.122881
   142    -0.553022
   143     0.157399
   144     0.144702
   145    -0.000181
   146     0.000995
   147    -0.002629
   148     0.078574
   149    -0.017278
   150    -2.657212
   151    -1.301176
   152     0.012829
   153     0.002878
   154     0.017972
   155     0.120531
   156     0.014446
   157     0.613808
   158     0.453370
   159    -0.008313
   160     2.116632
   161     0.207986
   162     0.034966
   163     0.058464
   164     0.007298
   165    -0.004952
   166     0.020983
   167     0.008910
   168     0.009226
   169     0.009835
   170     0.165831
   171     0.204836
   172    -0.075649
   173    -0.031197
   174     0.009445
   175    -0.031468
   176    -0.065690
   177     0.062116
   178    -1.220206
   179    -0.018864
   180    -0.707375
   181    -0.076974
   182     0.030540
   183     0.005041
   184     0.052982
   185     0.007243
   186     0.006329
   187     0.005010
   188    -0.010928
   189    -0.001149
   190     0.029790
   191    -0.006356
   192     0.028863
   193     0.012730
   194     0.289873
   195     0.039519
   196     0.007908
   197     0.095445
   198     0.454198
   199     0.067822
   200     0.019862
   201     0.039756
   202    -0.026891
   203    -0.012167
   204    -0.050579
   205     0.010171
   206    -0.047552
   207    -0.125650
   208    -0.020068
   209    -0.043286
   210     0.019452
   211    -0.050817
   212    -0.003616
   213    -0.005656
   214    -0.065925
   215     0.011841
   216    -0.003658
Sym=   190a
Ene=   -0.286903E-04
Spin= Alpha
Occup= 0.000006
     1     0.002215
     2    -0.003449
     3    -0.016253
     4     0.025474
     5    -0.087473
     6     0.985650
     7     0.248953
     8    -0.016609
     9    -0.014103
    10    -0.000463
    11    -0.423447
    12    -0.253544
    13     0.061903
    14     0.195878
    15    -0.094650
    16     0.371365
    17    -0.194510
    18     0.015524
    19     0.049514
    20    -0.164918
    21     0.150459
    22    -0.005223
    23     0.025401
    24    -0.093075
    25    -0.083809
    26    -0.321732
    27     0.138430
    28     0.002715
    29     0.040708
    30     0.066144
    31     0.134839
    32     0.045335
    33    -0.073380
    34     0.611084
    35    -0.046118
    36    -0.286740
    37     0.029464
    38     0.358482
    39     0.290823
    40     0.018417
    41    -0.114413
    42    -0.137801
    43    -0.048166
    44    -0.012900
    45    -0.010700
    46     0.042768
    47     0.051902
    48     0.073212
    49     0.117573
    50     0.108233
    51     0.079377
    52     0.063836
    53    -0.092582
    54    -0.554763
    55    -0.288759
    56     0.022492
    57     0.016277
    58    -0.080842
    59     0.127547
    60    -0.468190
    61     0.143668
    62     0.156471
    63     0.156811
    64    -0.107317
    65    -0.140404
    66    -0.175524
    67     0.570182
    68    -0.375836
    69     0.044931
    70     0.141525
    71     0.200051
    72    -0.129089
    73    -0.003752
    74     0.006202
    75     0.035126
    76    -0.077719
    77     0.208576
    78    -0.642915
    79    -0.105155
    80    -0.019138
    81    -0.003513
    82     0.015888
    83    -0.133736
    84    -0.131700
    85     0.095493
    86    -0.167118
    87     0.195357
    88    -0.071878
    89    -0.015787
    90    -0.113910
    91    -0.066495
    92    -0.167753
    93     0.208321
    94     0.047473
    95    -0.018653
    96    -0.060159
    97     0.027794
    98    -0.435973
    99     0.545066
   100    -0.094956
   101     0.132314
   102     0.899749
   103     0.572548
   104     0.227068
   105    -0.156768
   106    -0.034060
   107    -0.031883
   108    -0.117099
   109     0.020226
   110     0.327623
   111     0.449563
   112    -0.029325
   113    -0.143200
   114    -0.286211
   115    -0.295035
   116     0.150770
   117     0.082423
   118     0.306892
   119     0.059840
   120    -0.001743
   121    -0.182706
   122    -0.119412
   123     0.208229
   124     0.197945
   125    -0.034426
   126     0.154016
   127     0.083335
   128    -0.157105
   129     0.022998
   130     0.101902
   131    -0.282826
   132    -0.164667
   133    -0.002327
   134    -0.112605
   135    -0.358188
   136     0.028251
   137    -0.122407
   138    -0.196013
   139     0.179937
   140    -0.198995
   141    -0.138728
   142    -0.131691
   143     0.123452
   144     0.225311
   145     0.000003
   146     0.000081
   147    -0.001296
   148    -0.042392
   149     0.004812
   150    -0.351598
   151    -0.246446
   152     0.011782
   153     0.016360
   154     0.003739
   155    -0.000460
   156    -0.050035
   157    -0.019981
   158     0.170719
   159    -0.029219
   160     0.696005
   161     0.080293
   162     0.012646
   163    -0.040883
   164    -0.011663
   165     0.003799
   166    -0.010050
   167     0.003365
   168     0.010293
   169     0.009424
   170    -0.049777
   171    -0.148709
   172    -0.041674
   173    -0.009998
   174    -0.042165
   175    -0.030453
   176    -0.158830
   177    -0.107172
   178    -0.383650
   179     0.018462
   180    -0.257351
   181    -0.097024
   182     0.025858
   183     0.035017
   184     0.001510
   185     0.003687
   186     0.000433
   187     0.016646
   188     0.009263
   189    -0.000809
   190    -0.013430
   191    -0.004080
   192     0.047318
   193     0.046845
   194     0.033412
   195     0.048579
   196     0.080765
   197     0.061149
   198     0.133844
   199     0.091938
   200    -0.057421
   201    -0.008712
   202    -0.004022
   203     0.029049
   204     0.053936
   205     0.010863
   206     0.077034
   207    -0.015759
   208    -0.001223
   209    -0.020321
   210     0.008549
   211    -0.045189
   212    -0.036558
   213     0.015935
   214     0.000424
   215     0.000218
   216     0.010676
Sym=   191a
Ene=   -0.933143E-05
Spin= Alpha
Occup= 0.000002
     1    -0.000752
     2     0.003952
     3    -0.028254
     4     0.124436
     5    -0.236621
     6     0.916491
     7    -0.083928
     8    -0.082388
     9     0.042716
    10     0.010298
    11    -0.663291
    12     0.429032
    13     0.430920
    14    -0.257087
    15     0.065689
    16     0.396723
    17    -0.098112
    18    -0.220503
    19    -0.249040
    20    -0.000433
    21     0.030559
    22    -0.062261
    23    -0.041627
    24    -0.163425
    25    -0.043009
    26     1.795538
    27    -1.774554
    28     0.484179
    29    -1.297592
    30     1.120880
    31    -0.363975
    32     0.117246
    33    -0.048854
    34     0.891213
    35    -0.091773
    36     0.426193
    37     0.427687
    38     0.099069
    39    -0.272445
    40    -0.035519
    41    -0.000080
    42    -0.097980
    43     0.544552
    44     0.228654
    45     0.030694
    46    -0.577703
    47    -0.521638
    48     0.376872
    49    -0.036959
    50     0.415767
    51     0.199054
    52    -0.040513
    53    -1.051514
    54    -0.457278
    55    -0.256382
    56     1.018700
    57     0.997058
    58    -0.473361
    59     0.591803
    60     0.053066
    61     0.149345
    62     1.464795
    63    -0.440015
    64     0.074869
    65    -0.302072
    66     0.611785
    67    -0.181921
    68     0.069268
    69     0.028976
    70    -0.597167
    71     0.788890
    72    -1.403844
    73    -0.000606
    74    -0.000162
    75     0.003455
    76    -0.041527
    77     0.217423
    78    -0.390275
    79    -0.097350
    80    -0.026212
    81     0.072452
    82    -0.006927
    83     0.175458
    84     0.623980
    85     0.239401
    86     0.036479
    87     0.275403
    88    -0.283380
    89     0.088167
    90     0.093378
    91     0.089369
    92     0.124889
    93    -0.143225
    94    -0.054374
    95    -0.175658
    96    -0.050700
    97     0.087725
    98    -0.497492
    99     0.406502
   100     0.459720
   101     0.758835
   102     0.318068
   103    -0.383759
   104    -0.351365
   105     0.234643
   106    -0.082360
   107     0.290135
   108     0.226737
   109     0.182565
   110    -0.006022
   111    -0.177944
   112     0.069251
   113     0.006404
   114    -0.078336
   115     0.033176
   116     0.055199
   117     0.060645
   118    -0.031649
   119    -0.034931
   120     0.221751
   121    -0.229681
   122     0.045635
   123     0.077333
   124    -0.101198
   125    -0.489433
   126     0.139207
   127     0.022722
   128     0.449021
   129     0.446954
   130    -0.165336
   131     0.341142
   132     0.082549
   133     0.215315
   134    -0.235079
   135    -0.088703
   136     0.045794
   137    -0.008215
   138    -0.326455
   139    -0.162516
   140     0.100732
   141     0.023447
   142     0.013537
   143    -0.271643
   144     0.228669
   145    -0.000909
   146     0.000538
   147     0.012882
   148    -0.076101
   149    -0.024639
   150    -0.759893
   151     0.298644
   152     0.038717
   153    -0.029535
   154     0.007471
   155    -0.180620
   156     0.230937
   157     0.108050
   158    -0.176412
   159    -0.080782
   160     0.766623
   161    -0.004905
   162     0.013244
   163    -0.023730
   164     0.057381
   165    -0.045082
   166    -0.001366
   167    -0.057823
   168     0.025021
   169    -0.076620
   170    -0.372599
   171     0.085908
   172    -0.085271
   173     0.279837
   174    -0.167445
   175     0.401094
   176     0.048591
   177    -0.485841
   178    -0.588928
   179    -0.246337
   180    -0.136262
   181     0.224399
   182     0.068516
   183    -0.038454
   184    -0.010584
   185     0.033249
   186    -0.015210
   187     0.050666
   188     0.026704
   189    -0.090481
   190    -0.038428
   191    -0.017395
   192     0.150242
   193    -0.103599
   194     0.037460
   195     0.064735
   196    -0.048706
   197    -0.145743
   198     0.222313
   199    -0.264661
   200     0.223783
   201     0.178128
   202     0.054019
   203    -0.033463
   204     0.041772
   205    -0.225513
   206    -0.126079
   207     0.066945
   208    -0.030644
   209     0.023029
   210    -0.105945
   211    -0.060741
   212    -0.099056
   213     0.036906
   214     0.060423
   215    -0.147359
   216     0.232824
Sym=   192a
Ene=   -0.100447E-05
Spin= Alpha
Occup= 0.000000
     1     0.010405
     2    -0.033974
     3     0.453998
     4     0.373965
     5     3.680684
     6    -7.544436
     7     4.811558
     8     0.110197
     9    -0.020862
    10     0.554091
    11     0.393009
    12    -0.026862
    13    -4.508600
    14    -0.300200
    15     0.289021
    16   -14.736364
    17    -0.195649
    18    -0.321998
    19    -0.956805
    20     0.505244
    21     0.303539
    22     3.014041
    23    -0.090109
    24     0.555578
    25    -0.199328
    26     2.288458
    27     3.253038
    28    -9.502265
    29     0.363743
    30    -3.007059
    31     1.074223
    32     2.079234
    33     1.962536
    34    -4.187493
    35    -0.141255
    36     1.661900
    37    -0.633923
    38    -0.300725
    39     0.090117
    40    -1.242651
    41    -0.044603
    42    -0.026246
    43    -0.222508
    44    -0.091298
    45     0.008859
    46    -0.238031
    47    -0.009329
    48    -0.260265
    49    -0.004330
    50    -2.831583
    51    -0.215222
    52     0.071312
    53    -1.936103
    54    -0.833947
    55     0.221111
    56    -1.882263
    57     0.033082
    58    13.865467
    59    -0.592044
    60     1.885601
    61    -0.485831
    62    -0.808341
    63     1.796338
    64    -0.112579
    65     0.489167
    66    -0.115702
    67     2.104124
    68    -0.176557
    69    -0.318839
    70     1.267648
    71    -0.112448
    72    -0.226923
    73     0.000731
    74    -0.006117
    75     0.174373
    76     1.938242
    77    -1.425666
    78   -13.731700
    79    -7.916288
    80     0.013687
    81     0.017522
    82     0.119280
    83     0.405564
    84     0.023510
    85    -2.626723
    86     1.012426
    87    -0.412758
    88   -10.145821
    89     0.073512
    90     0.197736
    91    -1.216047
    92     0.285984
    93     0.325088
    94     1.473391
    95    -0.036779
    96     0.010544
    97     0.081395
    98     5.312743
    99     5.062718
   100    -6.177033
   101     0.213126
   102    -0.072113
   103    -0.457210
   104     1.121618
   105     1.186691
   106    -5.875078
   107     0.058779
   108     1.015783
   109    -0.356546
   110    -0.062405
   111    -0.033930
   112    -1.697925
   113     0.033358
   114    -0.044596
   115     0.116552
   116     0.074546
   117     0.001032
   118     0.115432
   119    -0.013086
   120    -0.065913
   121    -0.037229
   122    -3.943974
   123    -0.103828
   124     0.019120
   125     0.504041
   126     0.702532
   127    -0.321147
   128     0.543527
   129     0.062677
   130     1.878320
   131     0.067032
   132     0.630271
   133     0.181016
   134    -1.353544
   135     0.471826
   136    -0.012729
   137     0.041971
   138    -0.107459
   139     0.530209
   140     0.076008
   141    -0.839798
   142     0.091191
   143    -0.103206
   144    -1.484894
   145     0.031417
   146    -0.133912
   147     1.234577
   148     0.140425
   149    -4.006403
   150     7.552342
   151     2.250931
   152     0.190577
   153    -0.051602
   154    -1.140380
   155    -1.069735
   156     0.317596
   157     8.696440
   158    -1.326094
   159     0.270399
   160   -11.486571
   161     0.225947
   162     0.188854
   163     0.373759
   164     1.099423
   165     1.138548
   166     1.061713
   167     0.080808
   168     0.959569
   169    -0.373371
   170     1.529843
   171     1.326311
   172     1.095269
   173    -0.396864
   174    -4.413280
   175     1.694534
   176     1.913994
   177     1.931508
   178     8.029736
   179     0.047227
   180     0.472571
   181    -0.231434
   182     0.386295
   183    -0.104509
   184    -1.098819
   185     0.161029
   186    -0.054158
   187    -1.184890
   188     0.132950
   189    -0.033435
   190    -1.153979
   191     0.024178
   192     0.870519
   193    -0.204740
   194    -2.843279
   195     0.413746
   196    -0.101781
   197    -1.865919
   198     0.265243
   199    -0.049076
   200    -1.892560
   201    -0.039880
   202    -2.798462
   203    -0.722765
   204    -0.234259
   205    -0.672801
   206    -0.127138
   207     1.981582
   208     0.098584
   209     0.745222
   210     0.158958
   211    -0.278922
   212    -0.285584
   213    -0.101070
   214     1.736443
   215     0.152454
   216    -0.251118
Sym=   193a
Ene=   -0.150421E-03
Spin= Alpha
Occup= 0.000039
     1    -0.001864
     2     0.008212
     3    -0.040623
     4    -0.065643
     5     0.229121
     6     0.179058
     7     0.052514
     8     0.002392
     9    -0.016909
    10    -0.023363
    11     0.063440
    12    -0.248314
    13    -0.167703
    14    -0.106244
    15     0.132346
    16     1.236576
    17     0.082230
    18    -0.077880
    19     0.062031
    20    -0.008014
    21    -0.075359
    22    -0.157105
    23    -0.005812
    24     0.002436
    25    -0.008962
    26    -0.298468
    27     0.025054
    28     0.548367
    29     0.047307
    30    -0.037540
    31    -0.038837
    32    -0.074683
    33    -0.098690
    34     0.160759
    35     0.012557
    36    -0.051248
    37     0.120478
    38    -0.021552
    39     0.035700
    40     0.103238
    41     0.002945
    42     0.010719
    43     0.031343
    44    -0.005746
    45    -0.014556
    46     0.005030
    47     0.034995
    48     0.012012
    49     0.022350
    50    -0.531510
    51    -0.009537
    52     0.028566
    53     0.034738
    54     0.191002
    55    -0.320627
    56     0.087043
    57     0.148989
    58    -0.439032
    59    -0.097350
    60    -0.158746
    61    -0.064963
    62    -0.049227
    63     0.052786
    64     0.087924
    65     0.012618
    66    -0.019285
    67    -0.063108
    68    -0.028578
    69     0.021041
    70     0.041908
    71    -0.010229
    72     0.142000
    73    -0.000185
    74    -0.000155
    75    -0.003238
    76     0.006067
    77    -0.061923
    78     0.107796
    79     0.101805
    80     0.005350
    81    -0.006678
    82     0.001411
    83    -0.044969
    84     0.095269
    85    -0.353246
    86     0.069986
    87    -0.080087
    88     0.732230
    89    -0.094918
    90     0.097964
    91     0.025411
    92    -0.004959
    93    -0.004506
    94    -0.004750
    95    -0.017084
    96     0.017915
    97    -0.029125
    98     0.012497
    99     0.009200
   100    -0.033092
   101     0.078630
   102    -0.114043
   103     0.196620
   104     0.167284
   105     0.196816
   106     0.487724
   107     0.043990
   108    -0.029286
   109     0.057759
   110    -0.008046
   111     0.016021
   112     0.010322
   113    -0.008219
   114     0.006993
   115    -0.004583
   116    -0.005467
   117     0.001905
   118    -0.005527
   119    -0.010232
   120    -0.045182
   121     0.062977
   122     0.078391
   123    -0.000848
   124     0.021385
   125    -0.034840
   126    -0.045379
   127     0.064176
   128    -0.005143
   129     0.037522
   130     0.007889
   131    -0.065420
   132    -0.009267
   133    -0.031949
   134    -0.005157
   135     0.032195
   136    -0.020041
   137     0.013641
   138    -0.029094
   139    -0.029859
   140    -0.018918
   141     0.000644
   142     0.017440
   143    -0.033568
   144     0.002066
   145    -0.003583
   146    -0.018665
   147    -0.010047
   148     0.170526
   149    -0.480963
   150     0.620033
   151    -0.822744
   152     0.006217
   153    -0.017612
   154     0.007376
   155    -0.107071
   156     0.247122
   157    -0.237286
   158     0.116967
   159    -0.192096
   160     0.759820
   161     0.023802
   162    -0.052335
   163     0.106023
   164     0.040933
   165    -0.080951
   166    -0.053478
   167     0.037360
   168    -0.054639
   169    -0.003260
   170    -0.136179
   171    -0.221431
   172     0.517684
   173    -0.034221
   174     0.602920
   175    -0.469790
   176    -0.102243
   177    -0.130559
   178    -0.478189
   179    -0.076275
   180    -0.044570
   181    -0.054723
   182     0.035003
   183    -0.190184
   184     0.102584
   185    -0.030708
   186    -0.073170
   187    -0.105177
   188     0.050145
   189     0.115283
   190    -0.147971
   191     0.279149
   192     0.010903
   193     0.109960
   194     0.135717
   195    -0.162537
   196    -0.209326
   197    -0.190496
   198    -0.051473
   199     0.459147
   200    -0.024568
   201     0.396895
   202    -0.206968
   203     0.436445
   204     0.203337
   205     0.044359
   206     0.126178
   207    -0.312041
   208     0.102357
   209     0.425316
   210    -0.240118
   211    -0.154724
   212    -0.148472
   213    -0.108874
   214    -0.330783
   215     0.114649
   216     0.136645
Sym=   194a
Ene=   -0.116072E-04
Spin= Alpha
Occup= 0.000002
     1     0.007420
     2    -0.013017
     3     0.084370
     4    -0.205911
     5    -0.400332
     6     2.321647
     7     1.652914
     8    -0.049580
     9    -0.075094
    10     0.112214
    11    -0.210739
    12    -0.335664
    13     1.238272
    14     0.190423
    15     0.175720
    16    -7.504021
    17     0.108931
    18     0.027186
    19     0.438588
    20     0.116387
    21     0.063231
    22     0.423030
    23     0.045515
    24    -0.395758
    25    -0.126262
    26    -0.852987
    27    -0.012116
    28    -2.891805
    29    -0.301606
    30     2.400824
    31     0.676225
    32     0.186160
    33     0.068584
    34     1.437098
    35     0.085315
    36    -1.707053
    37     0.418412
    38     0.169418
    39     0.162261
    40    -0.561056
    41     0.092849
    42     0.078483
    43    -0.046868
    44     0.030002
    45    -0.032873
    46    -0.091659
    47     0.014890
    48     0.159779
    49     0.171031
    50     1.432702
    51     0.021776
    52     0.112909
    53     0.094856
    54     0.347766
    55     0.448314
    56    -0.753604
    57     0.168517
    58     0.859677
    59    -0.728669
    60     0.203823
    61    -0.328295
    62    -0.136984
    63    -1.759078
    64     0.188781
    65    -0.468475
    66     0.129273
    67     1.038740
    68    -0.082691
    69     0.114691
    70    -0.971861
    71     0.084284
    72     0.369655
    73    -0.000719
    74     0.001075
    75    -0.013024
    76    -0.487750
    77     0.702376
    78    -2.393469
    79    -0.192144
    80    -0.040854
    81    -0.059792
    82    -0.008842
    83    -0.595588
    84    -0.509482
    85     1.304797
    86    -0.724954
    87     0.099965
    88    -4.748281
    89    -0.101595
    90    -0.092832
    91    -0.157174
    92    -0.112127
    93    -0.000565
    94    -0.198886
    95    -0.014590
    96    -0.028711
    97    -0.040825
    98    -0.843580
    99    -1.413263
   100     0.508378
   101     0.006825
   102     0.109670
   103     0.177140
   104    -1.183449
   105    -1.339463
   106    -3.132088
   107    -0.002152
   108    -0.821477
   109    -0.050998
   110     0.134603
   111     0.121835
   112     0.148823
   113     0.059363
   114     0.051346
   115    -0.037946
   116    -0.108565
   117    -0.048999
   118     0.056182
   119    -0.008473
   120     0.091724
   121     0.235000
   122    -0.254028
   123     0.042521
   124     0.115010
   125    -0.031269
   126    -0.561837
   127    -0.145608
   128    -0.219177
   129     0.019724
   130    -0.234089
   131    -0.314944
   132     0.104568
   133    -0.112561
   134     0.481705
   135    -0.475635
   136     0.002625
   137    -0.042947
   138     0.029465
   139    -0.069761
   140    -0.042138
   141     0.202544
   142    -0.098486
   143    -0.008464
   144     0.161843
   145     0.011906
   146    -0.009872
   147    -0.137248
   148     1.519791
   149    -0.579365
   150    -4.636521
   151     1.189652
   152     0.075874
   153     0.027356
   154     0.083721
   155    -0.745084
   156    -0.102646
   157     0.514090
   158     0.811677
   159    -0.699734
   160    -4.077889
   161    -0.039052
   162     0.055607
   163     0.038289
   164     0.002531
   165    -0.033895
   166     0.291098
   167     0.028307
   168    -0.087059
   169     0.034720
   170     2.693569
   171     2.929993
   172     1.148652
   173    -0.077258
   174     0.785762
   175     0.109869
   176     0.557948
   177     0.904365
   178     2.247274
   179    -0.056020
   180    -0.626490
   181     0.460864
   182     0.147260
   183     0.077628
   184     0.276455
   185     0.060443
   186     0.033214
   187    -0.182715
   188     0.225244
   189    -0.047314
   190     0.052527
   191    -0.025086
   192     0.182256
   193     0.178332
   194     0.373728
   195     0.091970
   196     0.055920
   197     1.042906
   198     0.471344
   199     0.120465
   200     0.190514
   201     0.159277
   202     0.714212
   203    -0.556445
   204     0.053753
   205     0.052333
   206    -1.035967
   207    -0.608389
   208    -0.290485
   209    -0.087819
   210     0.107597
   211    -1.269104
   212     0.149207
   213    -0.345650
   214    -0.273003
   215     0.119868
   216    -0.214446
Sym=   195a
Ene=   -0.491141E-04
Spin= Alpha
Occup= 0.000013
     1     0.000023
     2     0.000107
     3    -0.002372
     4     0.031311
     5     0.014180
     6    -0.137574
     7     0.169935
     8    -0.017943
     9     0.016178
    10    -0.001638
    11    -0.122726
    12     0.132761
    13    -0.121777
    14     0.068476
    15    -0.100911
    16    -0.034562
    17    -0.061034
    18     0.056101
    19    -0.008200
    20     0.021299
    21    -0.011676
    22    -0.002170
    23     0.068082
    24     0.014709
    25    -0.010958
    26    -0.066433
    27     0.132056
    28     0.159158
    29    -0.347957
    30    -0.070577
    31    -0.012686
    32     0.023690
    33    -0.018519
    34    -0.104149
    35     0.102944
    36    -0.060234
    37     0.001794
    38     0.012358
    39    -0.068872
    40    -0.012882
    41     0.029385
    42     0.050415
    43     0.018902
    44    -0.011525
    45     0.031984
    46    -0.006560
    47     0.030962
    48     0.047416
    49    -0.028299
    50    -0.044340
    51     0.041530
    52    -0.060822
    53     0.066360
    54     0.042998
    55    -0.037794
    56    -0.034753
    57     0.165726
    58    -0.015714
    59    -0.093949
    60     0.011497
    61     0.052958
    62    -0.062125
    63     0.098727
    64    -0.055660
    65    -0.038254
    66     0.110557
    67    -0.036465
    68    -0.086197
    69    -0.000627
    70     0.063872
    71     0.116058
    72     0.048153
    73    -0.001263
    74     0.003647
    75     0.015275
    76    -0.077712
    77     0.072258
    78     0.081258
    79    -0.164002
    80    -0.003469
    81    -0.002615
    82    -0.014913
    83    -0.046690
    84    -0.035987
    85    -0.152506
    86     0.019427
    87     0.095072
    88    -0.056877
    89    -0.092327
    90     0.031559
    91    -0.041430
    92     0.048555
    93    -0.046070
    94     0.006580
    95     0.140808
    96    -0.013904
    97     0.016645
    98     0.073434
    99    -0.149712
   100    -0.112582
   101     0.367009
   102    -0.103359
   103     0.057327
   104    -0.042830
   105     0.102031
   106     0.005272
   107    -0.202001
   108    -0.029889
   109     0.008537
   110    -0.148091
   111    -0.285690
   112     0.015978
   113     0.227832
   114     0.341840
   115    -0.124789
   116    -0.014900
   117     0.047342
   118     0.126491
   119    -0.395835
   120     0.006049
   121    -0.144361
   122    -0.000974
   123     0.080361
   124     0.101765
   125     0.173053
   126    -0.020555
   127    -0.056107
   128    -0.071016
   129     0.381265
   130    -0.036021
   131    -0.243211
   132    -0.100928
   133     0.548644
   134     0.170166
   135     0.188074
   136     0.290233
   137    -0.383752
   138    -0.268436
   139     0.122810
   140    -0.560411
   141    -0.063776
   142     0.227044
   143    -0.267054
   144    -0.097491
   145    -0.000033
   146     0.000107
   147    -0.000444
   148     0.009332
   149    -0.021660
   150     0.097558
   151    -0.020660
   152     0.005365
   153    -0.003888
   154    -0.003573
   155    -0.040261
   156     0.021010
   157    -0.000445
   158    -0.002858
   159     0.065706
   160    -0.016364
   161     0.043737
   162    -0.031379
   163    -0.000562
   164     0.000385
   165     0.000549
   166    -0.000282
   167     0.000275
   168     0.007224
   169    -0.006981
   170     0.014222
   171     0.016074
   172     0.016744
   173    -0.003911
   174    -0.034759
   175     0.037692
   176    -0.012294
   177     0.019611
   178     0.024314
   179    -0.063362
   180    -0.001480
   181    -0.059883
   182     0.010331
   183    -0.005354
   184    -0.002825
   185     0.004289
   186    -0.006852
   187    -0.006812
   188     0.001370
   189     0.000200
   190    -0.000922
   191    -0.010579
   192     0.021414
   193    -0.038546
   194    -0.020029
   195     0.012931
   196     0.000507
   197    -0.002399
   198    -0.016831
   199     0.035933
   200    -0.019060
   201     0.038094
   202    -0.011469
   203    -0.038989
   204    -0.007958
   205    -0.001467
   206    -0.004041
   207     0.036027
   208     0.009262
   209     0.004985
   210     0.004246
   211    -0.000082
   212    -0.010527
   213    -0.006093
   214     0.016546
   215     0.005738
   216    -0.001876
Sym=   196a
Ene=   -0.729577E-05
Spin= Alpha
Occup= 0.000000
     1    -0.001819
     2     0.004290
     3    -0.010503
     4    -0.023834
     5    -0.038680
     6    -0.621027
     7    -0.000571
     8     0.025417
     9     0.116316
    10    -0.021381
    11     0.094781
    12    -0.692118
    13    -0.084383
    14    -0.078697
    15    -0.718022
    16     0.250128
    17     0.019475
    18     0.470511
    19     0.061300
    20     0.010591
    21     0.007428
    22     0.009359
    23     0.016329
    24    -0.078802
    25    -0.690903
    26    -0.165643
    27    -0.162691
    28    -0.091148
    29     0.016670
    30     0.431930
    31     3.508664
    32    -0.068980
    33    -0.006655
    34    -0.607035
    35     0.103589
    36     0.110072
    37     1.395078
    38    -0.037466
    39    -0.305197
    40     0.027917
    41    -0.045897
    42    -0.118182
    43     0.013892
    44    -0.016989
    45     0.134579
    46     0.030146
    47    -0.003914
    48    -0.070812
    49     0.126197
    50    -0.041674
    51     0.009578
    52     0.031053
    53     0.029429
    54    -0.223734
    55    -3.000406
    56     0.063893
    57     0.027385
    58     0.096781
    59    -1.063909
    60     0.024577
    61    -0.980440
    62     0.077027
    63    -0.164754
    64    -0.008733
    65    -0.068347
    66    -0.007241
    67     0.060106
    68    -0.439946
    69     0.015721
    70    -0.155617
    71    -0.064041
    72     0.071490
    73     0.070194
    74    -0.111445
    75     0.212074
    76    -0.278852
    77    -0.368231
    78     1.394525
    79     0.085832
    80     0.014263
    81    -0.238490
    82    -0.058883
    83     0.168500
    84    -0.671033
    85    -0.375692
    86     0.176490
    87     1.524909
    88     0.367780
    89    -0.040503
    90    -0.744267
    91    -0.019239
    92     0.498624
    93    -0.129904
    94    -0.049319
    95    -0.344766
    96    -0.278994
    97    -5.579591
    98    -1.961734
    99     0.558576
   100     0.359604
   101     1.354391
   102     1.243515
   103    25.808160
   104     0.151140
   105    -0.187424
   106     0.175085
   107    -0.212825
   108     0.013811
   109    -0.689002
   110    -0.038914
   111     0.597090
   112     0.058660
   113     0.007059
   114     0.253005
   115     0.062990
   116    -0.019522
   117     0.199672
   118     0.056971
   119     0.002731
   120    -0.053649
   121     0.477104
   122     0.317022
   123    -0.054822
   124     0.230993
   125     0.083405
   126     0.083097
   127     2.018992
   128     0.097719
   129    -0.011584
   130    -0.340353
   131    -9.375589
   132    -0.212127
   133    -9.895758
   134    -0.391658
   135    -0.435407
   136    -0.218656
   137    -0.209982
   138    -0.557434
   139     0.184536
   140    -4.422216
   141     0.238326
   142    -0.459575
   143    -0.443673
   144     1.058710
   145     0.000240
   146    -0.000753
   147     0.002462
   148     0.072601
   149    -0.031801
   150     0.093130
   151    -0.161899
   152    -0.000085
   153     0.063777
   154    -0.008006
   155     0.027158
   156     0.126354
   157     0.010799
   158    -0.020796
   159    -0.721967
   160    -0.183195
   161     0.004333
   162     0.093505
   163     0.024911
   164    -0.001477
   165     0.016959
   166     0.003148
   167    -0.006696
   168     0.014111
   169     0.084638
   170     0.189409
   171     0.100801
   172     0.180079
   173     0.028891
   174    -0.063566
   175    -0.151446
   176     0.129484
   177     0.095007
   178     0.164221
   179    -0.035862
   180    -0.029408
   181    -0.420605
   182    -0.002790
   183     0.114588
   184    -0.015969
   185     0.001899
   186     0.050708
   187     0.005605
   188     0.002296
   189     0.007905
   190    -0.018149
   191    -0.003937
   192     0.006823
   193     0.360079
   194    -0.021875
   195    -0.004527
   196     0.163676
   197    -0.041683
   198     0.042385
   199     0.803196
   200    -0.005511
   201     0.021637
   202    -0.072656
   203    -0.227088
   204    -0.015197
   205    -0.124466
   206    -0.009496
   207    -0.000161
   208    -0.012349
   209     0.014097
   210    -0.005722
   211    -0.036227
   212    -0.056421
   213    -0.020425
   214     0.019881
   215    -0.007948
   216    -0.076295
Sym=   197a
Ene=   -0.393807E-06
Spin= Alpha
Occup= 0.000000
     1     0.001567
     2    -0.001713
     3    -0.031154
     4     0.202203
     5     0.215847
     6     0.413152
     7     0.270474
     8    -0.354887
     9    -2.299799
    10     0.049968
    11    -2.044148
    12   -14.395919
    13     0.318303
    14    -1.692185
    15    -7.452445
    16     1.313070
    17     0.434226
    18     2.348034
    19    -0.193680
    20    -0.848360
    21     0.672970
    22     0.008165
    23    -0.516856
    24    -0.152325
    25     0.105019
    26     4.845157
    27    -3.254886
    28     0.311059
    29     2.833496
    30     0.862726
    31    -0.545169
    32    -0.065693
    33     0.347036
    34     1.256357
    35    -0.156710
    36    -0.077016
    37     0.710870
    38     0.583879
    39     4.479160
    40    -0.083533
    41     0.346286
    42     1.967693
    43    -0.068257
    44     0.321491
    45     1.802383
    46    -0.022178
    47     0.015091
    48     1.621319
    49     8.870527
    50    -0.371488
    51     0.609444
    52     4.017084
    53    -0.051531
    54     0.535290
    55     3.866202
    56    -0.098145
    57     0.033564
    58    -0.064158
    59     0.693510
    60     0.635874
    61     0.115054
    62     2.302830
    63    -0.452984
    64    -0.555296
    65    -0.177166
    66    -1.189203
    67    -0.854920
    68     0.053470
    69    -0.206265
    70    -0.382153
    71    -1.229516
    72    -2.923141
    73    -0.005543
    74     0.011283
    75    -0.033181
    76     0.218224
    77    -0.140777
    78    -1.066109
    79    -0.343562
    80     0.021233
    81     0.220728
    82     0.011979
    83     0.180231
    84     1.166692
    85    -0.023580
    86     0.121665
    87     1.726852
    88    -0.352317
    89    -0.002464
    90    -0.727445
    91     0.084367
    92     0.070157
    93    -0.012931
    94    -0.010485
    95    -0.236402
    96     0.075181
    97     0.528548
    98     0.006088
    99     0.467201
   100     0.467404
   101     1.461101
   102    -0.417273
   103    -2.902452
   104     0.169634
   105     0.140522
   106    -0.047639
   107     0.006275
   108     0.081339
   109     0.501949
   110    -0.032508
   111    -0.480908
   112    -0.002065
   113    -0.065168
   114    -0.191127
   115    -0.014511
   116    -0.018484
   117     0.109496
   118    -0.041355
   119     0.022738
   120    -0.080084
   121    -0.872412
   122    -0.067577
   123     0.029410
   124    -0.424304
   125    -0.017915
   126    -0.099349
   127    -0.186397
   128     0.056598
   129     0.000137
   130    -0.178539
   131     1.635306
   132    -0.107797
   133     1.143841
   134    -0.150720
   135     0.123254
   136    -0.213795
   137     0.092558
   138    -0.765094
   139     0.006093
   140     0.513150
   141    -0.025939
   142     0.186308
   143    -0.607092
   144     0.103620
   145    -0.005019
   146     0.010455
   147    -0.036629
   148     0.043090
   149    -0.154065
   150    -0.534549
   151    -0.409548
   152    -0.007441
   153    -0.060635
   154     0.015352
   155     0.021376
   156     0.119432
   157    -0.256477
   158     0.199562
   159     0.739642
   160     1.368257
   161    -0.025108
   162    -0.680891
   163     0.032803
   164    -0.019523
   165    -0.054398
   166     0.033016
   167     0.023434
   168     0.027349
   169     0.105653
   170     0.002319
   171     0.170510
   172    -0.275998
   173    -0.120933
   174    -0.145810
   175    -0.595500
   176    -0.301643
   177    -0.272207
   178    -0.781858
   179    -0.007073
   180    -0.123750
   181     0.224184
   182    -0.015250
   183    -0.114582
   184     0.021946
   185    -0.015972
   186    -0.049860
   187     0.008863
   188     0.017419
   189    -0.020007
   190     0.026876
   191    -0.008697
   192    -0.051041
   193    -0.361623
   194     0.053774
   195    -0.001396
   196    -0.167229
   197     0.016893
   198     0.046393
   199    -0.323785
   200    -0.047476
   201     0.020827
   202     0.205831
   203     0.286000
   204     0.014334
   205     0.334201
   206    -0.139626
   207     0.011578
   208     0.032998
   209     0.031290
   210     0.044696
   211     0.060842
   212     0.149552
   213    -0.053235
   214     0.102406
   215     0.051475
   216    -0.043171
Sym=   198a
Ene=   -0.177442E-04
Spin= Alpha
Occup= 0.000000
     1    -0.024698
     2     0.061961
     3    -0.349465
     4     0.910739
     5     0.438983
     6    -6.949920
     7    -1.659599
     8     0.000785
     9     0.005585
    10    -0.044011
    11     0.009269
    12     0.032225
    13     2.781110
    14    -0.012276
    15    -0.077269
    16    -4.608691
    17    -0.028327
    18     0.179104
    19    -1.236999
    20    -0.239398
    21    -0.247669
    22    -0.025878
    23    -0.006422
    24    -0.017163
    25     0.035801
    26     1.645195
    27     1.675426
    28     1.095820
    29     0.044928
    30     0.088169
    31    -0.199191
    32     0.062607
    33     0.055617
    34    -4.169084
    35     0.010885
    36    -0.141921
    37     0.009153
    38     0.003135
    39    -0.015106
    40    -0.306639
    41    -0.008437
    42    -0.002249
    43    -0.001504
    44     0.001900
    45    -0.004608
    46    -0.002073
    47    -0.002202
    48    -0.000889
    49     0.009002
    50     3.613242
    51     0.011315
    52    -0.015201
    53    -0.294752
    54    -0.006521
    55    -0.053265
    56    -0.292615
    57     0.012275
    58     0.079358
    59     0.097028
    60    -0.100661
    61     0.095242
    62    -0.700314
    63    -0.051382
    64     0.000375
    65    -0.013069
    66    -0.024842
    67    -0.100972
    68     0.022438
    69    -0.404175
    70    -0.030884
    71    -0.024738
    72    -0.682767
    73    -0.005296
    74     0.012923
    75    -0.083381
    76     0.921538
    77     0.995598
    78    -0.077439
    79    -1.721643
    80     0.000175
    81     0.001906
    82     0.052614
    83     0.001401
    84     0.021909
    85     3.028049
    86    -0.100331
    87     0.046084
    88     0.042263
    89     0.041753
    90    -0.111036
    91     0.071678
    92     0.018656
    93     0.013567
    94    -0.027117
    95     0.000394
    96     0.002991
    97    -0.009178
    98     1.938581
    99     1.965640
   100     2.815900
   101     0.001785
   102    -0.010973
   103     0.049773
   104     0.459648
   105     0.459131
   106     0.556906
   107    -0.000385
   108    -0.043030
   109     0.002009
   110     0.012489
   111    -0.010018
   112    -0.048570
   113    -0.015081
   114     0.007130
   115    -0.046691
   116    -0.003167
   117     0.000615
   118    -0.048020
   119     0.000091
   120    -0.008236
   121    -0.005491
   122    -0.325853
   123     0.017458
   124    -0.015830
   125     0.024402
   126    -0.015410
   127     0.023655
   128     0.025228
   129    -0.000838
   130    -0.664588
   131    -0.000580
   132    -0.238184
   133    -0.011998
   134    -0.581417
   135    -0.004939
   136    -0.001078
   137     0.000302
   138    -0.002134
   139    -0.229716
   140    -0.008727
   141    -0.337992
   142     0.001386
   143     0.000079
   144    -0.566002
   145     3.685376
   146    -5.797401
   147    10.503534
   148   -14.195084
   149    -0.289347
   150     6.961143
   151     5.449895
   152     0.005889
   153     0.000892
   154     0.084199
   155    -0.045566
   156    -0.007023
   157     1.625064
   158     0.058419
   159     0.081105
   160    -6.026385
   161     0.032434
   162    -0.110881
   163    -0.285543
   164     2.767529
   165     2.822587
   166     9.565979
   167     0.048466
   168    -0.062955
   169     0.120974
   170    -3.591244
   171    -3.833081
   172   -33.334848
   173    -0.207308
   174     0.271653
   175    -0.525921
   176    -0.081647
   177    -0.069649
   178     2.215475
   179     0.004868
   180    -0.084869
   181     0.013172
   182     0.037510
   183     0.042320
   184     0.105255
   185    -0.021344
   186    -0.049657
   187     0.054662
   188     0.001312
   189    -0.008715
   190     0.050482
   191    -0.001197
   192    -0.005552
   193    -0.059947
   194     1.795920
   195     0.038280
   196     0.055907
   197     0.397033
   198     0.032889
   199     0.012695
   200     0.402128
   201     0.010611
   202    18.446513
   203     0.210053
   204     5.675615
   205     0.185708
   206     0.931269
   207    -0.111495
   208     0.025086
   209    -0.015898
   210     0.087526
   211     5.633070
   212     0.130120
   213     0.496130
   214    -0.127863
   215     0.088309
   216     0.778912
Sym=   199a
Ene=   -0.347392E-05
Spin= Alpha
Occup= 0.000001
     1    -0.016315
     2     0.039995
     3    -0.018699
     4     0.918988
     5    -2.159263
     6     2.771082
     7     1.105031
     8    -0.062022
     9    -0.292350
    10    -0.285941
    11    -0.698082
    12    -1.973114
    13    -1.882050
    14    -0.008246
    15    -0.809172
    16     2.781483
    17    -0.049287
    18     0.124994
    19    -0.008969
    20     0.486282
    21     0.714787
    22    -0.098233
    23     0.002493
    24    -0.010994
    25     0.374553
    26    -0.923497
    27    -1.472344
    28     4.108073
    29     0.126201
    30     0.263243
    31    -1.851261
    32    -0.047512
    33    -0.151653
    34     3.008646
    35     0.134369
    36     0.333583
    37     0.297823
    38     0.616369
    39     0.371143
    40    -0.190537
    41    -0.413823
    42     0.633400
    43     0.387579
    44    -0.098712
    45     0.171613
    46     0.473141
    47    -0.061265
    48    -0.455596
    49     1.333564
    50     3.735201
    51     0.767727
    52    -0.029366
    53    -0.102300
    54    -0.128444
    55     0.527359
    56     0.077414
    57    -0.037358
    58    -1.820695
    59     0.865492
    60    -0.359467
    61     0.746424
    62     1.296068
    63     0.060136
    64     0.127067
    65     0.031385
    66    -0.107992
    67    -0.136065
    68     0.347555
    69     0.618567
    70    -0.062798
    71    -0.149886
    72     0.926168
    73     0.005761
    74    -0.053447
    75     0.358493
    76    -0.576961
    77     2.677002
    78    -3.504183
    79    -1.780150
    80     0.123152
    81     0.276023
    82    -0.321025
    83     0.990090
    84     1.550722
    85    -1.690344
    86     0.363278
    87     1.327657
    88     0.301760
    89    -0.020023
    90    -0.304399
    91    -0.494640
    92    -0.100914
    93    -0.345063
    94    -0.007641
    95    -0.068941
    96     0.103578
    97     0.404710
    98     1.656230
    99     2.783237
   100     0.877869
   101     0.731053
   102    -0.702481
   103    -2.178783
   104     0.798870
   105     0.993073
   106     0.770753
   107    -0.074537
   108     0.384603
   109     0.341710
   110    -0.603102
   111    -0.275771
   112     0.316412
   113     0.274136
   114    -0.484665
   115     0.414272
   116    -0.070881
   117    -0.227571
   118     0.467102
   119    -0.019179
   120    -0.043578
   121    -1.474887
   122     0.095955
   123    -0.726996
   124    -0.179296
   125     0.066157
   126     0.183906
   127    -0.338487
   128     0.261903
   129    -0.084272
   130    -0.790894
   131     1.015241
   132    -0.221333
   133     0.786571
   134    -1.734985
   135     0.594613
   136    -0.329531
   137     0.011830
   138    -0.287156
   139    -0.447254
   140     0.448745
   141    -0.592281
   142     0.343093
   143    -0.282805
   144    -0.725931
   145     0.001634
   146    -0.004211
   147     0.018511
   148    -0.510894
   149     0.403343
   150    -3.047499
   151    -0.976747
   152    -0.006637
   153    -0.004029
   154    -0.005076
   155     0.065029
   156     0.001701
   157     1.374435
   158    -0.095215
   159     0.003319
   160     2.624990
   161    -0.030743
   162     0.006794
   163     0.039036
   164    -0.037709
   165    -0.034004
   166    -0.068895
   167    -0.007723
   168    -0.014102
   169    -0.014785
   170    -0.879460
   171    -0.938640
   172    -1.011011
   173     0.040081
   174     0.076366
   175     0.053384
   176    -0.565411
   177    -0.558866
   178    -1.496692
   179    -0.041627
   180     0.068250
   181     0.016592
   182    -0.056663
   183     0.012825
   184     0.008332
   185     0.046101
   186    -0.017590
   187    -0.010979
   188    -0.003078
   189    -0.020281
   190    -0.014200
   191    -0.001149
   192     0.076705
   193    -0.079454
   194    -0.017431
   195    -0.140876
   196     0.038127
   197     0.200985
   198    -0.008057
   199    -0.030810
   200     0.160994
   201     0.036354
   202     0.228869
   203     0.006583
   204     0.069412
   205    -0.004608
   206     0.349323
   207    -0.060477
   208    -0.031743
   209     0.077590
   210    -0.006400
   211     0.002768
   212    -0.019538
   213     0.194663
   214    -0.104981
   215    -0.009732
   216     0.320728
Sym=   200a
Ene=   -0.623230E-05
Spin= Alpha
Occup= 0.000001
     1    -0.008123
     2     0.036264
     3    -0.154192
     4     0.409559
     5    -0.093386
     6    -5.230574
     7    -0.402111
     8     0.305155
     9     0.026205
    10    -0.356992
    11     2.700969
    12    -0.586373
    13    -1.629182
    14    -0.464939
    15     0.982786
    16     3.545858
    17     0.226456
    18    -0.539854
    19     0.498823
    20     0.354540
    21     0.086790
    22     0.102185
    23     0.190216
    24    -0.371123
    25    -0.259914
    26    -2.346000
    27     0.081923
    28     0.507996
    29    -0.099105
    30     1.352790
    31     1.463432
    32    -0.028977
    33    -0.410834
    34    -4.325955
    35    -0.224487
    36     0.515196
    37     0.129545
    38    -0.989771
    39     0.110622
    40     0.511886
    41    -0.259182
    42     0.226333
    43     0.226986
    44    -0.031009
    45    -0.303555
    46     0.316894
    47     0.137519
    48    -0.543928
    49    -0.327004
    50     2.972539
    51    -0.343504
    52    -0.320694
    53     0.541328
    54    -0.646958
    55    -0.781892
    56     0.601406
    57     0.437492
    58    -0.504231
    59    -0.171205
    60    -0.051384
    61    -0.515188
    62     0.129031
    63    -0.411361
    64    -0.619397
    65    -0.280183
    66     0.130532
    67     0.638329
    68    -0.009737
    69     0.588940
    70    -0.886661
    71     0.089820
    72     1.683186
    73     0.001627
    74    -0.007226
    75     0.066236
    76    -0.187115
    77     0.941247
    78     5.845271
    79     1.258859
    80     0.083459
    81     0.071022
    82    -0.026082
    83     0.758528
    84     1.066312
    85     1.453349
    86     0.685520
    87    -0.392810
    88     3.661760
    89    -0.256939
    90     0.245917
    91     0.152218
    92     0.123137
    93    -0.037099
    94     0.085050
    95    -0.109170
    96     0.050160
    97    -0.077248
    98    -0.809398
    99     0.153917
   100     0.308338
   101    -0.536157
   102     0.009089
   103    -0.077379
   104     0.495564
   105     0.641382
   106     1.744944
   107     0.333464
   108    -0.000871
   109     0.355417
   110    -0.387746
   111    -0.192062
   112     0.107526
   113    -0.025162
   114    -0.424561
   115     0.072067
   116     0.098400
   117     0.164059
   118     0.011543
   119     0.094800
   120    -0.024337
   121    -0.262791
   122    -0.068487
   123    -0.155588
   124     0.284499
   125     0.067768
   126    -0.618930
   127     0.561674
   128     0.321557
   129     0.401818
   130    -0.103925
   131     0.740832
   132     0.139513
   133     0.013204
   134    -0.013730
   135    -0.240168
   136     0.970293
   137     0.106782
   138     0.143195
   139     0.191672
   140     0.124017
   141    -0.038380
   142     0.218215
   143    -0.114894
   144     0.695925
   145    -0.001286
   146     0.001480
   147    -0.008382
   148     0.580115
   149    -0.163343
   150    -1.323398
   151    -1.971894
   152     0.014968
   153    -0.009661
   154     0.018821
   155    -0.058879
   156     0.137039
   157     0.220530
   158    -0.218866
   159    -0.042273
   160    -0.082635
   161    -0.025589
   162     0.084985
   163     0.265052
   164     0.058751
   165     0.049473
   166     0.013745
   167     0.014414
   168     0.027836
   169    -0.011127
   170     1.064609
   171     1.092973
   172     1.346759
   173    -0.079727
   174    -0.147727
   175     0.071529
   176     0.852412
   177     0.941178
   178     0.477228
   179    -0.005078
   180     0.148149
   181    -0.035966
   182     0.037246
   183    -0.028987
   184    -0.047447
   185     0.017888
   186    -0.008721
   187     0.017396
   188    -0.016266
   189     0.006466
   190     0.035863
   191    -0.017506
   192     0.093783
   193    -0.013928
   194     0.041081
   195     0.034853
   196    -0.021600
   197     0.066069
   198    -0.086022
   199     0.035558
   200    -0.008761
   201    -0.024875
   202    -0.373563
   203    -0.081467
   204    -0.244414
   205    -0.065634
   206    -0.270721
   207     0.166907
   208     0.077120
   209     0.017135
   210     0.011653
   211    -0.265440
   212    -0.008918
   213    -0.148439
   214     0.009032
   215     0.030074
   216    -0.226698
Sym=   201a
Ene=   -0.640635E-05
Spin= Alpha
Occup= 0.000001
     1     0.003460
     2    -0.012787
     3     0.031102
     4     0.210461
     5    -0.515625
     6     5.329065
     7     0.707383
     8     0.079797
     9    -0.126037
    10     0.165571
    11     1.293030
    12    -0.774029
    13     0.165282
    14    -0.528440
    15    -0.118668
    16    -1.701055
    17     0.307620
    18     0.181792
    19    -0.158991
    20     0.125082
    21    -0.242566
    22    -0.075418
    23     0.058792
    24     0.064233
    25     0.272180
    26     0.392575
    27     1.659488
    28     0.803419
    29    -0.582864
    30    -0.938524
    31    -1.296400
    32    -0.246832
    33     0.510550
    34     5.473435
    35     0.159384
    36    -0.014411
    37    -0.705855
    38    -0.375381
    39     0.038284
    40    -0.395217
    41    -0.300550
    42     0.376696
    43     0.127802
    44     0.256478
    45     0.224340
    46    -0.226000
    47    -0.041467
    48    -0.028641
    49     0.518582
    50    -1.731612
    51     0.165276
    52    -0.090729
    53    -0.073058
    54     0.309957
    55     0.843547
    56    -0.673060
    57     0.075976
    58     0.335927
    59    -0.000971
    60     0.147030
    61     0.446063
    62    -1.295415
    63     0.291149
    64     0.109113
    65     0.163314
    66     0.300944
    67    -0.776104
    68     0.427215
    69    -0.280457
    70    -0.014243
    71     0.168765
    72     0.033045
    73    -0.002614
    74    -0.004133
    75     0.045721
    76     0.030953
    77    -0.110238
    78    -6.911807
    79    -1.484350
    80     0.052163
    81    -0.160196
    82    -0.051218
    83    -0.155031
    84    -1.845103
    85    -2.214441
    86     0.940840
    87     0.118380
    88    -2.759595
    89    -0.477286
    90    -0.216310
    91    -0.290577
    92    -0.150932
    93    -0.071948
    94     0.017283
    95     0.047340
    96     0.139468
    97    -0.026042
    98     0.059784
    99     2.316622
   100    -0.830374
   101    -0.578942
   102    -0.159312
   103     0.442592
   104     0.224234
   105    -0.372644
   106    -1.049992
   107    -0.037482
   108    -0.409824
   109    -0.339316
   110     0.142710
   111     0.725782
   112    -0.134787
   113    -0.184607
   114     0.206114
   115     0.118428
   116    -0.006720
   117    -0.170228
   118     0.047552
   119     0.044825
   120    -0.451919
   121     0.023945
   122    -0.092748
   123     0.043520
   124     0.198490
   125     0.252001
   126    -0.922714
   127    -0.045997
   128    -0.559298
   129    -0.051943
   130     0.188224
   131    -0.673027
   132    -1.128413
   133    -0.419746
   134    -1.188167
   135    -0.505469
   136     0.208638
   137     0.099298
   138     0.094882
   139     0.777780
   140    -0.096856
   141    -0.447407
   142     0.118376
   143     0.398707
   144    -0.108892
   145     0.001898
   146    -0.003487
   147     0.018509
   148    -0.831971
   149     0.391790
   150     0.514845
   151     0.850139
   152     0.024795
   153     0.000380
   154    -0.038467
   155    -0.215146
   156    -0.112919
   157     0.239838
   158    -0.005372
   159     0.329106
   160     1.503967
   161    -0.022765
   162    -0.021643
   163    -0.229933
   164    -0.048169
   165    -0.090651
   166    -0.062504
   167     0.002666
   168     0.058550
   169     0.007574
   170    -1.623512
   171    -1.443196
   172    -1.713830
   173    -0.007900
   174    -0.327775
   175    -0.033334
   176    -1.011412
   177    -1.182954
   178    -1.207889
   179    -0.062255
   180     0.053461
   181    -0.169202
   182     0.053730
   183     0.010030
   184     0.021274
   185     0.044338
   186    -0.004546
   187    -0.054803
   188    -0.022971
   189     0.026612
   190    -0.039500
   191    -0.009263
   192     0.107959
   193    -0.059418
   194    -0.045167
   195    -0.005038
   196    -0.009328
   197    -0.099765
   198    -0.081436
   199     0.080007
   200     0.048635
   201     0.038376
   202     0.403992
   203    -0.058403
   204     0.209216
   205     0.066585
   206     0.379732
   207     0.289139
   208     0.007088
   209     0.093793
   210     0.002467
   211     0.354588
   212     0.043296
   213     0.237331
   214     0.109228
   215     0.011162
   216     0.428897
Sym=   202a
Ene=   -0.296182E-04
Spin= Alpha
Occup= 0.000005
     1     0.056966
     2    -0.072331
     3    -0.996402
     4     2.916842
     5     1.586131
     6    -2.140803
     7     0.133062
     8    -0.005868
     9     0.000372
    10    -0.632132
    11    -0.035937
    12    -0.041058
    13    -8.037912
    14    -0.043045
    15     0.092697
    16    -6.241744
    17     0.081149
    18    -0.143945
    19    -1.252129
    20    -0.734995
    21    -0.742101
    22    -1.423380
    23    -0.001830
    24    -0.015540
    25     0.003131
    26     5.112863
    27     5.130705
    28     5.343027
    29     0.016820
    30     0.108130
    31     0.031567
    32     1.438953
    33     1.434985
    34     3.283699
    35    -0.005277
    36     0.045720
    37     0.128099
    38    -0.044733
    39     0.058206
    40     0.191706
    41     0.074037
    42    -0.073097
    43     0.449362
    44     0.020774
    45     0.009223
    46     0.451158
    47     0.002296
    48     0.033183
    49    -0.035943
    50     0.848320
    51     0.008169
    52     0.006468
    53     1.280350
    54     0.014785
    55    -0.042913
    56     1.275853
    57    -0.000340
    58     0.985050
    59     0.004676
    60    -1.330272
    61     0.060201
    62    -1.972971
    63    -0.031090
    64    -0.008018
    65     0.085137
    66    -0.005993
    67    -1.315614
    68    -0.133065
    69    -1.154879
    70    -0.129850
    71    -0.004438
    72    -1.972459
    73     0.015347
    74    -0.033061
    75     0.223682
    76     1.165647
    77    -2.039502
    78    -9.400107
    79    -4.892965
    80     0.000112
    81     0.001362
    82     0.007915
    83     0.000438
    84     0.036416
    85    -3.138446
    86     0.051697
    87     0.040625
    88    -4.490110
    89    -0.059609
    90     0.076304
    91    -0.418847
    92     0.314129
    93     0.312578
    94     1.071656
    95     0.000160
    96    -0.003956
    97    -0.003125
    98     3.025422
    99     3.013293
   100    -4.159641
   101     0.001631
   102     0.026084
   103     0.014963
   104     0.949636
   105     0.944040
   106    -1.639931
   107     0.002714
   108     0.008761
   109     0.061548
   110     0.000627
   111    -0.004184
   112    -0.838176
   113     0.001732
   114    -0.001540
   115     0.055634
   116    -0.000765
   117     0.003628
   118     0.061548
   119     0.000376
   120    -0.008842
   121     0.014066
   122    -1.624752
   123     0.005591
   124    -0.017582
   125     0.447180
   126     0.004019
   127     0.023417
   128     0.440824
   129     0.002136
   130     1.382111
   131     0.006593
   132     0.439067
   133     0.025584
   134    -0.892982
   135    -0.009477
   136     0.001678
   137     0.024107
   138     0.000492
   139     0.423156
   140    -0.030381
   141    -0.522400
   142    -0.025773
   143    -0.003950
   144    -0.897862
   145     0.027277
   146    -0.046910
   147    -0.376118
   148    -1.783167
   149     2.168880
   150     7.448847
   151     2.524005
   152    -0.001532
   153    -0.000373
   154    -0.300762
   155     0.011545
   156     0.001362
   157     2.204173
   158     0.003656
   159    -0.070533
   160    -1.303533
   161    -0.049420
   162     0.050464
   163     0.074434
   164    -0.420109
   165    -0.422427
   166    -1.214903
   167     0.004078
   168     0.000958
   169     0.002447
   170    -4.320181
   171    -4.321790
   172    -2.889171
   173    -0.008643
   174    -0.007562
   175    -0.028981
   176    -0.963915
   177    -0.964861
   178     0.572887
   179     0.004290
   180     0.031134
   181     0.037496
   182    -0.002359
   183     0.009875
   184    -0.219146
   185     0.005843
   186    -0.015005
   187    -0.186394
   188    -0.016046
   189     0.011499
   190    -0.178394
   191     0.001580
   192     0.018351
   193     0.017705
   194    -2.034962
   195    -0.047375
   196    -0.016505
   197    -0.289515
   198    -0.019020
   199    -0.015598
   200    -0.299220
   201    -0.001749
   202     0.768754
   203     0.009289
   204    -0.065068
   205    -0.083990
   206     1.270506
   207     0.017794
   208     0.002233
   209     0.091831
   210     0.001448
   211    -0.063030
   212     0.135724
   213     0.743826
   214    -0.073481
   215     0.001770
   216     1.263265
Sym=   203a
Ene=   -0.278993E-05
Spin= Alpha
Occup= 0.000001
     1    -0.001863
     2     0.002146
     3     0.006922
     4     1.452443
     5     0.547390
     6    -4.826153
     7     1.003512
     8     0.209139
     9    -0.057017
    10     0.122800
    11     1.247325
    12    -0.500997
    13     0.405034
    14    -0.789663
    15     0.824758
    16    10.346577
    17     0.946915
    18    -0.349740
    19    -0.075577
    20     0.262935
    21     0.020558
    22     0.323632
    23    -0.096951
    24     0.187561
    25    -0.129825
    26     2.677257
    27     3.740985
    28     3.324766
    29     0.721522
    30    -1.152342
    31     0.766226
    32     0.630393
    33     0.549181
    34     1.830707
    35     0.185616
    36    -4.117322
    37     1.264684
    38    -0.425949
    39     0.170221
    40    -0.008607
    41    -0.188136
    42     0.066729
    43    -0.019397
    44    -0.170536
    45     0.045836
    46    -0.122336
    47    -0.059268
    48    -0.397879
    49    -0.080325
    50    -4.326743
    51    -0.189325
    52    -0.020940
    53    -0.136191
    54    -1.503690
    55     0.465270
    56     0.259070
    57     0.123048
    58    -0.217088
    59    -0.367525
    60    -0.221243
    61    -0.368859
    62    -1.200994
    63     0.322821
    64    -0.146646
    65     0.290160
    66    -0.365993
    67    -0.137194
    68    -0.149146
    69    -0.458513
    70     0.701081
    71    -0.382602
    72    -0.498330
    73    -0.004447
    74     0.008826
    75    -0.055583
    76     0.850550
    77     0.318258
    78    -1.995337
    79    -3.785027
    80     0.135628
    81    -0.035125
    82    -0.067886
    83     1.098510
    84    -0.360324
    85    -3.005548
    86    -2.116018
    87     0.760158
    88     4.551951
    89     0.001724
    90    -0.167421
    91    -0.921648
    92     0.031304
    93    -0.114813
    94     0.055177
    95    -0.004672
    96     0.129753
    97    -0.048176
    98     1.911468
    99     2.791450
   100     0.848178
   101    -0.051121
   102    -0.698050
   103     0.267479
   104     2.734893
   105     2.864967
   106     3.909879
   107    -0.054312
   108    -1.115212
   109     0.288444
   110    -0.235085
   111     0.075847
   112    -0.003874
   113    -0.129528
   114     0.052927
   115     0.064366
   116    -0.088966
   117    -0.017980
   118     0.030833
   119     0.027546
   120    -0.477167
   121     0.082628
   122     0.119974
   123    -0.188430
   124     0.011860
   125     0.073180
   126    -0.200395
   127     0.038466
   128     0.226224
   129    -0.025355
   130    -0.428663
   131    -0.199826
   132    -0.481286
   133    -0.127353
   134    -0.933780
   135     0.461747
   136     0.069666
   137     0.161010
   138     0.022686
   139    -0.342064
   140    -0.065489
   141    -0.444172
   142     0.327803
   143     0.014148
   144    -0.327944
   145    -0.033405
   146     0.141229
   147    -0.948146
   148     0.878093
   149     1.731317
   150    -2.664934
   151    -2.537224
   152    -0.799764
   153     0.218170
   154    -0.017084
   155     5.486672
   156    -1.446586
   157    -1.798844
   158     5.634638
   159    -1.834417
   160     7.292561
   161    -0.870806
   162     0.222942
   163    -0.126449
   164     0.583342
   165    -0.868173
   166    -0.475824
   167    -0.600293
   168     0.062177
   169    -0.060988
   170    -5.290251
   171     1.685747
   172    -0.652573
   173     2.629783
   174    -0.219569
   175     0.348925
   176    -0.480173
   177    -0.809252
   178    -4.267901
   179    -0.230821
   180    -2.512652
   181     0.833454
   182    -1.610361
   183     0.428698
   184    -0.418552
   185    -0.743202
   186     0.155731
   187     0.143848
   188    -0.993703
   189     0.300053
   190     0.058809
   191     0.015364
   192    -3.773932
   193     1.054981
   194     0.538946
   195    -1.655530
   196     0.518560
   197    -0.862203
   198    -0.512135
   199     0.128328
   200    -0.609735
   201     0.043088
   202     1.023192
   203    -0.200845
   204     0.116211
   205    -0.171234
   206    -1.036298
   207     0.059839
   208    -0.513481
   209     0.076815
   210    -1.048041
   211     1.623761
   212    -0.054434
   213     0.653924
   214     0.161059
   215    -1.079760
   216     3.419336
Sym=   204a
Ene=   -0.198740E-04
Spin= Alpha
Occup= 0.000004
     1     0.004413
     2    -0.007855
     3    -0.004890
     4     0.186145
     5    -0.348490
     6     4.096740
     7     0.905225
     8     0.021944
     9    -0.021508
    10    -0.037078
    11     0.174729
    12    -0.071556
    13     1.476993
    14    -0.075873
    15     0.452384
    16     5.996747
    17     0.289189
    18    -0.424095
    19     0.140963
    20     0.045518
    21    -0.026491
    22     0.091690
    23    -0.027630
    24     0.068790
    25    -0.082126
    26     0.147835
    27     0.489169
    28    -0.145422
    29     0.115267
    30    -0.318774
    31     0.499507
    32    -0.052308
    33    -0.053752
    34     3.615525
    35     0.063723
    36     0.344951
    37     0.867876
    38    -0.038541
    39     0.082679
    40     0.027857
    41    -0.017076
    42     0.018279
    43    -0.013427
    44     0.003029
    45     0.024933
    46     0.005583
    47     0.005830
    48    -0.053545
    49     0.008262
    50     2.078378
    51    -0.018019
    52     0.084961
    53     0.053988
    54     0.122282
    55     0.117526
    56     0.138831
    57     0.178052
    58     0.339088
    59    -0.289372
    60     0.020050
    61    -0.202396
    62    -0.236500
    63     0.172519
    64     0.039071
    65     0.065913
    66    -0.031443
    67     0.057257
    68    -0.031380
    69    -0.087902
    70     0.128793
    71    -0.043859
    72    -0.055953
    73     0.000097
    74     0.000323
    75    -0.014106
    76     0.562620
    77     0.196180
    78    -0.920730
    79    -0.970615
    80     0.010398
    81    -0.034561
    82     0.043984
    83    -0.020788
    84    -0.135370
    85     1.087517
    86     0.413539
    87     0.071687
    88     1.101005
    89    -0.300716
    90     0.284134
    91    -0.404119
    92     0.031280
    93     0.072680
    94     0.044658
    95    -0.013365
    96    -0.048886
    97    -0.023141
    98     1.185144
    99     1.050006
   100     1.402646
   101     0.129517
   102     0.214805
   103     0.122040
   104     0.581992
   105     0.641278
   106     1.021289
   107     0.043185
   108     0.043793
   109     0.202394
   110    -0.010585
   111     0.059601
   112    -0.061955
   113    -0.004305
   114     0.028510
   115    -0.021339
   116    -0.011294
   117     0.001995
   118    -0.026112
   119    -0.016543
   120    -0.075745
   121     0.193411
   122    -0.165149
   123    -0.033844
   124     0.078812
   125    -0.106522
   126    -0.030398
   127     0.064443
   128    -0.079379
   129     0.054036
   130    -0.235685
   131    -0.100340
   132    -0.120204
   133    -0.035716
   134    -0.285073
   135    -0.089008
   136    -0.027082
   137    -0.033958
   138    -0.052996
   139    -0.145349
   140    -0.021684
   141    -0.174350
   142    -0.098978
   143    -0.064300
   144    -0.346239
   145     0.000557
   146    -0.004335
   147     0.014275
   148    -1.059966
   149     1.005735
   150    -2.700155
   151    -0.972683
   152    -0.045172
   153    -0.135722
   154     0.120770
   155     0.349402
   156     1.277582
   157    -0.741891
   158    -0.321989
   159    -1.223097
   160     6.705565
   161    -0.055780
   162     0.385075
   163    -0.607828
   164    -0.154439
   165    -0.173891
   166    -0.060738
   167    -0.089821
   168     0.143664
   169     0.209137
   170    -1.512395
   171    -2.556138
   172    -1.417359
   173     0.160269
   174    -2.025162
   175     0.684828
   176    -1.328998
   177    -1.673354
   178    -3.849689
   179    -0.286330
   180     0.299623
   181     0.963429
   182    -0.132878
   183    -0.497982
   184     0.320541
   185     0.055419
   186    -0.011508
   187     0.409843
   188    -0.087377
   189    -0.110691
   190     0.071316
   191    -0.535782
   192    -0.048371
   193    -0.021687
   194     0.699198
   195    -0.167893
   196    -0.290229
   197    -0.097117
   198    -0.051556
   199    -0.333218
   200     0.198235
   201     0.588685
   202    -0.099707
   203    -0.496743
   204     0.302192
   205    -0.909875
   206     1.339642
   207     1.046220
   208     0.090305
   209     0.519070
   210     0.041315
   211     0.081399
   212     0.043487
   213     0.550213
   214     0.786902
   215    -0.043672
   216     0.314450
Sym=   205a
Ene=   -0.879318E-05
Spin= Alpha
Occup= 0.000002
     1    -0.005231
     2     0.010122
     3    -0.078213
     4     0.518474
     5     0.370483
     6    -3.898287
     7     0.405062
     8     0.082007
     9     0.038099
    10    -0.075498
    11     0.280541
    12     0.448033
    13    -0.835771
    14    -0.022342
    15    -1.324652
    16     9.941123
    17    -0.552429
    18     2.192901
    19    -0.030111
    20    -0.051072
    21    -0.073344
    22    -0.207153
    23    -0.042971
    24     0.155551
    25     0.340582
    26     0.920348
    27     1.512305
    28     2.444818
    29     0.395158
    30    -0.791185
    31    -2.071294
    32    -0.110877
    33    -0.119381
    34    -0.924706
    35     0.032690
    36    -0.306033
    37    -0.093129
    38    -0.155341
    39    -0.110246
    40     0.383851
    41    -0.068423
    42    -0.053430
    43     0.064453
    44    -0.014474
    45    -0.075724
    46     0.036605
    47    -0.033270
    48    -0.281126
    49     0.074974
    50    -0.980819
    51    -0.124927
    52     0.035828
    53     0.549085
    54    -0.456216
    55    -0.011793
    56    -0.123334
    57    -0.185340
    58    -0.327086
    59     1.236295
    60    -0.809103
    61     0.894678
    62    -0.562318
    63     0.684203
    64    -0.250335
    65     0.145294
    66    -0.167649
    67    -0.160078
    68     0.395911
    69    -0.236601
    70     0.350495
    71    -0.189653
    72    -0.210939
    73     0.000036
    74     0.000839
    75    -0.002651
    76     0.858325
    77    -0.367751
    78     2.026618
    79    -1.271368
    80     0.034068
    81     0.051911
    82     0.013918
    83     0.361167
    84     0.208617
    85    -0.947112
    86    -0.223399
    87     0.682956
    88     5.675094
    89     0.436180
    90    -1.302221
    91    -0.422442
    92     0.032256
    93     0.113931
    94     0.222630
    95     0.038668
    96     0.033112
    97    -0.017995
    98     2.139826
    99     1.806313
   100     0.373160
   101    -0.172023
   102    -0.085139
   103     0.153339
   104     2.019975
   105     1.886701
   106     3.930826
   107    -0.046257
   108     0.205220
   109    -0.036535
   110    -0.044291
   111    -0.090374
   112    -0.170534
   113    -0.033904
   114    -0.032967
   115    -0.051890
   116     0.024697
   117     0.014738
   118     0.035272
   119     0.033545
   120    -0.153948
   121    -0.312625
   122     0.096174
   123    -0.050773
   124    -0.151832
   125     0.192702
   126     0.251534
   127     0.118540
   128     0.013247
   129    -0.061414
   130     0.022041
   131     0.156276
   132    -0.080055
   133    -0.077803
   134    -0.475015
   135     0.246404
   136     0.060270
   137     0.014318
   138     0.068307
   139    -0.201240
   140    -0.041417
   141    -0.336606
   142     0.019689
   143     0.046213
   144    -0.625226
   145    -0.018102
   146     0.012033
   147     0.247809
   148    -1.523660
   149     0.464754
   150     3.410003
   151    -3.417862
   152    -0.108060
   153     0.021212
   154    -0.050110
   155     0.919647
   156    -0.501230
   157    -0.672367
   158     0.135496
   159     1.528516
   160     5.305584
   161     0.470462
   162    -1.420258
   163     0.194718
   164     0.162697
   165     0.096173
   166    -0.181339
   167     0.017513
   168    -0.000195
   169     0.131288
   170    -2.090639
   171    -3.288805
   172    -1.006291
   173    -0.213160
   174    -0.536937
   175    -0.825221
   176    -0.640929
   177    -0.721271
   178    -2.577783
   179     0.031583
   180    -0.542230
   181    -0.043236
   182    -0.331710
   183     0.142341
   184    -0.086184
   185    -0.056977
   186     0.163616
   187    -0.024718
   188    -0.115390
   189    -0.156818
   190     0.113423
   191     0.032341
   192    -0.280323
   193    -0.247249
   194    -0.256608
   195    -0.209355
   196    -0.209877
   197    -0.187609
   198    -0.088772
   199    -0.136570
   200    -0.805654
   201    -0.177375
   202    -0.601468
   203     0.419686
   204     1.170231
   205     0.465564
   206     1.054622
   207     0.679341
   208     0.430197
   209     0.017369
   210     0.012626
   211    -0.220672
   212     0.070627
   213     0.388297
   214     0.196074
   215    -0.021729
   216     0.404434
Sym=   206a
Ene=   -0.190407E-04
Spin= Alpha
Occup= 0.000005
     1    -0.000243
     2     0.000356
     3    -0.001313
     4    -0.049102
     5    -0.003057
     6     0.512013
     7    -0.072233
     8     0.176185
     9    -0.014365
    10     0.005306
    11     0.651643
    12    -0.098835
    13     0.180272
    14    -0.973125
    15     0.081703
    16     0.174969
    17     0.247848
    18     0.012102
    19     0.099268
    20    -0.008444
    21    -0.005874
    22    -0.026396
    23    -0.018313
    24    -0.242799
    25     0.014594
    26    -0.122907
    27    -0.086299
    28    -0.023490
    29     0.118153
    30     1.356844
    31    -0.089957
    32    -0.038510
    33    -0.011019
    34     0.324259
    35    -0.003622
    36     1.946674
    37    -0.113650
    38    -0.319452
    39     0.026514
    40    -0.021164
    41    -0.142354
    42     0.016390
    43     0.021734
    44     0.013906
    45    -0.006118
    46    -0.028604
    47     0.021552
    48    -0.716859
    49     0.042091
    50     0.201273
    51    -0.319478
    52     0.014431
    53     0.006904
    54    -0.300757
    55    -0.006228
    56    -0.045567
    57     0.043181
    58    -0.081406
    59     0.101302
    60     0.021807
    61     0.026855
    62     0.024155
    63    -1.043525
    64    -0.075020
    65    -0.144384
    66    -0.061602
    67    -0.044682
    68     0.016793
    69    -0.002155
    70    -0.324675
    71    -0.050126
    72     0.059439
    73     0.000298
    74    -0.001268
    75     0.004418
    76     0.002627
    77     0.076504
    78    -0.240064
    79     0.234735
    80     0.182433
    81    -0.004041
    82     0.013767
    83     1.917005
    84    -0.081189
    85     0.202173
    86     0.722454
    87     0.031057
    88     0.019937
    89     0.318411
    90    -0.070652
    91     0.029747
    92    -0.005750
    93     0.004206
    94    -0.009793
    95     0.000439
    96    -0.024654
    97     0.004434
    98    -0.153552
    99     0.239719
   100     0.141603
   101    -0.150797
   102     3.150011
   103    -0.210049
   104    -0.011592
   105    -0.042823
   106    -0.015095
   107     0.034697
   108     2.151064
   109    -0.111334
   110    -0.361825
   111     0.018502
   112    -0.011229
   113    -0.157969
   114     0.002396
   115    -0.012784
   116    -0.899847
   117     0.055546
   118    -0.010409
   119    -0.001244
   120    -0.493986
   121    -0.025775
   122    -0.049340
   123    -0.220646
   124    -0.001584
   125    -0.019105
   126     0.859546
   127    -0.024985
   128    -0.062565
   129     0.030335
   130    -0.026628
   131     0.171314
   132    -0.151939
   133     0.108609
   134    -0.160955
   135    -1.984390
   136     0.175541
   137    -0.794458
   138     0.066986
   139     0.150705
   140     0.046053
   141     0.065508
   142    -1.761763
   143    -0.041232
   144     0.017663
   145     0.000040
   146     0.000013
   147    -0.000686
   148     0.000811
   149     0.020986
   150    -0.357131
   151    -0.241618
   152    -0.058872
   153     0.003260
   154     0.004058
   155     0.377840
   156    -0.021134
   157     0.052707
   158    -0.461247
   159     0.050747
   160     0.274216
   161    -0.340046
   162    -0.006255
   163    -0.003063
   164     0.001020
   165    -0.000623
   166     0.001287
   167    -0.003397
   168    -0.057828
   169     0.002515
   170     0.015619
   171    -0.010388
   172    -0.016814
   173    -0.008549
   174     0.326559
   175    -0.007445
   176     0.001541
   177    -0.013536
   178    -0.119560
   179    -0.021792
   180     0.503703
   181    -0.032970
   182    -0.129367
   183     0.008726
   184     0.005659
   185    -0.058240
   186     0.002957
   187     0.004201
   188     0.020778
   189    -0.006873
   190     0.003401
   191    -0.001721
   192    -0.216443
   193     0.005646
   194     0.024616
   195    -0.096378
   196     0.003405
   197     0.016948
   198    -0.095650
   199     0.005464
   200     0.017954
   201     0.002651
   202     0.012750
   203     0.020009
   204     0.001943
   205     0.000205
   206     0.022167
   207    -0.340081
   208     0.017746
   209    -0.063763
   210     0.016442
   211    -0.008299
   212     0.000465
   213    -0.001405
   214    -0.140559
   215    -0.002089
   216    -0.007427
Sym=   207a
Ene=   -0.172248E-04
Spin= Alpha
Occup= 0.000001
     1    -0.002700
     2    -0.002529
     3    -0.081578
     4     1.057847
     5     0.302721
     6    26.280988
     7     0.941637
     8    -0.002105
     9    -0.010612
    10     0.323839
    11     0.001845
    12    -0.105094
    13    -2.309994
    14    -0.034538
    15    -0.055222
    16    -6.983231
    17     0.018612
    18     0.006241
    19    -0.255404
    20    -0.046982
    21    -0.043699
    22    -0.634471
    23    -0.007995
    24    -0.002184
    25     0.003045
    26     2.362113
    27     2.318069
    28     4.572548
    29     0.053314
    30     0.007225
    31    -0.009470
    32     0.605588
    33     0.593136
    34    21.269110
    35     0.004479
    36    -0.006712
    37     0.048893
    38     0.015881
    39     0.014112
    40    -0.530480
    41    -0.021372
    42     0.021880
    43    -0.246711
    44     0.003282
    45     0.007390
    46    -0.245747
    47    -0.000535
    48     0.002523
    49     0.047997
    50     1.272097
    51     0.029499
    52     0.010646
    53    -1.420065
    54     0.000049
    55    -0.041730
    56    -1.425513
    57    -0.002160
    58    -2.217163
    59     0.018826
    60    -0.740399
    61     0.012310
    62    -0.891632
    63    -0.000596
    64    -0.007591
    65     0.003794
    66    -0.023506
    67    -0.751170
    68     0.007062
    69    -0.536491
    70    -0.012109
    71    -0.028065
    72    -0.927670
    73     2.066337
    74    -3.080849
    75     4.530758
    76    -3.103224
    77     2.444689
    78   -37.941663
    79    -1.874451
    80     0.013548
    81     0.012564
    82     1.548878
    83     0.094042
    84     0.075011
    85     6.013975
    86     0.025602
    87     0.143991
    88    -9.348921
    89    -0.010601
    90    -0.038078
    91    -0.204913
    92    -0.670339
    93    -0.674530
    94     8.971360
    95     0.002743
    96     0.013770
    97    -0.061901
    98    13.928160
    99    13.984555
   100   -29.702853
   101     0.006566
   102    -0.071837
   103     0.231018
   104    -0.134509
   105    -0.125540
   106    -4.993788
   107     0.000277
   108    -0.002172
   109     0.023014
   110    -0.015394
   111    -0.019529
   112    -1.959244
   113    -0.032490
   114     0.006610
   115    -1.281877
   116    -0.009630
   117    -0.014261
   118    -1.281229
   119     0.002369
   120    -0.056954
   121    -0.071114
   122   -10.718065
   123    -0.005163
   124    -0.044450
   125    -3.253264
   126    -0.029394
   127     0.025625
   128    -3.254814
   129    -0.005587
   130    19.057335
   131    -0.058384
   132     3.858468
   133    -0.086026
   134    -6.559090
   135     0.028564
   136    -0.003153
   137     0.002145
   138    -0.007821
   139     3.873988
   140    -0.027092
   141    -3.826369
   142     0.042595
   143    -0.003471
   144    -6.515205
   145     0.006324
   146    -0.015764
   147     0.118038
   148    -2.533327
   149     1.729943
   150    -4.709398
   151     0.669853
   152     0.000078
   153    -0.000807
   154     0.080371
   155    -0.000080
   156     0.013061
   157     1.137736
   158     0.008463
   159    -0.003001
   160     7.204642
   161    -0.004833
   162     0.003261
   163    -0.410889
   164    -0.091527
   165    -0.091456
   166    -0.225084
   167    -0.000585
   168    -0.002260
   169     0.002518
   170    -4.823011
   171    -4.826046
   172    -4.427245
   173     0.003474
   174     0.009922
   175    -0.009151
   176    -2.842478
   177    -2.837231
   178    -5.222689
   179    -0.001594
   180    -0.005398
   181    -0.009345
   182    -0.002397
   183    -0.000631
   184     0.153557
   185     0.003918
   186    -0.000991
   187     0.046573
   188    -0.001284
   189    -0.002123
   190     0.048288
   191     0.000069
   192     0.005412
   193    -0.004776
   194     0.726510
   195    -0.007405
   196    -0.001559
   197     0.423942
   198     0.000793
   199     0.010870
   200     0.419296
   201     0.000770
   202     1.128752
   203    -0.000834
   204     0.723482
   205    -0.001771
   206     1.542047
   207    -0.002925
   208    -0.000653
   209     0.005762
   210    -0.001661
   211     0.721796
   212     0.004272
   213     0.902748
   214    -0.009950
   215    -0.001176
   216     1.540750
Sym=   208a
Ene=    0.612624E-08
Spin= Alpha
Occup= 0.000000
     1     0.043058
     2    -0.091917
     3     0.370612
     4    -4.471198
     5    -1.743563
     6    21.889405
     7    11.036657
     8     0.020440
     9    -0.011750
    10     0.003843
    11     0.313472
    12    -0.121447
    13    -5.191573
    14     0.031509
    15     0.048132
    16   -22.441992
    17     0.165418
    18     0.157654
    19    -2.076807
    20    -1.402921
    21    -0.871202
    22     1.551823
    23    -0.103853
    24     0.018424
    25    -0.063629
    26    -2.297346
    27    -5.339817
    28   -18.565956
    29     0.600588
    30    -0.139759
    31     0.380838
    32    -4.052625
    33    -4.128306
    34    -5.220373
    35    -0.033883
    36    -0.092071
    37    -0.251928
    38     0.016851
    39    -0.010250
    40     0.761176
    41    -0.162510
    42     0.106498
    43    -0.149906
    44    -0.012508
    45    -0.028740
    46    -0.083623
    47     0.002607
    48    -0.125920
    49     0.074944
    50   -11.886134
    51     0.164793
    52    -0.089195
    53     0.669741
    54     0.056517
    55    -0.010060
    56     0.636157
    57     0.041575
    58    10.014530
    59    -0.169252
    60     2.677653
    61    -0.151492
    62    -0.437959
    63     0.111502
    64    -0.149861
    65     0.019239
    66    -0.269579
    67     2.216773
    68    -0.044221
    69    -0.907090
    70     0.002362
    71    -0.237526
    72    -2.539993
    73    -0.010092
    74     0.027100
    75    -0.243147
    76     7.243029
    77    -6.898455
    78   -36.692285
    79   -12.367618
    80     0.031764
    81     0.009485
    82     0.027564
    83     0.349497
    84     0.067121
    85    -7.628454
    86    -0.439868
    87    -0.149477
    88   -10.209524
    89     0.061955
    90    -0.079288
    91    -1.303224
    92     0.618195
    93     0.711882
    94    -0.029669
    95    -0.017221
    96    -0.033069
    97     0.101550
    98    13.781684
    99    13.227141
   100    13.608870
   101     0.094122
   102     0.204265
   103    -0.594895
   104     2.828581
   105     2.973521
   106    -1.046785
   107     0.030109
   108    -0.234653
   109    -0.064085
   110    -0.241281
   111     0.045178
   112    -0.687793
   113     0.060252
   114    -0.086622
   115     0.055476
   116     0.030351
   117    -0.012894
   118     0.037459
   119     0.012958
   120     0.168815
   121    -0.104869
   122     0.242046
   123    -0.118632
   124     0.077979
   125    -0.249178
   126    -0.177726
   127     0.011947
   128    -0.146880
   129     0.016665
   130    -5.421751
   131     0.292360
   132    -3.309657
   133     0.260626
   134    -3.115639
   135    -0.101129
   136     0.047547
   137     0.012868
   138    -0.053309
   139    -3.514567
   140     0.087824
   141    -1.916836
   142    -0.094562
   143    -0.089181
   144    -3.405834
   145    -0.015802
   146     0.043632
   147    -0.401949
   148     3.226634
   149    -1.871268
   150     4.436059
   151     6.271235
   152    -0.002040
   153    -0.008179
   154    -0.001624
   155    -0.002098
   156     0.020312
   157    -3.578741
   158     0.056172
   159     0.263882
   160   -11.086279
   161    -0.112860
   162    -0.139594
   163    -0.081876
   164    -0.250734
   165    -0.245401
   166    -0.087094
   167    -0.005628
   168    -0.013778
   169     0.011005
   170     6.393636
   171     6.360541
   172     6.273226
   173     0.029387
   174     0.064609
   175    -0.046663
   176     1.702293
   177     1.793329
   178     6.061923
   179    -0.011005
   180     0.052433
   181    -0.086397
   182    -0.020071
   183    -0.021054
   184     0.033810
   185     0.022285
   186     0.007356
   187    -0.028177
   188    -0.008830
   189    -0.011586
   190    -0.010684
   191    -0.005344
   192     0.024253
   193    -0.064275
   194     0.072177
   195    -0.050630
   196    -0.047695
   197    -0.202677
   198    -0.060894
   199     0.023370
   200    -0.289158
   201     0.010390
   202    -1.984710
   203    -0.008621
   204    -0.924497
   205     0.028256
   206    -2.472819
   207     0.009548
   208    -0.002497
   209     0.015916
   210    -0.018058
   211    -0.950910
   212     0.026442
   213    -1.456879
   214    -0.062343
   215    -0.007891
   216    -2.479728
Sym=   209a
Ene=   -0.379685E-03
Spin= Alpha
Occup= 0.000004
     1     0.000070
     2    -0.007312
     3     0.050778
     4    -0.069797
     5     0.052359
     6    -2.030462
     7    -0.646055
     8     0.001199
     9    -0.000602
    10     0.018547
    11     0.000351
    12     0.000759
    13     0.221911
    14    -0.002206
    15    -0.026466
    16     1.806839
    17    -0.018445
    18     0.055992
    19     0.061111
    20     0.011643
    21     0.007962
    22     0.067825
    23    -0.000691
    24     0.002028
    25     0.004806
    26     0.010149
    27     0.029917
    28    -0.206534
    29     0.003248
    30    -0.014468
    31    -0.028298
    32    -0.107856
    33    -0.108663
    34    -1.601739
    35     0.001558
    36    -0.015480
    37    -0.009898
    38    -0.003995
    39     0.001816
    40    -0.018148
    41     0.000858
    42    -0.001208
    43     0.005208
    44    -0.001325
    45     0.000694
    46     0.004486
    47    -0.001012
    48    -0.000031
    49     0.008188
    50     0.309059
    51    -0.003823
    52     0.002768
    53    -0.077554
    54    -0.018389
    55    -0.001918
    56    -0.074275
    57     0.005830
    58     0.188202
    59     0.013949
    60     0.029041
    61     0.013188
    62    -0.020828
    63     0.009069
    64     0.001309
    65     0.001266
    66    -0.002018
    67     0.030458
    68     0.005682
    69    -0.007763
    70     0.008727
    71    -0.002071
    72    -0.006798
    73     0.000620
    74    -0.002517
    75     0.013772
    76     0.113383
    77     0.008145
    78     1.931743
    79     0.531606
    80    -0.000081
    81     0.000213
    82    -0.004582
    83     0.005925
    84     0.001747
    85     0.338879
    86    -0.015749
    87     0.003317
    88     1.710385
    89     0.017439
    90    -0.033110
    91     0.045714
    92     0.019506
    93     0.019107
    94     0.042360
    95    -0.000141
    96     0.000281
    97    -0.001923
    98     0.278134
    99     0.282157
   100     0.174195
   101    -0.000161
   102    -0.000311
   103     0.011660
   104     0.248502
   105     0.249623
   106     0.925126
   107     0.000942
   108     0.004407
   109    -0.007806
   110     0.000210
   111    -0.001224
   112    -0.012032
   113     0.000784
   114    -0.000603
   115     0.004975
   116     0.000548
   117     0.000389
   118     0.004511
   119    -0.000307
   120     0.000789
   121    -0.000720
   122     0.083396
   123    -0.000206
   124    -0.000903
   125     0.025465
   126     0.008597
   127     0.000918
   128     0.026632
   129     0.001603
   130     0.012544
   131    -0.002533
   132    -0.010085
   133    -0.004127
   134    -0.084009
   135     0.005115
   136     0.000655
   137    -0.000528
   138    -0.000050
   139    -0.008784
   140    -0.001549
   141    -0.049121
   142     0.000824
   143     0.000419
   144    -0.081286
   145    -5.700787
   146     5.866430
   147     2.056922
   148    -4.260145
   149     0.415037
   150     2.859784
   151     0.089723
   152     0.003509
   153     0.000082
   154    -0.122274
   155    -0.017067
   156    -0.000687
   157     0.577578
   158    -0.002516
   159     0.024938
   160     0.145237
   161     0.015478
   162    -0.031349
   163    -0.076462
   164     1.117450
   165     1.127331
   166     0.846273
   167     0.004233
   168     0.011674
   169     0.003027
   170    -3.128035
   171    -3.166074
   172    -2.147134
   173    -0.017209
   174    -0.049825
   175    -0.010000
   176    -0.163286
   177    -0.160962
   178    -0.238149
   179    -0.000900
   180    -0.014690
   181    -0.001943
   182     0.022822
   183     0.026363
   184    -0.132505
   185    -0.018735
   186    -0.036481
   187    -0.024022
   188     0.000268
   189    -0.001409
   190    -0.024715
   191    -0.000689
   192    -0.015398
   193    -0.052921
   194    -0.263248
   195     0.043240
   196     0.064382
   197    -0.245239
   198     0.014504
   199    -0.000370
   200    -0.242841
   201     0.004086
   202     0.712922
   203     0.003101
   204     0.640270
   205    -0.006708
   206     1.400678
   207     0.019735
   208    -0.001130
   209     0.019495
   210     0.008060
   211     0.636251
   212     0.014450
   213     0.811794
   214     0.013340
   215     0.007886
   216     1.377453
Sym=   210a
Ene=    0.000000E+00
Spin= Alpha
Occup= 0.000000
     1    -0.003779
     2    -0.035721
     3     1.232785
     4   -14.942795
     5     0.590876
     6    35.061507
     7    11.405919
     8    -0.000706
     9     0.021919
    10    -0.099570
    11    -0.294251
    12     0.136551
    13     5.663384
    14    -1.448518
    15    -0.303852
    16    32.992600
    17     0.007330
    18     0.030698
    19    -1.597564
    20     0.821222
    21     1.104083
    22     1.250125
    23     0.123036
    24    -0.003985
    25     0.001514
    26   -35.183640
    27   -36.806815
    28   -38.346887
    29    -0.713952
    30     0.143312
    31     0.003719
    32   -11.782554
    33   -11.994507
    34   -16.857622
    35     0.020665
    36     1.393979
    37     0.500496
    38    -0.027807
    39    -0.033946
    40     0.290855
    41     0.062412
    42    -0.065640
    43     0.142543
    44    -0.029019
    45    -0.015586
    46     0.137181
    47     0.018727
    48     0.178728
    49    -0.056804
    50     4.133530
    51    -0.014175
    52     0.031276
    53    -0.232533
    54    -0.631916
    55    -0.106264
    56    -0.083141
    57    -0.049232
    58    14.084914
    59     0.072448
    60     7.369733
    61    -0.018146
    62    12.711405
    63     0.078407
    64     0.128324
    65    -0.036298
    66     0.347022
    67     7.109790
    68     0.005437
    69     7.206902
    70     0.012859
    71     0.292021
    72    11.596376
    73    -0.078952
    74     0.248548
    75    -3.008847
    76    16.648326
    77     3.301116
    78   -29.101078
    79    -8.755918
    80    -0.055973
    81     0.008200
    82     0.112809
    83    -0.416949
    84     0.174718
    85     4.426487
    86     2.045845
    87     0.289772
    88    24.756784
    89    -0.280095
    90     0.029974
    91    -0.826828
    92    -3.864882
    93    -4.964902
    94    -1.728672
    95     0.184406
    96     0.289526
    97    -0.132599
    98    44.829547
    99    51.199059
   100    32.774048
   101    -1.073955
   102    -1.584817
   103     0.784814
   104    11.103522
   105    11.051465
   106    24.072841
   107     0.029635
   108     1.461405
   109     0.291396
   110     0.251250
   111    -0.040120
   112    -0.688022
   113     0.123574
   114    -0.021195
   115     0.056015
   116    -0.032046
   117    -0.014758
   118     0.004228
   119    -0.002412
   120    -0.202702
   121    -0.012420
   122     2.156037
   123    -0.101904
   124    -0.003822
   125    -0.599220
   126     0.771365
   127     0.138376
   128    -0.382883
   129    -0.012796
   130    -8.804898
   131    -0.288098
   132    -8.980353
   133    -0.329811
   134   -21.918532
   135     0.907041
   136     0.192963
   137     0.308476
   138     0.472862
   139    -7.821428
   140    -0.150988
   141   -11.589433
   142     0.679592
   143     0.469266
   144   -17.653745
   145     0.018138
   146    -0.051398
   147     0.515590
   148    -5.769708
   149     3.912577
   150     7.714076
   151    -3.201856
   152    -0.000475
   153    -0.007082
   154     0.057950
   155     0.131088
   156     0.061240
   157     0.296753
   158    -0.466127
   159    -0.164484
   160     9.280796
   161     0.207904
   162    -0.011330
   163     0.582911
   164     0.190918
   165     0.152018
   166     0.010877
   167     0.007857
   168    -0.111698
   169     0.022103
   170   -11.472351
   171   -11.256610
   172   -10.658675
   173    -0.044455
   174     0.566964
   175    -0.120533
   176    -2.797588
   177    -2.735699
   178    -8.260273
   179     0.020912
   180    -0.008291
   181     0.124325
   182     0.000105
   183    -0.020451
   184     0.287556
   185    -0.009779
   186    -0.001362
   187     0.061785
   188    -0.008861
   189    -0.003431
   190     0.074652
   191     0.005866
   192     0.024964
   193    -0.009613
   194     1.958895
   195     0.035558
   196    -0.016913
   197    -0.050012
   198     0.119273
   199    -0.059086
   200    -0.072153
   201    -0.022594
   202     2.761311
   203     0.065972
   204     2.219856
   205     0.046839
   206     3.880688
   207    -0.284206
   208     0.011446
   209    -0.140501
   210     0.014865
   211     2.279636
   212     0.010463
   213     2.318274
   214    -0.256621
   215     0.022666
   216     4.039801
Sym=   211a
Ene=    0.000000E+00
Spin= Alpha
Occup= 0.000000
     1    -0.002513
     2    -0.025196
     3     0.818898
     4   -10.940616
     5     1.860661
     6     8.653116
     7     2.009591
     8     0.029783
     9    -0.044788
    10    -0.068900
    11     0.062686
    12    -0.537708
    13     1.255629
    14    -0.987728
    15     0.074782
    16    10.936811
    17     0.074668
    18    -0.129112
    19     1.070211
    20     1.096850
    21     0.221746
    22     0.273050
    23    -0.069414
    24    -0.129932
    25     0.169893
    26   -28.925843
    27   -23.879504
    28   -27.269854
    29     0.415170
    30     0.813669
    31    -0.895141
    32    -7.226575
    33    -6.782688
    34   -20.340444
    35    -0.223525
    36     0.180751
    37     0.292493
    38    -0.106176
    39     0.148466
    40     0.291181
    41    -0.078372
    42     0.080785
    43     0.072085
    44     0.016601
    45    -0.014409
    46     0.070608
    47    -0.027970
    48     0.108737
    49     0.037509
    50    -0.083358
    51     0.087710
    52    -0.003923
    53     0.125263
    54    -0.912583
    55     0.005702
    56    -0.105384
    57     0.189270
    58     6.925342
    59     0.494816
    60     4.576828
    61     0.436565
    62     7.483520
    63    -0.467045
    64    -0.106833
    65    -0.121789
    66    -0.145466
    67     5.464723
    68     0.197886
    69     5.394898
    70    -0.252715
    71    -0.203170
    72    10.921417
    73     0.044011
    74    -0.132884
    75     1.483840
    76    -5.048343
    77    -2.547066
    78    38.668121
    79     4.817077
    80     0.006355
    81    -0.031863
    82    -0.071270
    83     0.334280
    84    -0.335669
    85     2.794171
    86     0.506658
    87     0.406669
    88    17.363848
    89     0.011809
    90    -0.063795
    91     0.132055
    92     0.525808
    93     3.163333
    94     2.516046
    95    -1.165311
    96     0.490717
    97     0.106599
    98    -5.874983
    99   -21.188923
   100   -16.153804
   101     6.780696
   102    -2.753282
   103    -0.619300
   104    -0.537580
   105    -0.354320
   106     9.318587
   107    -0.069282
   108     0.792682
   109     0.302015
   110     0.045847
   111     0.132405
   112     0.219129
   113     0.002637
   114     0.069400
   115     0.021567
   116    -0.116075
   117     0.016437
   118     0.156132
   119    -0.029763
   120    -0.120458
   121    -0.045484
   122     3.363001
   123    -0.040515
   124    -0.028827
   125    -0.012966
   126     0.423065
   127     0.307019
   128    -0.462326
   129     0.175413
   130     8.967887
   131     0.408162
   132     5.341116
   133     0.221531
   134    10.587943
   135     1.267034
   136    -1.210602
   137     0.573967
   138    -3.008253
   139     2.455513
   140     0.088182
   141     3.135827
   142     1.262591
   143    -2.978141
   144     0.385885
   145    -0.005760
   146     0.032822
   147    -0.611272
   148    15.462966
   149   -13.976287
   150   -29.808686
   151    -6.055384
   152    -0.024728
   153     0.025231
   154    -0.001315
   155     0.260939
   156    -0.118689
   157    -0.957889
   158     0.398112
   159    -0.327416
   160    -7.098148
   161    -0.036251
   162     0.120635
   163     0.343162
   164     0.457009
   165     0.533392
   166     0.979973
   167    -0.044924
   168    -0.136794
   169    -0.076093
   170    30.012856
   171    29.596892
   172    27.417898
   173     0.246437
   174     0.720316
   175     0.404203
   176     6.642493
   177     6.466835
   178    10.896284
   179     0.018616
   180    -0.444786
   181     0.074797
   182    -0.049594
   183     0.051406
   184     0.039456
   185    -0.017382
   186     0.022268
   187     0.001382
   188    -0.026711
   189     0.009270
   190    -0.041857
   191     0.007873
   192    -0.140440
   193     0.143155
   194    -1.660249
   195    -0.071493
   196     0.066026
   197     0.138487
   198     0.278860
   199     0.034631
   200     0.232882
   201     0.012870
   202    -7.701849
   203    -0.146676
   204    -5.247023
   205    -0.205167
   206    -9.866114
   207    -0.463149
   208    -0.073726
   209    -0.138413
   210    -0.106047
   211    -5.365623
   212    -0.087242
   213    -5.861041
   214    -0.321488
   215    -0.120012
   216   -10.175524
Sym=   212a
Ene=    0.000000E+00
Spin= Alpha
Occup= 0.000000
     1    -0.022353
     2     0.104108
     3    -1.789517
     4    15.377656
     5    -2.846004
     6   -32.255491
     7    -5.143415
     8     0.026206
     9    -0.004030
    10    -0.011841
    11    -0.205961
    12    -0.030418
    13     5.744826
    14    -2.006090
    15     0.301092
    16    14.000743
    17    -0.051270
    18     0.070015
    19     2.279856
    20    -2.281242
    21    -2.434898
    22    -0.519457
    23     0.072262
    24     0.123201
    25    -0.057110
    26    40.239926
    27    41.126593
    28    31.603894
    29    -0.415923
    30    -0.530831
    31     0.314172
    32     5.785641
    33     5.789046
    34    19.087823
    35    -0.044794
    36     2.012104
    37    -0.470991
    38    -0.100329
    39     0.035617
    40     0.214543
    41    -0.025426
    42     0.012608
    43    -0.063561
    44    -0.042555
    45     0.006082
    46    -0.063989
    47    -0.004228
    48     0.159439
    49    -0.034835
    50     7.155571
    51     0.058370
    52    -0.024088
    53     0.172676
    54    -1.146044
    55     0.159388
    56     0.183625
    57     0.027487
    58    -5.824892
    59    -0.249060
    60    -7.399619
    61    -0.094812
    62   -16.248083
    63     0.528379
    64     0.077645
    65     0.146287
    66     0.212344
    67    -7.232301
    68    -0.066810
    69    -9.252470
    70     0.275641
    71     0.154953
    72   -15.652532
    73     0.009128
    74    -0.026207
    75     0.299839
    76    -0.290267
    77    -0.801149
    78    -0.161665
    79     7.181758
    80    -0.042997
    81     0.011501
    82     0.089650
    83    -0.096271
    84     0.035946
    85     1.185477
    86     2.473177
    87    -0.409031
    88     1.474071
    89    -0.170140
    90    -0.017513
    91     1.164594
    92     0.175233
    93     0.303308
    94     1.135002
    95    -0.309601
    96     0.540433
    97    -0.187661
    98     0.473040
    99    -0.282188
   100    -6.244556
   101     1.802074
   102    -2.952746
   103     1.045109
   104    -1.248418
   105    -1.236969
   106     0.033033
   107    -0.025676
   108     2.102180
   109    -0.360292
   110     0.240473
   111    -0.034746
   112    -0.529695
   113     0.091434
   114    -0.008851
   115    -0.004606
   116    -0.043710
   117    -0.038458
   118     0.008065
   119    -0.011620
   120    -0.285257
   121     0.001501
   122    -1.037853
   123    -0.103040
   124    -0.008398
   125     0.089825
   126     1.135231
   127    -0.156127
   128     0.072103
   129     0.040939
   130     3.131443
   131    -0.526628
   132     1.174976
   133    -0.466083
   134     0.027340
   135     1.663129
   136    -0.341872
   137     0.589245
   138    -0.793328
   139     1.013329
   140    -0.213029
   141    -0.166330
   142     1.306198
   143    -0.780497
   144    -0.465745
   145    -0.056958
   146     0.175482
   147    -1.998665
   148    17.940845
   149   -12.227452
   150   -56.589030
   151   -15.561336
   152    -0.004360
   153     0.018409
   154    -0.042603
   155     0.226865
   156    -0.156242
   157     3.765550
   158    -0.535848
   159     0.118592
   160    16.225966
   161     0.224207
   162    -0.038766
   163     1.198564
   164    -0.763777
   165    -0.763592
   166    -2.116361
   167    -0.016595
   168    -0.133367
   169    -0.003000
   170    33.617050
   171    33.611979
   172    39.874374
   173     0.092553
   174     0.668166
   175     0.028074
   176     4.850847
   177     4.832865
   178    -5.750595
   179     0.017641
   180    -0.048970
   181    -0.076924
   182    -0.005676
   183     0.039354
   184     0.084916
   185    -0.005497
   186     0.015573
   187    -0.007058
   188    -0.032268
   189     0.023097
   190    -0.011071
   191     0.005945
   192     0.022595
   193     0.058853
   194     4.093861
   195     0.012021
   196     0.029988
   197    -0.288509
   198     0.158046
   199     0.065319
   200    -0.270955
   201    -0.007478
   202   -17.768266
   203    -0.041706
   204    -8.277097
   205     0.012309
   206   -11.399396
   207    -0.307476
   208    -0.024693
   209    -0.157362
   210    -0.047307
   211    -8.276313
   212    -0.002559
   213    -6.676840
   214    -0.358692
   215    -0.039629
   216   -11.405212
Sym=   213a
Ene=    0.000000E+00
Spin= Alpha
Occup= 0.000000
     1    -0.008584
     2     0.054632
     3    -1.092449
     4    12.849563
     5    -3.164786
     6   -66.896791
     7   -10.705559
     8     0.030025
     9    -0.003872
    10     0.053223
    11     0.122026
    12    -0.139229
    13    -2.394460
    14    -0.579588
    15    -0.628727
    16     0.371348
    17     0.012498
    18    -0.130337
    19    -0.085972
    20    -0.666033
    21    -1.282019
    22    -0.469839
    23    -0.025858
    24     0.034008
    25    -0.000822
    26    29.705574
    27    33.255661
    28    28.228798
    29     0.149365
    30    -0.145094
    31     0.050640
    32     5.347923
    33     5.760333
    34   -10.422614
    35    -0.052892
    36     0.383624
    37     0.089405
    38    -0.139713
    39     0.009167
    40     0.045128
    41    -0.021361
    42    -0.018379
    43    -0.047424
    44    -0.001071
    45    -0.000478
    46    -0.041084
    47    -0.017552
    48     0.073206
    49     0.115179
    50    -5.489694
    51    -0.020660
    52     0.078872
    53     0.046816
    54    -0.607277
    55    -0.534396
    56    -0.190494
    57     0.075238
    58   -10.213535
    59    -0.007501
    60    -6.238905
    61     0.001001
    62   -12.167572
    63     0.103638
    64    -0.036974
    65     0.015867
    66    -0.027247
    67    -5.626961
    68     0.015509
    69    -6.452043
    70     0.110295
    71    -0.102476
    72    -9.744647
    73    -0.066244
    74     0.200694
    75    -2.277701
    76     5.482804
    77     2.396987
    78    -2.693611
    79     2.932439
    80     0.009641
    81    -0.036410
    82     0.054964
    83     0.318371
    84    -0.247030
    85    -0.354609
    86     0.317773
    87     0.597980
    88     8.767671
    89     0.067124
    90    -0.029647
    91     0.257189
    92    -4.840494
    93    -2.402246
    94    -3.069540
    95    -0.241689
    96     0.323221
    97     0.514954
    98    25.782254
    99    11.627504
   100    15.201471
   101     1.405311
   102    -1.794594
   103    -2.915048
   104     1.690034
   105     1.860205
   106     6.063059
   107    -0.002288
   108     0.579322
   109     0.559794
   110    -0.053865
   111     0.174817
   112     0.004497
   113     0.046458
   114     0.037121
   115    -0.140981
   116    -0.041062
   117     0.028200
   118    -0.040706
   119    -0.008375
   120    -0.000527
   121    -0.072246
   122     1.719544
   123    -0.078472
   124     0.014758
   125     0.416432
   126     0.319844
   127     0.302924
   128     0.030557
   129     0.055316
   130    -6.840240
   131     1.364388
   132    -3.773405
   133     1.284605
   134    -4.391753
   135     0.883395
   136    -0.240898
   137     0.361820
   138    -0.657949
   139    -6.401914
   140     0.580469
   141    -5.368702
   142     0.839297
   143    -0.585264
   144   -13.854037
   145     0.051215
   146    -0.158556
   147     1.817836
   148   -21.621464
   149    16.474142
   150    63.664779
   151    13.098725
   152    -0.015084
   153     0.018464
   154     0.020958
   155     0.164540
   156    -0.012405
   157    -2.503078
   158     0.149939
   159    -0.017178
   160   -11.327326
   161    -0.050698
   162     0.217362
   163    -0.663462
   164     0.319439
   165     0.389364
   166     0.749670
   167    -0.015404
   168    -0.039277
   169    -0.115778
   170   -41.095067
   171   -41.483464
   172   -43.073064
   173     0.084448
   174     0.210474
   175     0.612073
   176    -6.333518
   177    -6.474649
   178    -0.015936
   179    -0.003355
   180    -0.163928
   181    -0.323413
   182    -0.025462
   183     0.033577
   184    -0.052825
   185    -0.014874
   186     0.022470
   187     0.062718
   188    -0.021870
   189    -0.006081
   190     0.028296
   191     0.002461
   192    -0.090939
   193     0.096000
   194    -2.002948
   195    -0.028061
   196     0.031616
   197    -0.255710
   198     0.101557
   199     0.248298
   200    -0.189606
   201     0.010804
   202    16.078455
   203    -0.313027
   204     8.768113
   205    -0.275151
   206    14.256818
   207    -0.139143
   208    -0.028779
   209    -0.067066
   210    -0.030749
   211     8.656398
   212    -0.131661
   213     8.269939
   214    -0.105156
   215    -0.043617
   216    13.967744
Sym=   214a
Ene=    0.000000E+00
Spin= Alpha
Occup= 0.000000
     1    -0.001002
     2     0.018357
     3    -0.460117
     4     4.273593
     5    -0.710374
     6   -50.594121
     7    -3.647139
     8    -0.040519
     9    -0.013553
    10     0.010955
    11    -0.153074
    12    -0.156013
    13    -8.847075
    14     1.617709
    15     0.030859
    16   -24.220866
    17    -0.150087
    18     0.078542
    19     1.141596
    20    -0.206079
    21    -0.447503
    22    -0.998429
    23     0.187721
    24    -0.014849
    25     0.070230
    26     9.165243
    27    10.582485
    28    11.411161
    29    -1.079787
    30    -0.005829
    31    -0.392523
    32     1.782287
    33     1.643367
    34   -26.546392
    35    -0.175921
    36    -1.519444
    37     0.485394
    38     0.117074
    39     0.087538
    40    -0.136672
    41     0.101354
    42     0.004197
    43     0.058514
    44     0.043958
    45    -0.007001
    46     0.000173
    47    -0.001385
    48    -0.088339
    49    -0.069837
    50   -11.493973
    51    -0.096564
    52     0.012887
    53     0.236994
    54     0.845211
    55     0.268738
    56     0.403628
    57     0.101060
    58    -7.460362
    59     0.241587
    60    -2.724010
    61     0.163030
    62    -3.592759
    63    -0.230983
    64     0.164753
    65     0.002580
    66     0.485059
    67    -2.489719
    68     0.079284
    69    -1.855449
    70     0.008690
    71     0.500781
    72    -2.611548
    73    -0.082875
    74     0.241540
    75    -2.583662
    76     4.674566
    77     1.817866
    78    -3.188144
    79     1.900288
    80     0.005628
    81    -0.013538
    82     0.026147
    83    -0.208616
    84    -0.213770
    85    -1.978549
    86    -1.699516
    87     0.448188
    88     0.799972
    89     0.151145
    90    -0.161820
    91     0.110617
    92    -3.391976
    93    -4.624075
    94    -3.974434
    95    -0.826084
    96    -0.411548
    97    -0.317461
    98    12.880219
    99    20.042783
   100    15.822206
   101     4.795980
   102     2.237718
   103     1.815498
   104     0.342767
   105     0.164509
   106     0.256499
   107    -0.034034
   108    -1.466199
   109     0.096313
   110    -0.064383
   111     0.047459
   112     0.181478
   113    -0.012417
   114     0.013443
   115    -0.186905
   116     0.017328
   117     0.003575
   118    -0.203669
   119    -0.038804
   120     0.185564
   121    -0.033962
   122     1.598649
   123     0.070171
   124    -0.009389
   125     0.621811
   126    -0.687406
   127     0.078930
   128     0.719015
   129     0.159172
   130    -8.523912
   131    -0.760336
   132    -5.982049
   133    -0.830593
   134   -11.036372
   135    -1.220613
   136    -0.873741
   137    -0.467692
   138    -2.072264
   139    -4.625934
   140    -0.365077
   141    -5.077627
   142    -1.017504
   143    -2.138240
   144    -6.270624
   145    -0.024059
   146     0.097651
   147    -1.481984
   148    30.158880
   149   -27.257303
   150   -40.238144
   151     1.016172
   152     0.016918
   153     0.006992
   154    -0.049666
   155    -0.233954
   156    -0.058961
   157    -4.139676
   158     0.287668
   159    -0.373468
   160   -31.476207
   161    -0.031572
   162    -0.004838
   163    -0.110291
   164     0.523733
   165     0.489436
   166     1.622834
   167    -0.024518
   168     0.082928
   169     0.016231
   170    58.493851
   171    58.689835
   172    53.353215
   173     0.133307
   174    -0.411350
   175    -0.091143
   176    13.424166
   177    13.400390
   178    30.503644
   179     0.048544
   180    -0.007623
   181     0.292818
   182     0.034377
   183     0.007225
   184    -0.209127
   185     0.014187
   186     0.007198
   187    -0.073774
   188     0.034588
   189     0.014311
   190    -0.079036
   191     0.007468
   192     0.052993
   193     0.070591
   194    -5.393763
   195     0.030317
   196     0.022879
   197    -0.000859
   198    -0.057778
   199    -0.127502
   200     0.046456
   201    -0.020897
   202   -14.550989
   203     0.087025
   204   -10.562096
   205     0.022566
   206   -20.271918
   207     0.194703
   208    -0.031200
   209     0.094879
   210    -0.068062
   211   -10.503390
   212     0.022386
   213   -11.825092
   214     0.221249
   215    -0.064563
   216   -20.136770
Sym=   215a
Ene=    0.000000E+00
Spin= Alpha
Occup= 0.000000
     1     0.012549
     2    -0.039801
     3     0.492062
     4    -3.878362
     5     0.468332
     6    57.444144
     7    10.289787
     8    -0.020162
     9    -0.056629
    10     0.035238
    11    -0.238290
    12    -0.464718
    13     2.060279
    14     0.489948
    15     1.359452
    16    -2.028850
    17    -0.199618
    18     0.079036
    19    -1.921868
    20     0.793853
    21     0.199129
    22     0.428852
    23     0.252091
    24     0.065053
    25     0.092970
    26   -11.586046
    27    -8.130014
    28    -6.006078
    29    -1.447899
    30    -0.353752
    31    -0.560347
    32    -0.787453
    33    -0.797072
    34    25.287367
    35    -0.372351
    36    -0.529809
    37    -0.573845
    38     0.067331
    39     0.244855
    40    -0.306614
    41     0.017660
    42     0.117283
    43    -0.001629
    44     0.029156
    45     0.006547
    46    -0.067184
    47    -0.026826
    48    -0.012048
    49    -0.186029
    50     4.322467
    51    -0.006247
    52    -0.083804
    53    -0.146522
    54     0.023044
    55     1.062284
    56    -0.020568
    57     0.255616
    58     4.334876
    59     0.161890
    60     1.590132
    61     0.286392
    62     2.198161
    63     0.060216
    64     0.215973
    65     0.107925
    66     0.642054
    67     2.173400
    68     0.117872
    69     2.003565
    70     0.200221
    71     0.680000
    72     4.577394
    73     0.003029
    74     0.007580
    75    -0.356452
    76     6.196419
    77     0.637376
    78   -49.724356
    79   -11.492315
    80    -0.003649
    81     0.003053
    82     0.027507
    83    -0.033420
    84    -0.311189
    85    -2.153056
    86    -0.582870
    87    -0.805897
    88   -17.958915
    89     0.162068
    90    -0.117007
    91    -1.003816
    92     0.431876
    93    -0.146411
    94    -0.607152
    95    -1.999683
    96    -0.005957
    97    -0.888515
    98    11.606009
    99    14.974489
   100    16.918338
   101    11.620688
   102     0.004001
   103     4.990709
   104     2.837266
   105     2.695586
   106    -7.211495
   107    -0.122545
   108    -0.285771
   109    -1.025588
   110     0.060160
   111    -0.038178
   112    -0.239161
   113    -0.031802
   114     0.017672
   115    -0.001966
   116    -0.032294
   117    -0.029690
   118     0.034468
   119    -0.073360
   120    -0.003765
   121     0.058160
   122    -4.025661
   123     0.069973
   124    -0.014024
   125    -0.196499
   126    -0.023687
   127    -0.361443
   128    -0.244616
   129     0.323904
   130    -7.503974
   131    -2.287584
   132    -3.076014
   133    -2.284222
   134    -4.838007
   135    -0.025636
   136    -2.126502
   137    -0.010738
   138    -5.053534
   139    -2.452171
   140    -1.024152
   141    -2.252032
   142    -0.017142
   143    -5.148717
   144    -2.580710
   145     0.003599
   146    -0.031200
   147     0.677565
   148   -16.970313
   149    16.000883
   150    20.253794
   151     0.058183
   152     0.021167
   153     0.016252
   154     0.024623
   155    -0.129193
   156    -0.231191
   157     2.279360
   158     0.087752
   159    -0.211796
   160    19.859875
   161     0.076948
   162    -0.102573
   163    -0.001860
   164    -0.460500
   165    -0.483091
   166    -1.082633
   167    -0.062927
   168    -0.045390
   169     0.062573
   170   -32.949023
   171   -32.816895
   172   -29.897235
   173     0.343841
   174     0.244736
   175    -0.319702
   176    -7.834655
   177    -7.921786
   178   -18.810367
   179     0.079645
   180    -0.150375
   181     0.386206
   182     0.045969
   183     0.029272
   184     0.036680
   185     0.019505
   186     0.011250
   187     0.041703
   188     0.017126
   189     0.034933
   190     0.025955
   191     0.016614
   192     0.089027
   193     0.091823
   194     3.448858
   195     0.039948
   196     0.044192
   197    -0.091422
   198     0.113734
   199    -0.224971
   200    -0.000619
   201    -0.021027
   202     8.072750
   203     0.211035
   204     5.882088
   205     0.161887
   206    11.194202
   207    -0.124778
   208    -0.091955
   209    -0.046631
   210    -0.166980
   211     5.937134
   212     0.071012
   213     6.583828
   214    -0.111997
   215    -0.162490
   216    11.271999
Sym=   216a
Ene=    0.000000E+00
Spin= Alpha
Occup= 0.000000
     1     0.015828
     2    -0.055955
     3     0.796603
     4    -9.480443
     5     2.078315
     6    56.188454
     7    18.449386
     8     0.026930
     9     0.009230
    10     0.017777
    11     0.345501
    12     0.081221
    13    -0.275220
    14     0.137423
    15    -0.341494
    16   -13.281641
    17     0.118343
    18     0.006589
    19    -2.244704
    20     0.921858
    21     0.705411
    22    -0.382301
    23    -0.258137
    24    -0.001524
    25    -0.052585
    26   -24.821238
    27   -23.598590
    28   -15.107272
    29     1.484165
    30    -0.039862
    31     0.308467
    32    -4.764960
    33    -4.373974
    34     2.959967
    35     0.166249
    36    -0.297294
    37    -0.411494
    38    -0.086263
    39    -0.082213
    40    -0.647307
    41    -0.077229
    42    -0.007553
    43     0.023364
    44     0.002377
    45     0.028234
    46     0.052953
    47    -0.015746
    48    -0.042097
    49     0.127878
    50     4.190428
    51     0.021138
    52     0.025518
    53    -0.057138
    54    -0.037408
    55    -0.446325
    56    -0.344761
    57    -0.065666
    58     4.779308
    59    -0.246507
    60     3.531117
    61    -0.089796
    62     8.203287
    63     0.021251
    64    -0.224521
    65     0.022013
    66    -0.682046
    67     3.698663
    68    -0.070500
    69     4.994396
    70    -0.044324
    71    -0.673868
    72     9.053373
    73    -0.013211
    74     0.078066
    75    -1.503576
    76    14.261223
    77     0.513385
    78   -65.970342
    79   -19.062511
    80     0.035376
    81    -0.017467
    82     0.032217
    83     0.416697
    84    -0.045062
    85     0.710463
    86    -0.649029
    87    -0.096665
    88   -17.015238
    89     0.120493
    90     0.027723
    91    -2.084945
    92    -2.269068
    93    -0.055315
    94    -2.015945
    95     0.673264
    96     0.029416
    97     0.442646
    98    40.051380
    99    27.206763
   100    38.825753
   101    -3.907865
   102    -0.156074
   103    -2.526147
   104     7.135752
   105     7.290327
   106    -3.517583
   107     0.000303
   108    -0.304540
   109     0.117545
   110    -0.119876
   111     0.048176
   112    -0.060443
   113    -0.116301
   114     0.061138
   115    -0.132042
   116     0.012315
   117    -0.005571
   118    -0.063303
   119     0.036191
   120     0.033411
   121     0.058819
   122    -3.871831
   123     0.089453
   124    -0.020173
   125     0.547871
   126    -0.202110
   127     0.061370
   128     0.207377
   129    -0.148293
   130   -15.711991
   131     1.075252
   132    -5.955741
   133     1.142696
   134    -7.105630
   135     0.029798
   136     0.695668
   137     0.037196
   138     1.684068
   139    -8.289004
   140     0.519751
   141    -6.664890
   142     0.117340
   143     1.767909
   144   -15.723437
   145    -0.051102
   146     0.147644
   147    -1.517380
   148    13.857562
   149    -8.994922
   150   -38.304286
   151    -5.993300
   152    -0.023537
   153     0.004502
   154    -0.021761
   155     0.116225
   156     0.016831
   157     2.516052
   158     0.356436
   159     0.366632
   160     2.483221
   161    -0.186146
   162     0.021962
   163     0.871579
   164    -0.629889
   165    -0.559884
   166    -1.130948
   167     0.010682
   168     0.040067
   169    -0.077170
   170    26.559311
   171    26.172016
   172    28.907102
   173    -0.056046
   174    -0.216109
   175     0.416509
   176     5.272872
   177     5.193629
   178     1.833033
   179    -0.064399
   180    -0.052906
   181    -0.395862
   182    -0.042479
   183     0.018239
   184    -0.036338
   185    -0.016697
   186     0.000515
   187    -0.022773
   188    -0.027711
   189    -0.006948
   190    -0.042843
   191    -0.013061
   192    -0.135404
   193    -0.023356
   194     1.631532
   195    -0.070702
   196     0.002521
   197     0.145337
   198    -0.062372
   199     0.232178
   200     0.163285
   201     0.040706
   202   -11.504422
   203    -0.258423
   204    -5.897470
   205    -0.182333
   206    -8.903325
   207     0.104248
   208     0.010779
   209     0.056099
   210     0.039039
   211    -6.001970
   212    -0.076650
   213    -5.300908
   214     0.086550
   215     0.027916
   216    -9.187486
