[Molden Format]
p30-5 set                                                                       
[Atoms] AU
 H        1     1        0.0000        0.0000       -0.7022
 H        2     1        0.0000        0.0000        0.7022
[GTO]
    1 0
s    3 1.00
      13.010701000000  0.334854848130E-01
       1.962257200000  0.234721870881E+00
       0.444537960000  0.813770285260E+00
s    1 1.00
       0.121949620000  0.100000000000E+01
p    1 1.00
       0.800000000000  0.100000000000E+01
 
    2 0
s    3 1.00
      13.010701000000  0.334854848130E-01
       1.962257200000  0.234721870881E+00
       0.444537960000  0.813770285260E+00
s    1 1.00
       0.121949620000  0.100000000000E+01
p    1 1.00
       0.800000000000  0.100000000000E+01
 
[MO]
Sym=     1a
Ene=   -0.614141E+00
Spin= Alpha
Occup= 1.966954
     1     0.410361
     2     0.168650
     3     0.000006
     4     0.000008
     5     0.018848
     6     0.410378
     7     0.168601
     8     0.000006
     9    -0.000013
    10    -0.018836
Sym=     2a
Ene=   -0.140626E-01
Spin= Alpha
Occup= 0.020643
     1     0.967498
     2     0.248453
     3    -0.000017
     4    -0.000007
     5    -0.028501
     6    -0.967476
     7    -0.248465
     8     0.000007
     9    -0.000006
    10    -0.028493
Sym=     3a
Ene=   -0.494562E-02
Spin= Alpha
Occup= 0.006139
     1    -0.521404
     2     0.616181
     3     0.000003
     4    -0.000003
     5    -0.243459
     6    -0.521414
     7     0.616248
     8     0.000001
     9     0.000013
    10     0.243439
Sym=     4a
Ene=   -0.191638E-03
Spin= Alpha
Occup= 0.000151
     1    -1.829689
     2     2.088362
     3     0.004469
     4     0.003780
     5    -0.963621
     6     1.829678
     7    -2.088356
     8    -0.004480
     9    -0.003793
    10    -0.963610
Sym=     5a
Ene=   -0.293270E-02
Spin= Alpha
Occup= 0.002799
     1     0.000011
     2     0.000037
     3     0.527361
     4     0.256322
     5     0.000003
     6    -0.000001
     7    -0.000054
     8     0.527346
     9     0.256323
    10     0.000009
Sym=     6a
Ene=   -0.293269E-02
Spin= Alpha
Occup= 0.002799
     1     0.000022
     2     0.000017
     3    -0.256329
     4     0.527354
     5     0.000001
     6     0.000006
     7    -0.000032
     8    -0.256316
     9     0.527353
    10     0.000013
Sym=     7a
Ene=   -0.266463E-03
Spin= Alpha
Occup= 0.000198
     1    -0.622740
     2     0.440664
     3     0.000181
     4     0.000062
     5     0.656489
     6    -0.622769
     7     0.440623
     8    -0.000180
     9    -0.000045
    10    -0.656468
Sym=     8a
Ene=   -0.221431E-03
Spin= Alpha
Occup= 0.000152
     1     0.011300
     2    -0.012804
     3     0.679176
     4     0.674517
     5     0.005788
     6    -0.011096
     7     0.012655
     8    -0.679184
     9    -0.674515
    10     0.006018
Sym=     9a
Ene=   -0.221432E-03
Spin= Alpha
Occup= 0.000152
     1    -0.000968
     2     0.001054
     3    -0.674523
     4     0.679194
     5    -0.000415
     6     0.000839
     7    -0.000967
     8     0.674531
     9    -0.679196
    10    -0.000534
Sym=    10a
Ene=   -0.260438E-04
Spin= Alpha
Occup= 0.000015
     1     1.656632
     2     1.368740
     3    -0.000014
     4    -0.000013
     5     1.745568
     6    -1.656639
     7    -1.368737
     8     0.000007
     9    -0.000001
    10     1.745584
