[Molden Format]
p30-5 set                                                                       
[Atoms] AU
 O        1     8        0.0000        0.0000       -0.7381
 H        2     1       -1.4401        0.0000        0.3691
 H        3     1        1.4401        0.0000        0.3691
[GTO]
    1 0
s    5 1.00
    2266.176778500000 -0.538935039217E-02
     340.870101910000 -0.402347213890E-01
      77.363135167000 -0.180081842055E+00
      21.479644940000 -0.468288576577E+00
       6.658943312400 -0.446926171602E+00
s    1 1.00
       0.809759756680  0.100000000000E+01
s    1 1.00
       0.255307722340  0.100000000000E+01
p    3 1.00
      17.721504317000  0.626302487632E-01
       3.863550544000  0.333311384824E+00
       1.048092088300  0.741486383081E+00
p    1 1.00
       0.276415444110  0.100000000000E+01
d    1 1.00
       1.200000000000  0.100000000000E+01
 
    2 0
s    3 1.00
      13.010701000000  0.334854848130E-01
       1.962257200000  0.234721870881E+00
       0.444537960000  0.813770285260E+00
s    1 1.00
       0.121949620000  0.100000000000E+01
p    1 1.00
       0.800000000000  0.100000000000E+01
 
    3 0
s    3 1.00
      13.010701000000  0.334854848130E-01
       1.962257200000  0.234721870881E+00
       0.444537960000  0.813770285260E+00
s    1 1.00
       0.121949620000  0.100000000000E+01
p    1 1.00
       0.800000000000  0.100000000000E+01
 
[MO]
Sym=     1a
Ene=   -0.205565E+02
Spin= Alpha
Occup= 1.999958
     1     0.993316
     2    -0.028601
     3     0.014075
     4     0.000002
     5    -0.000184
     6    -0.005260
     7    -0.000005
     8    -0.000139
     9    -0.002515
    10     0.003229
    11     0.004182
    12     0.003434
    13    -0.000000
    14    -0.000002
    15    -0.000006
    16     0.002425
    17    -0.001521
    18     0.001551
    19    -0.000007
    20    -0.001308
    21     0.002436
    22    -0.001521
    23    -0.001554
    24    -0.000007
    25    -0.001311
Sym=     2a
Ene=   -0.719456E+00
Spin= Alpha
Occup= 1.992113
     1    -0.171246
     2    -0.362553
     3    -0.316886
     4    -0.000115
     5    -0.434123
     6     0.263317
     7     0.000011
     8    -0.341304
     9     0.202275
    10    -0.009494
    11    -0.010183
    12     0.004207
    13     0.000003
    14     0.000002
    15    -0.011907
    16     0.023267
    17     0.024937
    18     0.002066
    19    -0.018896
    20     0.010695
    21     0.023109
    22     0.024786
    23    -0.002063
    24    -0.018893
    25     0.010710
Sym=     3a
Ene=   -0.698876E+00
Spin= Alpha
Occup= 1.991547
     1     0.161310
     2     0.342820
     3     0.297047
     4     0.000021
     5    -0.460989
     6    -0.247420
     7     0.000020
     8    -0.362334
     9    -0.189756
    10     0.009005
    11     0.009399
    12    -0.003626
    13     0.000001
    14    -0.000002
    15    -0.012656
    16    -0.021478
    17    -0.022573
    18    -0.001883
    19    -0.019992
    20    -0.010053
    21    -0.021445
    22    -0.022566
    23     0.001878
    24    -0.019991
    25    -0.010060
Sym=     4a
Ene=   -0.873177E+00
Spin= Alpha
Occup= 1.979728
     1     0.098955
     2     0.201013
     3    -0.011416
     4    -0.348746
     5     0.000826
     6     0.298618
     7    -0.151910
     8     0.000606
     9     0.158011
    10     0.005703
    11    -0.002693
    12     0.015203
    13     0.000020
    14    -0.019304
    15    -0.000007
    16     0.436843
    17     0.093754
    18     0.042525
    19     0.000017
    20    -0.023813
    21    -0.034278
    22    -0.030563
    23    -0.013869
    24    -0.000009
    25     0.015598
Sym=     5a
Ene=   -0.873001E+00
Spin= Alpha
Occup= 1.979726
     1     0.098871
     2     0.200834
     3    -0.011494
     4     0.348788
     5     0.000731
     6     0.298663
     7     0.151998
     8     0.000534
     9     0.158078
    10     0.005700
    11    -0.002700
    12     0.015196
    13    -0.000013
    14     0.019308
    15    -0.000002
    16    -0.034329
    17    -0.030531
    18     0.013858
    19    -0.000013
    20     0.015600
    21     0.436838
    22     0.093702
    23    -0.042523
    24     0.000014
    25    -0.023818
Sym=     6a
Ene=   -0.170415E-01
Spin= Alpha
Occup= 0.016926
     1     0.146193
     2     0.539571
     3     0.048755
     4     0.625662
     5     0.002169
     6     0.498949
     7     0.058410
     8    -0.000972
     9     0.003342
    10     0.026145
    11    -0.065925
    12     0.016535
    13    -0.000210
    14     0.106453
    15    -0.000976
    16     0.015498
    17     0.033139
    18    -0.010997
    19    -0.000809
    20    -0.009130
    21    -0.935972
    22    -0.105709
    23     0.045567
    24    -0.002900
    25     0.003938
Sym=     7a
Ene=   -0.170447E-01
Spin= Alpha
Occup= 0.016932
     1    -0.146243
     2    -0.539793
     3    -0.048580
     4     0.625866
     5    -0.002202
     6    -0.498953
     7     0.057601
     8     0.000879
     9    -0.003176
    10    -0.026063
    11     0.065917
    12    -0.016600
    13    -0.000310
    14     0.106612
    15     0.001139
    16     0.935383
    17     0.105683
    18     0.045365
    19     0.003223
    20    -0.004204
    21    -0.015304
    22    -0.032691
    23    -0.010861
    24     0.000821
    25     0.009101
Sym=     8a
Ene=   -0.828415E-03
Spin= Alpha
Occup= 0.000411
     1     0.057233
     2     0.296452
     3     0.019298
     4    -0.009752
     5     0.000298
     6    -0.008945
     7     0.024701
     8     0.052476
     9     0.426831
    10     0.409959
    11    -1.010918
    12     0.636202
    13    -0.005270
    14    -0.002259
    15     0.000703
    16    -0.610261
    17     0.353686
    18    -0.222517
    19    -0.069175
    20     0.033661
    21    -0.618005
    22     0.320964
    23     0.214963
    24    -0.064735
    25     0.035667
Sym=     9a
Ene=   -0.850283E-02
Spin= Alpha
Occup= 0.007300
     1    -0.219614
     2    -1.065152
     3     0.996714
     4    -0.000282
     5    -0.658506
     6     0.449302
     7     0.000246
     8     0.699000
     9    -0.398905
    10     0.192864
    11    -0.042784
    12     0.122696
    13     0.000003
    14    -0.000001
    15     0.137689
    16    -0.089603
    17    -0.058970
    18    -0.025556
    19    -0.000135
    20     0.006635
    21    -0.089598
    22    -0.059133
    23     0.025459
    24     0.000015
    25     0.006419
Sym=    10a
Ene=   -0.742027E-06
Spin= Alpha
Occup= 0.000000
     1    -0.011519
     2    -0.250651
     3     2.617890
     4    -0.222557
     5    -0.002663
     6     0.305340
     7    -0.205677
     8    -0.006246
     9     1.120868
    10     0.366722
    11    -0.340545
    12     0.318185
    13    -0.002275
    14    -0.182173
    15    -0.003458
    16    -0.801176
    17    -1.249431
    18    -1.150133
    19     0.008015
    20     0.668784
    21    -0.606622
    22    -0.628129
    23     0.593645
    24     0.014899
    25     0.253802
Sym=    11a
Ene=   -0.246408E-02
Spin= Alpha
Occup= 0.001825
     1     0.022434
     2    -0.031827
     3     0.951921
     4     0.075676
     5    -0.000160
     6     0.084656
     7     0.500848
     8     0.010038
     9     0.689019
    10    -0.099860
    11     0.041029
    12    -0.028939
    13    -0.002802
    14    -0.203615
    15    -0.001019
    16    -0.319373
    17    -0.180844
    18    -0.110701
    19    -0.009081
    20    -0.027709
    21    -1.408426
    22     0.680983
    23     0.515888
    24    -0.015492
    25     0.327248
Sym=    12a
Ene=   -0.120398E-02
Spin= Alpha
Occup= 0.000793
     1     0.014497
     2     0.172673
     3    -0.340104
     4     0.141702
     5    -0.016842
     6     0.104039
     7     0.108971
     8     0.190667
     9     0.096184
    10     0.230008
    11     0.064485
    12    -0.173212
    13     0.064399
    14     0.074252
    15    -0.052229
    16     0.112618
    17    -0.079677
    18    -0.519906
    19    -0.408479
    20    -0.664104
    21    -0.196880
    22     0.350008
    23     0.014216
    24    -0.028595
    25     0.183372
Sym=    13a
Ene=   -0.859460E-02
Spin= Alpha
Occup= 0.007542
     1    -0.211983
     2    -1.033276
     3     0.980228
     4     0.000135
     5     0.689075
     6     0.423487
     7    -0.000690
     8    -0.730884
     9    -0.372913
    10     0.180062
    11    -0.040784
    12     0.115935
    13    -0.000015
    14    -0.000064
    15    -0.128889
    16    -0.084660
    17    -0.066192
    18    -0.023637
    19    -0.002020
    20     0.005062
    21    -0.084339
    22    -0.065171
    23     0.023665
    24    -0.001960
    25     0.004829
Sym=    14a
Ene=   -0.557475E-03
Spin= Alpha
Occup= 0.000275
     1    -0.047889
     2     0.109728
     3    -1.054553
     4     0.041056
     5    -0.104223
     6     0.193948
     7     0.049525
     8    -0.042998
     9    -0.426411
    10    -0.395633
    11     0.323231
    12     0.643171
    13    -0.247813
    14     0.266502
    15    -0.684292
    16     0.521292
    17    -0.001194
    18    -0.072504
    19     0.132201
    20    -0.142847
    21     0.131250
    22     0.390873
    23     0.235553
    24     0.320867
    25    -0.117743
Sym=    15a
Ene=   -0.416612E-05
Spin= Alpha
Occup= 0.000000
     1     0.027417
     2    -0.256370
     3     0.377839
     4    -0.513178
     5    -0.002522
     6    -0.403558
     7    -0.444509
     8    -0.002536
     9     0.341557
    10    -0.670870
    11    -0.137807
    12    -0.036048
    13    -0.004334
    14    -0.408194
    15    -0.002492
    16    -0.172883
    17    -0.709604
    18    -0.348177
    19     0.001328
    20    -0.103910
    21     0.251653
    22     0.686209
    23    -0.921714
    24     0.012199
    25    -1.042060
Sym=    16a
Ene=   -0.120389E-02
Spin= Alpha
Occup= 0.000792
     1    -0.013972
     2    -0.168522
     3     0.334680
     4     0.143687
     5     0.016987
     6    -0.101866
     7     0.107725
     8    -0.192071
     9    -0.097103
    10    -0.229250
    11    -0.065218
    12     0.174263
    13     0.065218
    14     0.074370
    15     0.053007
    16     0.195748
    17    -0.348135
    18     0.013108
    19     0.029901
    20    -0.183923
    21    -0.115356
    22     0.084901
    23    -0.516382
    24     0.410281
    25     0.665603
Sym=    17a
Ene=   -0.110743E-02
Spin= Alpha
Occup= 0.000729
     1    -0.012464
     2    -0.128627
     3     0.232390
     4    -0.041491
     5    -0.035678
     6    -0.064400
     7    -0.075084
     8     0.423376
     9    -0.041741
    10    -0.118988
    11     0.015464
    12     0.024448
    13     0.126870
    14    -0.022981
    15    -0.079887
    16    -0.004841
    17    -0.045797
    18     0.274447
    19    -0.911891
    20     0.289747
    21     0.118666
    22    -0.185994
    23    -0.011693
    24    -0.066361
    25    -0.085750
Sym=    18a
Ene=   -0.570224E-03
Spin= Alpha
Occup= 0.000275
     1     0.001330
     2    -0.002828
     3     0.032112
     4     0.130899
     5    -0.001940
     6    -0.005034
     7     0.052669
     8    -0.000881
     9     0.018593
    10     0.007236
    11    -0.016560
    12    -0.004307
    13     0.761593
    14     0.709621
    15    -0.012062
    16     0.489465
    17    -0.579724
    18     0.224629
    19     0.307282
    20    -0.019850
    21    -0.517943
    22     0.571842
    23     0.226410
    24    -0.298719
    25     0.019995
Sym=    19a
Ene=   -0.592019E-03
Spin= Alpha
Occup= 0.000288
     1    -0.017639
     2     0.047530
     3    -0.413116
     4    -0.163062
     5    -0.038313
     6     0.075820
     7     0.016192
     8    -0.013599
     9    -0.174214
    10    -0.134769
    11     0.124614
    12     0.228732
    13     0.678388
    14    -0.699155
    15    -0.251742
    16    -0.352083
    17     0.675047
    18    -0.285821
    19     0.331555
    20    -0.012000
    21     0.604910
    22    -0.519326
    23    -0.181035
    24    -0.170595
    25    -0.065399
Sym=    20a
Ene=   -0.704133E-06
Spin= Alpha
Occup= 0.000000
     1    -0.024644
     2     0.408678
     3    -1.702058
     4    -0.256662
     5     0.004084
     6     0.299165
     7    -1.052333
     8     0.007838
     9    -0.931200
    10     0.568205
    11     0.319897
    12    -0.118431
    13    -0.003435
    14    -0.498475
    15     0.005125
    16    -0.115923
    17    -0.438359
    18    -0.410088
    19    -0.020055
    20     0.893936
    21     0.720979
    22     1.381377
    23    -0.629886
    24    -0.011225
    25    -0.065816
Sym=    21a
Ene=   -0.111355E-02
Spin= Alpha
Occup= 0.000731
     1     0.011230
     2     0.118597
     3    -0.219288
     4    -0.053568
     5     0.036146
     6     0.058483
     7    -0.055482
     8    -0.422399
     9     0.049773
    10     0.117754
    11    -0.016409
    12    -0.024337
    13     0.129803
    14    -0.023349
    15     0.082904
    16    -0.116916
    17     0.193641
    18    -0.014085
    19     0.065203
    20     0.083652
    21     0.002776
    22     0.027559
    23     0.266519
    24     0.909031
    25    -0.298238
Sym=    22a
Ene=   -0.245967E-02
Spin= Alpha
Occup= 0.001819
     1     0.022663
     2    -0.029826
     3     0.948460
     4    -0.079501
     5    -0.000318
     6     0.085800
     7    -0.494297
     8     0.011221
     9     0.686109
    10    -0.100182
    11     0.041130
    12    -0.028160
    13     0.003054
    14     0.203438
    15    -0.001906
    16    -1.406478
    17     0.685523
    18    -0.515514
    19    -0.018116
    20     0.331055
    21    -0.320236
    22    -0.183224
    23     0.109974
    24    -0.008945
    25    -0.027613
Sym=    23a
Ene=   -0.477223E-03
Spin= Alpha
Occup= 0.000224
     1     0.046817
     2    -0.133864
     3     1.125185
     4     0.007891
     5    -0.110449
     6    -0.200981
     7    -0.030197
     8    -0.072919
     9     0.434640
    10     0.431850
    11    -0.359271
    12    -0.671649
    13    -0.013750
    14    -0.016403
    15    -0.717875
    16    -0.371271
    17    -0.200851
    18     0.175655
    19     0.269141
    20     0.155764
    21    -0.335584
    22    -0.193177
    23    -0.178430
    24     0.279952
    25     0.152020
Sym=    24a
Ene=   -0.407274E-04
Spin= Alpha
Occup= 0.000023
     1     0.007761
     2    -0.125638
     3     0.518692
     4     0.586508
     5    -0.002651
     6    -0.093502
     7    -1.920424
     8    -0.006702
     9     0.301054
    10    -0.207717
    11    -0.106134
    12     0.074876
    13     0.020561
    14    -0.440410
    15    -0.009633
    16    -0.805129
    17    -0.929389
    18     0.072044
    19     0.033965
    20     0.017964
    21     0.612095
    22     0.649409
    23     0.164543
    24    -0.008936
    25    -0.318720
Sym=    25a
Ene=   -0.103761E-02
Spin= Alpha
Occup= 0.000042
     1    -0.710768
     2    -2.301406
     3    -0.782154
     4     0.000135
     5    -0.000219
     6    -0.058083
     7    -0.001062
     8    -0.001858
     9     0.393584
    10     1.563223
    11     1.360985
    12     1.450032
    13     0.000061
    14    -0.000739
    15     0.000738
    16    -0.386469
    17     0.151057
    18    -0.126507
    19     0.003643
    20     0.060052
    21    -0.384805
    22     0.151479
    23     0.124683
    24     0.001727
    25     0.060799
