[Molden Format]
p30-5 set                                                                       
[Atoms] AU
 H        1     1        0.0000        0.0000        0.0000
[GTO]
    1 0
s    3 1.00
      13.010701000000  0.334854848130E-01
       1.962257200000  0.234721870881E+00
       0.444537960000  0.813770285260E+00
s    1 1.00
       0.121949620000  0.100000000000E+01
p    1 1.00
       0.800000000000  0.100000000000E+01
 
[MO]
Sym=     1a
Ene=   -0.249639E+00
Spin= Alpha
Occup= 1.000000
     1     0.587782
     2     0.501107
     3     0.000000
     4     0.000000
     5     0.000000
Sym=     2a
Ene=    0.000000E+00
Spin= Alpha
Occup= 0.000000
     1    -1.239991
     2     1.277480
     3     0.000000
     4     0.000000
     5     0.000000
Sym=     3a
Ene=    0.000000E+00
Spin= Alpha
Occup= 0.000000
     1     0.000000
     2     0.000000
     3     0.000000
     4     0.000000
     5     1.000000
Sym=     4a
Ene=    0.000000E+00
Spin= Alpha
Occup= 0.000000
     1     0.000000
     2     0.000000
     3     1.000000
     4     0.000000
     5     0.000000
Sym=     5a
Ene=    0.000000E+00
Spin= Alpha
Occup= 0.000000
     1     0.000000
     2     0.000000
     3     0.000000
     4     1.000000
     5     0.000000
