[Molden Format]
p30-5 set                                                                       
[Atoms] AU
 HE       1     2        0.0000        0.0000        0.0000
[GTO]
    1 0
s    3 1.00
      38.354936737000  0.401838903516E-01
       5.768908147900  0.261391344439E+00
       1.239940703500  0.793039157864E+00
s    1 1.00
       0.297578159530  0.100000000000E+01
p    1 1.00
       1.000000000000  0.100000000000E+01
 
[MO]
Sym=     1a
Ene=   -0.996812E+00
Spin= Alpha
Occup= 1.000000
     1     0.773145
     2     0.311353
     3     0.000000
     4     0.000000
     5     0.000000
Sym=     2a
Ene=    0.000000E+00
Spin= Alpha
Occup= 0.000000
     1    -1.036776
     2     1.255275
     3     0.000000
     4     0.000000
     5     0.000000
Sym=     3a
Ene=    0.000000E+00
Spin= Alpha
Occup= 0.000000
     1     0.000000
     2     0.000000
     3     1.000000
     4     0.000000
     5     0.000000
Sym=     4a
Ene=    0.000000E+00
Spin= Alpha
Occup= 0.000000
     1     0.000000
     2     0.000000
     3     0.000000
     4     1.000000
     5     0.000000
Sym=     5a
Ene=    0.000000E+00
Spin= Alpha
Occup= 0.000000
     1     0.000000
     2     0.000000
     3     0.000000
     4     0.000000
     5     1.000000
