p30-5 set                                                                       
ENERGY    PNOF5    /home/ion/p30-5/inps/def2-svp/Pnof5/def2-svp.bas                                
Number of atoms                            I                1
Charge                                     I                0
Multiplicity                               I                1
Number of electrons                        I               12
Number of alpha electrons                  I                6
Number of beta electrons                   I                6
Number of basis functions                  I               19
Number of independent functions            I               18
Number of contracted shells                I                8
Highest angular momentum                   I                2
Largest degree of contraction              I                5
Number of primitive shells                 I               18
Virial Ratio                               R      0.000000000000000E+00
Atomic numbers                             I   N=           1
          12
Nuclear charges                            R   N=           1
  1.20000000E+01
Current cartesian coordinates              R   N=           3
  0.00000000E+00  0.00000000E+00  0.00000000E+00
Total Energy                               R     -1.995588830471092E+02
Shell types                                I   N=           8
           0           0           0           0           1           1
           1           2
Number of primitives per shell             I   N=           8
           5           3           1           1           5           1
           1           1
Shell to atom map                          I   N=           8
           1           1           1           1           1           1
           1           1
Coordinates of each shell                  R   N=          24
  0.00000000E+00  0.00000000E+00  0.00000000E+00  0.00000000E+00  0.00000000E+00
  0.00000000E+00  0.00000000E+00  0.00000000E+00  0.00000000E+00  0.00000000E+00
  0.00000000E+00  0.00000000E+00  0.00000000E+00  0.00000000E+00  0.00000000E+00
  0.00000000E+00  0.00000000E+00  0.00000000E+00  0.00000000E+00  0.00000000E+00
  0.00000000E+00  0.00000000E+00  0.00000000E+00  0.00000000E+00
Primitive exponents                        R   N=          18
  4.95383392E+03  7.45180442E+02  1.69216050E+02  4.73006720E+01  1.44613370E+01
  2.47681748E+01  2.49409453E+00  8.78075845E-01  8.72127825E-02  3.35992938E-02
  9.80530105E+01  2.25869323E+01  6.83915098E+00  2.23328438E+00  7.16065994E-01
  1.89147962E-01  5.37687552E-02  1.01000000E-01
Contraction coefficients                   R   N=          18
 -5.73034825E-03 -4.27698711E-02 -1.91096515E-01 -4.82411503E-01 -4.22007267E-01
  8.71156057E-02 -5.46373693E-01 -5.29320758E-01  1.00000000E+00  1.00000000E+00
 -1.44805646E-02 -9.54957508E-02 -3.07876727E-01 -4.99362929E-01 -3.15034762E-01
  1.00000000E+00  1.00000000E+00  1.00000000E+00
Alpha Orbital Energies                     R   N=          18
 -4.90000053E+01 -2.44012467E+00 -2.72453747E+00 -2.83153254E+00 -2.68614356E+00
 -2.55846636E-01 -1.30814932E-02 -4.89043815E-04 -2.99694887E-04 -5.24059135E-07
 -4.12416450E-08 -3.47605591E-10 -1.29773376E-02 -7.90458836E-09 -6.02503225E-08
 -2.18414492E-04 -4.56158085E-06 -7.41375918E-10
Alpha MO coefficients                      R   N=         342
  9.98791367E-01  4.86569392E-03  7.14163876E-03  4.16117308E-03 -1.13459054E-02
 -1.10695841E-03  2.25171010E-02  8.07278109E-05  5.30334920E-06 -1.51543157E-04
  3.34858296E-05  4.26839956E-06 -6.96289120E-05 -4.08783040E-03 -4.09512534E-03
 -4.09450305E-03  1.50241558E-06  2.27064681E-06  1.83791946E-06 -4.90459047E-02
  2.84743098E-01 -5.22929289E-03  2.16472148E-05  3.86836604E-01  3.53442637E-02
 -8.75969162E-01 -2.58906079E-03 -2.07348515E-04  5.96856038E-03 -1.20859178E-03
 -1.20565860E-04  2.74474127E-03  1.25833823E-03  1.27414091E-03  1.27119305E-03
 -1.15336230E-05 -1.15427097E-05 -4.95030751E-06  1.47000031E-01 -5.55609466E-01
  1.09064487E-02  3.33975151E-04 -8.53554226E-02  8.16114630E-01 -1.74825299E-01
  5.18712603E-04 -6.02469157E-03  1.15587267E-03  1.50620058E-04 -2.20676985E-03
  4.75980514E-04 -2.91211054E-03 -2.92602271E-03 -2.93345857E-03  2.03257481E-05
  2.12170778E-05  1.14263060E-05 -1.65047394E-01  6.20317742E-01 -1.23133319E-02
 -4.19958352E-04 -7.27871742E-01  2.96432136E-01 -1.19617656E-01  5.61980207E-03
 -2.01957990E-03  1.08613435E-03  2.03918443E-03 -6.91145087E-04  3.39115920E-04
  3.31949530E-03  3.36548388E-03  3.36198123E-03 -2.03065082E-05 -2.78870887E-05
 -1.58041226E-05 -1.39306274E-01  5.29938929E-01 -1.07792863E-02 -4.69831675E-04
  5.54703643E-01  4.89486273E-01  4.26923596E-01 -4.70785398E-03 -3.99128488E-03
 -3.47987103E-03 -1.62143421E-03 -1.35499405E-03 -1.22483632E-03  2.98466715E-03
  3.01390905E-03  3.01176175E-03 -3.59060954E-05 -3.44923998E-05 -2.55379556E-05
 -5.23646854E-02  3.39491327E-01  7.67626062E-01  2.92237597E-01  4.16453234E-05
 -2.83288099E-05 -7.63139326E-05  9.30107709E-05 -1.93823266E-04 -3.38798870E-04
 -2.68196537E-04  1.41798017E-04  3.05961682E-04  1.83244631E-03  1.63438572E-02
  1.66721987E-02 -1.46899758E-02 -1.42409367E-02 -8.24800187E-03  2.82373198E-04
 -2.08669373E-03 -7.24281834E-03  1.19245664E-03 -1.22972553E-01  2.00782690E-01
  1.14043746E-02 -2.95229988E-01  4.81218399E-01  2.82617953E-02 -2.96868725E-01
  4.87399479E-01  2.45630531E-02  2.54442568E-03  2.83263717E-03  2.73059908E-03
 -1.05833624E-04 -1.28383165E-04 -1.46581572E-04 -4.71521844E-02  3.60854768E-01
  9.22694750E-01  5.41793819E-01  2.15705694E-01  1.69866744E-01  1.46172669E-01
  7.31196223E-01  6.16132486E-01  5.16956520E-01 -2.06793687E-01 -2.98420422E-01
 -2.12448410E-01 -6.48834072E-01 -6.56728844E-01 -6.57580892E-01  1.23021858E-02
  1.15232896E-02  8.49595522E-03  5.37133768E-02 -4.11304035E-01 -1.04950150E+00
 -6.23442708E-01  2.38144879E-01 -6.28902646E-02  6.81284405E-02  9.06799320E-01
 -3.40649391E-01  2.26801822E-01 -5.61119955E-01  4.87920321E-01 -5.07556463E-02
  7.32540963E-01  7.55413304E-01  7.55058756E-01  1.09692766E-03 -9.30618996E-03
 -3.05851899E-03  2.74018361E-03 -2.04795957E-02 -8.30654024E-02  3.55021448E-02
 -1.93839481E-02 -6.21337778E-03  4.87582566E-02 -7.82003445E-02 -2.34879685E-02
  2.15032898E-01  6.00069118E-02  1.38996786E-02 -2.12632185E-01  4.85144445E-01
 -9.51588414E-01  5.40232137E-01  9.18348383E-02  1.84548243E-02  3.86827012E-04
 -4.72950032E-04  4.62312352E-03 -1.60663940E-02  7.07484786E-02  4.19750964E-03
  4.09638731E-03  5.04122115E-03  1.34798718E-01  8.54552189E-02  8.77076204E-02
 -4.09463381E-01 -2.44518440E-01 -2.42245223E-01 -5.76428793E-01  2.07058117E-02
  4.80800380E-01  1.57225448E-01 -2.48906760E-01  5.84150941E-01  1.06807782E-03
 -2.17626352E-02  3.71690406E-01 -9.99453216E-01 -4.76349390E-03 -5.28213207E-03
 -5.08973297E-03 -1.09259811E-01 -7.46322653E-02 -7.25782677E-02  3.17597338E-01
  1.95645975E-01  1.90763914E-01  2.57708468E-01  2.33465631E-01  3.42412616E-01
 -3.89446744E-01  5.43749889E-01  5.63365708E-01  3.44473868E-04 -2.57596753E-03
 -8.87709285E-03  1.31293017E-03 -8.43762905E-02 -6.26388810E-02  2.14064650E-01
 -2.04610945E-01 -1.50736257E-01  5.18196939E-01 -1.96774640E-01 -1.50018994E-01
  5.02338896E-01  3.39993298E-03  3.36795672E-03  3.38743981E-03 -4.10236185E-05
 -1.90518620E-04 -7.44362619E-05 -1.04667640E-04  5.05149698E-03 -1.69960176E-01
  4.10784896E-01  1.30319918E-03 -1.40717069E-03 -1.69366319E-03  3.71516333E-02
  1.22217382E-02  1.05694028E-02 -1.11341562E-01 -5.58822225E-02 -5.32923092E-02
  4.24999613E-01 -5.24451828E-02 -6.59506222E-01  5.76560912E-01  1.48035037E-01
  4.66824449E-01 -9.92618149E-05  1.56232379E-03 -4.56479786E-02  1.09302584E-01
 -2.35781099E-03 -1.19772849E-04 -3.17747296E-03 -1.63817124E-02 -4.09270388E-03
 -1.72687462E-02  3.03616548E-02  1.24909685E-02  2.48036347E-02 -4.34297065E-01
  5.27558081E-02  3.13747157E-01  5.30888510E-01  6.59474411E-01 -2.97357848E-01
  4.66066871E-02 -3.57068510E-01 -9.06276380E-01 -5.52503166E-01 -1.32050308E-02
  2.46849853E-01 -2.80705455E-02 -1.14741030E-01  1.03291073E+00 -1.53213389E-01
  2.47369879E-01 -8.92762583E-01  2.21673301E-01  6.59148439E-01  6.36319618E-01
  6.60778416E-01 -2.94763234E-03 -4.70981567E-03  2.83468278E-03 -1.72129851E-02
  1.32388121E-01  3.19443816E-01  2.42276126E-01  1.09971834E-01  8.55611279E-03
 -2.50532659E-01  4.92106037E-01  4.57033909E-02 -1.07919068E+00 -5.03352887E-01
 -6.40218140E-02  1.00622453E+00 -1.67409717E-01 -4.37699536E-01 -1.46491130E-01
  1.61190279E-02 -6.81447947E-03  1.79679724E-03 -9.48660613E-04  2.24512461E-02
 -4.34028997E-01  1.14256045E+00 -1.48479527E-02 -7.25598738E-03 -5.34034526E-03
 -2.70908918E-01 -1.51069919E-01 -1.39300318E-01  7.55704041E-01  4.32163373E-01
  4.12656335E-01 -4.98775174E-01 -3.01436380E-01 -1.31534790E-01  2.28921170E-01
 -3.03516638E-01  1.75788592E-01
Total SCF Density                          R   N=         190
  2.14162969E+00 -5.67304990E-01  2.32704814E+00 -5.03762037E-02  4.47311767E-01
  1.10673359E+00 -2.00410323E-02  1.84863285E-01  4.21124400E-01  1.60361653E-01
  8.66535528E-06 -1.87356805E-05  6.83154756E-05 -3.20592943E-05  1.99039871E+00
  4.29343216E-05 -2.59323945E-04 -5.17181045E-04 -1.68276193E-04 -1.66332684E-03
  1.99219530E+00  6.59144127E-05 -3.91422306E-04 -8.03885952E-04 -2.82162476E-04
 -1.85491574E-03 -9.97512290E-04  1.99273611E+00  4.19665917E-06  7.34596586E-05
  4.09776900E-04  2.92801783E-05 -1.21312222E-02 -3.49755633E-03 -3.89393427E-03
  8.27749744E-03  5.95856590E-05 -2.97945025E-04 -3.47822523E-04 -4.78108190E-05
 -3.50359470E-03 -8.32688112E-03 -2.09282795E-03 -6.88960716E-03  1.60518583E-02
  1.04226119E-04 -5.05102833E-04 -7.13995206E-04 -1.03443944E-04 -3.90781110E-03
 -2.09232762E-03 -7.22531285E-03 -6.96470977E-03 -3.93109855E-03  1.67548217E-02
  2.49321574E-05 -1.42136475E-04 -1.36424465E-04 -1.80563530E-04 -2.45291055E-03
 -3.16368124E-03 -2.62209464E-03  7.90939081E-03 -7.03974029E-03 -6.83703730E-03
  7.92302049E-03 -2.95598462E-05  1.27258949E-04  3.08805324E-05  8.22717226E-05
 -3.16011816E-03  1.29509826E-03 -1.64522439E-03 -7.04250230E-03  1.59214869E-02
 -3.94088094E-03 -7.20593393E-03  1.62615042E-02 -5.61050848E-05  2.53095959E-04
  1.15233986E-04  1.88308442E-04 -2.61808385E-03 -1.66215811E-03  5.37303988E-04
 -6.81633748E-03 -3.93648473E-03  1.61166826E-02 -6.53712203E-03 -3.90680964E-03
  1.56262954E-02 -1.12424392E-02  1.22835384E-02  2.15916702E-03  8.47480487E-04
 -1.78381850E-06  2.42453546E-04  4.18744122E-04 -1.10744398E-04  1.27305690E-06
  6.45326815E-05 -9.39373710E-05  6.93877494E-05  1.36903778E-04  2.39330970E-04
 -1.27115387E-02  2.16380694E-02  2.30540165E-02  8.80252364E-03 -2.21629661E-05
  2.79047497E-04  4.07165183E-04 -1.11737321E-04  1.80704407E-06  5.44667862E-05
 -1.07456266E-04  8.47696200E-05  1.44971643E-04  2.90183216E-04  7.39181712E-04
 -1.27426151E-02  2.18465541E-02  2.35252738E-02  8.98172394E-03 -1.98622636E-05
  2.61503033E-04  4.14135088E-04 -1.10520335E-04  4.94449848E-08  5.47861488E-05
 -1.05437304E-04  8.03000122E-05  1.45519040E-04  2.93381567E-04  7.48251626E-04
  7.60742316E-04  1.46991735E-03 -9.44821758E-03 -2.11524508E-02 -8.05307963E-03
 -2.23940039E-05 -1.49446633E-05 -1.08506339E-05  1.56581607E-06  3.62033815E-06
  9.00803631E-06  9.42791940E-06 -7.04894488E-06 -1.03093309E-05 -5.22703937E-05
 -4.52395783E-04 -4.61244586E-04  4.04924290E-04  1.42965652E-03 -9.17070990E-03
 -2.05045365E-02 -7.80633553E-03 -9.21782960E-06 -1.63213166E-05 -1.02250360E-05
  2.96592997E-06  4.29782170E-06  3.61131357E-06  1.18973228E-05 -6.52693448E-06
 -1.46532913E-05 -5.15102876E-05 -4.39283407E-04 -4.48018502E-04  3.92537967E-04
  3.80559097E-04  8.30090687E-04 -5.31506467E-03 -1.18758986E-02 -4.52140199E-03
 -1.00660265E-05 -1.68950194E-05 -1.30005718E-05  2.98901552E-06  5.15314520E-07
  3.30581884E-06  7.70684892E-06 -6.58961092E-06 -7.45834802E-06 -2.96712280E-05
 -2.54250382E-04 -2.59320867E-04  2.27332293E-04  2.20375285E-04  1.27669303E-04
Natural orbital occupancies                R   N=          18
  9.99999998E-01  9.99999955E-01  9.99967770E-01  9.99956945E-01  9.99923286E-01
  9.38072567E-01  3.10975962E-02  7.67138124E-05  4.30233171E-05  7.10490634E-07
  1.92749456E-08  1.16398298E-09  3.08298366E-02  6.77231037E-10  3.15340740E-08
  3.15198285E-05  2.57014072E-08  1.17475537E-09
Dipole Moment                              R   N=           3
  1.89448202E-03 -4.21631823E-04 -1.13508020E-03
