[Molden Format]
p30-5 set                                                                       
[Atoms] AU
 N        1     7        0.0000        0.0000        0.0000
[GTO]
    1 0
s    5 1.00
    1712.841585300000 -0.544779958049E-02
     257.648126770000 -0.406271746324E-01
      58.458245853000 -0.181119622506E+00
      16.198367905000 -0.468439755632E+00
       5.005260080900 -0.446168462892E+00
s    1 1.00
       0.587318565710  0.100000000000E+01
s    1 1.00
       0.187645922530  0.100000000000E+01
p    3 1.00
      13.571470233000 -0.588481169695E-01
       2.925737287400 -0.320246247625E+00
       0.799277507540 -0.753282265204E+00
p    1 1.00
       0.219543480340  0.100000000000E+01
d    1 1.00
       1.000000000000  0.100000000000E+01
 
[MO]
Sym=     1a
Ene=   -0.156373E+02
Spin= Alpha
Occup= 1.999913
     1     0.990385
     2    -0.033310
     3     0.008253
     4     0.000001
     5     0.000001
     6    -0.000001
     7    -0.000001
     8     0.000002
     9    -0.000002
    10     0.002521
    11     0.002523
    12     0.002525
    13     0.000001
    14    -0.000001
    15    -0.000000
Sym=     2a
Ene=   -0.929966E+00
Spin= Alpha
Occup= 1.996809
     1     0.295735
     2     0.616643
     3     0.434332
     4     0.000001
     5     0.000000
     6     0.000000
     7    -0.000000
     8     0.000001
     9     0.000001
    10     0.019595
    11     0.019733
    12     0.019877
    13     0.000010
    14     0.000031
    15     0.000134
Sym=     3a
Ene=   -0.284432E+00
Spin= Alpha
Occup= 1.000000
     1    -0.000000
     2     0.000006
     3    -0.000002
     4     0.341960
     5    -0.202947
     6     0.552218
     7    -0.230489
     8     0.136796
     9    -0.372202
    10    -0.000002
    11    -0.000003
    12    -0.000002
    13     0.000001
    14     0.000000
    15    -0.000000
Sym=     4a
Ene=   -0.284433E+00
Spin= Alpha
Occup= 1.000000
     1    -0.000001
     2    -0.000007
     3     0.000001
     4    -0.062164
     5     0.622684
     6     0.267343
     7     0.041897
     8    -0.419698
     9    -0.180192
    10     0.000003
    11     0.000004
    12     0.000001
    13     0.000001
    14     0.000001
    15    -0.000001
Sym=     5a
Ene=   -0.284432E+00
Spin= Alpha
Occup= 1.000000
     1    -0.000001
     2     0.000001
     3    -0.000000
     4     0.585038
     5     0.184790
     6    -0.294373
     7    -0.394324
     8    -0.124550
     9     0.198410
    10    -0.000001
    11     0.000000
    12    -0.000001
    13    -0.000001
    14    -0.000000
    15    -0.000001
Sym=     6a
Ene=   -0.236934E-02
Spin= Alpha
Occup= 0.001976
     1     0.357120
     2     1.819356
     3    -1.579993
     4    -0.000007
     5     0.000006
     6     0.000007
     7    -0.000007
     8     0.000005
     9     0.000008
    10    -0.095833
    11    -0.097831
    12    -0.098779
    13    -0.000036
    14    -0.000335
    15    -0.000892
Sym=     7a
Ene=   -0.414783E-04
Spin= Alpha
Occup= 0.000002
     1     0.000002
     2     0.000006
     3    -0.000010
     4     0.002094
     5    -0.948117
     6    -0.121583
     7     0.002364
     8    -1.071230
     9    -0.137375
    10     0.000006
    11     0.000002
    12    -0.000001
    13    -0.000013
    14     0.000004
    15     0.000000
Sym=     8a
Ene=   -0.561402E-03
Spin= Alpha
Occup= 0.000305
     1     0.000923
     2     0.004054
     3    -0.001297
     4     0.000003
     5    -0.000000
     6    -0.000002
     7     0.000003
     8    -0.000003
     9    -0.000003
    10    -0.295767
    11    -0.655775
    12     0.947809
    13    -0.125159
    14    -0.147267
    15     0.136900
Sym=     9a
Ene=   -0.233788E-06
Spin= Alpha
Occup= 0.000000
     1     0.000102
     2    -0.000175
     3     0.002131
     4     0.000001
     5     0.000002
     6    -0.000002
     7     0.000000
     8     0.000001
     9    -0.000002
    10     0.898097
    11    -0.643659
    12    -0.256893
    13     0.080634
    14    -0.149765
    15     0.336387
Sym=    10a
Ene=   -0.560908E-03
Spin= Alpha
Occup= 0.000304
     1     0.000996
     2     0.004362
     3    -0.001389
     4     0.000008
     5     0.000001
     6    -0.000001
     7     0.000008
     8     0.000001
     9    -0.000001
    10    -0.173156
    11     0.127330
    12     0.041801
    13     0.112206
    14     0.631441
    15     0.746145
Sym=    11a
Ene=   -0.419286E-04
Spin= Alpha
Occup= 0.000002
     1     0.000002
     2     0.000005
     3    -0.000001
     4     0.745128
     5    -0.074540
     6     0.594089
     7     0.841882
     8    -0.084220
     9     0.671231
    10     0.000003
    11    -0.000005
    12    -0.000004
    13    -0.000012
    14     0.000003
    15    -0.000007
Sym=    12a
Ene=   -0.560311E-03
Spin= Alpha
Occup= 0.000304
     1    -0.000447
     2    -0.001967
     3     0.000633
     4     0.000003
     5     0.000005
     6    -0.000015
     7     0.000003
     8     0.000006
     9    -0.000016
    10     0.261188
    11    -0.372572
    12     0.113192
    13    -0.013098
    14     0.743269
    15    -0.548470
Sym=    13a
Ene=   -0.401354E-04
Spin= Alpha
Occup= 0.000002
     1    -0.000007
     2    -0.000033
     3     0.000012
     4    -0.598742
     5    -0.096079
     6     0.738908
     7    -0.676490
     8    -0.108554
     9     0.834859
    10     0.000013
    11     0.000001
    12     0.000014
    13    -0.000003
    14     0.000014
    15    -0.000002
Sym=    14a
Ene=   -0.557631E-03
Spin= Alpha
Occup= 0.000303
     1     0.000107
     2     0.000475
     3    -0.000155
     4     0.000007
     5    -0.000014
     6     0.000007
     7     0.000007
     8    -0.000015
     9     0.000009
    10    -0.088352
    11    -0.050442
    12     0.138361
    13     0.982381
    14    -0.068682
    15    -0.102705
Sym=    15a
Ene=   -0.151734E-02
Spin= Alpha
Occup= 0.000080
     1     0.813996
     2     3.071497
     3     0.604579
     4    -0.000005
     5    -0.000001
     6     0.000003
     7    -0.000004
     8    -0.000003
     9     0.000003
    10    -1.584979
    11    -1.584274
    12    -1.585433
    13    -0.000130
    14    -0.000032
    15    -0.001055
