[Molden Format]
p30-5 set                                                                       
[Atoms] AU
 O        1     8        0.0000        0.0000        0.0000
[GTO]
    1 0
s    5 1.00
    2266.176778500000 -0.538935039217E-02
     340.870101910000 -0.402347213890E-01
      77.363135167000 -0.180081842055E+00
      21.479644940000 -0.468288576577E+00
       6.658943312400 -0.446926171602E+00
s    1 1.00
       0.809759756680  0.100000000000E+01
s    1 1.00
       0.255307722340  0.100000000000E+01
p    3 1.00
      17.721504317000  0.626302487632E-01
       3.863550544000  0.333311384824E+00
       1.048092088300  0.741486383081E+00
p    1 1.00
       0.276415444110  0.100000000000E+01
d    1 1.00
       1.200000000000  0.100000000000E+01
 
[MO]
Sym=     1a
Ene=   -0.206713E+02
Spin= Alpha
Occup= 1.999964
     1     0.993697
     2    -0.026460
     3     0.013099
     4    -0.000600
     5     0.000173
     6    -0.000422
     7    -0.000422
     8     0.000119
     9    -0.000300
    10     0.004531
    11     0.004780
    12     0.004671
    13     0.000090
    14    -0.000218
    15     0.000063
Sym=     2a
Ene=   -0.914608E+00
Spin= Alpha
Occup= 1.993254
     1     0.208989
     2     0.455857
     3     0.318114
     4    -0.372091
     5     0.105447
     6    -0.260545
     7    -0.265012
     8     0.075066
     9    -0.185514
    10     0.007905
    11     0.006687
    12     0.007175
    13    -0.000515
    14     0.001119
    15    -0.000323
Sym=     3a
Ene=   -0.892230E+00
Spin= Alpha
Occup= 1.992893
     1     0.203715
     2     0.441072
     3     0.307508
     4     0.384664
     5    -0.108898
     6     0.269020
     7     0.274436
     8    -0.077828
     9     0.191856
    10     0.007427
    11     0.006460
    12     0.007026
    13    -0.000173
    14     0.000638
    15    -0.000257
Sym=     4a
Ene=   -0.350292E+00
Spin= Alpha
Occup= 1.000000
     1     0.000018
     2    -0.000164
     3     0.000494
     4    -0.248244
     5     0.406312
     6     0.519311
     7    -0.155632
     8     0.251815
     9     0.324395
    10     0.000099
    11    -0.000481
    12     0.000300
    13     0.000493
    14     0.000419
    15     0.000270
Sym=     5a
Ene=   -0.350120E+00
Spin= Alpha
Occup= 1.000000
     1    -0.000092
     2    -0.000342
     3     0.000232
     4     0.343163
     5     0.553621
     6    -0.266308
     7     0.215334
     8     0.345223
     9    -0.167946
    10    -0.000004
    11    -0.000221
    12     0.000150
    13     0.000320
    14     0.000368
    15     0.000192
Sym=     6a
Ene=   -0.114393E-02
Spin= Alpha
Occup= 0.000560
     1     0.094119
     2     0.454872
     3    -0.378609
     4    -0.036160
     5     0.042038
     6     0.054503
     7     0.041427
     8    -0.048683
     9    -0.063931
    10    -0.512276
    11     0.315137
    12     0.108122
    13     0.422301
    14    -0.659221
    15     0.264356
Sym=     7a
Ene=   -0.761994E-02
Spin= Alpha
Occup= 0.005677
     1     0.278914
     2     1.312453
     3    -1.005627
     4    -0.527368
     5     0.153202
     6    -0.367263
     7     0.589447
     8    -0.171279
     9     0.410472
    10    -0.039950
    11    -0.204338
    12    -0.132480
    13    -0.060140
    14     0.144916
    15    -0.041561
Sym=     8a
Ene=   -0.208893E-04
Spin= Alpha
Occup= 0.000001
     1     0.007667
     2     0.001153
     3     0.091884
     4    -0.028630
     5     0.752713
     6     0.345033
     7     0.033339
     8    -0.879306
     9    -0.403106
    10     0.070666
    11    -0.413010
    12     0.220998
    13     0.163678
    14     0.058001
    15     0.056254
Sym=     9a
Ene=   -0.958708E-03
Spin= Alpha
Occup= 0.000558
     1     0.006991
     2     0.033702
     3    -0.027834
     4     0.381238
     5     0.218832
     6    -0.457506
     7    -0.443899
     8    -0.254754
     9     0.532615
    10     0.571823
    11    -0.100803
    12    -0.477909
    13     0.123479
    14    -0.240031
    15     0.268840
Sym=    10a
Ene=   -0.106565E-02
Spin= Alpha
Occup= 0.000536
     1    -0.013719
     2    -0.066481
     3     0.055797
     4     0.105892
     5    -0.222077
     6    -0.246330
     7    -0.123411
     8     0.258488
     9     0.286666
    10    -0.108366
    11    -0.359172
    12     0.479956
    13     0.590569
    14     0.423819
    15     0.281313
Sym=    11a
Ene=   -0.102339E-05
Spin= Alpha
Occup= 0.000000
     1     0.002092
     2    -0.000144
     3     0.026562
     4     0.031990
     5     0.225897
     6     0.044733
     7    -0.037225
     8    -0.263864
     9    -0.052273
    10    -0.278715
    11     0.739846
    12    -0.495479
    13     0.168073
    14     0.531991
    15     0.209846
Sym=    12a
Ene=   -0.786845E-02
Spin= Alpha
Occup= 0.005989
     1     0.273915
     2     1.291231
     3    -0.995895
     4     0.536020
     5    -0.147997
     6     0.376532
     7    -0.599087
     8     0.165383
     9    -0.420864
    10    -0.041409
    11    -0.195397
    12    -0.124864
    13    -0.051578
    14     0.137140
    15    -0.035349
Sym=    13a
Ene=   -0.923778E-03
Spin= Alpha
Occup= 0.000533
     1     0.003608
     2     0.017565
     3    -0.014950
     4     0.382373
     5     0.282739
     6    -0.430718
     7    -0.445165
     8    -0.329165
     9     0.501556
    10    -0.550333
    11     0.135526
    12     0.411781
    13    -0.261361
    14     0.027635
    15    -0.339491
Sym=    14a
Ene=   -0.855936E-03
Spin= Alpha
Occup= 0.000035
     1     0.679028
     2     2.146684
     3     1.143066
     4     0.001861
     5    -0.026464
     6    -0.010552
     7    -0.002131
     8     0.030834
     9     0.012333
    10    -1.419394
    11    -1.403609
    12    -1.417056
    13    -0.003211
    14    -0.015098
    15    -0.001859
Sym=    15a
Ene=    0.000000E+00
Spin= Alpha
Occup= 0.000000
     1    -0.000062
     2     0.000298
     3    -0.001741
     4     0.001275
     5     0.000451
     6    -0.001002
     7    -0.001549
     8    -0.000489
     9     0.001113
    10     0.160769
    11     0.075577
    12    -0.234534
    13     0.572718
    14    -0.031794
    15    -0.783116
