p30-5 set                                                                       
ENERGY    PNOF5    /home/ion/p30-5/inps/def2-svp/Pnof5/def2-svp.bas                                
Number of atoms                            I                1
Charge                                     I                0
Multiplicity                               I                3
Number of electrons                        I               16
Number of alpha electrons                  I                9
Number of beta electrons                   I                7
Number of basis functions                  I               19
Number of independent functions            I               16
Number of contracted shells                I                8
Highest angular momentum                   I                2
Largest degree of contraction              I                5
Number of primitive shells                 I               18
Virial Ratio                               R      0.000000000000000E+00
Atomic numbers                             I   N=           1
          16
Nuclear charges                            R   N=           1
  1.60000000E+01
Current cartesian coordinates              R   N=           3
  0.00000000E+00  0.00000000E+00  0.00000000E+00
Total Energy                               R     -3.973801193825107E+02
Shell types                                I   N=           8
           0           0           0           0           1           1
           1           2
Number of primitives per shell             I   N=           8
           5           3           1           1           5           1
           1           1
Shell to atom map                          I   N=           8
           1           1           1           1           1           1
           1           1
Coordinates of each shell                  R   N=          24
  0.00000000E+00  0.00000000E+00  0.00000000E+00  0.00000000E+00  0.00000000E+00
  0.00000000E+00  0.00000000E+00  0.00000000E+00  0.00000000E+00  0.00000000E+00
  0.00000000E+00  0.00000000E+00  0.00000000E+00  0.00000000E+00  0.00000000E+00
  0.00000000E+00  0.00000000E+00  0.00000000E+00  0.00000000E+00  0.00000000E+00
  0.00000000E+00  0.00000000E+00  0.00000000E+00  0.00000000E+00
Primitive exponents                        R   N=          18
  9.18493030E+03  1.38151055E+03  3.13871476E+02  8.80538706E+01  2.70399149E+01
  4.56487313E+01  4.96645223E+00  2.01162420E+00  3.56610770E-01  1.35072215E-01
  2.61982334E+02  6.13068947E+01  1.91037299E+01  6.65677204E+00  2.39596352E+00
  6.17761617E-01  1.69933769E-01  5.50000000E-01
Contraction coefficients                   R   N=          18
 -5.47294661E-03 -4.09544022E-02 -1.84758290E-01 -4.75672806E-01 -4.34951536E-01
 -9.19040458E-02  5.56987772E-01  5.11154683E-01  1.00000000E+00  1.00000000E+00
 -9.18305466E-03 -6.59022265E-02 -2.45877845E-01 -4.82314711E-01 -3.89563144E-01
  1.00000000E+00  1.00000000E+00  1.00000000E+00
Alpha Orbital Energies                     R   N=          16
 -9.19725033E+01 -6.67658468E+00 -7.45211810E+00 -7.45345369E+00 -7.45372559E+00
 -6.34844844E-01 -6.34841325E-01 -2.36397679E-01 -2.36397913E-01 -4.48102822E-03
 -4.48094368E-03 -4.86686248E-04 -4.86156981E-04 -4.83626312E-04 -4.08734059E-06
 -1.34775708E-08
Alpha MO coefficients                      R   N=         304
  9.93781782E-01 -2.80709367E-02  2.57298541E-02  5.98768756E-04 -1.73532645E-05
 -1.92947212E-05  1.43372238E-05  8.04210246E-07  1.01652302E-06 -4.46021051E-07
 -1.33223188E-07 -1.70817376E-07  2.29132678E-08 -9.29874333E-03 -9.29605421E-03
 -9.30045529E-03 -4.79590761E-06 -2.26835114E-06  3.02823687E-06 -3.12434966E-07
 -1.49770778E-06  1.54741346E-07 -6.80672783E-08 -5.42222279E-01  7.51051995E-01
  3.50026502E-01  1.69729037E-02 -2.35097737E-02 -1.09566344E-02 -9.13901679E-03
  1.26584091E-02  5.89942360E-03 -9.10608087E-08 -1.39171934E-07 -2.16833796E-07
 -1.24655488E-07 -2.06897738E-07  6.80993811E-08  1.78243492E-01  5.98549084E-01
  8.97757931E-03 -8.18982109E-03 -5.39971626E-01 -5.23018783E-01  2.85780772E-01
  2.32886367E-02  2.25586091E-02 -1.23258376E-02 -3.17663965E-03 -3.07591790E-03
  1.68153810E-03  2.18405635E-04  1.50838340E-04  2.53469801E-04  1.28350039E-04
  4.78331171E-05 -8.15153259E-05  1.78432720E-01  5.99076905E-01  8.97339455E-03
 -8.20407896E-03  6.17436727E-01  2.31467585E-01  4.59806179E-01 -2.66308654E-02
 -9.98393672E-03 -1.98325585E-02  3.63271420E-03  1.36149710E-03  2.70535614E-03
  2.21504142E-04  1.42333397E-04  2.58015510E-04  1.23168822E-04  6.66309807E-05
 -7.11347971E-05 -1.78470994E-01 -5.99184310E-01 -8.97368481E-03  8.20770500E-03
  7.79216444E-02 -2.91047491E-01  7.45206192E-01 -3.36097835E-03  1.25534945E-02
 -3.21421513E-02  4.58365459E-04 -1.71215666E-03  4.38465241E-03 -2.07062000E-04
 -1.42762862E-04 -2.69991648E-04 -1.16005530E-04 -5.69349007E-05  8.47892444E-05
 -5.31449879E-02 -3.48296935E-01  5.06788478E-01  2.77212778E-01 -9.38608321E-02
  1.30028387E-01  6.05904196E-02 -1.80690227E-01  2.50280521E-01  1.16644821E-01
 -2.60186421E-01  3.60392332E-01  1.67963171E-01  1.32004959E-02  1.38555987E-02
  1.27830046E-02 -1.14222189E-03 -5.32334733E-04  7.37448627E-04 -5.31443183E-02
 -3.48293704E-01  5.06783726E-01  2.77211570E-01  9.38751596E-02 -1.30013275E-01
 -6.06030356E-02  1.80692937E-01 -2.50280805E-01 -1.16645800E-01  2.60189301E-01
 -3.60395017E-01 -1.67964993E-01  1.31993347E-02  1.38555873E-02  1.27834780E-02
 -1.14204990E-03 -5.32149365E-04  7.36966754E-04 -5.42033686E-08  2.86131878E-07
 -7.83561346E-07 -7.86018988E-07  6.93151906E-02 -6.67061750E-02  2.50503048E-01
  1.26389175E-01 -1.21632471E-01  4.56767349E-01  1.68475979E-01 -1.62132139E-01
  6.08860772E-01  2.27334994E-05  3.10887895E-06 -2.32043285E-05  1.49398731E-05
  5.84873914E-06  1.73202037E-05  6.23194933E-08  4.34357266E-07  4.53070630E-07
 -8.21332487E-07  2.13571439E-01  1.61667598E-01 -1.60463440E-02  3.89427324E-01
  2.94785367E-01 -2.92594330E-02  5.19092839E-01  3.92938248E-01 -3.90003763E-02
 -3.76456691E-07 -1.45152935E-05  1.24646400E-05 -1.16718948E-05  2.80961139E-05
  1.29566018E-05 -3.81757143E-02 -3.10403253E-01  1.11377545E+00 -8.35889029E-01
  1.45400854E-01 -2.01356869E-01 -9.38661897E-02  4.98469479E-01 -6.90301123E-01
 -3.21796480E-01 -4.23865846E-01  5.86985459E-01  2.73634839E-01 -1.14802819E-01
  1.07363549E-01 -2.55927418E-01 -3.86943304E-01 -1.80359498E-01  2.49797302E-01
  3.81763388E-02  3.10408850E-01 -1.11379118E+00  8.35888899E-01  1.45366687E-01
 -2.01395599E-01 -9.38373785E-02  4.98354521E-01 -6.90433946E-01 -3.21697417E-01
 -4.23767404E-01  5.87100204E-01  2.73549785E-01  1.14857789E-01 -1.07429495E-01
  2.55957820E-01  3.86934588E-01  1.80317618E-01 -2.49778852E-01  7.76074018E-02
  8.79591710E-01 -2.36849456E+00 -1.96501281E-01 -2.95012088E-02  1.09986810E-01
 -2.81694471E-01 -1.01238376E-01  3.77440827E-01 -9.66687817E-01  8.76267250E-02
 -3.26694622E-01  8.36717973E-01  1.02838610E+00  1.09091402E+00  9.35532905E-01
 -1.18677994E-01 -6.23339508E-02  1.00333040E-01  7.75820269E-02  8.79317570E-01
 -2.36772841E+00 -1.96529785E-01  2.33383491E-01  8.74609505E-02  1.73868149E-01
  8.00901037E-01  3.00140053E-01  5.96661647E-01 -6.93221668E-01 -2.59787165E-01
 -5.16440955E-01  9.94809567E-01  1.09336836E+00  9.65783263E-01 -1.35603017E-01
 -8.54540952E-02  6.71770724E-02 -7.74600269E-02 -8.77994893E-01  2.36403485E+00
  1.96673557E-01  2.04179804E-01  1.97775602E-01 -1.08075328E-01  7.00684430E-01
  6.78707411E-01 -3.70882586E-01 -6.06480283E-01 -5.87457911E-01  3.21018991E-01
 -1.00140310E+00 -1.07236470E+00 -9.76000893E-01  1.49676722E-01  4.04644290E-02
 -9.32558321E-02  2.49268976E-07  3.21551112E-06 -8.02292420E-06 -2.38831674E-06
  1.37451133E-06 -1.97077881E-06 -2.99950713E-07  4.70024120E-06 -6.70194746E-06
 -9.65576720E-07 -3.65157980E-06  5.78987323E-06  5.43794393E-07  5.30280410E-01
 -2.27729286E-02 -5.07495216E-01 -4.14553801E-01  2.56231472E-01 -6.34806299E-01
 -3.95267267E-03 -2.81078462E-01  2.29575123E-01  1.79181339E+00 -1.96553369E-04
 -5.36454496E-05 -1.91108049E-04 -6.76624278E-04 -1.84884164E-04 -6.56360626E-04
  5.86611610E-04  1.60431358E-04  5.68974150E-04 -9.14353142E-01 -5.99792955E-01
 -1.02792652E+00 -4.02168356E-01 -1.75032016E-01  2.44987868E-01
Total SCF Density                          R   N=         190
  2.17740524E+00  6.59211226E-01  2.63897916E+00 -4.71777415E-02 -6.77327079E-01
  1.04019173E+00 -6.60388941E-02 -4.12076794E-01  5.50596791E-01  3.14192516E-01
 -1.18531193E-07 -4.95622682E-07 -2.21293180E-07 -1.36414468E-08  2.03150460E+00
 -1.73356141E-07 -1.47682100E-06  2.55298339E-06 -4.31854805E-07 -2.82779141E-02
  2.05025792E+00  2.41080433E-07  1.14079277E-06 -2.70797271E-06  4.16859113E-07
 -1.31799610E-02  1.82549875E-02  2.01959542E+00 -2.99204188E-07 -1.87642778E-06
  1.55833674E-06  3.25780266E-07  8.34007641E-02 -4.94641789E-02 -2.30545942E-02
  3.03610237E-01 -1.76812328E-07 -2.29272356E-06  2.65231553E-06  2.01070823E-07
 -4.94647782E-02  1.16204521E-01  3.19319419E-02 -8.38058948E-02  3.59188209E-01
  3.64166114E-07  4.48237959E-07 -5.49239761E-07 -3.75657123E-07 -2.30546935E-02
  3.19322947E-02  6.25691301E-02 -3.90595784E-02  5.41011213E-02  2.68318558E-01
  1.56132003E-07  4.17156166E-07  5.41567248E-07  8.89043045E-07  2.37232152E-01
 -7.04112173E-02 -3.28148670E-02  4.08131632E-01 -1.24079608E-01 -5.78287157E-02
  5.70045289E-01 -3.54814246E-08  3.70475881E-07  1.23129602E-06 -4.17366435E-07
 -7.04106273E-02  2.83926454E-01  4.54536287E-02 -1.24079675E-01  4.90418046E-01
  8.00999060E-02 -2.00193794E-01  7.02808011E-01 -1.96305848E-07  3.60202166E-07
 -7.58070609E-07 -1.45121568E-06 -3.28146872E-02  4.54531882E-02  2.07584199E-01
 -5.78290897E-02  8.00995062E-02  3.55881768E-01 -9.32997855E-02  1.29234429E-01
  4.85748187E-01 -2.09916452E-02 -1.65304054E-02  2.45069864E-02  1.55312444E-02
  7.44429949E-06 -5.88748594E-06  2.45289854E-05  2.03784105E-06 -1.54700991E-06
  7.82899903E-06  3.22226157E-06 -3.56794999E-06  1.60107160E-05  1.17480111E-03
 -2.12868581E-02 -1.83924956E-02  2.83438812E-02  1.43469460E-02 -1.10888019E-05
 -1.03663226E-05  4.47602383E-06 -3.74165953E-06 -2.89662976E-06  1.11723985E-06
 -7.91009563E-06 -7.52860640E-06  2.89458951E-06  9.59450640E-04  1.25514168E-03
 -2.08039461E-02 -1.53469457E-02  2.20699777E-02  1.62829007E-02  4.86026451E-06
  1.50487166E-05 -2.65633154E-05  1.97821790E-06  4.80218167E-06 -8.50551489E-06
  2.93528173E-06  9.13700786E-06 -1.64176838E-05  1.31055281E-03  7.71679258E-04
  1.65364113E-03  5.13919071E-04  3.24300929E-03 -6.68177427E-03  2.06155646E-03
 -5.88078084E-06 -1.26682584E-05  1.73087102E-05 -2.28999838E-06 -4.25011830E-06
  5.60284008E-06 -3.58862221E-06 -7.76390969E-06  1.03889908E-05  3.74068204E-04
 -5.14790103E-04  9.39102557E-04  1.54835607E-03  2.39481623E-04  1.51148875E-03
 -3.11396079E-03  9.60893317E-04  2.77758211E-05  1.73848614E-05  4.57918663E-06
  8.65917887E-06  5.70564007E-06  1.51658297E-06  1.76443445E-05  1.10628135E-05
  2.54197047E-06  1.74608079E-04 -2.39983586E-04  4.37431705E-04  7.21385544E-04
  3.36414858E-04 -3.31940758E-04 -2.09360329E-03  4.31319918E-03 -1.33094094E-03
  1.69484598E-05  4.11521461E-06  1.81575335E-05  5.52872631E-06  1.63130517E-06
  5.56717995E-06  1.03093472E-05  2.80775977E-06  1.15418889E-05 -2.42000327E-04
  3.32347332E-04 -6.05738800E-04 -9.99072365E-04 -4.65940226E-04  6.45666989E-04
Natural orbital occupancies                R   N=          16
  9.99999999E-01  9.99999409E-01  9.99972247E-01  9.99971985E-01  9.99971930E-01
  9.97428963E-01  9.97428854E-01  5.00000000E-01  5.00000000E-01  2.57114565E-03
  2.57103690E-03  2.80700263E-05  2.80151238E-05  2.77534707E-05  5.90629508E-07
  1.02880918E-09
Dipole Moment                              R   N=           3
 -1.88044921E-06 -1.83878731E-06  1.22697345E-06
