[Molden Format]
p30-5 set                                                                       
[Atoms] AU
 S        1    16        0.0000        0.0000        0.0000
[GTO]
    1 0
s    5 1.00
    9184.930301000000 -0.547294661347E-02
    1381.510550300000 -0.409544021551E-01
     313.871475800000 -0.184758289562E+00
      88.053870623000 -0.475672806440E+00
      27.039914905000 -0.434951535842E+00
s    3 1.00
      45.648731303000 -0.919040458089E-01
       4.966452232600  0.556987772145E+00
       2.011624204700  0.511154682985E+00
s    1 1.00
       0.356610770130  0.100000000000E+01
s    1 1.00
       0.135072214770  0.100000000000E+01
p    5 1.00
     261.982334390000 -0.918305465927E-02
      61.306894736000 -0.659022265260E-01
      19.103729887000 -0.245877845187E+00
       6.656772037800 -0.482314710760E+00
       2.395963516100 -0.389563143514E+00
p    1 1.00
       0.617761616790  0.100000000000E+01
p    1 1.00
       0.169933768710  0.100000000000E+01
d    1 1.00
       0.550000000000  0.100000000000E+01
 
[MO]
Sym=     1a
Ene=   -0.919725E+02
Spin= Alpha
Occup= 2.000000
     1     0.993782
     2    -0.028071
     3     0.025730
     4     0.000599
     5    -0.000017
     6    -0.000019
     7     0.000014
     8     0.000001
     9     0.000001
    10    -0.000000
    11    -0.000000
    12    -0.000000
    13     0.000000
    14    -0.009299
    15    -0.009296
    16    -0.009300
    17    -0.000005
    18    -0.000002
    19     0.000003
Sym=     2a
Ene=   -0.667658E+01
Spin= Alpha
Occup= 1.999999
     1    -0.000000
     2    -0.000001
     3     0.000000
     4    -0.000000
     5    -0.542222
     6     0.751052
     7     0.350027
     8     0.016973
     9    -0.023510
    10    -0.010957
    11    -0.009139
    12     0.012658
    13     0.005899
    14    -0.000000
    15    -0.000000
    16    -0.000000
    17    -0.000000
    18    -0.000000
    19     0.000000
Sym=     3a
Ene=   -0.745212E+01
Spin= Alpha
Occup= 1.999944
     1     0.178243
     2     0.598549
     3     0.008978
     4    -0.008190
     5    -0.539972
     6    -0.523019
     7     0.285781
     8     0.023289
     9     0.022559
    10    -0.012326
    11    -0.003177
    12    -0.003076
    13     0.001682
    14     0.000218
    15     0.000151
    16     0.000253
    17     0.000128
    18     0.000048
    19    -0.000082
Sym=     4a
Ene=   -0.745345E+01
Spin= Alpha
Occup= 1.999944
     1     0.178433
     2     0.599077
     3     0.008973
     4    -0.008204
     5     0.617437
     6     0.231468
     7     0.459806
     8    -0.026631
     9    -0.009984
    10    -0.019833
    11     0.003633
    12     0.001361
    13     0.002705
    14     0.000222
    15     0.000142
    16     0.000258
    17     0.000123
    18     0.000067
    19    -0.000071
Sym=     5a
Ene=   -0.745373E+01
Spin= Alpha
Occup= 1.999944
     1    -0.178471
     2    -0.599184
     3    -0.008974
     4     0.008208
     5     0.077922
     6    -0.291047
     7     0.745206
     8    -0.003361
     9     0.012553
    10    -0.032142
    11     0.000458
    12    -0.001712
    13     0.004385
    14    -0.000207
    15    -0.000143
    16    -0.000270
    17    -0.000116
    18    -0.000057
    19     0.000085
Sym=     6a
Ene=   -0.634845E+00
Spin= Alpha
Occup= 1.994858
     1    -0.053145
     2    -0.348297
     3     0.506788
     4     0.277213
     5    -0.093861
     6     0.130028
     7     0.060590
     8    -0.180690
     9     0.250281
    10     0.116645
    11    -0.260186
    12     0.360392
    13     0.167963
    14     0.013200
    15     0.013856
    16     0.012783
    17    -0.001142
    18    -0.000532
    19     0.000737
Sym=     7a
Ene=   -0.634841E+00
Spin= Alpha
Occup= 1.994858
     1    -0.053144
     2    -0.348294
     3     0.506784
     4     0.277212
     5     0.093875
     6    -0.130013
     7    -0.060603
     8     0.180693
     9    -0.250281
    10    -0.116646
    11     0.260189
    12    -0.360395
    13    -0.167965
    14     0.013199
    15     0.013856
    16     0.012783
    17    -0.001142
    18    -0.000532
    19     0.000737
Sym=     8a
Ene=   -0.236398E+00
Spin= Alpha
Occup= 1.000000
     1    -0.000000
     2     0.000000
     3    -0.000001
     4    -0.000001
     5     0.069315
     6    -0.066706
     7     0.250503
     8     0.126389
     9    -0.121632
    10     0.456767
    11     0.168476
    12    -0.162132
    13     0.608861
    14     0.000023
    15     0.000003
    16    -0.000023
    17     0.000015
    18     0.000006
    19     0.000017
Sym=     9a
Ene=   -0.236398E+00
Spin= Alpha
Occup= 1.000000
     1     0.000000
     2     0.000000
     3     0.000000
     4    -0.000001
     5     0.213571
     6     0.161668
     7    -0.016046
     8     0.389427
     9     0.294785
    10    -0.029259
    11     0.519093
    12     0.392938
    13    -0.039000
    14    -0.000000
    15    -0.000015
    16     0.000012
    17    -0.000012
    18     0.000028
    19     0.000013
Sym=    10a
Ene=   -0.448103E-02
Spin= Alpha
Occup= 0.005142
     1    -0.038176
     2    -0.310403
     3     1.113775
     4    -0.835889
     5     0.145401
     6    -0.201357
     7    -0.093866
     8     0.498469
     9    -0.690301
    10    -0.321796
    11    -0.423866
    12     0.586985
    13     0.273635
    14    -0.114803
    15     0.107364
    16    -0.255927
    17    -0.386943
    18    -0.180359
    19     0.249797
Sym=    11a
Ene=   -0.448094E-02
Spin= Alpha
Occup= 0.005142
     1     0.038176
     2     0.310409
     3    -1.113791
     4     0.835889
     5     0.145367
     6    -0.201396
     7    -0.093837
     8     0.498355
     9    -0.690434
    10    -0.321697
    11    -0.423767
    12     0.587100
    13     0.273550
    14     0.114858
    15    -0.107429
    16     0.255958
    17     0.386935
    18     0.180318
    19    -0.249779
Sym=    12a
Ene=   -0.486686E-03
Spin= Alpha
Occup= 0.000056
     1     0.077607
     2     0.879592
     3    -2.368495
     4    -0.196501
     5    -0.029501
     6     0.109987
     7    -0.281694
     8    -0.101238
     9     0.377441
    10    -0.966688
    11     0.087627
    12    -0.326695
    13     0.836718
    14     1.028386
    15     1.090914
    16     0.935533
    17    -0.118678
    18    -0.062334
    19     0.100333
Sym=    13a
Ene=   -0.486157E-03
Spin= Alpha
Occup= 0.000056
     1     0.077582
     2     0.879318
     3    -2.367728
     4    -0.196530
     5     0.233383
     6     0.087461
     7     0.173868
     8     0.800901
     9     0.300140
    10     0.596662
    11    -0.693222
    12    -0.259787
    13    -0.516441
    14     0.994810
    15     1.093368
    16     0.965783
    17    -0.135603
    18    -0.085454
    19     0.067177
Sym=    14a
Ene=   -0.483626E-03
Spin= Alpha
Occup= 0.000056
     1    -0.077460
     2    -0.877995
     3     2.364035
     4     0.196674
     5     0.204180
     6     0.197776
     7    -0.108075
     8     0.700684
     9     0.678707
    10    -0.370883
    11    -0.606480
    12    -0.587458
    13     0.321019
    14    -1.001403
    15    -1.072365
    16    -0.976001
    17     0.149677
    18     0.040464
    19    -0.093256
Sym=    15a
Ene=   -0.408734E-05
Spin= Alpha
Occup= 0.000001
     1     0.000000
     2     0.000003
     3    -0.000008
     4    -0.000002
     5     0.000001
     6    -0.000002
     7    -0.000000
     8     0.000005
     9    -0.000007
    10    -0.000001
    11    -0.000004
    12     0.000006
    13     0.000001
    14     0.530280
    15    -0.022773
    16    -0.507495
    17    -0.414554
    18     0.256231
    19    -0.634806
Sym=    16a
Ene=   -0.134776E-07
Spin= Alpha
Occup= 0.000000
     1    -0.003953
     2    -0.281078
     3     0.229575
     4     1.791813
     5    -0.000197
     6    -0.000054
     7    -0.000191
     8    -0.000677
     9    -0.000185
    10    -0.000656
    11     0.000587
    12     0.000160
    13     0.000569
    14    -0.914353
    15    -0.599793
    16    -1.027927
    17    -0.402168
    18    -0.175032
    19     0.244988
Sym=    17a
Ene=    0.000000E+00
Spin= Alpha
Occup= 0.000000
     1    -0.000096
     2    -0.006913
     3     0.005619
     4     0.044158
     5     0.009426
     6     0.001456
     7     0.011489
     8     0.032393
     9     0.005003
    10     0.039483
    11    -0.028061
    12    -0.004334
    13    -0.034204
    14     0.583003
    15    -0.255574
    16    -0.390030
    17     0.163720
    18     0.465393
    19     0.619591
Sym=    18a
Ene=    0.000000E+00
Spin= Alpha
Occup= 0.000000
     1     0.000064
     2     0.004414
     3    -0.003660
     4    -0.027964
     5     0.008275
     6     0.009274
     7    -0.007101
     8     0.028437
     9     0.031870
    10    -0.024403
    11    -0.024635
    12    -0.027609
    13     0.021140
    14    -0.428624
    15    -0.052577
    16     0.520965
    17    -0.432482
    18     0.709589
    19     0.053747
Sym=    19a
Ene=    0.000000E+00
Spin= Alpha
Occup= 0.000000
     1    -0.000168
     2    -0.012159
     3     0.009864
     4     0.077725
     5     0.001402
     6     0.002930
     7    -0.004054
     8     0.004817
     9     0.010067
    10    -0.013932
    11    -0.004174
    12    -0.008721
    13     0.012069
    14     0.353243
    15    -0.924697
    16     0.461296
    17    -0.313430
    18    -0.325165
    19     0.046414
