[Molden Format]
p30-5 set                                                                       
[Atoms] AU
 SI       1    14        0.0000        0.0000        0.0000
[GTO]
    1 0
s    5 1.00
    6903.711868600000  0.558446588743E-02
    1038.434641900000  0.417422844355E-01
     235.875814800000  0.187528023742E+00
      66.069385169000  0.478678596587E+00
      20.247945761000  0.429256952162E+00
s    3 1.00
      34.353481730000  0.898348994648E-01
       3.637078819200 -0.545685958777E+00
       1.400204859900 -0.524810829267E+00
s    1 1.00
       0.204844148050  0.100000000000E+01
s    1 1.00
       0.077994095468  0.100000000000E+01
p    5 1.00
     179.839073730000  0.101334983789E-01
      41.907258846000  0.710290410957E-01
      12.955294367000  0.255839142169E+00
       4.438326739300  0.481498047149E+00
       1.546224790400  0.385211960064E+00
p    1 1.00
       0.356076123020  0.100000000000E+01
p    1 1.00
       0.100085137620  0.100000000000E+01
d    1 1.00
       0.350000000000  0.100000000000E+01
 
[MO]
Sym=     1a
Ene=   -0.687898E+02
Spin= Alpha
Occup= 2.000000
     1    -0.993999
     2     0.027308
     3     0.027224
     4    -0.001049
     5    -0.000031
     6     0.000060
     7     0.000028
     8    -0.000002
     9    -0.000001
    10     0.000002
    11    -0.000000
    12     0.000001
    13    -0.000000
    14    -0.009611
    15    -0.009621
    16    -0.009611
    17     0.000002
    18     0.000001
    19    -0.000007
Sym=     2a
Ene=   -0.425735E+01
Spin= Alpha
Occup= 2.000000
     1     0.000067
     2    -0.000008
     3     0.000000
     4     0.000000
     5    -0.138083
     6     0.822812
     7     0.527912
     8    -0.005577
     9     0.033211
    10     0.021309
    11     0.000967
    12    -0.005756
    13    -0.003693
    14    -0.000000
    15     0.000001
    16     0.000001
    17     0.000000
    18     0.000000
    19     0.000000
Sym=     3a
Ene=   -0.488683E+01
Spin= Alpha
Occup= 1.999907
     1    -0.171077
     2    -0.595395
     3     0.010634
     4    -0.006078
     5    -0.594858
     6     0.220208
     7    -0.498822
     8    -0.022736
     9     0.008419
    10    -0.019066
    11     0.003779
    12    -0.001400
    13     0.003168
    14     0.000493
    15     0.000558
    16     0.000520
    17    -0.000024
    18     0.000009
    19     0.000054
Sym=     4a
Ene=   -0.488792E+01
Spin= Alpha
Occup= 1.999907
     1     0.171245
     2     0.595910
     3    -0.010642
     4     0.006083
     5     0.164820
     6     0.445792
     7    -0.651699
     8     0.006299
     9     0.017039
    10    -0.024912
    11    -0.001047
    12    -0.002832
    13     0.004143
    14    -0.000474
    15    -0.000565
    16    -0.000530
    17     0.000011
    18     0.000017
    19    -0.000042
Sym=     5a
Ene=   -0.488831E+01
Spin= Alpha
Occup= 1.999906
     1     0.171309
     2     0.596091
     3    -0.010649
     4     0.006085
     5    -0.758933
     6    -0.225696
     7     0.153268
     8    -0.029011
     9    -0.008625
    10     0.005860
    11     0.004824
    12     0.001433
    13    -0.000975
    14    -0.000505
    15    -0.000555
    16    -0.000504
    17     0.000005
    18     0.000018
    19    -0.000059
Sym=     6a
Ene=   -0.536187E+00
Spin= Alpha
Occup= 1.959966
     1     0.067482
     2     0.431846
     3     0.702306
     4     0.349176
     5     0.000003
     6    -0.000002
     7     0.000001
     8    -0.000001
     9    -0.000001
    10    -0.000000
    11     0.000002
    12     0.000002
    13    -0.000000
    14     0.026230
    15     0.037490
    16     0.030673
    17    -0.002263
    18    -0.001451
    19     0.008593
Sym=     7a
Ene=   -0.147099E+00
Spin= Alpha
Occup= 1.000000
     1    -0.000001
     2    -0.000002
     3    -0.000006
     4    -0.000002
     5    -0.034103
     6    -0.122951
     7     0.182613
     8     0.066434
     9     0.239519
    10    -0.355744
    11     0.105717
    12     0.381132
    13    -0.566075
    14    -0.000031
    15     0.000016
    16     0.000023
    17     0.000006
    18    -0.000023
    19    -0.000020
Sym=     8a
Ene=   -0.147099E+00
Spin= Alpha
Occup= 1.000000
     1    -0.000001
     2     0.000001
     3    -0.000000
     4     0.000007
     5    -0.217902
     6    -0.007465
     7    -0.045721
     8     0.424492
     9     0.014544
    10     0.089071
    11     0.675467
    12     0.023139
    13     0.141721
    14    -0.000021
    15    -0.000005
    16     0.000015
    17    -0.000025
    18     0.000033
    19    -0.000006
Sym=     9a
Ene=   -0.171193E-01
Spin= Alpha
Occup= 0.040034
     1     0.000001
     2    -0.000003
     3    -0.000011
     4     0.000004
     5    -0.042239
     6     0.250125
     7     0.160513
     8     0.103736
     9    -0.614350
    10    -0.394242
    11     0.056387
    12    -0.333661
    13    -0.214137
    14     0.000001
    15     0.000009
    16    -0.000000
    17    -0.000007
    18    -0.000007
    19    -0.000011
Sym=    10a
Ene=   -0.543016E-03
Spin= Alpha
Occup= 0.000094
     1    -0.081974
     2    -0.854225
     3    -2.761080
     4     0.241043
     5     0.258851
     6     0.077036
     7    -0.052294
     8    -0.988735
     9    -0.294204
    10     0.199777
    11     0.839613
    12     0.249687
    13    -0.169728
    14     1.003213
    15     1.039403
    16     1.044284
    17    -0.014436
    18     0.011006
    19    -0.000356
Sym=    11a
Ene=   -0.542450E-03
Spin= Alpha
Occup= 0.000093
     1    -0.081942
     2    -0.853880
     3    -2.759931
     4     0.240819
     5    -0.056271
     6    -0.152077
     7     0.222285
     8     0.214938
     9     0.580872
    10    -0.849068
    11    -0.182521
    12    -0.493211
    13     0.721017
    14     1.045421
    15     1.027564
    16     1.012789
    17    -0.005678
    18     0.010206
    19     0.022563
Sym=    12a
Ene=   -0.540651E-03
Spin= Alpha
Occup= 0.000093
     1     0.081826
     2     0.852723
     3     2.756124
     4    -0.240257
     5     0.202970
     6    -0.075113
     7     0.170207
     8    -0.775292
     9     0.286943
    10    -0.650113
    11     0.658363
    12    -0.243760
    13     0.551984
    14    -1.018780
    15    -1.037889
    16    -1.025139
    17    -0.012644
    18     0.025991
    19    -0.006372
Sym=    13a
Ene=   -0.157240E-05
Spin= Alpha
Occup= 0.000000
     1    -0.000001
     2    -0.000002
     3    -0.000002
     4    -0.000019
     5     0.038133
     6    -0.227584
     7    -0.146015
     8    -0.159566
     9     0.951687
    10     0.610600
    11     0.172141
    12    -1.025099
    13    -0.657733
    14    -0.000006
    15    -0.000026
    16     0.000061
    17     0.000012
    18     0.000018
    19     0.000041
Sym=    14a
Ene=   -0.170605E-08
Spin= Alpha
Occup= 0.000000
     1     0.002750
     2     0.192022
     3     0.165201
     4     1.463084
     5    -0.003243
     6     0.002348
     7    -0.004494
     8     0.012418
     9    -0.008992
    10     0.017208
    11    -0.010562
    12     0.007647
    13    -0.014633
    14    -0.486506
    15    -1.102489
    16    -0.461925
    17     0.008106
    18     0.496770
    19     0.121748
Sym=    15a
Ene=    0.000000E+00
Spin= Alpha
Occup= 0.000000
     1     0.002187
     2     0.106664
     3     0.116231
     4     0.737839
     5    -0.006684
     6    -0.004421
     7     0.005123
     8     0.025596
     9     0.016925
    10    -0.019623
    11    -0.021764
    12    -0.014381
    13     0.016687
    14    -1.068174
    15     0.117596
    16    -0.129513
    17    -0.469495
    18    -0.100862
    19    -0.319394
Sym=    16a
Ene=    0.000000E+00
Spin= Alpha
Occup= 0.000000
     1    -0.000263
     2    -0.060546
     3    -0.029815
     4    -0.529555
     5    -0.003882
     6    -0.002111
     7     0.002307
     8     0.014870
     9     0.008079
    10    -0.008840
    11    -0.012643
    12    -0.006860
    13     0.007518
    14    -0.417190
    15     0.186429
    16     0.931415
    17     0.300654
    18     0.238417
    19     0.414043
Sym=    17a
Ene=    0.000000E+00
Spin= Alpha
Occup= 0.000000
     1     0.002431
     2     0.053657
     3     0.107819
     4     0.220097
     5     0.001414
     6     0.003077
     7    -0.004424
     8    -0.005415
     9    -0.011785
    10     0.016947
    11     0.004604
    12     0.010014
    13    -0.014411
    14    -0.172334
    15     0.401699
    16    -0.653290
    17    -0.204712
    18     0.106616
    19     0.748359
Sym=    18a
Ene=    0.000000E+00
Spin= Alpha
Occup= 0.000000
     1     0.001038
     2     0.037605
     3     0.050884
     4     0.229831
     5     0.003451
     6    -0.000284
     7     0.001356
     8    -0.013216
     9     0.001085
    10    -0.005196
    11     0.011234
    12    -0.000920
    13     0.004420
    14    -0.004658
    15    -0.601260
    16     0.249040
    17    -0.342978
    18    -0.680459
    19     0.388378
Sym=    19a
Ene=    0.000000E+00
Spin= Alpha
Occup= 0.000000
     1     0.002022
     2     0.117071
     3     0.113583
     4     0.852645
     5     0.007553
     6    -0.002230
     7     0.005446
     8    -0.028923
     9     0.008540
    10    -0.020855
    11     0.024590
    12    -0.007268
    13     0.017727
    14    -0.551810
    15    -0.148586
    16    -0.518918
    17     0.727440
    18    -0.459249
    19     0.015177
