[Molden Format]
p30-5 set                                                                       
[Atoms] AU
 HE       1     2        0.0000        0.0000       -1.5225
 HE       2     2        0.0000        0.0000        1.5225
[GTO]
    1 0
s    3 1.00
      38.354936737000  0.401838903516E-01
       5.768908147900  0.261391344439E+00
       1.239940703500  0.793039157864E+00
s    1 1.00
       0.297578159530  0.100000000000E+01
p    1 1.00
       1.000000000000  0.100000000000E+01
 
    2 0
s    3 1.00
      38.354936737000  0.401838903516E-01
       5.768908147900  0.261391344439E+00
       1.239940703500  0.793039157864E+00
s    1 1.00
       0.297578159530  0.100000000000E+01
p    1 1.00
       1.000000000000  0.100000000000E+01
 
[MO]
Sym=     1a
Ene=   -0.132958E+01
Spin= Alpha
Occup= 1.987555
     1     0.149469
     2     0.104451
     3     0.000010
     4     0.000004
     5     0.015380
     6     0.573123
     7     0.475868
     8     0.000001
     9    -0.000012
    10    -0.020589
Sym=     2a
Ene=   -0.929514E+00
Spin= Alpha
Occup= 1.000000
     1     0.746869
     2     0.315878
     3     0.000008
     4     0.000007
     5    -0.005487
     6    -0.173455
     7    -0.165605
     8     0.000009
     9    -0.000000
    10     0.007370
Sym=     3a
Ene=   -0.104516E-01
Spin= Alpha
Occup= 0.006511
     1     0.130653
     2    -0.002047
     3     0.000007
     4    -0.000008
     5    -0.034171
     6     1.142653
     7    -1.178868
     8    -0.000014
     9    -0.000005
    10     0.068423
Sym=     4a
Ene=   -0.352066E-02
Spin= Alpha
Occup= 0.001922
     1    -0.000858
     2     0.000445
     3    -0.016534
     4    -0.021712
     5     0.000943
     6     0.000992
     7    -0.001554
     8    -0.605192
     9    -0.795186
    10    -0.011954
Sym=     5a
Ene=   -0.333568E-04
Spin= Alpha
Occup= 0.000015
     1     0.674385
     2    -0.888697
     3     0.000012
     4     0.000003
     5    -0.795719
     6    -0.212287
     7     0.454770
     8     0.000008
     9     0.000020
    10    -0.252942
Sym=     6a
Ene=   -0.351807E-02
Spin= Alpha
Occup= 0.001918
     1     0.000004
     2     0.000006
     3    -0.021720
     4     0.016521
     5     0.000006
     6    -0.000005
     7     0.000010
     8    -0.795245
     9     0.605237
    10    -0.000000
Sym=     7a
Ene=   -0.369737E-02
Spin= Alpha
Occup= 0.002049
     1    -0.071587
     2     0.037860
     3     0.000199
     4     0.000264
     5     0.079058
     6     0.083569
     7    -0.129232
     8     0.007365
     9     0.009676
    10    -0.981836
Sym=     8a
Ene=   -0.177766E-04
Spin= Alpha
Occup= 0.000008
     1     0.000031
     2    -0.000049
     3     0.260106
     4     0.965243
     5     0.000036
     6     0.000004
     7    -0.000004
     8    -0.009629
     9    -0.035705
    10    -0.000001
Sym=     9a
Ene=   -0.177612E-04
Spin= Alpha
Occup= 0.000008
     1    -0.000028
     2     0.000024
     3     0.965243
     4    -0.260106
     5    -0.000001
     6    -0.000012
     7    -0.000000
     8    -0.035717
     9     0.009618
    10     0.000001
Sym=    10a
Ene=   -0.215449E-04
Spin= Alpha
Occup= 0.000013
     1     0.812606
     2    -0.993443
     3     0.000003
     4    -0.000053
     5     0.627964
     6    -0.034775
     7     0.147355
     8    -0.000000
     9    -0.000002
    10    -0.043682
