[Molden Format]
p30-5 set                                                                       
[Atoms] AU
 H        1     1        0.0000        0.0000       -1.7482
 H        2     1        0.0000        0.0000        1.7482
[GTO]
    1 0
s    3 1.00
      13.010701000000  0.334854848130E-01
       1.962257200000  0.234721870881E+00
       0.444537960000  0.813770285260E+00
s    1 1.00
       0.121949620000  0.100000000000E+01
p    1 1.00
       0.800000000000  0.100000000000E+01
 
    2 0
s    3 1.00
      13.010701000000  0.334854848130E-01
       1.962257200000  0.234721870881E+00
       0.444537960000  0.813770285260E+00
s    1 1.00
       0.121949620000  0.100000000000E+01
p    1 1.00
       0.800000000000  0.100000000000E+01
 
[MO]
Sym=     1a
Ene=   -0.419755E+00
Spin= Alpha
Occup= 1.000000
     1     0.410088
     2     0.278603
     3     0.000000
     4     0.000000
     5     0.036661
     6     0.410088
     7     0.278603
     8     0.000000
     9     0.000000
    10    -0.036661
Sym=     2a
Ene=    0.000000E+00
Spin= Alpha
Occup= 0.000000
     1     0.493883
     2     0.394710
     3     0.000000
     4     0.000000
     5     0.003034
     6    -0.493883
     7    -0.394710
     8     0.000000
     9     0.000000
    10     0.003034
Sym=     3a
Ene=    0.000000E+00
Spin= Alpha
Occup= 0.000000
     1     0.904996
     2    -0.788889
     3     0.000000
     4     0.000000
     5     0.011912
     6     0.904996
     7    -0.788889
     8     0.000000
     9     0.000000
    10    -0.011912
Sym=     4a
Ene=    0.000000E+00
Spin= Alpha
Occup= 0.000000
     1    -0.839267
     2     1.240593
     3     0.000000
     4     0.000000
     5    -0.051154
     6     0.839267
     7    -1.240593
     8     0.000000
     9     0.000000
    10    -0.051154
Sym=     5a
Ene=    0.000000E+00
Spin= Alpha
Occup= 0.000000
     1    -0.005079
     2    -0.080036
     3     0.000000
     4     0.000000
     5     0.687658
     6    -0.005079
     7    -0.080036
     8     0.000000
     9     0.000000
    10    -0.687658
Sym=     6a
Ene=    0.000000E+00
Spin= Alpha
Occup= 0.000000
     1     0.000000
     2     0.000000
     3     0.192786
     4     0.677570
     5     0.000000
     6     0.000000
     7     0.000000
     8     0.192786
     9     0.677570
    10     0.000000
Sym=     7a
Ene=    0.000000E+00
Spin= Alpha
Occup= 0.000000
     1     0.000000
     2     0.000000
     3     0.677570
     4    -0.192786
     5     0.000000
     6     0.000000
     7     0.000000
     8     0.677570
     9    -0.192786
    10     0.000000
Sym=     8a
Ene=    0.000000E+00
Spin= Alpha
Occup= 0.000000
     1     0.000000
     2     0.000000
     3     0.620936
     4     0.343843
     5     0.000000
     6     0.000000
     7     0.000000
     8    -0.620936
     9    -0.343843
    10     0.000000
Sym=     9a
Ene=    0.000000E+00
Spin= Alpha
Occup= 0.000000
     1     0.000000
     2     0.000000
     3    -0.343843
     4     0.620936
     5     0.000000
     6     0.000000
     7     0.000000
     8     0.343843
     9    -0.620936
    10     0.000000
Sym=    10a
Ene=    0.000000E+00
Spin= Alpha
Occup= 0.000000
     1    -0.149349
     2     0.345405
     3     0.000000
     4     0.000000
     5     0.745250
     6     0.149349
     7    -0.345405
     8     0.000000
     9     0.000000
    10     0.745250
