[Molden Format]
p30-5 set                                                                       
[Atoms] AU
 HE       1     2        0.0000        0.0000       -1.2687
 HE       2     2        0.0000        0.0000        1.2687
[GTO]
    1 0
s    3 1.00
      38.354936737000  0.401838903516E-01
       5.768908147900  0.261391344439E+00
       1.239940703500  0.793039157864E+00
s    1 1.00
       0.297578159530  0.100000000000E+01
p    1 1.00
       1.000000000000  0.100000000000E+01
 
    2 0
s    3 1.00
      38.354936737000  0.401838903516E-01
       5.768908147900  0.261391344439E+00
       1.239940703500  0.793039157864E+00
s    1 1.00
       0.297578159530  0.100000000000E+01
p    1 1.00
       1.000000000000  0.100000000000E+01
 
[MO]
Sym=     1a
Ene=   -0.150091E+01
Spin= Alpha
Occup= 1.992693
     1     0.308105
     2     0.188316
     3     0.000008
     4    -0.000004
     5     0.024439
     6     0.519909
     7     0.383380
     8    -0.000014
     9    -0.000001
    10    -0.025333
Sym=     2a
Ene=   -0.809542E+00
Spin= Alpha
Occup= 1.000000
     1     0.654381
     2     0.337503
     3    -0.000009
     4     0.000003
     5    -0.009120
     6    -0.355201
     7    -0.286958
     8    -0.000009
     9    -0.000003
    10     0.004428
Sym=     3a
Ene=   -0.546631E-02
Spin= Alpha
Occup= 0.003136
     1     0.242014
     2    -0.012462
     3     0.000008
     4    -0.000004
     5    -0.082776
     6     1.116381
     7    -1.174791
     8    -0.000001
     9    -0.000007
    10     0.084772
Sym=     4a
Ene=   -0.357877E-03
Spin= Alpha
Occup= 0.000187
     1    -0.924831
     2     1.133967
     3     0.000029
     4    -0.000013
     5    -0.484516
     6     0.079862
     7    -0.277806
     8    -0.000022
     9     0.000001
    10    -0.006592
Sym=     5a
Ene=   -0.258329E-02
Spin= Alpha
Occup= 0.001388
     1     0.124600
     2    -0.046841
     3    -0.000009
     4     0.000003
     5    -0.228544
     6    -0.146112
     7     0.237812
     8     0.000012
     9     0.000002
    10     0.909870
Sym=     6a
Ene=   -0.220332E-02
Spin= Alpha
Occup= 0.001136
     1     0.000011
     2    -0.000027
     3    -0.113128
     4     0.073742
     5    -0.000004
     6    -0.000002
     7     0.000004
     8    -0.825523
     9     0.538177
    10     0.000003
Sym=     7a
Ene=   -0.220331E-02
Spin= Alpha
Occup= 0.001136
     1    -0.000005
     2     0.000023
     3     0.073753
     4     0.113139
     5     0.000003
     6     0.000013
     7    -0.000017
     8     0.538175
     9     0.825521
    10    -0.000003
Sym=     8a
Ene=   -0.250689E-03
Spin= Alpha
Occup= 0.000120
     1    -0.000020
     2     0.000022
     3    -0.466911
     4     0.874848
     5    -0.000019
     6     0.000014
     7    -0.000006
     8     0.082192
     9    -0.154025
    10    -0.000011
Sym=     9a
Ene=   -0.250689E-03
Spin= Alpha
Occup= 0.000120
     1     0.000016
     2    -0.000016
     3     0.874847
     4     0.466909
     5     0.000018
     6    -0.000011
     7     0.000003
     8    -0.154030
     9    -0.082206
    10     0.000012
Sym=    10a
Ene=   -0.198394E-03
Spin= Alpha
Occup= 0.000085
     1    -0.536296
     2     0.866002
     3    -0.000014
     4     0.000003
     5     0.919785
     6     0.263929
     7    -0.666611
     8    -0.000009
     9    -0.000002
    10     0.552060
