[Molden Format]
p30-5 set                                                                       
[Atoms] AU
 H        1     1        0.0000        0.0000       -1.4985
 H        2     1        0.0000        0.0000        1.4985
[GTO]
    1 0
s    3 1.00
      13.010701000000  0.334854848130E-01
       1.962257200000  0.234721870881E+00
       0.444537960000  0.813770285260E+00
s    1 1.00
       0.121949620000  0.100000000000E+01
p    1 1.00
       0.800000000000  0.100000000000E+01
 
    2 0
s    3 1.00
      13.010701000000  0.334854848130E-01
       1.962257200000  0.234721870881E+00
       0.444537960000  0.813770285260E+00
s    1 1.00
       0.121949620000  0.100000000000E+01
p    1 1.00
       0.800000000000  0.100000000000E+01
 
[MO]
Sym=     1a
Ene=   -0.452392E+00
Spin= Alpha
Occup= 1.000000
     1     0.431651
     2     0.235200
     3     0.000000
     4     0.000000
     5     0.047444
     6     0.431651
     7     0.235200
     8     0.000000
     9     0.000000
    10    -0.047444
Sym=     2a
Ene=    0.000000E+00
Spin= Alpha
Occup= 0.000000
     1     0.515412
     2     0.437055
     3     0.000000
     4     0.000000
     5    -0.000609
     6    -0.515412
     7    -0.437055
     8     0.000000
     9     0.000000
    10    -0.000609
Sym=     3a
Ene=    0.000000E+00
Spin= Alpha
Occup= 0.000000
     1     0.880837
     2    -0.797444
     3     0.000000
     4     0.000000
     5     0.080520
     6     0.880837
     7    -0.797444
     8     0.000000
     9     0.000000
    10    -0.080520
Sym=     4a
Ene=    0.000000E+00
Spin= Alpha
Occup= 0.000000
     1    -0.832119
     2     1.350957
     3     0.000000
     4     0.000000
     5    -0.029162
     6     0.832119
     7    -1.350957
     8     0.000000
     9     0.000000
    10    -0.029162
Sym=     5a
Ene=    0.000000E+00
Spin= Alpha
Occup= 0.000000
     1    -0.170755
     2     0.035729
     3     0.000000
     4     0.000000
     5     0.651458
     6    -0.170755
     7     0.035729
     8     0.000000
     9     0.000000
    10    -0.651458
Sym=     6a
Ene=    0.000000E+00
Spin= Alpha
Occup= 0.000000
     1     0.000000
     2     0.000000
     3     0.603580
     4    -0.349710
     5     0.000000
     6     0.000000
     7     0.000000
     8     0.603580
     9    -0.349710
    10     0.000000
Sym=     7a
Ene=    0.000000E+00
Spin= Alpha
Occup= 0.000000
     1     0.000000
     2     0.000000
     3     0.349710
     4     0.603580
     5     0.000000
     6     0.000000
     7     0.000000
     8     0.349710
     9     0.603580
    10     0.000000
Sym=     8a
Ene=    0.000000E+00
Spin= Alpha
Occup= 0.000000
     1     0.000000
     2     0.000000
     3    -0.296141
     4     0.653033
     5     0.000000
     6     0.000000
     7     0.000000
     8     0.296141
     9    -0.653033
    10     0.000000
Sym=     9a
Ene=    0.000000E+00
Spin= Alpha
Occup= 0.000000
     1     0.000000
     2     0.000000
     3     0.653033
     4     0.296141
     5     0.000000
     6     0.000000
     7     0.000000
     8    -0.653033
     9    -0.296141
    10     0.000000
Sym=    10a
Ene=    0.000000E+00
Spin= Alpha
Occup= 0.000000
     1    -0.073227
     2     0.382388
     3     0.000000
     4     0.000000
     5     0.803834
     6     0.073227
     7    -0.382388
     8     0.000000
     9     0.000000
    10     0.803834
