[Molden Format]
p30-5 set                                                                       
[Atoms] AU
 HE       1     2        0.0000        0.0000       -1.0150
 HE       2     2        0.0000        0.0000        1.0150
[GTO]
    1 0
s    3 1.00
      38.354936737000  0.401838903516E-01
       5.768908147900  0.261391344439E+00
       1.239940703500  0.793039157864E+00
s    1 1.00
       0.297578159530  0.100000000000E+01
p    1 1.00
       1.000000000000  0.100000000000E+01
 
    2 0
s    3 1.00
      38.354936737000  0.401838903516E-01
       5.768908147900  0.261391344439E+00
       1.239940703500  0.793039157864E+00
s    1 1.00
       0.297578159530  0.100000000000E+01
p    1 1.00
       1.000000000000  0.100000000000E+01
 
[MO]
Sym=     1a
Ene=   -0.167519E+01
Spin= Alpha
Occup= 1.994667
     1     0.436037
     2     0.252033
     3    -0.000002
     4    -0.000005
     5     0.032550
     6     0.436061
     7     0.252015
     8     0.000013
     9    -0.000005
    10    -0.032538
Sym=     2a
Ene=   -0.731423E+00
Spin= Alpha
Occup= 1.000000
     1     0.530949
     2     0.378326
     3     0.000003
     4     0.000005
     5    -0.013020
     6    -0.530955
     7    -0.378304
     8    -0.000013
     9     0.000006
    10    -0.013012
Sym=     3a
Ene=   -0.224151E-02
Spin= Alpha
Occup= 0.001130
     1    -0.024393
     2    -0.136826
     3     0.000002
     4    -0.000001
     5     0.608217
     6    -0.024362
     7    -0.136895
     8     0.000016
     9    -0.000003
    10    -0.608225
Sym=     4a
Ene=   -0.233798E-02
Spin= Alpha
Occup= 0.001196
     1     0.832119
     2    -0.726004
     3     0.000002
     4    -0.000013
     5    -0.031197
     6     0.832126
     7    -0.726042
     8     0.000007
     9     0.000004
    10     0.031201
Sym=     5a
Ene=   -0.175636E-02
Spin= Alpha
Occup= 0.000874
     1     0.000009
     2    -0.000005
     3     0.000247
     4     0.665956
     5     0.000018
     6     0.000008
     7    -0.000001
     8     0.000244
     9     0.665952
    10     0.000014
Sym=     6a
Ene=   -0.175635E-02
Spin= Alpha
Occup= 0.000874
     1    -0.000014
     2     0.000024
     3     0.665956
     4    -0.000247
     5    -0.000006
     6    -0.000004
     7    -0.000015
     8     0.665952
     9    -0.000244
    10     0.000010
Sym=     7a
Ene=   -0.137674E-02
Spin= Alpha
Occup= 0.000682
     1    -0.701083
     2     1.018171
     3    -0.000014
     4     0.000008
     5    -0.289201
     6     0.701063
     7    -1.018152
     8    -0.000001
     9     0.000007
    10    -0.289168
Sym=     8a
Ene=   -0.570061E-03
Spin= Alpha
Occup= 0.000251
     1    -0.000002
     2     0.000016
     3     0.568055
     4     0.500317
     5     0.000019
     6     0.000025
     7    -0.000027
     8    -0.568056
     9    -0.500321
    10     0.000012
Sym=     9a
Ene=   -0.570055E-03
Spin= Alpha
Occup= 0.000251
     1    -0.000009
     2     0.000002
     3     0.500317
     4    -0.568055
     5    -0.000004
     6     0.000004
     7     0.000008
     8    -0.500321
     9     0.568056
    10    -0.000013
Sym=    10a
Ene=   -0.205854E-03
Spin= Alpha
Occup= 0.000075
     1    -0.279233
     2     1.050150
     3    -0.000010
     4    -0.000020
     5     1.040510
     6     0.279219
     7    -1.050146
     8     0.000003
     9     0.000004
    10     1.040514
