[Molden Format]
p30-5 set                                                                       
[Atoms] AU
 F        1     9       -1.9109       -1.3347        0.0000
 O        2     8        0.0000        1.0870        0.0000
 O        3     8        2.1497        0.4145        0.0000
[GTO]
    1 0
s    5 1.00
    2894.832599000000 -0.534932117607E-02
     435.419391200000 -0.399677343716E-01
      98.843328866000 -0.179412617888E+00
      27.485198001000 -0.468324686869E+00
       8.540549817100 -0.447241605328E+00
s    1 1.00
       1.065457803800  0.100000000000E+01
s    1 1.00
       0.332473467480  0.100000000000E+01
p    3 1.00
      22.696633924000 -0.647821482412E-01
       4.987233925700 -0.340357853553E+00
       1.349161395400 -0.734858153660E+00
p    1 1.00
       0.348298819770  0.100000000000E+01
d    1 1.00
       1.400000000000  0.100000000000E+01

    2 0
s    5 1.00
    2266.176778500000 -0.538935039217E-02
     340.870101910000 -0.402347213890E-01
      77.363135167000 -0.180081842055E+00
      21.479644940000 -0.468288576577E+00
       6.658943312400 -0.446926171602E+00
s    1 1.00
       0.809759756680  0.100000000000E+01
s    1 1.00
       0.255307722340  0.100000000000E+01
p    3 1.00
      17.721504317000  0.626302487632E-01
       3.863550544000  0.333311384824E+00
       1.048092088300  0.741486383081E+00
p    1 1.00
       0.276415444110  0.100000000000E+01
d    1 1.00
       1.200000000000  0.100000000000E+01

    3 0
s    5 1.00
    2266.176778500000 -0.538935039217E-02
     340.870101910000 -0.402347213890E-01
      77.363135167000 -0.180081842055E+00
      21.479644940000 -0.468288576577E+00
       6.658943312400 -0.446926171602E+00
s    1 1.00
       0.809759756680  0.100000000000E+01
s    1 1.00
       0.255307722340  0.100000000000E+01
p    3 1.00
      17.721504317000  0.626302487632E-01
       3.863550544000  0.333311384824E+00
       1.048092088300  0.741486383081E+00
p    1 1.00
       0.276415444110  0.100000000000E+01
d    1 1.00
       1.200000000000  0.100000000000E+01

[MO]
Sym=     1a
Ene=   -0.207304E+02
Spin= Alpha
Occup= 2.000000
     1    -0.000007
     2     0.000031
     3    -0.000198
     4    -0.000072
     5    -0.000015
     6    -0.000001
     7    -0.000302
     8     0.000105
     9    -0.000002
    10     0.000068
    11     0.000141
    12     0.000131
    13     0.000016
    14     0.000003
    15     0.000001
    16    -0.000065
    17    -0.000018
    18    -0.004451
    19     0.001742
    20    -0.000580
    21    -0.000000
    22    -0.000982
    23     0.000228
    24     0.000001
    25     0.001693
    26     0.000315
    27     0.000145
    28    -0.000560
    29     0.000002
    30     0.000002
    31     0.991269
    32    -0.032188
    33     0.012852
    34     0.002438
    35    -0.000591
    36     0.000002
    37    -0.002065
    38     0.000678
    39    -0.000001
    40     0.003704
    41     0.003895
    42     0.004229
    43     0.000111
    44     0.000001
    45     0.000001
Sym=     2a
Ene=   -0.263669E+02
Spin= Alpha
Occup= 1.999983
     1     0.992096
     2    -0.029387
     3     0.010820
     4     0.000592
     5     0.000708
     6    -0.000014
     7     0.000605
     8     0.000741
     9     0.000008
    10     0.005350
    11     0.005490
    12     0.005097
    13     0.000356
    14     0.000002
    15     0.000002
    16    -0.000106
    17    -0.000006
    18    -0.001635
    19     0.000030
    20    -0.000270
    21     0.000001
    22     0.000733
    23     0.000776
    24    -0.000003
    25     0.000064
    26     0.000005
    27     0.000170
    28    -0.000105
    29    -0.000002
    30     0.000002
    31    -0.000029
    32     0.000053
    33    -0.000136
    34    -0.000024
    35     0.000166
    36    -0.000003
    37     0.000069
    38     0.000051
    39     0.000001
    40     0.000057
    41     0.000043
    42     0.000095
    43     0.000052
    44     0.000001
    45     0.000000
Sym=     3a
Ene=   -0.207802E+02
Spin= Alpha
Occup= 1.999963
     1    -0.000138
     2     0.000129
     3    -0.002503
     4    -0.000370
     5    -0.000403
     6    -0.000000
     7    -0.000746
     8    -0.000565
     9    -0.000000
    10     0.000094
    11     0.000263
    12     0.000166
    13    -0.000048
    14     0.000000
    15    -0.000002
    16     0.992877
    17    -0.029203
    18     0.017685
    19    -0.002775
    20     0.002420
    21    -0.000001
    22     0.001423
    23    -0.001937
    24    -0.000002
    25     0.003674
    26     0.004221
    27     0.003615
    28     0.000431
    29    -0.000001
    30    -0.000001
    31     0.000078
    32     0.000040
    33    -0.005941
    34    -0.001816
    35     0.000476
    36    -0.000003
    37     0.001909
    38    -0.000276
    39     0.000001
    40     0.001623
    41     0.000376
    42     0.000156
    43    -0.000641
    44    -0.000002
    45     0.000002
Sym=     4a
Ene=   -0.993067E+00
Spin= Alpha
Occup= 1.995835
     1     0.003811
     2     0.011820
     3     0.022758
     4     0.020756
     5     0.022737
     6     0.008401
     7    -0.010898
     8    -0.007080
     9    -0.013548
    10    -0.000401
    11    -0.004026
    12     0.002183
    13    -0.004768
    14     0.001790
    15     0.002047
    16    -0.196434
    17    -0.426603
    18    -0.317571
    19     0.140818
    20    -0.089729
    21     0.433977
    22     0.071862
    23    -0.054950
    24     0.277846
    25    -0.005929
    26    -0.008695
    27    -0.010695
    28    -0.005151
    29     0.019166
    30    -0.009983
    31     0.005129
    32     0.020420
    33     0.034993
    34    -0.011482
    35     0.005023
    36     0.169670
    37    -0.028237
    38     0.014051
    39     0.086490
    40    -0.000098
    41     0.001625
    42     0.002258
    43     0.002361
    44    -0.022038
    45     0.006651
Sym=     5a
Ene=   -0.992943E+00
Spin= Alpha
Occup= 1.995832
     1    -0.003843
     2    -0.011887
     3    -0.022792
     4    -0.020520
     5    -0.022890
     6     0.008319
     7     0.010738
     8     0.007195
     9    -0.013492
    10     0.000415
    11     0.004036
    12    -0.002210
    13     0.004749
    14     0.001788
    15     0.002054
    16     0.196395
    17     0.426512
    18     0.317495
    19    -0.140755
    20     0.089843
    21     0.434055
    22    -0.071829
    23     0.055034
    24     0.277895
    25     0.005933
    26     0.008683
    27     0.010692
    28     0.005150
    29     0.019164
    30    -0.009998
    31    -0.005120
    32    -0.020390
    33    -0.034970
    34     0.011527
    35    -0.004918
    36     0.169700
    37     0.028252
    38    -0.013981
    39     0.086510
    40     0.000085
    41    -0.001620
    42    -0.002264
    43    -0.002367
    44    -0.022045
    45     0.006649
Sym=     6a
Ene=   -0.945865E+00
Spin= Alpha
Occup= 1.994951
     1     0.006082
     2     0.011880
     3     0.034188
     4    -0.020026
     5    -0.013820
     6    -0.000176
     7     0.028785
     8     0.025739
     9     0.000129
    10    -0.002069
    11    -0.000872
    12     0.000061
    13    -0.001512
    14    -0.000006
    15     0.000006
    16    -0.017990
    17    -0.045976
    18    -0.084102
    19     0.038491
    20     0.137523
    21    -0.000072
    22    -0.004431
    23     0.083422
    24    -0.000044
    25     0.013738
    26    -0.015980
    27    -0.002415
    28     0.017086
    29    -0.000007
    30    -0.000001
    31     0.201309
    32     0.423321
    33     0.346661
    34     0.269682
    35     0.382954
    36    -0.000076
    37     0.154736
    38     0.261638
    39    -0.000044
    40    -0.007710
    41     0.020199
    42     0.008488
    43    -0.014942
    44     0.000004
    45    -0.000004
Sym=     7a
Ene=   -0.948762E+00
Spin= Alpha
Occup= 1.994875
     1    -0.006173
     2    -0.013271
     3    -0.028100
     4     0.021804
     5     0.012677
     6     0.000288
     7    -0.025055
     8    -0.023586
     9    -0.000213
    10     0.001063
    11     0.000110
    12    -0.000547
    13     0.000557
    14     0.000019
    15    -0.000015
    16     0.000615
    17    -0.012022
    18    -0.006126
    19    -0.064022
    20    -0.115545
    21     0.000062
    22    -0.057598
    23    -0.049896
    24     0.000037
    25    -0.011682
    26     0.010108
    27    -0.003296
    28    -0.019405
    29     0.000002
    30    -0.000003
    31     0.200825
    32     0.422920
    33     0.328497
    34     0.029418
    35    -0.475371
    36     0.000074
    37     0.002771
    38    -0.311064
    39     0.000043
    40     0.013025
    41    -0.000091
    42     0.009479
    43     0.019780
    44    -0.000006
    45     0.000001
Sym=     8a
Ene=   -0.984818E+00
Spin= Alpha
Occup= 1.994116
     1     0.173987
     2     0.365280
     3     0.266843
     4    -0.098258
     5     0.096458
     6     0.541296
     7     0.070035
     8    -0.063529
     9    -0.371004
    10     0.004598
    11     0.002119
    12     0.002486
    13     0.000843
    14    -0.003184
    15    -0.003282
    16    -0.005639
    17    -0.015527
    18    -0.013499
    19     0.003034
    20    -0.008269
    21     0.017002
    22     0.009506
    23    -0.001691
    24     0.008684
    25    -0.000713
    26     0.002626
    27    -0.002010
    28     0.003040
    29     0.004281
    30     0.003525
    31    -0.000901
    32    -0.002857
    33    -0.001235
    34     0.004784
    35     0.010943
    36     0.018938
    37     0.002941
    38     0.006000
    39     0.012345
    40    -0.000743
    41     0.000325
    42    -0.000433
    43     0.000049
    44    -0.001553
    45     0.001221
Sym=     9a
Ene=   -0.988386E+00
Spin= Alpha
Occup= 1.994099
     1     0.173833
     2     0.364125
     3     0.268830
     4    -0.307828
     5     0.253829
     6    -0.389230
     7     0.214685
     8    -0.170134
     9     0.266780
    10     0.006566
    11     0.000067
    12     0.002124
    13     0.001481
    14     0.002268
    15     0.002407
    16    -0.003894
    17    -0.013192
    18    -0.003516
    19     0.002063
    20    -0.008882
    21    -0.012044
    22     0.016682
    23    -0.002839
    24    -0.006130
    25    -0.002773
    26     0.004610
    27    -0.002166
    28     0.002927
    29    -0.003076
    30    -0.002542
    31    -0.002709
    32    -0.009008
    33    -0.005946
    34     0.011252
    35     0.015244
    36    -0.013535
    37     0.008752
    38     0.005819
    39    -0.008814
    40    -0.001627
    41     0.000088
    42    -0.001258
    43     0.000721
    44     0.001108
    45    -0.000877
Sym=    10a
Ene=   -0.980753E+00
Spin= Alpha
Occup= 1.994067
     1    -0.174876
     2    -0.369458
     3    -0.262564
     4    -0.439892
     5     0.307231
     6     0.151532
     7     0.301461
     8    -0.209942
     9    -0.103866
    10     0.000630
    11    -0.007259
    12    -0.003690
    13     0.000635
    14    -0.000937
    15    -0.000898
    16     0.010172
    17     0.021610
    18     0.039746
    19    -0.005534
    20     0.007524
    21     0.004847
    22     0.009248
    23    -0.000889
    24     0.002480
    25    -0.004526
    26     0.002416
    27     0.001632
    28    -0.003282
    29     0.001204
    30     0.000987
    31    -0.003929
    32    -0.013209
    33    -0.011711
    34     0.012199
    35     0.001175
    36     0.005339
    37     0.012599
    38    -0.005699
    39     0.003490
    40    -0.001552
    41    -0.000862
    42    -0.001653
    43     0.001627
    44    -0.000443
    45     0.000344
Sym=    11a
Ene=   -0.118188E+01
Spin= Alpha
Occup= 1.981149
     1     0.000231
     2     0.004226
     3     0.001085
     4     0.025764
     5     0.004244
     6     0.000074
     7    -0.027266
     8     0.002579
     9    -0.000053
    10     0.001357
    11    -0.001424
    12     0.001716
    13    -0.001481
    14     0.000028
    15    -0.000021
    16     0.076159
    17     0.169897
    18    -0.048722
    19     0.438973
    20    -0.189754
    21     0.000019
    22     0.185511
    23    -0.099656
    24     0.000009
    25     0.039023
    26    -0.003883
    27    -0.011227
    28    -0.024324
    29     0.000002
    30     0.000001
    31     0.071359
    32     0.160883
    33    -0.089142
    34    -0.430992
    35     0.142178
    36     0.000009
    37    -0.176251
    38     0.064755
    39     0.000008
    40     0.044139
    41    -0.005985
    42    -0.011625
    43    -0.017471
    44     0.000001
    45     0.000000
Sym=    12a
Ene=   -0.630324E+00
Spin= Alpha
Occup= 1.786817
     1    -0.006232
     2    -0.016942
     3    -0.050186
     4    -0.287835
     5    -0.401414
     6     0.000029
     7     0.187520
     8     0.265792
     9    -0.000013
    10     0.004882
    11     0.008702
    12    -0.005512
    13     0.014573
    14     0.000008
    15    -0.000012
    16    -0.018771
    17    -0.051515
    18    -0.047960
    19    -0.119983
    20    -0.405948
    21     0.000065
    22    -0.055134
    23    -0.270168
    24     0.000056
    25    -0.002204
    26     0.014615
    27    -0.009825
    28     0.011561
    29    -0.000002
    30     0.000001
    31     0.001121
    32     0.006049
    33    -0.010330
    34     0.056444
    35     0.153761
    36    -0.000003
    37     0.060914
    38     0.154602
    39    -0.000015
    40     0.003134
    41    -0.001726
    42     0.001554
    43     0.007186
    44     0.000003
    45     0.000001
Sym=    13a
Ene=   -0.299876E+00
Spin= Alpha
Occup= 1.000000
     1    -0.000001
     2    -0.000005
     3    -0.000007
     4     0.000018
     5    -0.000008
     6    -0.034269
     7    -0.000008
     8     0.000005
     9     0.030485
    10    -0.000051
    11    -0.000022
    12     0.000064
    13     0.000041
    14    -0.001183
    15    -0.002168
    16     0.000001
    17    -0.000001
    18    -0.000002
    19    -0.000006
    20    -0.000023
    21    -0.333946
    22    -0.000014
    23    -0.000033
    24    -0.291243
    25     0.000004
    26     0.000002
    27     0.000002
    28    -0.000001
    29     0.012207
    30    -0.000985
    31     0.000000
    32     0.000007
    33    -0.000001
    34     0.000025
    35     0.000065
    36     0.676800
    37     0.000018
    38     0.000044
    39     0.449874
    40    -0.000003
    41    -0.000001
    42    -0.000002
    43     0.000002
    44    -0.004849
    45     0.001153
Sym=    14a
Ene=   -0.107952E+00
Spin= Alpha
Occup= 0.213071
     1    -0.038706
     2    -0.080042
     3    -0.142125
     4     0.351592
     5     0.467030
     6     0.000095
     7    -0.166075
     8    -0.206334
     9    -0.000022
    10     0.001527
    11     0.006665
    12    -0.001253
    13     0.006565
    14    -0.000099
    15    -0.000034
    16     0.040617
    17     0.072375
    18     0.153391
    19    -0.252465
    20    -0.530085
    21     0.000038
    22    -0.168524
    23    -0.327349
    24     0.000053
    25    -0.001062
    26     0.008052
    27     0.000915
    28     0.003286
    29    -0.000035
    30     0.000012
    31    -0.002674
    32    -0.008760
    33     0.005450
    34     0.094652
    35     0.185283
    36    -0.000010
    37     0.086545
    38     0.201244
    39    -0.000026
    40    -0.001890
    41    -0.002260
    42    -0.000402
    43     0.005147
    44     0.000010
    45    -0.000003
Sym=    15a
Ene=   -0.221539E-01
Spin= Alpha
Occup= 0.017827
     1     0.002182
     2     0.000505
     3     0.025161
     4     0.004036
     5    -0.010412
     6     0.000043
     7    -0.016714
     8     0.021251
     9     0.000056
    10    -0.001458
    11    -0.002559
    12     0.000041
    13    -0.000327
    14     0.001149
    15    -0.000760
    16     0.139840
    17     0.438773
    18     0.123320
    19     0.736138
    20    -0.257500
    21    -0.000008
    22     0.148758
    23    -0.007897
    24    -0.000005
    25     0.065296
    26    -0.034955
    27    -0.040902
    28    -0.054512
    29     0.000031
    30     0.000045
    31    -0.136317
    32    -0.414172
    33    -0.133755
    34     0.742208
    35    -0.224473
    36    -0.000012
    37     0.164480
    38    -0.055892
    39     0.000002
    40    -0.082920
    41     0.033504
    42     0.054141
    43     0.038904
    44     0.000008
    45     0.000005
Sym=    16a
Ene=   -0.142137E-02
Spin= Alpha
Occup= 0.000596
     1     0.063261
     2     0.235664
     3    -0.062822
     4     0.053392
     5    -0.120024
     6    -0.031709
     7     0.045784
     8    -0.171648
     9    -0.037954
    10    -0.514568
    11     0.031016
    12     0.229109
    13     0.763041
    14     0.353451
    15    -0.229798
    16     0.000624
    17     0.020417
    18    -0.024638
    19     0.040986
    20     0.043780
    21    -0.001289
    22    -0.087634
    23    -0.041017
    24     0.005925
    25     0.004081
    26    -0.015975
    27     0.006742
    28     0.027809
    29    -0.003310
    30    -0.005409
    31    -0.003323
    32    -0.005018
    33     0.026992
    34    -0.019614
    35     0.003322
    36    -0.000992
    37     0.005562
    38     0.011787
    39    -0.001221
    40     0.008172
    41     0.011174
    42     0.017064
    43     0.000405
    44     0.001665
    45    -0.000715
Sym=    17a
Ene=   -0.141510E-02
Spin= Alpha
Occup= 0.000590
     1    -0.062072
     2    -0.232931
     3     0.066466
     4     0.106504
     5    -0.001238
     6     0.083369
     7     0.154829
     8     0.021865
     9     0.098281
    10     0.030248
    11    -0.121273
    12     0.338994
    13    -0.489871
    14     0.609635
    15    -0.522366
    16     0.001986
    17     0.022500
    18    -0.143607
    19    -0.007325
    20    -0.057554
    21     0.004752
    22    -0.072500
    23     0.102720
    24    -0.022269
    25     0.006989
    26     0.002857
    27     0.009211
    28    -0.009336
    29     0.005013
    30     0.011274
    31    -0.001125
    32    -0.007027
    33     0.102617
    34     0.001497
    35    -0.004901
    36    -0.008254
    37    -0.072605
    38     0.020095
    39     0.013081
    40    -0.000554
    41    -0.000002
    42     0.010456
    43     0.002827
    44    -0.002572
    45     0.001767
Sym=    18a
Ene=   -0.141666E-02
Spin= Alpha
Occup= 0.000591
     1     0.061541
     2     0.228722
     3    -0.057830
     4    -0.055980
     5    -0.027088
     6     0.114652
     7    -0.085955
     8    -0.054167
     9     0.135857
    10     0.337738
    11     0.391481
    12    -0.976160
    13     0.126770
    14     0.294086
    15    -0.245434
    16    -0.002151
    17    -0.002009
    18     0.009996
    19     0.019095
    20     0.051748
    21     0.007285
    22    -0.017522
    23    -0.064740
    24    -0.031754
    25    -0.002623
    26    -0.004265
    27     0.001966
    28     0.016901
    29     0.007620
    30     0.015245
    31     0.001689
    32     0.001113
    33     0.011051
    34    -0.002337
    35    -0.000651
    36    -0.003987
    37     0.004129
    38     0.012302
    39     0.011717
    40     0.002036
    41    -0.003593
    42    -0.011378
    43    -0.005247
    44    -0.003574
    45     0.002351
Sym=    19a
Ene=   -0.639827E-02
Spin= Alpha
Occup= 0.004587
     1     0.001374
     2     0.019412
     3    -0.012406
     4    -0.012429
     5    -0.003442
     6    -0.000643
     7    -0.069834
     8     0.031747
     9    -0.000785
    10    -0.003291
    11    -0.004048
    12     0.006762
    13     0.002074
    14     0.004926
    15    -0.003371
    16    -0.006397
    17     0.009794
    18    -0.270795
    19    -0.017468
    20     0.082287
    21     0.000024
    22    -0.094360
    23     0.169088
    24     0.000039
    25    -0.032909
    26     0.003948
    27     0.006151
    28    -0.002799
    29     0.000025
    30    -0.000113
    31    -0.281547
    32    -1.328827
    33     1.140679
    34    -0.079568
    35     0.716160
    36    -0.000098
    37    -0.108483
    38    -0.814674
    39     0.000079
    40     0.262170
    41     0.002390
    42     0.249621
    43     0.009115
    44    -0.000005
    45     0.000061
Sym=    20a
Ene=   -0.107428E-02
Spin= Alpha
Occup= 0.000516
     1    -0.003743
     2    -0.005776
     3    -0.013017
     4     0.018372
     5     0.018750
     6    -0.000040
     7     0.021005
     8     0.025770
     9    -0.000096
    10     0.004705
    11     0.014443
    12     0.006888
    13    -0.001931
    14    -0.002780
    15     0.001199
    16     0.000026
    17    -0.033399
    18     0.123080
    19    -0.092567
    20    -0.093131
    21    -0.000107
    22     0.126293
    23    -0.006531
    24     0.000349
    25     0.007591
    26    -0.046187
    27    -0.019606
    28     0.075126
    29    -0.000592
    30     0.000221
    31     0.103180
    32     0.396587
    33    -0.170057
    34     0.055368
    35     0.040489
    36     0.000158
    37    -0.027517
    38    -0.100580
    39    -0.000134
    40    -0.400651
    41    -0.391508
    42     0.378217
    43    -0.819156
    44     0.000730
    45     0.000604
Sym=    21a
Ene=   -0.525796E-02
Spin= Alpha
Occup= 0.003674
     1     0.004476
     2    -0.065374
     3     0.284841
     4    -0.037585
     5    -0.046100
     6     0.007989
     7     0.047650
     8     0.118684
     9     0.129047
    10    -0.014169
    11    -0.006979
    12    -0.010002
    13     0.018018
    14    -0.000253
    15     0.005202
    16     0.263924
    17     1.324631
    18    -1.351632
    19    -0.240934
    20     0.178009
    21     0.660070
    22     0.139072
    23    -0.063053
    24    -0.842176
    25    -0.205788
    26    -0.202580
    27    -0.005858
    28     0.000403
    29    -0.058777
    30     0.042543
    31     0.005266
    32    -0.022352
    33     0.340446
    34    -0.046367
    35     0.013428
    36     0.094086
    37    -0.153236
    38     0.068949
    39     0.138368
    40     0.032921
    41    -0.004226
    42    -0.002730
    43    -0.011521
    44     0.007267
    45    -0.003156
Sym=    22a
Ene=   -0.525698E-02
Spin= Alpha
Occup= 0.003672
     1    -0.004487
     2     0.065255
     3    -0.284609
     4     0.037748
     5     0.046252
     6     0.007791
     7    -0.047469
     8    -0.118638
     9     0.128847
    10     0.005561
    11     0.003543
    12     0.021719
    13    -0.011333
    14    -0.005274
    15     0.007966
    16    -0.263964
    17    -1.324680
    18     1.350765
    19     0.241294
    20    -0.177658
    21     0.659927
    22    -0.139946
    23     0.062903
    24    -0.841941
    25     0.206089
    26     0.202117
    27     0.006106
    28    -0.000024
    29    -0.058606
    30     0.043505
    31    -0.005293
    32     0.022136
    33    -0.339441
    34     0.046433
    35    -0.013378
    36     0.094059
    37     0.152583
    38    -0.068925
    39     0.138381
    40    -0.032953
    41     0.004233
    42     0.002790
    43     0.011600
    44     0.007266
    45    -0.003113
Sym=    23a
Ene=   -0.896423E-03
Spin= Alpha
Occup= 0.000036
     1     0.004424
     2    -0.060702
     3     0.324051
     4    -0.005795
     5     0.005734
     6    -0.000195
     7     0.090195
     8     0.164165
     9    -0.000344
    10    -0.020853
    11    -0.020448
    12    -0.021011
    13     0.017639
    14     0.005940
    15    -0.002021
    16    -0.688402
    17    -2.078498
    18    -1.738020
    19    -0.061436
    20     0.079229
    21     0.000119
    22     0.019804
    23     0.087453
    24    -0.000190
    25     1.483409
    26     1.435946
    27     1.460385
    28    -0.024377
    29    -0.000639
    30    -0.002530
    31    -0.017935
    32    -0.097161
    33     0.544504
    34     0.166147
    35    -0.055135
    36     0.000044
    37    -0.251497
    38     0.063641
    39    -0.000041
    40    -0.079776
    41    -0.036350
    42    -0.029663
    43     0.032854
    44     0.000024
    45    -0.000044
Sym=    24a
Ene=   -0.244884E-04
Spin= Alpha
Occup= 0.000001
     1    -0.013516
     2     0.282251
     3    -1.098320
     4    -0.522131
     5    -0.699325
     6     0.000483
     7    -0.978975
     8    -1.293695
     9    -0.000302
    10     0.131687
    11     0.047216
    12     0.261904
    13    -0.216112
    14     0.031105
    15     0.036938
    16    -0.004854
    17    -0.309407
    18     0.996870
    19    -0.032667
    20    -0.093214
    21     0.001838
    22    -0.481063
    23    -0.679664
    24    -0.004232
    25     0.057774
    26     0.168445
    27    -0.228562
    28     0.134329
    29    -0.009819
    30    -0.018325
    31     0.004469
    32    -0.021882
    33     0.024535
    34     0.052554
    35     0.009798
    36     0.002352
    37     0.040931
    38     0.158015
    39    -0.000474
    40    -0.112297
    41     0.034253
    42    -0.030928
    43    -0.064832
    44     0.001496
    45     0.000507
Sym=    25a
Ene=   -0.174387E-07
Spin= Alpha
Occup= 0.000000
     1     0.000702
     2     0.006620
     3    -0.042687
     4     0.010623
     5    -0.006385
     6     0.000604
     7    -0.003131
     8    -0.050476
     9     0.000743
    10    -0.000202
    11    -0.007450
    12    -0.008755
    13    -0.014626
    14    -0.005524
    15     0.000735
    16     0.012665
    17    -0.023993
    18     0.652320
    19    -0.153754
    20     0.085405
    21    -0.000118
    22     0.202354
    23    -0.153361
    24     0.000178
    25    -0.165822
    26    -0.101001
    27    -0.097368
    28     0.031327
    29     0.000386
    30     0.000905
    31    -0.662331
    32    -2.038043
    33    -1.584282
    34     0.091543
    35    -0.028615
    36    -0.000068
    37     0.053862
    38     0.010895
    39     0.000011
    40     1.456468
    41     1.333360
    42     1.483815
    43    -0.065978
    44    -0.000027
    45    -0.000031
Sym=    26a
Ene=   -0.225132E-03
Spin= Alpha
Occup= 0.000112
     1    -0.001365
     2     0.009184
     3    -0.044545
     4    -0.033338
     5    -0.041425
     6     0.007750
     7    -0.055046
     8    -0.060466
     9     0.021965
    10     0.109871
    11    -0.120362
    12     0.040499
    13     0.089166
    14    -0.572365
    15    -0.718293
    16    -0.001393
    17    -0.025028
    18     0.128598
    19    -0.017608
    20    -0.017805
    21    -0.031142
    22     0.047638
    23    -0.025263
    24     0.073708
    25    -0.021238
    26     0.036969
    27    -0.014197
    28    -0.020408
    29     0.132881
    30     0.305595
    31     0.001096
    32     0.015080
    33    -0.093349
    34    -0.007522
    35     0.004434
    36    -0.039288
    37     0.067161
    38    -0.011883
    39     0.013215
    40    -0.000174
    41     0.007524
    42    -0.003729
    43    -0.013286
    44    -0.023524
    45    -0.010246
Sym=    27a
Ene=   -0.193607E-02
Spin= Alpha
Occup= 0.001023
     1    -0.000946
     2    -0.051564
     3     0.127243
     4     0.017185
     5    -0.037499
     6     0.000376
     7     0.163604
     8    -0.054910
     9     0.000555
    10    -0.000119
    11     0.002884
    12    -0.035178
    13     0.005771
    14    -0.015579
    15     0.009581
    16     0.017659
    17     0.252861
    18    -0.300150
    19     0.193032
    20    -0.094112
    21    -0.000107
    22    -0.447447
    23     0.230345
    24     0.000118
    25     0.428263
    26    -0.163551
    27    -0.152352
    28    -0.285751
    29     0.000632
    30     0.001764
    31     0.019401
    32     0.221844
    33    -0.103248
    34    -0.214356
    35     0.053577
    36    -0.000012
    37     0.417556
    38    -0.111918
    39     0.000006
    40     0.416356
    41    -0.099577
    42    -0.243114
    43    -0.199410
    44    -0.000148
    45     0.000132
Sym=    28a
Ene=   -0.828897E-02
Spin= Alpha
Occup= 0.005337
     1    -0.235486
     2    -1.088650
     3     0.880621
     4    -0.614477
     5     0.380230
     6     0.202873
     7    -0.658835
     8     0.498180
     9     0.235276
    10     0.038111
    11     0.127597
    12     0.162465
    13     0.113353
    14     0.055221
    15    -0.036004
    16    -0.006813
    17     0.040745
    18    -0.225590
    19     0.052870
    20     0.036198
    21    -0.004151
    22     0.062861
    23     0.048930
    24    -0.029854
    25    -0.001537
    26    -0.009524
    27     0.010413
    28    -0.002036
    29    -0.001935
    30     0.000369
    31     0.003038
    32    -0.007980
    33     0.068873
    34    -0.012006
    35     0.000745
    36     0.003173
    37    -0.061174
    38    -0.033772
    39     0.004461
    40    -0.000087
    41    -0.003561
    42     0.001365
    43     0.001655
    44     0.000495
    45    -0.000675
Sym=    29a
Ene=   -0.827311E-02
Spin= Alpha
Occup= 0.005310
     1    -0.235580
     2    -1.091536
     3     0.887527
     4     0.399709
     5    -0.363103
     6     0.521078
     7     0.501337
     8    -0.360728
     9     0.604657
    10     0.116698
    11     0.133502
    12     0.070406
    13     0.072261
    14    -0.095675
    15     0.082501
    16    -0.009917
    17     0.011064
    18    -0.155816
    19     0.013513
    20     0.060950
    21    -0.010507
    22     0.027024
    23     0.087907
    24    -0.077606
    25    -0.000132
    26    -0.006913
    27     0.008773
    28    -0.000839
    29    -0.004834
    30     0.000168
    31    -0.000852
    32     0.008890
    33     0.017219
    34     0.003972
    35    -0.004264
    36     0.006115
    37    -0.004981
    38     0.041688
    39     0.015025
    40     0.001152
    41     0.001222
    42    -0.006066
    43    -0.005389
    44     0.001426
    45    -0.001644
Sym=    30a
Ene=   -0.823993E-02
Spin= Alpha
Occup= 0.005293
     1    -0.235715
     2    -1.090465
     3     0.882391
     4     0.115643
     5    -0.154815
     6    -0.724432
     7     0.174864
     8    -0.120962
     9    -0.840533
    10     0.175679
    11     0.176430
    12    -0.027630
    13     0.014054
    14     0.042015
    15    -0.045541
    16    -0.008918
    17     0.016523
    18    -0.150440
    19     0.024454
    20     0.054574
    21     0.014490
    22     0.049065
    23     0.069930
    24     0.107530
    25    -0.000448
    26    -0.008838
    27     0.007822
    28    -0.001573
    29     0.006738
    30    -0.000725
    31     0.000164
    32     0.007716
    33     0.006639
    34    -0.001873
    35    -0.003841
    36    -0.009665
    37    -0.005025
    38     0.019061
    39    -0.019045
    40     0.000722
    41     0.001863
    42    -0.001934
    43    -0.002955
    44    -0.001910
    45     0.002349
Sym=    31a
Ene=   -0.111375E-02
Spin= Alpha
Occup= 0.000538
     1    -0.000670
     2     0.006446
     3    -0.045221
     4    -0.024968
     5    -0.029596
     6     0.000386
     7    -0.058749
     8    -0.057893
     9     0.000416
    10     0.002338
    11    -0.002715
    12     0.007685
    13    -0.009175
    14     0.002963
    15     0.000028
    16     0.001562
    17    -0.058617
    18     0.204231
    19    -0.004669
    20     0.140606
    21     0.000165
    22     0.054523
    23    -0.109381
    24    -0.000305
    25    -0.072277
    26     0.031376
    27    -0.054161
    28    -0.034213
    29     0.000071
    30    -0.001470
    31     0.102475
    32     0.391334
    33    -0.159289
    34     0.049304
    35    -0.070340
    36     0.000180
    37     0.003983
    38     0.117934
    39    -0.000250
    40     0.252251
    41    -1.052386
    42     0.387003
    43     0.301170
    44    -0.000220
    45    -0.000381
Sym=    32a
Ene=   -0.628475E-02
Spin= Alpha
Occup= 0.004533
     1     0.000167
     2     0.016288
     3    -0.032792
     4    -0.011981
     5    -0.009039
     6    -0.000152
     7    -0.058350
     8    -0.007437
     9    -0.000195
    10     0.000984
    11     0.000869
    12     0.005881
    13    -0.001594
    14     0.001668
    15    -0.000968
    16     0.008091
    17    -0.013670
    18     0.349420
    19     0.074634
    20     0.052795
    21     0.000004
    22     0.181622
    23     0.068979
    24    -0.000027
    25     0.019429
    26     0.010028
    27    -0.002349
    28    -0.023132
    29    -0.000003
    30    -0.000156
    31     0.278950
    32     1.325038
    33    -1.181541
    34     0.462038
    35     0.558823
    36    -0.000107
    37    -0.320728
    38    -0.754451
    39     0.000117
    40    -0.180811
    41    -0.082698
    42    -0.241712
    43     0.136765
    44    -0.000021
    45    -0.000038
Sym=    33a
Ene=   -0.102834E-02
Spin= Alpha
Occup= 0.000493
     1     0.002106
     2     0.009913
     3     0.038764
     4     0.036019
     5     0.066202
     6     0.009142
     7     0.032180
     8     0.095897
     9     0.032371
    10    -0.011619
    11    -0.008693
    12     0.004331
    13     0.003176
    14     0.006686
    15     0.008788
    16     0.045312
    17     0.214291
    18    -0.270654
    19    -0.058653
    20    -0.011358
    21     0.041571
    22     0.073641
    23     0.093604
    24    -0.081631
    25     0.154342
    26     0.432743
    27    -0.676541
    28     0.160862
    29     0.621677
    30    -0.285728
    31    -0.001453
    32    -0.044904
    33     0.144595
    34     0.063595
    35    -0.016568
    36    -0.111422
    37    -0.123528
    38    -0.017484
    39     0.000803
    40    -0.030397
    41    -0.042920
    42     0.002136
    43     0.024415
    44    -0.074243
    45     0.023577
Sym=    34a
Ene=   -0.102807E-02
Spin= Alpha
Occup= 0.000493
     1    -0.002041
     2    -0.009441
     3    -0.039129
     4    -0.037782
     5    -0.068142
     6     0.010706
     7    -0.034191
     8    -0.098233
     9     0.035223
    10     0.008557
    11     0.005862
    12     0.001937
    13     0.000328
    14    -0.001301
    15     0.011840
    16    -0.045117
    17    -0.214696
    18     0.276939
    19     0.057358
    20     0.008599
    21     0.040939
    22    -0.069889
    23    -0.091344
    24    -0.081027
    25    -0.152282
    26    -0.437119
    27     0.676960
    28    -0.158130
    29     0.628638
    30    -0.266035
    31     0.001426
    32     0.045183
    33    -0.149005
    34    -0.063495
    35     0.016578
    36    -0.111614
    37     0.125419
    38     0.014664
    39     0.000687
    40     0.030518
    41     0.042900
    42    -0.001991
    43    -0.024062
    44    -0.074163
    45     0.024199
Sym=    35a
Ene=   -0.272124E-04
Spin= Alpha
Occup= 0.000001
     1    -0.000193
     2     0.288399
     3    -1.139318
     4     0.080939
     5     0.094541
     6     0.000701
     7    -0.359737
     8    -0.458286
     9     0.001043
    10     0.045027
    11    -0.036567
    12     0.153501
    13    -0.177980
    14    -0.017549
    15    -0.016518
    16     0.016771
    17    -0.244612
    18     1.145917
    19     0.444913
    20     0.785409
    21    -0.000955
    22    -0.785545
    23    -1.658786
    24     0.001954
    25    -0.066515
    26    -0.002315
    27    -0.288617
    28     0.080131
    29     0.004346
    30     0.005164
    31     0.019806
    32     0.108676
    33    -0.214766
    34    -0.031771
    35    -0.028847
    36    -0.001362
    37     0.363204
    38     0.466660
    39     0.000362
    40    -0.229150
    41     0.100994
    42     0.012096
    43    -0.130475
    44    -0.000675
    45     0.000022
Sym=    36a
Ene=   -0.499706E-03
Spin= Alpha
Occup= 0.000016
     1     0.580845
     2     1.410763
     3     1.886821
     4    -0.005618
     5    -0.010877
     6    -0.000161
     7     0.113775
     8     0.135851
     9    -0.000200
    10    -1.352870
    11    -1.382158
    12    -1.326992
    13    -0.047421
    14    -0.004848
    15    -0.005293
    16    -0.003230
    17     0.090547
    18    -0.380541
    19     0.004004
    20     0.000423
    21    -0.000221
    22     0.146839
    23     0.223780
    24     0.000473
    25     0.008723
    26    -0.013735
    27     0.043159
    28    -0.033992
    29     0.000103
    30     0.000497
    31     0.000170
    32     0.019001
    33    -0.001879
    34    -0.012003
    35    -0.016499
    36    -0.000588
    37    -0.014260
    38     0.001562
    39     0.000552
    40     0.007573
    41     0.001299
    42     0.017573
    43     0.001329
    44    -0.000081
    45     0.000026
Sym=    37a
Ene=   -0.100253E-09
Spin= Alpha
Occup= 0.000000
     1    -0.000040
     2     0.000226
     3    -0.000986
     4    -0.001279
     5     0.000931
     6     0.003281
     7    -0.001327
     8     0.001078
     9     0.041612
    10    -0.006540
    11     0.005336
    12     0.002362
    13    -0.000082
    14     0.016201
    15     0.043538
    16    -0.000021
    17     0.000393
    18    -0.005326
    19    -0.000093
    20     0.000034
    21     0.064222
    22    -0.002269
    23     0.000796
    24    -0.466912
    25     0.001399
    26    -0.000846
    27     0.000021
    28     0.000644
    29    -0.132106
    30     0.053832
    31     0.000055
    32    -0.000925
    33     0.005844
    34     0.001009
    35    -0.000340
    36    -0.892266
    37    -0.004331
    38     0.000792
    39     1.253025
    40    -0.000248
    41    -0.001042
    42    -0.000319
    43     0.000459
    44    -0.003291
    45     0.001100
Sym=    38a
Ene=    0.000000E+00
Spin= Alpha
Occup= 0.000000
     1     0.000366
     2    -0.051054
     3     0.190933
     4     0.021431
     5    -0.009854
     6     0.012617
     7     0.145743
     8     0.051350
     9     0.034457
    10    -0.098237
    11     0.108731
    12    -0.044939
    13    -0.016117
    14     0.045020
    15     0.110527
    16    -0.020719
    17     0.081012
    18    -0.446904
    19     0.286843
    20    -0.161137
    21    -0.000749
    22    -0.087632
    23     0.268451
    24     0.015318
    25     0.825955
    26    -0.215083
    27    -0.012096
    28    -0.163046
    29     0.196781
    30     0.384041
    31     0.006991
    32     0.044669
    33     0.130769
    34     0.118883
    35    -0.045727
    36     0.001282
    37     0.007747
    38    -0.107824
    39    -0.022422
    40    -0.750303
    41     0.057382
    42     0.429180
    43     0.435806
    44    -0.027466
    45    -0.325100
Sym=    39a
Ene=    0.000000E+00
Spin= Alpha
Occup= 0.000000
     1     0.001199
     2    -0.030532
     3     0.086701
     4     0.004262
     5     0.001163
     6    -0.005772
     7     0.011102
     8     0.032904
     9    -0.005722
    10    -0.008478
    11    -0.009287
    12    -0.033119
    13     0.006032
    14    -0.056872
    15    -0.078704
    16    -0.009107
    17    -0.073963
    18     1.183129
    19     0.165774
    20    -0.085094
    21    -0.018078
    22     0.676574
    23    -0.183816
    24    -0.179281
    25     0.016759
    26     0.214385
    27     0.000743
    28    -0.272620
    29    -0.394004
    30    -0.240560
    31    -0.008346
    32     0.249852
    33    -1.503065
    34    -0.193874
    35     0.063633
    36    -0.006392
    37     1.131430
    38    -0.292052
    39     0.127731
    40    -0.356172
    41     0.248508
    42     0.369676
    43     0.125443
    44    -0.765284
    45    -0.053131
Sym=    40a
Ene=    0.000000E+00
Spin= Alpha
Occup= 0.000000
     1     0.000340
     2     0.033521
     3    -0.146139
     4    -0.027316
     5     0.017675
     6     0.016246
     7    -0.197392
     8     0.003869
     9     0.040431
    10    -0.336021
    11     0.331850
    12     0.005512
    13    -0.160412
    14     0.078881
    15     0.118040
    16     0.015871
    17    -0.305509
    18     2.273389
    19    -0.226421
    20     0.130944
    21    -0.000502
    22     1.332051
    23    -0.655027
    24     0.009086
    25    -0.385828
    26     0.095537
    27    -0.186713
    28    -0.151367
    29     0.206310
    30     0.416374
    31    -0.005164
    32     0.193985
    33    -2.023575
    34    -0.080679
    35     0.043710
    36     0.000994
    37     1.226167
    38    -0.282420
    39    -0.020224
    40     0.217136
    41     0.107407
    42    -0.105514
    43    -0.181636
    44    -0.089778
    45    -0.479041
Sym=    41a
Ene=    0.000000E+00
Spin= Alpha
Occup= 0.000000
     1     0.001091
     2    -0.037825
     3     0.099956
     4     0.002369
     5     0.005323
     6     0.012324
     7     0.010328
     8     0.052231
     9     0.026262
    10     0.502585
    11    -0.556355
    12    -0.001945
    13     0.226997
    14     0.197881
    15     0.151015
    16    -0.004600
    17    -0.035076
    18     0.660327
    19     0.082561
    20    -0.039115
    21     0.009597
    22     0.375207
    23    -0.146348
    24     0.024531
    25    -0.174720
    26     0.322459
    27    -0.026303
    28    -0.489963
    29     0.175685
    30     0.234989
    31    -0.004737
    32     0.143228
    33    -0.857511
    34    -0.108155
    35     0.038678
    36     0.001602
    37     0.682023
    38    -0.060025
    39    -0.030193
    40    -0.270071
    41     0.210999
    42     0.208074
    43    -0.053961
    44     0.217378
    45     0.098147
Sym=    42a
Ene=    0.000000E+00
Spin= Alpha
Occup= 0.000000
     1    -0.000330
     2     0.008275
     3    -0.018623
     4     0.002068
     5    -0.003073
     6     0.026549
     7     0.019787
     8    -0.021655
     9     0.081995
    10    -0.081067
    11     0.084809
    12     0.011246
    13    -0.038246
    14     0.103863
    15     0.163312
    16     0.000709
    17     0.079847
    18    -0.683645
    19    -0.015094
    20     0.006802
    21    -0.019614
    22    -0.439306
    23     0.144729
    24    -0.182378
    25    -0.090699
    26     0.015420
    27     0.060992
    28     0.154285
    29    -0.022214
    30     0.554043
    31     0.000149
    32    -0.090289
    33     0.703506
    34     0.003568
    35    -0.002494
    36    -0.004480
    37    -0.470069
    38     0.123633
    39     0.100685
    40     0.164122
    41    -0.072729
    42    -0.102336
    43    -0.054845
    44    -0.502535
    45     0.648511
Sym=    43a
Ene=    0.000000E+00
Spin= Alpha
Occup= 0.000000
     1     0.001272
     2     0.043684
     3    -0.145025
     4    -0.010802
     5    -0.000211
     6     0.003790
     7    -0.186042
     8    -0.042123
     9     0.001918
    10     0.026469
    11    -0.059651
    12     0.023742
    13    -0.062083
    14     0.014717
    15    -0.009060
    16     0.005571
    17    -0.463704
    18     3.951285
    19    -0.019171
    20     0.009892
    21     0.003068
    22     2.302911
    23    -0.750546
    24     0.022208
    25     0.435311
    26    -0.412853
    27    -0.243439
    28     0.322416
    29     0.024931
    30    -0.026987
    31    -0.009982
    32     0.495414
    33    -3.915122
    34    -0.210433
    35     0.049578
    36     0.000505
    37     2.530819
    38    -0.909735
    39    -0.014066
    40    -0.148056
    41     0.189883
    42     0.329050
    43     0.369814
    44     0.176921
    45     0.249840
Sym=    44a
Ene=    0.000000E+00
Spin= Alpha
Occup= 0.000000
     1    -0.000105
     2    -0.021489
     3     0.030615
     4    -0.022981
     5     0.024197
     6    -0.004892
     7    -0.108511
     8     0.116176
     9    -0.014707
    10    -0.354168
    11     0.372595
    12    -0.038747
    13    -0.096306
    14    -0.081079
    15    -0.077121
    16     0.006255
    17    -0.276218
    18     1.520511
    19    -0.157986
    20     0.090991
    21     0.000625
    22     1.224450
    23    -0.518390
    24     0.024990
    25     0.321538
    26    -0.133479
    27    -0.347835
    28    -0.768053
    29    -0.035719
    30    -0.149637
    31     0.014107
    32     0.064359
    33    -1.215132
    34     0.328165
    35    -0.074077
    36     0.000675
    37     0.633070
    38    -0.086065
    39    -0.010560
    40    -0.512665
    41     0.067979
    42     0.026570
    43     0.017276
    44     0.189647
    45     0.384541
Sym=    45a
Ene=    0.000000E+00
Spin= Alpha
Occup= 0.000000
     1    -0.000955
     2     0.035863
     3    -0.129815
     4    -0.022060
     5     0.013583
     6     0.002510
     7    -0.153049
     8     0.026609
     9     0.010816
    10     0.336407
    11    -0.348984
    12     0.052633
    13     0.135299
    14     0.087641
    15     0.024398
    16     0.018979
    17    -0.275227
    18     1.029789
    19    -0.335567
    20     0.177955
    21    -0.005832
    22     0.839690
    23    -0.393257
    24    -0.082148
    25     0.398862
    26    -0.557901
    27    -0.353390
    28    -0.124812
    29    -0.106914
    30     0.032237
    31     0.017822
    32    -0.092772
    33    -0.363291
    34     0.418549
    35    -0.129135
    36    -0.001932
    37    -0.070536
    38    -0.000963
    39     0.051268
    40     0.023698
    41    -0.199814
    42    -0.343584
    43    -0.020540
    44    -0.363984
    45    -0.180745
