[Molden Format]
p30-5 set                                                                       
[Atoms] AU
 F        1     9        1.0501        2.6162       -0.9335
 O        2     8        1.0501        0.5068        1.0502
 O        3     8       -1.0501       -0.5068        1.0502
 F        4     9       -1.0501       -2.6162       -0.9335
[GTO]
    1 0
s    5 1.00
    2894.832599000000 -0.534932117607E-02
     435.419391200000 -0.399677343716E-01
      98.843328866000 -0.179412617888E+00
      27.485198001000 -0.468324686869E+00
       8.540549817100 -0.447241605328E+00
s    1 1.00
       1.065457803800  0.100000000000E+01
s    1 1.00
       0.332473467480  0.100000000000E+01
p    3 1.00
      22.696633924000 -0.647821482412E-01
       4.987233925700 -0.340357853553E+00
       1.349161395400 -0.734858153660E+00
p    1 1.00
       0.348298819770  0.100000000000E+01
d    1 1.00
       1.400000000000  0.100000000000E+01
 
    2 0
s    5 1.00
    2266.176778500000 -0.538935039217E-02
     340.870101910000 -0.402347213890E-01
      77.363135167000 -0.180081842055E+00
      21.479644940000 -0.468288576577E+00
       6.658943312400 -0.446926171602E+00
s    1 1.00
       0.809759756680  0.100000000000E+01
s    1 1.00
       0.255307722340  0.100000000000E+01
p    3 1.00
      17.721504317000  0.626302487632E-01
       3.863550544000  0.333311384824E+00
       1.048092088300  0.741486383081E+00
p    1 1.00
       0.276415444110  0.100000000000E+01
d    1 1.00
       1.200000000000  0.100000000000E+01
 
    3 0
s    5 1.00
    2266.176778500000 -0.538935039217E-02
     340.870101910000 -0.402347213890E-01
      77.363135167000 -0.180081842055E+00
      21.479644940000 -0.468288576577E+00
       6.658943312400 -0.446926171602E+00
s    1 1.00
       0.809759756680  0.100000000000E+01
s    1 1.00
       0.255307722340  0.100000000000E+01
p    3 1.00
      17.721504317000  0.626302487632E-01
       3.863550544000  0.333311384824E+00
       1.048092088300  0.741486383081E+00
p    1 1.00
       0.276415444110  0.100000000000E+01
d    1 1.00
       1.200000000000  0.100000000000E+01
 
    4 0
s    5 1.00
    2894.832599000000 -0.534932117607E-02
     435.419391200000 -0.399677343716E-01
      98.843328866000 -0.179412617888E+00
      27.485198001000 -0.468324686869E+00
       8.540549817100 -0.447241605328E+00
s    1 1.00
       1.065457803800  0.100000000000E+01
s    1 1.00
       0.332473467480  0.100000000000E+01
p    3 1.00
      22.696633924000 -0.647821482412E-01
       4.987233925700 -0.340357853553E+00
       1.349161395400 -0.734858153660E+00
p    1 1.00
       0.348298819770  0.100000000000E+01
d    1 1.00
       1.400000000000  0.100000000000E+01
 
[MO]
Sym=     1a
Ene=   -0.263858E+02
Spin= Alpha
Occup= 1.999984
     1    -0.000003
     2     0.000070
     3    -0.000317
     4     0.000021
     5     0.000023
     6    -0.000022
     7     0.000051
     8     0.000169
     9    -0.000099
    10     0.000054
    11     0.000017
    12     0.000040
    13    -0.000017
    14     0.000007
    15     0.000022
    16     0.000024
    17    -0.000143
    18     0.000609
    19     0.000136
    20    -0.000067
    21    -0.000061
    22    -0.000172
    23    -0.000019
    24    -0.000220
    25    -0.000077
    26    -0.000146
    27    -0.000134
    28     0.000017
    29    -0.000032
    30    -0.000022
    31     0.000102
    32     0.000027
    33     0.001831
    34    -0.000182
    35     0.000142
    36     0.000218
    37    -0.000180
    38    -0.000976
    39    -0.000800
    40    -0.000133
    41    -0.000085
    42    -0.000087
    43     0.000003
    44     0.000001
    45     0.000094
    46    -0.992132
    47     0.029400
    48    -0.011283
    49    -0.000006
    50    -0.000890
    51    -0.000850
    52    -0.000059
    53    -0.000869
    54    -0.000786
    55    -0.005060
    56    -0.005419
    57    -0.005370
    58    -0.000014
    59    -0.000004
    60    -0.000403
Sym=     2a
Ene=   -0.263858E+02
Spin= Alpha
Occup= 1.999983
     1     0.992115
     2    -0.029435
     3     0.011250
     4     0.000002
     5    -0.000911
     6     0.000831
     7    -0.000067
     8    -0.000857
     9     0.000794
    10     0.005053
    11     0.005416
    12     0.005368
    13     0.000012
    14    -0.000005
    15    -0.000402
    16    -0.000093
    17    -0.000029
    18    -0.001804
    19    -0.000178
    20     0.000139
    21    -0.000215
    22    -0.000190
    23    -0.000972
    24     0.000796
    25     0.000134
    26     0.000083
    27     0.000083
    28     0.000000
    29     0.000001
    30     0.000093
    31    -0.000027
    32     0.000140
    33    -0.000614
    34     0.000137
    35    -0.000071
    36     0.000059
    37    -0.000178
    38    -0.000021
    39     0.000220
    40     0.000082
    41     0.000144
    42     0.000133
    43    -0.000016
    44    -0.000030
    45    -0.000023
    46     0.000010
    47    -0.000054
    48     0.000314
    49     0.000021
    50     0.000020
    51     0.000021
    52     0.000052
    53     0.000167
    54     0.000095
    55    -0.000053
    56    -0.000026
    57    -0.000044
    58     0.000017
    59     0.000010
    60     0.000022
Sym=     3a
Ene=   -0.207850E+02
Spin= Alpha
Occup= 1.999963
     1     0.000039
     2    -0.000123
     3     0.000606
     4    -0.000012
     5    -0.000084
     6     0.000087
     7    -0.000420
     8    -0.000314
     9     0.000124
    10    -0.000173
    11    -0.000194
    12    -0.000209
    13     0.000064
    14    -0.000008
    15    -0.000030
    16     0.000070
    17     0.000293
    18     0.005138
    19     0.001307
    20     0.000692
    21     0.000085
    22    -0.001418
    23    -0.001113
    24    -0.000005
    25    -0.001414
    26    -0.000347
    27    -0.000129
    28    -0.000620
    29     0.000074
    30     0.000073
    31    -0.992651
    32     0.029788
    33    -0.017362
    34     0.003317
    35     0.000287
    36    -0.001540
    37    -0.002275
    38     0.000155
    39     0.001112
    40    -0.003648
    41    -0.003981
    42    -0.003967
    43     0.000012
    44     0.000101
    45    -0.000518
    46     0.000161
    47    -0.000038
    48     0.002965
    49     0.000043
    50     0.000394
    51     0.000339
    52     0.000244
    53     0.000797
    54     0.000626
    55    -0.000183
    56    -0.000232
    57    -0.000291
    58     0.000075
    59     0.000090
    60    -0.000129
Sym=     4a
Ene=   -0.207850E+02
Spin= Alpha
Occup= 1.999963
     1    -0.000164
     2     0.000050
     3    -0.002962
     4     0.000039
     5     0.000393
     6    -0.000334
     7     0.000243
     8     0.000795
     9    -0.000632
    10     0.000180
    11     0.000225
    12     0.000287
    13    -0.000076
    14     0.000088
    15    -0.000127
    16     0.992636
    17    -0.029818
    18     0.017336
    19     0.003298
    20     0.000299
    21     0.001546
    22    -0.002287
    23     0.000165
    24    -0.001105
    25     0.003648
    26     0.003981
    27     0.003967
    28    -0.000008
    29     0.000105
    30    -0.000516
    31    -0.000071
    32    -0.000292
    33    -0.005147
    34     0.001305
    35     0.000695
    36    -0.000083
    37    -0.001417
    38    -0.001113
    39     0.000010
    40     0.001410
    41     0.000353
    42     0.000137
    43     0.000621
    44     0.000075
    45     0.000077
    46    -0.000041
    47     0.000125
    48    -0.000600
    49    -0.000012
    50    -0.000088
    51    -0.000091
    52    -0.000417
    53    -0.000317
    54    -0.000117
    55     0.000171
    56     0.000190
    57     0.000204
    58    -0.000062
    59    -0.000007
    60    -0.000030
Sym=     5a
Ene=   -0.997139E+00
Spin= Alpha
Occup= 1.995155
     1    -0.004632
     2    -0.013358
     3    -0.028600
     4     0.007610
     5     0.013283
     6    -0.029467
     7    -0.012178
     8     0.006842
     9     0.018779
    10    -0.002259
    11     0.006297
    12    -0.000688
    13    -0.001972
    14     0.001918
    15    -0.005525
    16     0.199582
    17     0.432688
    18     0.312406
    19     0.305511
    20    -0.277473
    21    -0.279714
    22     0.186597
    23    -0.189221
    24    -0.178839
    25    -0.005246
    26     0.016778
    27     0.016141
    28     0.009096
    29     0.008212
    30     0.004152
    31     0.003560
    32    -0.002715
    33    -0.003011
    34     0.007932
    35    -0.058541
    36    -0.064433
    37    -0.024450
    38    -0.034263
    39    -0.034862
    40     0.011210
    41    -0.012423
    42    -0.001911
    43    -0.008224
    44    -0.011782
    45    -0.004767
    46    -0.006281
    47    -0.013628
    48    -0.027359
    49     0.010312
    50     0.020455
    51     0.014033
    52    -0.006811
    53    -0.025965
    54    -0.020504
    55     0.000352
    56     0.000110
    57    -0.000494
    58     0.000615
    59     0.000183
    60     0.000453
Sym=     6a
Ene=   -0.996757E+00
Spin= Alpha
Occup= 1.995150
     1    -0.006282
     2    -0.013622
     3    -0.027369
     4    -0.010502
     5    -0.020202
     6     0.014293
     7     0.006965
     8     0.025803
     9    -0.020713
    10     0.000363
    11     0.000111
    12    -0.000514
    13     0.000601
    14    -0.000212
    15    -0.000462
    16     0.003527
    17    -0.002784
    18    -0.003048
    19    -0.008209
    20     0.058553
    21    -0.064523
    22     0.024267
    23     0.034254
    24    -0.034893
    25     0.011250
    26    -0.012444
    27    -0.001908
    28    -0.008225
    29     0.011804
    30     0.004778
    31     0.199357
    32     0.432358
    33     0.312024
    34    -0.305343
    35     0.277928
    36    -0.280040
    37    -0.186560
    38     0.189439
    39    -0.179083
    40    -0.005250
    41     0.016770
    42     0.016127
    43     0.009138
    44    -0.008211
    45    -0.004157
    46    -0.004667
    47    -0.013423
    48    -0.028638
    49    -0.007168
    50    -0.013040
    51    -0.029586
    52     0.011863
    53    -0.006996
    54     0.018898
    55    -0.002228
    56     0.006282
    57    -0.000711
    58    -0.001980
    59    -0.001934
    60     0.005531
Sym=     7a
Ene=   -0.985725E+00
Spin= Alpha
Occup= 1.995067
     1    -0.006289
     2    -0.011821
     3    -0.037320
     4    -0.007843
     5    -0.020354
     6     0.016034
     7     0.008522
     8     0.031711
     9    -0.026114
    10     0.000573
    11     0.001325
    12     0.000803
    13     0.000866
    14    -0.000518
    15    -0.001006
    16     0.016594
    17     0.039141
    18     0.087087
    19    -0.029973
    20     0.060992
    21    -0.067855
    22    -0.041090
    23     0.024146
    24    -0.034794
    25     0.007080
    26    -0.007558
    27     0.003010
    28    -0.010883
    29     0.014897
    30     0.006076
    31    -0.198758
    32    -0.430831
    33    -0.328678
    34    -0.010558
    35     0.326079
    36    -0.373227
    37    -0.025671
    38     0.199736
    39    -0.244158
    40    -0.013620
    41    -0.006755
    42    -0.005718
    43     0.011214
    44    -0.014267
    45    -0.007084
    46     0.004466
    47     0.012905
    48     0.027681
    49    -0.002145
    50     0.030548
    51     0.009010
    52     0.002103
    53    -0.020237
    54     0.011124
    55     0.002234
    56     0.001137
    57    -0.006299
    58     0.000018
    59    -0.000110
    60    -0.005797
Sym=     8a
Ene=   -0.985370E+00
Spin= Alpha
Occup= 1.995065
     1    -0.004449
     2    -0.012856
     3    -0.027683
     4    -0.002029
     5     0.030651
     6    -0.008999
     7     0.002040
     8    -0.020298
     9    -0.011159
    10    -0.002206
    11    -0.001127
    12     0.006287
    13    -0.000006
    14    -0.000100
    15    -0.005809
    16     0.198623
    17     0.430502
    18     0.328384
    19    -0.011118
    20     0.326473
    21     0.373280
    22    -0.025996
    23     0.200022
    24     0.244192
    25     0.013644
    26     0.006713
    27     0.005733
    28    -0.011211
    29    -0.014250
    30    -0.007095
    31    -0.016657
    32    -0.039268
    33    -0.087253
    34    -0.029854
    35     0.061244
    36     0.067710
    37    -0.041011
    38     0.024279
    39     0.034734
    40    -0.007086
    41     0.007572
    42    -0.003001
    43     0.010915
    44     0.014893
    45     0.006077
    46     0.006311
    47     0.011872
    48     0.037371
    49    -0.007753
    50    -0.020540
    51    -0.015934
    52     0.008446
    53     0.031840
    54     0.026046
    55    -0.000570
    56    -0.001324
    57    -0.000817
    58    -0.000867
    59    -0.000509
    60    -0.001005
Sym=     9a
Ene=   -0.101583E+01
Spin= Alpha
Occup= 1.994240
     1     0.000149
     2     0.000888
     3    -0.001326
     4     0.000627
     5    -0.000659
     6     0.001324
     7     0.000478
     8     0.002025
     9     0.000326
    10     0.000289
    11     0.000581
    12     0.000162
    13    -0.000109
    14    -0.000019
    15    -0.000369
    16     0.005351
    17     0.016611
    18     0.011442
    19    -0.004990
    20    -0.018707
    21    -0.017991
    22    -0.009461
    23    -0.011710
    24    -0.008056
    25     0.002983
    26     0.000719
    27     0.000956
    28     0.000636
    29     0.000441
    30    -0.001347
    31     0.000688
    32     0.007961
    33    -0.002552
    34    -0.010469
    35     0.007423
    36     0.008175
    37    -0.018853
    38    -0.010846
    39    -0.004386
    40     0.002871
    41     0.000727
    42    -0.004088
    43     0.005028
    44     0.004310
    45    -0.005002
    46    -0.173695
    47    -0.363523
    48    -0.270752
    49     0.505439
    50     0.150893
    51    -0.178508
    52    -0.345184
    53    -0.108552
    54     0.116880
    55    -0.002815
    56    -0.006114
    57    -0.000569
    58    -0.005390
    59    -0.004423
    60    -0.001397
Sym=    10a
Ene=   -0.101589E+01
Spin= Alpha
Occup= 1.994235
     1     0.173818
     2     0.363734
     3     0.270906
     4     0.549840
     5     0.050288
     6     0.072483
     7    -0.375383
     8    -0.039916
     9    -0.044696
    10     0.002907
    11     0.004628
    12     0.001977
    13     0.005719
    14    -0.004902
    15    -0.001529
    16    -0.000905
    17    -0.008333
    18     0.001531
    19    -0.008185
    20     0.003238
    21    -0.012653
    22    -0.016675
    23    -0.013861
    24     0.001048
    25    -0.003005
    26     0.000961
    27     0.002547
    28    -0.005287
    29     0.004869
    30    -0.004795
    31    -0.004993
    32    -0.015992
    33    -0.009226
    34    -0.004168
    35    -0.020692
    36     0.015623
    37    -0.008718
    38    -0.013041
    39     0.006095
    40    -0.002723
    41    -0.000823
    42    -0.001167
    43    -0.000970
    44     0.000114
    45    -0.001470
    46    -0.000319
    47    -0.000991
    48    -0.000513
    49     0.000690
    50     0.000077
    51    -0.000019
    52     0.000351
    53     0.000206
    54    -0.001496
    55    -0.000162
    56    -0.000513
    57    -0.000029
    58     0.000117
    59     0.000024
    60    -0.000317
Sym=    11a
Ene=   -0.100084E+01
Spin= Alpha
Occup= 1.994219
     1    -0.174029
     2    -0.367005
     3    -0.263801
     4     0.353506
     5    -0.276537
     6    -0.337925
     7    -0.240231
     8     0.190066
     9     0.228867
    10    -0.002758
    11    -0.008364
    12     0.000460
    13     0.002455
    14    -0.003105
    15     0.000176
    16     0.007603
    17     0.018751
    18     0.028848
    19     0.014526
    20    -0.019083
    21    -0.009573
    22     0.007064
    23    -0.011092
    24    -0.012170
    25     0.001204
    26     0.003669
    27    -0.005668
    28    -0.002694
    29     0.003398
    30     0.004507
    31    -0.000730
    32    -0.004139
    33     0.000014
    34    -0.003666
    35    -0.007569
    36    -0.008988
    37    -0.006258
    38    -0.005872
    39    -0.008329
    40    -0.000245
    41    -0.000515
    42    -0.001112
    43    -0.000976
    44    -0.001442
    45    -0.000931
    46    -0.000619
    47    -0.000638
    48    -0.005815
    49    -0.000217
    50     0.002293
    51     0.004120
    52     0.000376
    53    -0.005744
    54    -0.003773
    55     0.000372
    56     0.000096
    57     0.000357
    58     0.000038
    59     0.000087
    60     0.000070
Sym=    12a
Ene=   -0.100119E+01
Spin= Alpha
Occup= 1.994218
     1    -0.000527
     2     0.000012
     3    -0.006885
     4    -0.000224
     5    -0.002179
     6     0.005225
     7     0.000986
     8     0.006288
     9    -0.004614
    10     0.000512
    11     0.000426
    12     0.000566
    13     0.000009
    14    -0.000174
    15    -0.000282
    16     0.003084
    17     0.007919
    18     0.015733
    19    -0.009458
    20     0.006593
    21    -0.007009
    22    -0.011878
    23     0.003678
    24    -0.005187
    25     0.002028
    26    -0.000208
    27    -0.000309
    28    -0.001305
    29     0.000837
    30    -0.000113
    31    -0.008127
    32    -0.019197
    33    -0.035727
    34    -0.001857
    35     0.009556
    36    -0.021970
    37    -0.008614
    38     0.009465
    39    -0.010992
    40    -0.002186
    41     0.007985
    42    -0.004707
    43     0.000967
    44    -0.000400
    45     0.003176
    46     0.174066
    47     0.367156
    48     0.264217
    49     0.050449
    50     0.403996
    51    -0.386380
    52    -0.034006
    53    -0.273689
    54     0.264684
    55     0.003466
    56    -0.001922
    57     0.009175
    58    -0.000761
    59     0.000055
    60     0.001312
Sym=    13a
Ene=   -0.100036E+01
Spin= Alpha
Occup= 1.994208
     1     0.000579
     2     0.000810
     3     0.004692
     4    -0.000071
     5     0.001882
     6    -0.003245
     7     0.000568
     8    -0.004567
     9     0.003263
    10    -0.000254
    11     0.000075
    12    -0.000247
    13    -0.000057
    14     0.000066
    15    -0.000034
    16     0.002183
    17     0.008344
    18     0.004572
    19    -0.005932
    20    -0.010211
    21     0.004886
    22    -0.009844
    23    -0.007695
    24     0.006236
    25     0.001053
    26     0.000630
    27     0.001259
    28     0.000935
    29    -0.001265
    30    -0.001199
    31    -0.008867
    32    -0.020656
    33    -0.035531
    34     0.012935
    35    -0.017031
    36     0.007803
    37     0.002662
    38    -0.011995
    39     0.009996
    40    -0.001065
    41    -0.002460
    42     0.004427
    43     0.003762
    44     0.004162
    45     0.004237
    46     0.174295
    47     0.368201
    48     0.263034
    49     0.457135
    50    -0.197732
    51     0.258375
    52    -0.310902
    53     0.135674
    54    -0.175215
    55     0.002812
    56     0.007281
    57     0.000796
    58    -0.003604
    59    -0.003965
    60     0.000109
Sym=    14a
Ene=   -0.100051E+01
Spin= Alpha
Occup= 1.994203
     1    -0.174320
     2    -0.368159
     3    -0.263312
     4     0.199274
     5     0.381624
     6     0.359020
     7    -0.135450
     8    -0.259132
     9    -0.245510
    10    -0.003429
    11     0.001492
    12    -0.008989
    13     0.002160
    14    -0.001191
    15     0.001106
    16     0.009264
    17     0.020947
    18     0.041330
    19    -0.001138
    20     0.007451
    21     0.019143
    22    -0.010720
    23     0.005640
    24     0.009740
    25     0.001892
    26    -0.007482
    27     0.004405
    28    -0.002297
    29     0.000926
    30     0.003113
    31    -0.004185
    32    -0.011575
    33    -0.017933
    34    -0.010883
    35     0.001914
    36     0.008736
    37    -0.014621
    38     0.000501
    39     0.005281
    40    -0.002579
    41    -0.000004
    42    -0.000048
    43     0.001014
    44     0.000675
    45    -0.000499
    46     0.000399
    47    -0.000260
    48     0.006127
    49    -0.000048
    50    -0.001869
    51    -0.004771
    52     0.001061
    53     0.005635
    54     0.003924
    55    -0.000503
    56    -0.000522
    57    -0.000538
    58     0.000018
    59    -0.000164
    60    -0.000334
Sym=    15a
Ene=   -0.113617E+01
Spin= Alpha
Occup= 1.976706
     1     0.001221
     2    -0.002100
     3     0.006340
     4     0.023688
     5     0.019447
     6    -0.008889
     7    -0.030021
     8    -0.020110
     9     0.006033
    10    -0.001905
    11    -0.000520
    12     0.000170
    13    -0.001529
    14     0.001421
    15    -0.002092
    16    -0.065630
    17    -0.143962
    18     0.056837
    19     0.440170
    20     0.156900
    21     0.037131
    22     0.204401
    23     0.049083
    24     0.029801
    25    -0.038596
    26     0.002879
    27     0.011657
    28    -0.024593
    29    -0.006632
    30    -0.003244
    31    -0.065631
    32    -0.143963
    33     0.056839
    34    -0.440311
    35    -0.156585
    36     0.036984
    37    -0.204469
    38    -0.048870
    39     0.029714
    40    -0.038615
    41     0.002888
    42     0.011660
    43    -0.024583
    44     0.006631
    45     0.003244
    46     0.001227
    47    -0.002081
    48     0.006383
    49    -0.023647
    50    -0.019526
    51    -0.008884
    52     0.030000
    53     0.020146
    54     0.006027
    55    -0.001877
    56    -0.000516
    57     0.000153
    58    -0.001547
    59    -0.001391
    60     0.002100
Sym=    16a
Ene=   -0.713044E+00
Spin= Alpha
Occup= 1.851395
     1     0.000440
     2     0.001328
     3    -0.000715
     4     0.001750
     5    -0.005167
     6    -0.007456
     7    -0.001638
     8     0.007077
     9     0.007570
    10     0.000446
    11     0.000862
    12    -0.001356
    13    -0.000574
    14     0.000128
    15     0.000262
    16     0.000552
    17    -0.004093
    18     0.016233
    19     0.022558
    20    -0.086106
    21    -0.084204
    22     0.020874
    23    -0.088203
    24    -0.089208
    25     0.004516
    26    -0.006892
    27    -0.001262
    28    -0.001520
    29    -0.005493
    30    -0.003055
    31     0.007996
    32     0.028343
    33     0.048936
    34    -0.123440
    35     0.278987
    36     0.313946
    37    -0.103340
    38     0.156328
    39     0.191137
    40     0.006649
    41    -0.006812
    42    -0.010455
    43     0.005770
    44     0.007937
    45    -0.021696
    46     0.005615
    47     0.016686
    48     0.062472
    49    -0.023369
    50     0.352056
    51     0.341203
    52     0.016983
    53    -0.226696
    54    -0.220135
    55     0.007336
    56    -0.011788
    57    -0.008695
    58    -0.001184
    59    -0.001258
    60    -0.019835
Sym=    17a
Ene=   -0.712962E+00
Spin= Alpha
Occup= 1.851247
     1     0.005547
     2     0.016564
     3     0.062329
     4     0.022855
     5    -0.352514
     6     0.340698
     7    -0.016570
     8     0.227030
     9    -0.219771
    10     0.007293
    11    -0.011771
    12    -0.008665
    13    -0.001214
    14     0.001212
    15     0.019864
    16     0.008082
    17     0.028567
    18     0.048881
    19     0.123493
    20    -0.278901
    21     0.314043
    22     0.103505
    23    -0.156198
    24     0.191220
    25     0.006651
    26    -0.006794
    27    -0.010452
    28     0.005776
    29    -0.007939
    30     0.021714
    31     0.000548
    32    -0.004110
    33     0.016393
    34    -0.022582
    35     0.086168
    36    -0.084275
    37    -0.020784
    38     0.088253
    39    -0.089263
    40     0.004524
    41    -0.006899
    42    -0.001253
    43    -0.001512
    44     0.005491
    45     0.003060
    46     0.000446
    47     0.001345
    48    -0.000723
    49    -0.001809
    50     0.005158
    51    -0.007450
    52     0.001674
    53    -0.007081
    54     0.007568
    55     0.000459
    56     0.000861
    57    -0.001365
    58    -0.000569
    59    -0.000136
    60    -0.000259
Sym=    18a
Ene=   -0.863473E-01
Spin= Alpha
Occup= 0.148606
     1    -0.047195
     2    -0.096645
     3    -0.179219
     4     0.012549
     5    -0.440622
     6     0.418782
     7     0.002576
     8     0.189623
     9    -0.177196
    10    -0.001240
    11     0.005453
    12     0.005521
    13    -0.001553
    14     0.000914
    15    -0.006980
    16     0.053641
    17     0.110561
    18     0.169352
    19    -0.095068
    20     0.425304
    21    -0.441383
    22    -0.038577
    23     0.240914
    24    -0.244129
    25    -0.000094
    26     0.003144
    27     0.008298
    28    -0.006322
    29     0.006427
    30    -0.007216
    31    -0.002391
    32    -0.008053
    33     0.008128
    34     0.013526
    35    -0.114344
    36     0.112840
    37     0.029421
    38    -0.117912
    39     0.121876
    40    -0.005693
    41     0.002998
    42    -0.002021
    43    -0.000875
    44    -0.002803
    45    -0.001625
    46    -0.000566
    47    -0.000527
    48    -0.004143
    49     0.002466
    50    -0.012668
    51     0.014937
    52    -0.004050
    53     0.013489
    54    -0.018050
    55    -0.000028
    56    -0.001122
    57     0.001917
    58     0.000503
    59    -0.000078
    60    -0.000199
Sym=    19a
Ene=   -0.862286E-01
Spin= Alpha
Occup= 0.148420
     1    -0.000566
     2    -0.000504
     3    -0.004236
     4    -0.002450
     5     0.012648
     6     0.014965
     7     0.004039
     8    -0.013465
     9    -0.018100
    10     0.000197
    11    -0.001174
    12     0.001764
    13     0.000605
    14     0.000214
    15     0.000081
    16    -0.002377
    17    -0.008016
    18     0.008093
    19    -0.013502
    20     0.114352
    21     0.112859
    22    -0.029411
    23     0.118108
    24     0.121851
    25    -0.005674
    26     0.002884
    27    -0.001939
    28    -0.000856
    29     0.002807
    30     0.001597
    31     0.053705
    32     0.110712
    33     0.169702
    34     0.094977
    35    -0.425526
    36    -0.441462
    37     0.038653
    38    -0.241163
    39    -0.244234
    40    -0.000193
    41     0.003267
    42     0.008335
    43    -0.006292
    44    -0.006431
    45     0.007150
    46    -0.047166
    47    -0.096410
    48    -0.179726
    49    -0.013040
    50     0.439913
    51     0.418632
    52    -0.002508
    53    -0.190319
    54    -0.177846
    55    -0.000813
    56     0.005752
    57     0.004931
    58    -0.000638
    59    -0.000796
    60     0.007306
Sym=    20a
Ene=   -0.256051E-01
Spin= Alpha
Occup= 0.022391
     1    -0.002274
     2    -0.001547
     3    -0.027259
     4     0.016145
     5     0.001831
     6     0.006716
     7    -0.036041
     8    -0.007282
     9    -0.011466
    10    -0.002005
    11     0.002435
    12     0.002854
    13    -0.001308
    14     0.000419
    15    -0.000315
    16    -0.124279
    17    -0.373100
    18    -0.123800
    19     0.686996
    20     0.312000
    21     0.024454
    22     0.141475
    23     0.095919
    24    -0.028604
    25    -0.057400
    26     0.019279
    27     0.036923
    28    -0.047008
    29    -0.009953
    30    -0.013435
    31     0.124277
    32     0.373133
    33     0.123747
    34     0.687129
    35     0.312136
    36    -0.024022
    37     0.141326
    38     0.095764
    39     0.028291
    40     0.057333
    41    -0.019296
    42    -0.036874
    43     0.047232
    44    -0.010080
    45    -0.013410
    46     0.002269
    47     0.001494
    48     0.027294
    49     0.016126
    50     0.002118
    51    -0.006537
    52    -0.036019
    53    -0.006980
    54     0.011659
    55     0.001093
    56    -0.002208
    57    -0.002260
    58     0.002141
    59    -0.000934
    60    -0.000774
Sym=    21a
Ene=   -0.817343E-02
Spin= Alpha
Occup= 0.005197
     1    -0.235618
     2    -1.093370
     3     0.901342
     4     0.266296
     5     0.540621
     6     0.448975
     7     0.307060
     8     0.565686
     9     0.589604
    10     0.152645
    11     0.080129
    12     0.101082
    13    -0.064338
    14    -0.055145
    15    -0.116417
    16    -0.007573
    17     0.036046
    18    -0.235864
    19    -0.011148
    20    -0.059276
    21     0.034224
    22     0.017169
    23    -0.132737
    24    -0.015921
    25    -0.005815
    26     0.001757
    27    -0.002665
    28     0.002648
    29    -0.002551
    30     0.014451
    31     0.002335
    32    -0.008857
    33     0.073327
    34     0.004212
    35     0.011997
    36     0.004577
    37     0.028181
    38     0.038592
    39    -0.021932
    40     0.000082
    41    -0.001238
    42    -0.001748
    43    -0.000246
    44    -0.002629
    45     0.001135
    46    -0.000128
    47     0.003150
    48    -0.013731
    49    -0.000079
    50    -0.003471
    51    -0.003028
    52    -0.005854
    53    -0.009964
    54    -0.010998
    55     0.001445
    56     0.001307
    57     0.001942
    58     0.000111
    59    -0.000410
    60    -0.000928
Sym=    22a
Ene=   -0.816857E-02
Spin= Alpha
Occup= 0.005192
     1    -0.000087
     2    -0.002635
     3     0.004088
     4    -0.001857
     5    -0.002153
     6     0.002341
     7    -0.007038
     8     0.001431
     9     0.009141
    10    -0.000634
    11    -0.000310
    12    -0.000018
    13    -0.000929
    14    -0.000249
    15    -0.000352
    16     0.002036
    17    -0.002870
    18     0.041419
    19    -0.008559
    20     0.000023
    21    -0.008195
    22    -0.026844
    23    -0.027189
    24    -0.029483
    25    -0.001466
    26     0.000469
    27     0.001880
    28     0.002696
    29    -0.000894
    30    -0.001800
    31    -0.007572
    32     0.033729
    33    -0.218950
    34     0.016809
    35     0.045123
    36     0.050988
    37     0.057271
    38    -0.002890
    39     0.130522
    40     0.000974
    41    -0.006097
    42    -0.002680
    43    -0.002620
    44     0.011442
    45    -0.010194
    46    -0.235799
    47    -1.093937
    48     0.900411
    49    -0.609117
    50     0.232515
    51    -0.372640
    52    -0.710967
    53     0.341621
    54    -0.375975
    55     0.034224
    56     0.162522
    57     0.137765
    58     0.066087
    59    -0.100052
    60     0.045947
Sym=    23a
Ene=   -0.815998E-02
Spin= Alpha
Occup= 0.005183
     1     0.000025
     2    -0.002321
     3     0.008169
     4    -0.000409
     5    -0.003852
     6     0.003798
     7    -0.007178
     8    -0.005900
     9     0.011604
    10    -0.001367
    11    -0.000839
    12    -0.000966
    13    -0.000808
    14    -0.000438
    15    -0.000389
    16    -0.001631
    17     0.002332
    18    -0.045747
    19     0.002116
    20     0.012290
    21    -0.005107
    22     0.019013
    23     0.025103
    24     0.005255
    25    -0.002517
    26     0.000733
    27     0.001356
    28     0.001538
    29    -0.001938
    30     0.000253
    31     0.008055
    32    -0.029208
    33     0.209700
    34    -0.002644
    35    -0.058201
    36    -0.034335
    37     0.025085
    38    -0.146484
    39     0.028620
    40     0.006448
    41    -0.002899
    42     0.004055
    43    -0.003464
    44    -0.001446
    45     0.014582
    46     0.235826
    47     1.094329
    48    -0.900953
    49     0.066666
    50     0.567739
    51    -0.486693
    52     0.075241
    53     0.599908
    54    -0.633094
    55    -0.178595
    56    -0.066818
    57    -0.088089
    58     0.018836
    59    -0.015242
    60    -0.131684
Sym=    24a
Ene=   -0.815850E-02
Spin= Alpha
Occup= 0.005183
     1     0.235778
     2     1.093920
     3    -0.899645
     4    -0.469223
     5     0.338699
     6     0.478228
     7    -0.549800
     8     0.463759
     9     0.501131
    10    -0.093944
    11    -0.135511
    12    -0.104024
    13    -0.075955
    14    -0.098657
    15     0.080246
    16     0.008043
    17    -0.026408
    18     0.190118
    19     0.009130
    20     0.040428
    21    -0.052774
    22     0.062304
    23    -0.012413
    24    -0.144722
    25    -0.001654
    26     0.006527
    27     0.003733
    28     0.003167
    29     0.011073
    30    -0.009447
    31    -0.001313
    32    -0.003833
    33    -0.011521
    34    -0.006853
    35     0.001236
    36     0.009009
    37    -0.018499
    38    -0.009650
    39     0.016877
    40    -0.000279
    41    -0.000950
    42    -0.002630
    43    -0.002002
    44    -0.002263
    45    -0.001350
    46     0.000005
    47     0.003832
    48    -0.009822
    49    -0.001863
    50    -0.002813
    51    -0.002328
    52    -0.007874
    53    -0.002966
    54    -0.010618
    55     0.000651
    56     0.001035
    57     0.001217
    58     0.000475
    59    -0.000338
    60    -0.000953
Sym=    25a
Ene=   -0.818875E-02
Spin= Alpha
Occup= 0.005174
     1     0.236257
     2     1.101366
     3    -0.918623
     4     0.741489
     5     0.049190
     6     0.117517
     7     0.859402
     8     0.118802
     9     0.075198
    10     0.038046
    11    -0.183188
    12    -0.178131
    13     0.018996
    14     0.036861
    15     0.010952
    16     0.011425
    17    -0.004148
    18     0.176645
    19    -0.039403
    20     0.034008
    21    -0.046457
    22    -0.064824
    23     0.070381
    24    -0.065955
    25     0.001618
    26    -0.001456
    27    -0.000323
    28     0.000999
    29     0.004033
    30    -0.009391
    31     0.002104
    32    -0.014697
    33    -0.009289
    34     0.010771
    35     0.002035
    36    -0.004557
    37    -0.039025
    38     0.033318
    39    -0.051276
    40    -0.008276
    41     0.004911
    42     0.008696
    43    -0.000269
    44    -0.004961
    45     0.001837
    46    -0.000326
    47     0.002949
    48    -0.014424
    49     0.000233
    50     0.001003
    51     0.002398
    52     0.006366
    53    -0.009822
    54     0.003148
    55     0.002059
    56     0.003105
    57     0.001296
    58    -0.000872
    59     0.000745
    60     0.000431
Sym=    26a
Ene=   -0.819079E-02
Spin= Alpha
Occup= 0.005178
     1     0.000298
     2    -0.003242
     3     0.013797
     4    -0.000216
     5    -0.000383
     6    -0.001246
     7     0.004182
     8    -0.010058
     9    -0.000957
    10    -0.001566
    11    -0.003389
    12    -0.001921
    13     0.000094
    14     0.000833
    15     0.000227
    16    -0.002162
    17     0.014259
    18     0.010881
    19     0.010735
    20     0.002795
    21     0.003851
    22    -0.042232
    23     0.037721
    24     0.046307
    25     0.007164
    26    -0.005064
    27    -0.008112
    28     0.001338
    29    -0.005698
    30     0.001286
    31    -0.011478
    32     0.004281
    33    -0.179571
    34    -0.038549
    35     0.032882
    36     0.050635
    37    -0.053645
    38     0.045330
    39     0.091960
    40    -0.000909
    41     0.000667
    42    -0.000110
    43    -0.001326
    44     0.006441
    45    -0.008907
    46    -0.236271
    47    -1.102065
    48     0.920477
    49     0.682356
    50     0.185709
    51    -0.256679
    52     0.789811
    53     0.279999
    54    -0.238201
    55    -0.005354
    56     0.167436
    57     0.160371
    58    -0.060479
    59     0.075524
    60     0.028914
Sym=    27a
Ene=   -0.627090E-02
Spin= Alpha
Occup= 0.004362
     1     0.006142
     2    -0.055757
     3     0.298871
     4    -0.000978
     5     0.039748
     6    -0.034799
     7    -0.011128
     8     0.004648
     9     0.199660
    10    -0.012432
    11    -0.010258
    12    -0.006898
    13    -0.003485
    14    -0.008644
    15    -0.014079
    16     0.264709
    17     1.339547
    18    -1.418282
    19     0.056351
    20     0.459716
    21     0.561550
    22     0.183590
    23    -0.566846
    24    -0.616169
    25    -0.231335
    26    -0.113307
    27    -0.077508
    28    -0.013525
    29    -0.009935
    30     0.131961
    31     0.007066
    32    -0.037505
    33     0.437625
    34     0.029068
    35     0.065415
    36     0.047736
    37     0.147246
    38     0.144404
    39     0.091698
    40     0.027921
    41    -0.004006
    42    -0.009002
    43     0.012428
    44    -0.012390
    45    -0.001068
    46    -0.000411
    47     0.019759
    48    -0.052521
    49    -0.003887
    50    -0.008636
    51    -0.006198
    52    -0.050393
    53    -0.046703
    54    -0.025761
    55     0.006107
    56     0.000801
    57     0.003725
    58    -0.000101
    59    -0.002883
    60    -0.003343
Sym=    28a
Ene=   -0.627101E-02
Spin= Alpha
Occup= 0.004361
     1    -0.000428
     2     0.019697
     3    -0.052378
     4     0.003855
     5     0.009124
     6    -0.006884
     7     0.050385
     8     0.047210
     9    -0.026486
    10     0.007557
    11     0.000832
    12     0.002456
    13    -0.000611
    14     0.001281
    15     0.002802
    16     0.007095
    17    -0.037469
    18     0.438531
    19    -0.029083
    20    -0.064798
    21     0.047016
    22    -0.147983
    23    -0.144919
    24     0.092453
    25     0.027978
    26    -0.004452
    27    -0.008473
    28     0.012454
    29     0.012775
    30     0.001212
    31     0.264788
    32     1.340034
    33    -1.419541
    34    -0.056848
    35    -0.458938
    36     0.561749
    37    -0.183589
    38     0.565394
    39    -0.616436
    40    -0.231550
    41    -0.114476
    42    -0.076128
    43    -0.012629
    44     0.010505
    45    -0.131950
    46     0.006146
    47    -0.055632
    48     0.298373
    49     0.001007
    50    -0.039517
    51    -0.034885
    52     0.011252
    53    -0.004455
    54     0.199447
    55    -0.008296
    56    -0.010421
    57    -0.010758
    58    -0.001004
    59     0.003739
    60     0.016543
Sym=    29a
Ene=   -0.121063E-02
Spin= Alpha
Occup= 0.000578
     1     0.000489
     2     0.010857
     3    -0.063257
     4    -0.001736
     5     0.018954
     6    -0.013656
     7     0.004985
     8     0.071165
     9    -0.044256
    10     0.011269
    11    -0.007989
    12    -0.007295
    13     0.002742
    14    -0.000489
    15     0.008135
    16     0.001250
    17    -0.068439
    18     0.285745
    19     0.091174
    20    -0.049507
    21     0.093319
    22    -0.118465
    23    -0.017197
    24    -0.126514
    25    -0.050288
    26    -0.050726
    27    -0.024622
    28    -0.029396
    29     0.068332
    30    -0.009213
    31     0.053059
    32     0.249925
    33    -0.327492
    34    -0.064649
    35    -0.001800
    36    -0.040604
    37     0.021140
    38    -0.002048
    39     0.159801
    40    -0.301670
    41     0.190183
    42    -0.008086
    43     0.473431
    44    -0.666995
    45     0.418467
    46    -0.000256
    47     0.008261
    48     0.038836
    49    -0.017620
    50     0.071141
    51     0.060425
    52    -0.051884
    53     0.096051
    54     0.056319
    55    -0.001475
    56     0.004316
    57    -0.016201
    58    -0.007250
    59    -0.012042
    60    -0.008547
Sym=    30a
Ene=   -0.120634E-02
Spin= Alpha
Occup= 0.000575
     1     0.000329
     2    -0.008859
     3    -0.036814
     4    -0.017960
     5     0.065749
     6    -0.054264
     7    -0.054324
     8     0.088786
     9    -0.048776
    10    -0.004014
    11    -0.003196
    12     0.018393
    13     0.006205
    14    -0.006246
    15    -0.007212
    16    -0.052885
    17    -0.245830
    18     0.303116
    19    -0.066433
    20    -0.007480
    21     0.046037
    22     0.034374
    23     0.007262
    24    -0.163179
    25     0.309314
    26    -0.193136
    27     0.005081
    28    -0.465785
    29    -0.676302
    30     0.411771
    31    -0.001514
    32     0.064904
    33    -0.262758
    34     0.088857
    35    -0.054394
    36    -0.097749
    37    -0.106579
    38    -0.010745
    39     0.128064
    40     0.050152
    41     0.047231
    42     0.027117
    43     0.027273
    44     0.063816
    45    -0.011798
    46    -0.000481
    47    -0.010015
    48     0.060645
    49    -0.001530
    50     0.013311
    51     0.009769
    52     0.004379
    53     0.063238
    54     0.039237
    55    -0.009352
    56     0.011877
    57     0.003178
    58     0.000533
    59     0.006170
    60     0.008246
Sym=    31a
Ene=   -0.893782E-03
Spin= Alpha
Occup= 0.000036
     1     0.005665
     2    -0.042490
     3     0.336704
     4     0.009900
     5    -0.011402
     6     0.014329
     7     0.036998
     8    -0.131792
     9     0.137437
    10    -0.012812
    11    -0.027569
    12    -0.031203
    13     0.001801
    14    -0.004242
    15     0.008830
    16    -0.686953
    17    -2.063812
    18    -1.777038
    19     0.109724
    20    -0.014507
    21     0.060493
    22     0.045459
    23    -0.022659
    24     0.060359
    25     1.470284
    26     1.446620
    27     1.442158
    28     0.005441
    29    -0.006679
    30     0.009682
    31     0.000329
    32    -0.037975
    33     0.574289
    34    -0.134931
    35    -0.056095
    36     0.003533
    37     0.249663
    38     0.110570
    39    -0.014591
    40    -0.110863
    41    -0.062025
    42    -0.054269
    43    -0.025785
    44    -0.005012
    45    -0.003980
    46     0.000980
    47    -0.014956
    48     0.028011
    49     0.016012
    50     0.004009
    51    -0.003559
    52     0.038128
    53     0.004396
    54    -0.013409
    55    -0.007925
    56    -0.012052
    57    -0.015237
    58     0.003443
    59     0.003255
    60    -0.000337
Sym=    32a
Ene=   -0.894443E-03
Spin= Alpha
Occup= 0.000036
     1    -0.001046
     2     0.015002
     3    -0.028367
     4     0.016258
     5     0.005797
     6     0.001012
     7     0.038604
     8     0.006487
     9     0.010556
    10     0.011149
    11     0.012837
    12     0.012379
    13    -0.003099
    14    -0.002946
    15    -0.001420
    16    -0.000373
    17     0.037643
    18    -0.572289
    19    -0.135183
    20    -0.054028
    21    -0.005454
    22     0.249146
    23     0.108598
    24     0.016310
    25     0.112092
    26     0.060937
    27     0.055163
    28     0.024274
    29    -0.003790
    30    -0.003742
    31     0.686934
    32     2.064095
    33     1.774773
    34     0.110011
    35    -0.015024
    36    -0.061180
    37     0.044398
    38    -0.022483
    39    -0.059795
    40    -1.470346
    41    -1.449704
    42    -1.438049
    43    -0.004524
    44    -0.007556
    45     0.008932
    46    -0.005791
    47     0.041894
    48    -0.335985
    49     0.009719
    50    -0.011724
    51    -0.014885
    52     0.036884
    53    -0.132021
    54    -0.137670
    55     0.016140
    56     0.026455
    57     0.029418
    58    -0.008695
    59     0.000141
    60     0.009085
Sym=    33a
Ene=   -0.273083E-04
Spin= Alpha
Occup= 0.000001
     1     0.016672
     2    -0.337148
     3     1.360716
     4     0.020367
     5    -0.620056
     6     0.589933
     7     0.032249
     8    -1.258695
     9     1.195779
    10    -0.321158
    11    -0.069908
    12    -0.131888
    13    -0.010250
    14     0.001211
    15    -0.250720
    16     0.010109
    17     0.297714
    18    -0.951521
    19     0.040660
    20    -0.124632
    21     0.127230
    22    -0.069097
    23    -0.681049
    24     0.602565
    25    -0.002480
    26    -0.077263
    27    -0.052254
    28    -0.016250
    29    -0.083596
    30     0.273903
    31    -0.006051
    32     0.081077
    33    -0.305924
    34     0.047152
    35     0.033216
    36    -0.033317
    37    -0.155020
    38     0.086916
    39    -0.022540
    40     0.070908
    41     0.059917
    42     0.039361
    43     0.080621
    44    -0.052065
    45    -0.038447
    46     0.000622
    47    -0.036300
    48     0.138713
    49     0.010408
    50    -0.001121
    51    -0.002196
    52     0.043599
    53     0.053698
    54     0.050241
    55    -0.019444
    56     0.010546
    57    -0.023853
    58     0.009400
    59     0.012565
    60     0.016548
Sym=    34a
Ene=   -0.127421E-04
Spin= Alpha
Occup= 0.000000
     1    -0.000664
     2     0.042767
     3    -0.163842
     4     0.012593
     5     0.004345
     6     0.002051
     7     0.058108
     8     0.080652
     9    -0.054552
    10     0.039377
    11    -0.005130
    12     0.002505
    13     0.009811
    14    -0.012828
    15     0.015028
    16     0.007728
    17    -0.103429
    18     0.476670
    19     0.071507
    20     0.038725
    21     0.036788
    22    -0.256084
    23     0.044862
    24     0.003300
    25    -0.116586
    26    -0.084459
    27    -0.011228
    28    -0.075660
    29    -0.018794
    30    -0.039501
    31    -0.008530
    32    -0.280206
    33     0.793602
    34     0.044832
    35    -0.051087
    36    -0.051871
    37    -0.130333
    38    -0.760727
    39    -0.662655
    40    -0.054619
    41     0.195945
    42    -0.033804
    43     0.068589
    44     0.011630
    45     0.288792
    46    -0.012217
    47     0.337529
    48    -1.327014
    49     0.019843
    50    -0.530640
    51    -0.509032
    52     0.042530
    53    -1.146211
    54    -1.106451
    55     0.286489
    56    -0.161400
    57     0.332131
    58    -0.240625
    59    -0.211064
    60    -0.292106
Sym=    35a
Ene=   -0.297903E-03
Spin= Alpha
Occup= 0.000147
     1     0.001086
     2    -0.004503
     3     0.020069
     4     0.005234
     5    -0.027618
     6     0.011406
     7     0.016692
     8    -0.051095
     9    -0.001171
    10    -0.019803
    11    -0.709604
    12     0.705847
    13     0.279674
    14    -0.137217
    15    -0.015398
    16     0.000505
    17    -0.004236
    18     0.014000
    19    -0.003423
    20     0.012223
    21     0.039721
    22     0.011502
    23    -0.052083
    24    -0.073862
    25     0.039964
    26     0.333313
    27    -0.392195
    28    -0.148520
    29     0.058532
    30     0.016369
    31     0.000414
    32    -0.006342
    33     0.017648
    34    -0.009300
    35     0.028294
    36     0.027688
    37    -0.002333
    38    -0.028652
    39    -0.008441
    40     0.007025
    41    -0.023751
    42     0.003666
    43    -0.006842
    44    -0.013599
    45     0.003518
    46     0.001315
    47     0.012753
    48    -0.030686
    49    -0.006471
    50     0.001033
    51     0.000675
    52    -0.018214
    53    -0.011776
    54    -0.011396
    55     0.000260
    56    -0.000368
    57    -0.000125
    58     0.001271
    59    -0.002197
    60    -0.001361
Sym=    36a
Ene=   -0.318288E-03
Spin= Alpha
Occup= 0.000185
     1     0.001306
     2     0.001442
     3     0.007338
     4     0.004211
     5    -0.005024
     6     0.012720
     7     0.023934
     8     0.007046
     9     0.022149
    10     0.006466
    11    -0.010468
    12    -0.010714
    13     0.000351
    14    -0.002328
    15    -0.002752
    16    -0.002058
    17    -0.034899
    18     0.258389
    19     0.043910
    20    -0.002138
    21     0.001483
    22    -0.188262
    23    -0.089565
    24    -0.003249
    25    -0.062388
    26     0.017481
    27     0.012987
    28     0.006519
    29     0.044352
    30     0.008507
    31     0.008065
    32     0.087049
    33    -0.450740
    34    -0.004034
    35     0.220499
    36     0.220992
    37    -0.114360
    38    -0.112282
    39    -0.090743
    40    -0.111441
    41     0.189627
    42    -0.195359
    43     0.130077
    44     0.219759
    45    -0.035204
    46     0.005327
    47    -0.071054
    48     0.249922
    49    -0.001473
    50     0.329261
    51     0.306996
    52     0.024388
    53     0.477174
    54     0.421949
    55    -0.065483
    56    -0.451769
    57     0.335632
    58    -0.417460
    59    -0.394227
    60    -0.031561
Sym=    37a
Ene=   -0.170379E-02
Spin= Alpha
Occup= 0.000903
     1     0.000922
     2     0.069767
     3    -0.189889
     4     0.037341
     5    -0.020735
     6     0.038662
     7     0.177443
     8     0.100046
     9    -0.000490
    10     0.048033
    11    -0.007377
    12    -0.008474
    13     0.003278
    14    -0.001250
    15     0.009872
    16    -0.010310
    17    -0.242593
    18     0.312246
    19     0.202640
    20     0.088831
    21     0.028962
    22    -0.430203
    23    -0.149569
    24    -0.095459
    25    -0.420598
    26     0.066338
    27     0.189259
    28    -0.306313
    29     0.004630
    30    -0.087298
    31    -0.010179
    32    -0.239430
    33     0.288829
    34    -0.200899
    35    -0.082132
    36     0.034793
    37     0.418019
    38     0.138237
    39    -0.098762
    40    -0.427445
    41     0.078133
    42     0.184002
    43    -0.296728
    44     0.004790
    45     0.088945
    46     0.001070
    47     0.069801
    48    -0.189166
    49    -0.037189
    50     0.027947
    51     0.045641
    52    -0.175553
    53    -0.090538
    54     0.006572
    55     0.033879
    56    -0.006525
    57     0.002134
    58     0.011472
    59    -0.017736
    60    -0.013133
Sym=    38a
Ene=   -0.143603E-02
Spin= Alpha
Occup= 0.000600
     1     0.061654
     2     0.231215
     3    -0.072453
     4    -0.045871
     5    -0.026648
     6    -0.127172
     7    -0.059189
     8    -0.003370
     9    -0.183372
    10     0.159982
    11    -0.249686
    12    -0.157469
    13    -0.393499
    14    -0.359453
    15    -0.781813
    16    -0.002659
    17     0.005813
    18     0.006422
    19    -0.003118
    20    -0.049323
    21     0.039126
    22     0.021555
    23     0.080393
    24    -0.040572
    25    -0.021431
    26     0.030841
    27    -0.015147
    28     0.001167
    29    -0.017931
    30     0.000998
    31    -0.001142
    32     0.002612
    33     0.007394
    34     0.013315
    35     0.003529
    36    -0.007948
    37     0.000103
    38    -0.006559
    39     0.019387
    40     0.012723
    41     0.002952
    42     0.006580
    43    -0.002059
    44    -0.001537
    45    -0.001639
    46    -0.000001
    47    -0.002680
    48     0.009255
    49     0.001662
    50    -0.000113
    51    -0.000571
    52     0.006271
    53     0.006079
    54     0.001431
    55    -0.001305
    56     0.001095
    57    -0.001325
    58    -0.000726
    59     0.001143
    60     0.001098
Sym=    39a
Ene=   -0.143760E-02
Spin= Alpha
Occup= 0.000599
     1    -0.000450
     2    -0.001632
     3    -0.000357
     4    -0.001312
     5    -0.001339
     6    -0.000096
     7    -0.003321
     8    -0.002529
     9    -0.002379
    10     0.000119
    11     0.001628
    12    -0.000072
    13    -0.001255
    14     0.000135
    15     0.000691
    16    -0.001133
    17    -0.003763
    18     0.038684
    19    -0.009751
    20    -0.008541
    21    -0.001794
    22    -0.014216
    23     0.003536
    24     0.015001
    25     0.004965
    26     0.005046
    27     0.005857
    28     0.003749
    29    -0.003846
    30    -0.003159
    31    -0.002330
    32     0.009832
    33    -0.017824
    34     0.005655
    35     0.046538
    36     0.044853
    37    -0.043180
    38    -0.062475
    39    -0.063854
    40    -0.022277
    41    -0.005649
    42     0.020597
    43     0.012514
    44     0.029357
    45     0.000109
    46     0.061969
    47     0.230369
    48    -0.065901
    49     0.100589
    50    -0.091654
    51     0.004833
    52     0.126671
    53    -0.138040
    54    -0.021330
    55    -0.581977
    56     0.243035
    57     0.086672
    58     0.415878
    59    -0.643947
    60     0.337564
Sym=    40a
Ene=   -0.143724E-02
Spin= Alpha
Occup= 0.000599
     1     0.000143
     2     0.000987
     3     0.000293
     4     0.001402
     5    -0.001307
     6     0.001763
     7     0.003366
     8    -0.000315
     9     0.003775
    10    -0.000393
    11    -0.000675
    12     0.000646
    13    -0.000210
    14     0.000346
    15     0.000026
    16    -0.000022
    17     0.001989
    18    -0.044343
    19     0.007414
    20     0.004246
    21     0.004931
    22     0.022056
    23    -0.004422
    24    -0.011316
    25    -0.010247
    26     0.002296
    27     0.000325
    28     0.000463
    29    -0.002301
    30    -0.001364
    31     0.002976
    32    -0.007313
    33     0.021936
    34    -0.001655
    35    -0.045341
    36    -0.036584
    37     0.028007
    38     0.081112
    39     0.034520
    40     0.019184
    41    -0.034425
    42     0.018530
    43     0.003676
    44    -0.015375
    45     0.003611
    46    -0.061719
    47    -0.229471
    48     0.064079
    49    -0.015227
    50    -0.030932
    51     0.134173
    52    -0.022500
    53    -0.011775
    54     0.188645
    55    -0.322152
    56     0.366578
    57     0.205989
    58     0.116021
    59    -0.080830
    60    -0.874560
Sym=    41a
Ene=   -0.143558E-02
Spin= Alpha
Occup= 0.000598
     1     0.060738
     2     0.228260
     3    -0.071908
     4    -0.077477
     5     0.108243
     6     0.022458
     7    -0.096835
     8     0.158767
     9    -0.000143
    10    -0.217052
    11     0.047517
    12    -0.071969
    13     0.514231
    14     0.597787
    15    -0.560775
    16    -0.003972
    17     0.001759
    18    -0.018101
    19     0.000392
    20    -0.041224
    21     0.046397
    22     0.037189
    23     0.053381
    24    -0.070317
    25    -0.019696
    26    -0.006123
    27     0.022380
    28     0.007640
    29    -0.023349
    30    -0.000217
    31     0.000432
    32    -0.004253
    33     0.053832
    34     0.004453
    35     0.009343
    36    -0.000090
    37     0.023106
    38    -0.009199
    39     0.011447
    40     0.005293
    41    -0.002459
    42    -0.001731
    43     0.006668
    44     0.004644
    45     0.002943
    46    -0.000620
    47     0.000467
    48    -0.010694
    49     0.000617
    50    -0.000290
    51    -0.002321
    52     0.000314
    53    -0.002890
    54    -0.009162
    55     0.001821
    56     0.002058
    57     0.001082
    58    -0.001707
    59    -0.000227
    60    -0.001466
Sym=    42a
Ene=   -0.141970E-02
Spin= Alpha
Occup= 0.000591
     1     0.061702
     2     0.237316
     3    -0.094487
     4     0.118594
     5     0.069494
     6    -0.039456
     7     0.158165
     8     0.127396
     9    -0.081194
    10    -1.011838
    11     0.397953
    12     0.372560
    13    -0.117265
    14    -0.234570
    15    -0.101836
    16    -0.004060
    17    -0.046467
    18     0.261645
    19     0.037672
    20    -0.031468
    21     0.046442
    22    -0.186923
    23    -0.015136
    24    -0.063051
    25    -0.012937
    26    -0.010698
    27    -0.011403
    28    -0.009624
    29     0.006109
    30    -0.005121
    31    -0.000135
    32     0.005450
    33    -0.169650
    34     0.013036
    35    -0.003178
    36     0.007184
    37    -0.133528
    38    -0.058728
    39    -0.016201
    40     0.002833
    41    -0.004137
    42    -0.000623
    43     0.001516
    44     0.001528
    45    -0.006786
    46     0.000082
    47     0.006912
    48    -0.020715
    49     0.001182
    50    -0.003737
    51    -0.002417
    52     0.011349
    53    -0.009397
    54    -0.007128
    55     0.000696
    56     0.004371
    57     0.002984
    58    -0.001614
    59     0.003664
    60    -0.000888
Sym=    43a
Ene=   -0.140699E-02
Spin= Alpha
Occup= 0.000582
     1    -0.000213
     2    -0.004346
     3     0.007994
     4     0.000915
     5    -0.001541
     6     0.000912
     7     0.010273
     8    -0.001837
     9    -0.000069
    10     0.002128
    11    -0.003186
    12    -0.003883
    13     0.001078
    14     0.002500
    15     0.000005
    16     0.000472
    17    -0.006777
    18     0.172558
    19     0.014300
    20    -0.007260
    21    -0.003987
    22    -0.129207
    23    -0.043059
    24     0.005963
    25    -0.000616
    26    -0.000044
    27    -0.001669
    28    -0.001524
    29     0.001310
    30    -0.007957
    31     0.004315
    32     0.043173
    33    -0.238559
    34     0.035613
    35    -0.044348
    36    -0.059886
    37    -0.182839
    38    -0.015706
    39     0.079052
    40     0.020783
    41     0.008241
    42     0.005059
    43     0.004598
    44    -0.000095
    45    -0.006339
    46    -0.060476
    47    -0.231394
    48     0.091186
    49     0.108124
    50     0.072751
    51    -0.000334
    52     0.144182
    53     0.128455
    54     0.031467
    55     0.807340
    56    -0.266996
    57    -0.303481
    58     0.463233
    59    -0.398593
    60    -0.221980
Sym=    44a
Ene=   -0.119534E-02
Spin= Alpha
Occup= 0.000574
     1     0.000239
     2    -0.007190
     3    -0.040666
     4    -0.008471
     5     0.051236
     6    -0.064646
     7    -0.015915
     8     0.040121
     9    -0.096531
    10     0.000308
    11     0.019617
    12    -0.006269
    13     0.002727
    14     0.003222
    15    -0.007195
    16    -0.053050
    17    -0.250618
    18     0.318636
    19    -0.007097
    20    -0.060795
    21    -0.015547
    22    -0.072432
    23     0.137068
    24    -0.009007
    25    -0.396674
    26     0.313239
    27     0.197100
    28     0.200693
    29     0.168614
    30     0.819587
    31    -0.001868
    32     0.020508
    33    -0.140576
    34     0.037004
    35     0.105878
    36     0.077817
    37    -0.107747
    38    -0.131698
    39     0.000484
    40     0.093227
    41    -0.022097
    42     0.006196
    43    -0.021848
    44    -0.027663
    45    -0.018270
    46     0.005246
    47     0.017025
    48    -0.008685
    49    -0.006700
    50    -0.012717
    51    -0.009894
    52    -0.009697
    53    -0.020990
    54    -0.025436
    55    -0.006162
    56    -0.009186
    57    -0.011468
    58     0.007045
    59     0.000126
    60     0.000571
Sym=    45a
Ene=   -0.119335E-02
Spin= Alpha
Occup= 0.000572
     1    -0.005194
     2    -0.016408
     3     0.007204
     4    -0.006127
     5    -0.013624
     6     0.011362
     7    -0.008142
     8    -0.020898
     9     0.026935
    10     0.003304
    11     0.007730
    12     0.015583
    13    -0.006098
    14     0.004620
    15     0.002258
    16     0.001919
    17    -0.021363
    18     0.141972
    19     0.038248
    20     0.105156
    21    -0.076399
    22    -0.109173
    23    -0.134090
    24    -0.004569
    25    -0.094226
    26     0.023317
    27    -0.007890
    28     0.020511
    29    -0.026844
    30    -0.019833
    31     0.053403
    32     0.250020
    33    -0.314668
    34    -0.006749
    35    -0.062322
    36     0.016357
    37    -0.072578
    38     0.140003
    39     0.008998
    40     0.392437
    41    -0.278814
    42    -0.233508
    43    -0.211267
    44     0.180657
    45     0.817587
    46    -0.000006
    47     0.007985
    48     0.040948
    49    -0.008134
    50     0.052849
    51     0.065393
    52    -0.016000
    53     0.043637
    54     0.095349
    55     0.000408
    56    -0.026627
    57     0.010884
    58     0.002199
    59    -0.001433
    60    -0.007037
Sym=    46a
Ene=   -0.623323E-02
Spin= Alpha
Occup= 0.004272
     1    -0.001409
     2    -0.030687
     3     0.034143
     4    -0.012863
     5    -0.005779
     6     0.000843
     7    -0.097077
     8    -0.037150
     9    -0.011503
    10    -0.009629
    11     0.001297
    12     0.002453
    13    -0.000447
    14     0.000974
    15     0.001935
    16     0.006510
    17    -0.015673
    18     0.314004
    19    -0.053378
    20     0.025604
    21    -0.045853
    22    -0.205359
    23     0.028380
    24    -0.069075
    25     0.014283
    26     0.007801
    27    -0.005566
    28     0.022094
    29    -0.004093
    30    -0.008315
    31     0.269039
    32     1.352216
    33    -1.371356
    34    -0.480480
    35     0.400574
    36    -0.358947
    37     0.405723
    38    -0.515655
    39     0.559455
    40    -0.147499
    41    -0.140640
    42    -0.145361
    43    -0.102561
    44     0.097750
    45    -0.088583
    46     0.006218
    47    -0.056657
    48     0.302631
    49    -0.000061
    50    -0.040080
    51    -0.040432
    52    -0.083948
    53     0.179590
    54    -0.000314
    55    -0.022138
    56    -0.001400
    57    -0.005570
    58     0.006861
    59    -0.005047
    60     0.007767
Sym=    47a
Ene=   -0.623164E-02
Spin= Alpha
Occup= 0.004269
     1    -0.006216
     2     0.056735
     3    -0.302804
     4    -0.000082
     5    -0.039526
     6     0.039833
     7    -0.083862
     8     0.180133
     9    -0.000663
    10     0.014457
    11     0.003482
    12     0.011200
    13    -0.006894
    14    -0.006304
    15     0.011532
    16    -0.269219
    17    -1.353083
    18     1.373038
    19    -0.480783
    20     0.400502
    21     0.358430
    22     0.405388
    23    -0.515805
    24    -0.558884
    25     0.148129
    26     0.142827
    27     0.143258
    28     0.101120
    29     0.098852
    30    -0.088837
    31    -0.006537
    32     0.015765
    33    -0.315071
    34    -0.053256
    35     0.026077
    36     0.046358
    37    -0.206316
    38     0.027692
    39     0.068362
    40    -0.014383
    41    -0.007624
    42     0.005495
    43    -0.021912
    44    -0.003829
    45    -0.008137
    46     0.001433
    47     0.030768
    48    -0.034312
    49    -0.012628
    50    -0.006002
    51     0.000190
    52    -0.096620
    53    -0.037509
    54     0.012620
    55     0.005418
    56     0.000541
    57    -0.000252
    58     0.004223
    59    -0.004642
    60     0.000042
Sym=    48a
Ene=   -0.197088E-04
Spin= Alpha
Occup= 0.000001
     1     0.000651
     2     0.298136
     3    -1.317848
     4    -0.023122
     5    -0.098741
     6     0.083132
     7    -0.073082
     8     0.481606
     9    -0.483969
    10     0.139370
    11     0.002089
    12    -0.004996
    13     0.006988
    14    -0.008051
    15     0.182343
    16     0.013760
    17    -0.244907
    18     1.118029
    19    -0.034267
    20    -0.633876
    21     0.574901
    22    -0.059181
    23     1.410391
    24    -1.348671
    25    -0.142243
    26    -0.083818
    27    -0.047072
    28     0.004506
    29     0.071889
    30    -0.223959
    31    -0.001485
    32     0.042698
    33    -0.059460
    34     0.064883
    35     0.043926
    36    -0.031892
    37     0.019823
    38    -0.394595
    39     0.389204
    40    -0.003894
    41    -0.004206
    42     0.060826
    43    -0.258192
    44     0.120250
    45     0.102592
    46    -0.000116
    47     0.014707
    48    -0.036937
    49    -0.008920
    50     0.006901
    51     0.001738
    52    -0.020305
    53     0.026758
    54    -0.042216
    55     0.008863
    56    -0.020262
    57     0.026227
    58     0.006427
    59     0.010808
    60    -0.009311
Sym=    49a
Ene=   -0.137822E-04
Spin= Alpha
Occup= 0.000000
     1    -0.000577
     2     0.015375
     3    -0.039834
     4     0.007643
     5    -0.001476
     6    -0.005916
     7     0.015030
     8    -0.029107
     9    -0.048019
    10     0.016089
    11     0.046392
    12    -0.036235
    13    -0.018470
    14    -0.005565
    15     0.003847
    16    -0.001619
    17     0.057542
    18    -0.319386
    19    -0.045939
    20    -0.036644
    21    -0.034648
    22     0.092927
    23     0.485534
    24     0.416844
    25     0.065722
    26    -0.071361
    27     0.059491
    28    -0.207792
    29    -0.168130
    30    -0.093851
    31     0.017839
    32    -0.307761
    33     1.494288
    34    -0.039989
    35     0.586314
    36     0.561695
    37     0.293198
    38    -1.340626
    39    -1.378700
    40    -0.119529
    41    -0.197314
    42    -0.068621
    43    -0.029649
    44    -0.141414
    45     0.213111
    46    -0.000384
    47     0.312165
    48    -1.387945
    49     0.018811
    50     0.062705
    51     0.050437
    52     0.038338
    53    -0.559113
    54    -0.539162
    55     0.167836
    56     0.126508
    57    -0.129234
    58     0.156359
    59     0.140025
    60    -0.155385
Sym=    50a
Ene=   -0.497513E-03
Spin= Alpha
Occup= 0.000016
     1     0.581000
     2     1.394115
     3     1.967933
     4    -0.003341
     5     0.015483
     6    -0.016218
     7    -0.009198
     8    -0.152976
     9     0.139444
    10    -1.333550
    11    -1.368334
    12    -1.372992
    13    -0.003126
    14     0.004216
    15     0.045541
    16    -0.005057
    17     0.079033
    18    -0.424482
    19    -0.005488
    20    -0.002623
    21    -0.002173
    22     0.015287
    23    -0.217733
    24     0.207046
    25     0.033290
    26     0.011455
    27     0.013065
    28     0.002166
    29    -0.000154
    30     0.029492
    31    -0.001731
    32     0.036050
    33    -0.076290
    34     0.001259
    35     0.015545
    36    -0.016987
    37     0.001460
    38     0.015986
    39     0.033192
    40     0.019037
    41     0.019226
    42     0.015991
    43    -0.004420
    44    -0.002386
    45     0.005549
    46     0.000969
    47    -0.012818
    48     0.059287
    49     0.001359
    50     0.003021
    51     0.001857
    52     0.004533
    53     0.029443
    54     0.018451
    55    -0.008212
    56    -0.003772
    57    -0.007401
    58     0.005072
    59     0.000105
    60     0.004275
Sym=    51a
Ene=   -0.494100E-03
Spin= Alpha
Occup= 0.000016
     1     0.000967
     2    -0.012609
     3     0.058253
     4    -0.001366
     5    -0.003251
     6     0.002381
     7    -0.004803
     8    -0.029370
     9     0.018639
    10    -0.007454
    11    -0.002573
    12    -0.009245
    13     0.002943
    14     0.000569
    15    -0.004540
    16    -0.001706
    17     0.036604
    18    -0.079552
    19    -0.001105
    20    -0.017027
    21    -0.016322
    22     0.000512
    23    -0.012946
    24     0.032090
    25     0.019449
    26     0.017889
    27     0.017080
    28    -0.002911
    29     0.002122
    30    -0.005609
    31    -0.005009
    32     0.079448
    33    -0.424191
    34     0.004362
    35     0.003338
    36    -0.000809
    37    -0.012892
    38     0.220979
    39     0.209105
    40     0.033052
    41     0.011286
    42     0.011093
    43     0.002339
    44     0.000505
    45    -0.031087
    46     0.580982
    47     1.392158
    48     1.974019
    49     0.002639
    50    -0.012508
    51    -0.012774
    52     0.008065
    53     0.158553
    54     0.145499
    55    -1.337330
    56    -1.364815
    57    -1.375154
    58     0.010552
    59     0.014886
    60    -0.044210
Sym=    52a
Ene=    0.000000E+00
Spin= Alpha
Occup= 0.000000
     1    -0.000468
     2    -0.051962
     3     0.126339
     4     0.007964
     5     0.013130
     6     0.026122
     7     0.074709
     8    -0.000828
     9     0.142027
    10    -0.046734
    11    -0.272367
    12     0.293121
    13    -0.075373
    14     0.082817
    15    -0.065265
    16    -0.002174
    17    -0.186439
    18     1.010737
    19     0.037394
    20     0.008389
    21     0.009532
    22    -0.856362
    23    -0.450618
    24    -0.021054
    25     0.642386
    26    -0.656660
    27     0.079101
    28     0.538911
    29     0.158345
    30     0.218925
    31     0.015568
    32     0.070973
    33    -0.737050
    34    -0.192322
    35    -0.061175
    36     0.049370
    37    -0.547115
    38    -0.451628
    39    -0.116932
    40    -0.617951
    41     0.042025
    42     0.182860
    43    -0.296020
    44     0.208372
    45     0.195355
    46    -0.000945
    47     0.090192
    48    -0.296566
    49    -0.006627
    50    -0.011764
    51    -0.002795
    52     0.002016
    53    -0.133017
    54    -0.123247
    55     0.038428
    56    -0.045379
    57     0.084494
    58     0.115587
    59     0.085138
    60    -0.052395
Sym=    53a
Ene=    0.000000E+00
Spin= Alpha
Occup= 0.000000
     1     0.000647
     2     0.053223
     3    -0.248093
     4     0.010023
     5     0.010364
     6     0.005047
     7     0.103982
     8     0.178866
     9    -0.088495
    10     0.097004
    11     0.003303
    12    -0.097511
    13     0.225511
    14    -0.191808
    15     0.011193
    16     0.015972
    17    -0.219602
    18     1.642949
    19     0.222943
    20     0.036029
    21     0.057755
    22    -0.900366
    23    -0.246415
    24    -0.277058
    25    -0.241367
    26    -0.256522
    27     0.053744
    28    -0.231485
    29     0.255941
    30    -0.030916
    31    -0.009739
    32     0.176550
    33    -1.503977
    34     0.125688
    35     0.022725
    36    -0.019030
    37    -0.811452
    38    -0.295747
    39     0.203813
    40     0.314459
    41    -0.185860
    42     0.164674
    43     0.359958
    44     0.274774
    45    -0.049259
    46    -0.001027
    47    -0.037226
    48     0.166291
    49     0.013706
    50    -0.007767
    51     0.012791
    52     0.090017
    53     0.102703
    54     0.104930
    55    -0.113949
    56    -0.249790
    57     0.377624
    58     0.366017
    59     0.301472
    60     0.060411
Sym=    54a
Ene=    0.000000E+00
Spin= Alpha
Occup= 0.000000
     1    -0.000059
     2     0.067603
     3    -0.324049
     4     0.007392
     5     0.011119
     6     0.005707
     7     0.116354
     8     0.204234
     9    -0.110849
    10     0.104725
    11     0.005314
    12    -0.084977
    13     0.303195
    14    -0.267092
    15     0.003720
    16     0.018261
    17    -0.312334
    18     1.756214
    19     0.277649
    20     0.042362
    21     0.101417
    22    -1.117618
    23    -0.164319
    24    -0.284841
    25     0.054094
    26    -0.440029
    27    -0.097672
    28     0.103169
    29     0.016600
    30    -0.040107
    31     0.005027
    32     0.107974
    33    -1.243107
    34    -0.130865
    35    -0.017699
    36     0.005963
    37    -0.503304
    38    -0.448972
    39     0.107604
    40     0.209973
    41    -0.315962
    42     0.022103
    43    -0.048572
    44    -0.061677
    45    -0.095170
    46    -0.001625
    47    -0.004641
    48     0.007177
    49    -0.021762
    50     0.001076
    51     0.002748
    52    -0.034671
    53     0.042807
    54     0.033081
    55     0.061305
    56     0.414055
    57    -0.437046
    58    -0.379724
    59    -0.231652
    60     0.027647
Sym=    55a
Ene=    0.000000E+00
Spin= Alpha
Occup= 0.000000
     1    -0.000120
     2     0.048920
     3    -0.206396
     4     0.015451
     5     0.005095
     6    -0.001417
     7     0.111168
     8     0.115995
     9    -0.091289
    10     0.013471
    11    -0.126097
    12     0.137306
    13    -0.303878
    14     0.305226
    15     0.050771
    16     0.009170
    17    -0.269110
    18     1.653144
    19     0.147257
    20     0.036987
    21     0.046453
    22    -1.097493
    23    -0.266300
    24    -0.031370
    25     0.060444
    26    -0.175951
    27    -0.148837
    28     0.078849
    29    -0.225169
    30    -0.146715
    31     0.001247
    32     0.182116
    33    -1.503419
    34    -0.050332
    35    -0.029307
    36     0.025037
    37    -0.729577
    38    -0.317346
    39    -0.045610
    40     0.264233
    41    -0.509923
    42     0.267794
    43    -0.276712
    44    -0.464264
    45    -0.220060
    46    -0.001030
    47    -0.046570
    48     0.142744
    49    -0.016933
    50    -0.008371
    51     0.027764
    52    -0.015653
    53     0.060668
    54     0.140076
    55    -0.063894
    56    -0.287296
    57     0.348229
    58    -0.037796
    59    -0.063178
    60     0.051511
Sym=    56a
Ene=    0.000000E+00
Spin= Alpha
Occup= 0.000000
     1    -0.002221
     2     0.119375
     3    -0.499244
     4     0.033297
     5     0.007093
     6    -0.005580
     7     0.146206
     8     0.225680
     9    -0.181775
    10     0.045821
    11     0.044441
    12     0.023597
    13    -0.349795
    14     0.318600
    15     0.064182
    16     0.025245
    17    -0.258256
    18     0.921217
    19     0.397284
    20     0.053398
    21     0.141114
    22    -0.661164
    23     0.074187
    24    -0.411015
    25    -0.158162
    26     0.112787
    27    -0.588858
    28     0.139779
    29    -0.008668
    30    -0.007025
    31     0.018395
    32    -0.166413
    33     0.202717
    34    -0.311113
    35    -0.090764
    36     0.064796
    37     0.265681
    38    -0.128608
    39    -0.119409
    40    -0.093917
    41    -0.164141
    42    -0.192222
    43     0.462258
    44     0.327898
    45     0.048538
    46    -0.002943
    47     0.091186
    48    -0.345658
    49    -0.018806
    50    -0.043074
    51    -0.023987
    52    -0.082981
    53    -0.194887
    54    -0.121817
    55     0.069500
    56     0.181674
    57    -0.131056
    58     0.020273
    59     0.049737
    60    -0.012311
Sym=    57a
Ene=    0.000000E+00
Spin= Alpha
Occup= 0.000000
     1     0.002657
     2     0.016624
     3    -0.092277
     4    -0.014295
     5     0.000046
     6    -0.004367
     7     0.072948
     8     0.125396
     9    -0.078884
    10     0.047195
    11    -0.088318
    12    -0.024533
    13    -0.092889
    14     0.128144
    15     0.060646
    16    -0.001367
    17    -0.434537
    18     3.645732
    19    -0.040835
    20    -0.020857
    21    -0.021132
    22    -2.030873
    23    -1.009401
    24    -0.102681
    25    -0.074684
    26     0.160659
    27    -0.148974
    28     0.271960
    29    -0.099547
    30    -0.147690
    31    -0.020633
    32     0.609888
    33    -4.030555
    34     0.356398
    35     0.099035
    36    -0.074015
    37    -2.614390
    38    -0.942977
    39     0.236215
    40    -0.242648
    41     0.641998
    42     0.194367
    43    -0.276471
    44     0.050338
    45    -0.051044
    46    -0.000824
    47    -0.045820
    48     0.270048
    49     0.023568
    50     0.012519
    51    -0.012458
    52     0.245654
    53     0.233202
    54     0.073033
    55    -0.061048
    56     0.251661
    57    -0.174550
    58     0.066614
    59     0.151720
    60     0.031359
Sym=    58a
Ene=    0.000000E+00
Spin= Alpha
Occup= 0.000000
     1    -0.000398
     2     0.054570
     3    -0.168674
     4    -0.000638
     5     0.022238
     6     0.013795
     7    -0.043919
     8     0.121652
     9    -0.024590
    10     0.001654
    11    -0.348863
    12     0.391860
    13    -0.159773
    14     0.158677
    15     0.050114
    16     0.007702
    17     0.118903
    18    -0.805446
    19     0.084509
    20     0.017342
    21     0.022469
    22     0.606854
    23     0.338324
    24    -0.122199
    25    -0.595379
    26    -0.331990
    27     0.733358
    28    -0.157632
    29    -0.080073
    30    -0.132656
    31    -0.006538
    32    -0.142436
    33     0.869938
    34     0.073957
    35     0.017170
    36    -0.011333
    37     0.624646
    38     0.347173
    39     0.054524
    40     0.470353
    41     0.149063
    42    -0.457226
    43     0.337135
    44     0.017206
    45    -0.105329
    46    -0.000114
    47    -0.031393
    48     0.086856
    49    -0.000778
    50     0.008241
    51    -0.004838
    52    -0.035285
    53     0.051710
    54     0.029141
    55    -0.011053
    56     0.145129
    57    -0.152770
    58    -0.016942
    59     0.002866
    60     0.032279
Sym=    59a
Ene=    0.000000E+00
Spin= Alpha
Occup= 0.000000
     1     0.000994
     2    -0.059850
     3     0.187969
     4     0.003391
     5    -0.006233
     6     0.002955
     7    -0.003385
     8    -0.086399
     9     0.066633
    10    -0.059886
    11    -0.045249
    12     0.045484
    13    -0.288741
    14     0.278170
    15    -0.018535
    16    -0.009091
    17     0.092763
    18    -0.077359
    19    -0.144244
    20    -0.037189
    21    -0.035680
    22     0.064685
    23    -0.043152
    24    -0.001486
    25     0.167466
    26    -0.040948
    27     0.097399
    28    -0.532399
    29     0.524730
    30     0.129377
    31    -0.015605
    32     0.119301
    33    -0.492224
    34     0.248689
    35     0.074645
    36    -0.057902
    37    -0.333779
    38    -0.129625
    39     0.261715
    40     0.117249
    41    -0.168463
    42     0.444202
    43    -0.004349
    44     0.208248
    45     0.106667
    46     0.000999
    47    -0.038533
    48     0.176484
    49     0.019791
    50     0.004382
    51    -0.001059
    52     0.092067
    53     0.089476
    54     0.047461
    55     0.020740
    56     0.158251
    57    -0.220410
    58    -0.187282
    59    -0.102364
    60    -0.004828
Sym=    60a
Ene=    0.000000E+00
Spin= Alpha
Occup= 0.000000
     1    -0.000515
     2    -0.012440
     3    -0.011342
     4     0.030659
     5    -0.005560
     6    -0.000193
     7     0.130925
     8    -0.005871
     9     0.002117
    10     0.002322
    11     0.082588
    12    -0.086018
    13    -0.080528
    14     0.081823
    15    -0.039739
    16     0.010366
    17    -0.096367
    18     0.460420
    19     0.191091
    20     0.042081
    21     0.053098
    22    -0.476097
    23    -0.059360
    24    -0.042831
    25     0.292571
    26    -0.253527
    27    -0.288953
    28    -0.276151
    29     0.328080
    30     0.119647
    31     0.006705
    32    -0.008874
    33    -0.261267
    34    -0.117437
    35    -0.051519
    36     0.042736
    37     0.019526
    38    -0.133167
    39     0.046885
    40     0.299997
    41     0.284366
    42    -0.733375
    43    -0.329324
    44    -0.134710
    45    -0.090668
    46    -0.000831
    47    -0.010744
    48     0.011695
    49    -0.025276
    50     0.019393
    51    -0.017112
    52    -0.087277
    53     0.082584
    54    -0.042077
    55    -0.052219
    56     0.023780
    57     0.040967
    58     0.098228
    59     0.043813
    60     0.028158
