[Molden Format]
p30-5 set                                                                       
[Atoms] AU
 H        1     1        2.0390       -2.6112        0.0000
 N        2     7        0.1772       -2.1352        0.0000
 N        3     7        0.0000        0.2099        0.0000
 N        4     7       -0.4685        2.2983        0.0000
[GTO]
    1 0
s    3 1.00
      13.010701000000  0.334854848130E-01
       1.962257200000  0.234721870881E+00
       0.444537960000  0.813770285260E+00
s    1 1.00
       0.121949620000  0.100000000000E+01
p    1 1.00
       0.800000000000  0.100000000000E+01
 
    2 0
s    5 1.00
    1712.841585300000 -0.544779958049E-02
     257.648126770000 -0.406271746324E-01
      58.458245853000 -0.181119622506E+00
      16.198367905000 -0.468439755632E+00
       5.005260080900 -0.446168462892E+00
s    1 1.00
       0.587318565710  0.100000000000E+01
s    1 1.00
       0.187645922530  0.100000000000E+01
p    3 1.00
      13.571470233000 -0.588481169695E-01
       2.925737287400 -0.320246247625E+00
       0.799277507540 -0.753282265204E+00
p    1 1.00
       0.219543480340  0.100000000000E+01
d    1 1.00
       1.000000000000  0.100000000000E+01
 
    3 0
s    5 1.00
    1712.841585300000 -0.544779958049E-02
     257.648126770000 -0.406271746324E-01
      58.458245853000 -0.181119622506E+00
      16.198367905000 -0.468439755632E+00
       5.005260080900 -0.446168462892E+00
s    1 1.00
       0.587318565710  0.100000000000E+01
s    1 1.00
       0.187645922530  0.100000000000E+01
p    3 1.00
      13.571470233000 -0.588481169695E-01
       2.925737287400 -0.320246247625E+00
       0.799277507540 -0.753282265204E+00
p    1 1.00
       0.219543480340  0.100000000000E+01
d    1 1.00
       1.000000000000  0.100000000000E+01
 
    4 0
s    5 1.00
    1712.841585300000 -0.544779958049E-02
     257.648126770000 -0.406271746324E-01
      58.458245853000 -0.181119622506E+00
      16.198367905000 -0.468439755632E+00
       5.005260080900 -0.446168462892E+00
s    1 1.00
       0.587318565710  0.100000000000E+01
s    1 1.00
       0.187645922530  0.100000000000E+01
p    3 1.00
      13.571470233000 -0.588481169695E-01
       2.925737287400 -0.320246247625E+00
       0.799277507540 -0.753282265204E+00
p    1 1.00
       0.219543480340  0.100000000000E+01
d    1 1.00
       1.000000000000  0.100000000000E+01
 
[MO]
Sym=     1a
Ene=   -0.156852E+02
Spin= Alpha
Occup= 1.999921
     1    -0.000751
     2    -0.000638
     3     0.000054
     4    -0.000023
     5    -0.000004
     6    -0.000089
     7    -0.000336
     8     0.014938
     9     0.000132
    10     0.000344
    11     0.000004
    12     0.000771
    13     0.006937
    14    -0.000007
    15     0.000147
    16    -0.000087
    17    -0.000163
    18    -0.000043
    19     0.000002
    20     0.000004
    21     0.001174
    22     0.004654
    23    -0.007351
    24     0.001180
    25    -0.004296
    26    -0.000035
    27    -0.002473
    28     0.015880
    29     0.000025
    30     0.000363
    31     0.002406
    32     0.000213
    33    -0.000648
    34     0.000000
    35     0.000007
    36     0.994817
    37    -0.025725
    38     0.006924
    39     0.001052
    40    -0.004424
    41    -0.000047
    42    -0.001136
    43     0.003473
    44     0.000028
    45     0.002273
    46     0.000040
    47     0.002260
    48     0.000685
    49     0.000007
    50    -0.000011
Sym=     2a
Ene=   -0.157966E+02
Spin= Alpha
Occup= 1.999920
     1    -0.000599
     2    -0.001002
     3     0.000480
     4    -0.000336
     5     0.000007
     6     0.000592
     7     0.001255
     8    -0.004754
     9    -0.000062
    10    -0.004171
    11    -0.000018
    12     0.001002
    13    -0.000764
    14     0.000014
    15     0.000411
    16     0.002785
    17     0.000024
    18    -0.000094
    19     0.000002
    20    -0.000001
    21     0.993510
    22    -0.027788
    23     0.017592
    24    -0.000415
    25     0.000079
    26    -0.000017
    27    -0.000104
    28    -0.001336
    29     0.000017
    30     0.002483
    31    -0.001614
    32     0.002619
    33     0.000779
    34    -0.000003
    35     0.000004
    36     0.001085
    37     0.004143
    38    -0.004655
    39    -0.001210
    40     0.005200
    41    -0.000004
    42     0.000117
    43     0.000135
    44     0.000000
    45     0.000186
    46     0.001975
    47     0.000047
    48    -0.000623
    49    -0.000004
    50    -0.000001
Sym=     3a
Ene=   -0.155867E+02
Spin= Alpha
Occup= 1.999912
     1     0.003867
     2    -0.003132
     3    -0.002517
     4     0.000250
     5    -0.000005
     6     0.996239
     7    -0.023004
     8     0.017941
     9     0.005998
    10     0.004938
    11     0.000136
    12    -0.002729
    13    -0.002160
    14    -0.000123
    15     0.000782
    16     0.000535
    17     0.002284
    18     0.000192
    19     0.000006
    20     0.000001
    21     0.000738
    22     0.002295
    23    -0.011698
    24     0.001369
    25     0.003719
    26     0.000072
    27     0.001122
    28    -0.010374
    29    -0.000045
    30     0.000145
    31     0.003426
    32     0.000151
    33     0.000091
    34    -0.000000
    35     0.000011
    36    -0.000115
    37    -0.000429
    38     0.012517
    39    -0.000386
    40    -0.001115
    41    -0.000020
    42     0.002488
    43    -0.005337
    44     0.000038
    45     0.000040
    46    -0.000468
    47     0.000108
    48     0.000229
    49    -0.000004
    50     0.000003
Sym=     4a
Ene=   -0.140005E+01
Spin= Alpha
Occup= 1.995179
     1    -0.008128
     2    -0.004928
     3     0.000573
     4     0.000076
     5     0.000014
     6     0.010115
     7     0.022367
     8    -0.006078
     9    -0.000078
    10    -0.043399
    11    -0.000454
    12    -0.001630
    13     0.018978
    14     0.001472
    15    -0.000777
    16     0.008296
    17    -0.001079
    18     0.001616
    19     0.000026
    20    -0.000159
    21    -0.180844
    22    -0.385593
    23    -0.121275
    24    -0.086743
    25     0.330491
    26     0.006021
    27     0.029953
    28    -0.097696
    29    -0.003224
    30    -0.003795
    31    -0.036724
    32     0.000532
    33     0.010355
    34     0.000025
    35    -0.000522
    36    -0.140562
    37    -0.290749
    38     0.039778
    39     0.057794
    40    -0.323137
    41     0.006399
    42    -0.007590
    43     0.069649
    44    -0.003790
    45     0.005940
    46    -0.038385
    47     0.008007
    48     0.010272
    49    -0.000201
    50     0.000546
Sym=     5a
Ene=   -0.753254E+00
Spin= Alpha
Occup= 1.992547
     1    -0.002636
     2    -0.002041
     3    -0.000050
     4     0.000480
     5    -0.000011
     6     0.005771
     7     0.013840
     8    -0.046756
     9     0.000555
    10    -0.019094
    11     0.000093
    12    -0.005222
    13    -0.013024
    14     0.000053
    15    -0.000232
    16     0.001612
    17     0.000209
    18     0.000906
    19    -0.000002
    20    -0.000025
    21    -0.046523
    22    -0.126239
    23    -0.118003
    24    -0.031837
    25     0.086460
    26     0.000677
    27     0.031697
    28    -0.123798
    29    -0.000355
    30    -0.005603
    31    -0.002765
    32    -0.004948
    33     0.001134
    34     0.000033
    35     0.000031
    36     0.225794
    37     0.489160
    38     0.572253
    39     0.060772
    40    -0.360051
    41     0.000362
    42    -0.016647
    43     0.140497
    44    -0.000044
    45     0.022449
    46     0.000455
    47     0.022987
    48     0.004267
    49     0.000284
    50     0.000058
Sym=     6a
Ene=   -0.612755E+00
Spin= Alpha
Occup= 1.992471
     1    -0.015808
     2    -0.030568
     3    -0.004855
     4    -0.008917
     5    -0.014706
     6     0.148898
     7     0.330801
     8     0.364111
     9     0.213163
    10     0.156553
    11     0.362429
    12    -0.162491
    13    -0.088205
    14    -0.286752
    15     0.009572
    16     0.006877
    17     0.016199
    18    -0.016182
    19    -0.006764
    20    -0.023476
    21    -0.011206
    22    -0.037311
    23    -0.041525
    24     0.079841
    25    -0.004624
    26     0.178627
    27    -0.057419
    28     0.071879
    29    -0.111696
    30    -0.007977
    31     0.003880
    32    -0.003155
    33     0.015547
    34    -0.003161
    35     0.027917
    36     0.002279
    37     0.006404
    38    -0.052203
    39    -0.040467
    40    -0.001840
    41    -0.059882
    42     0.047155
    43     0.031918
    44     0.095336
    45     0.000046
    46     0.001028
    47    -0.000005
    48     0.000142
    49    -0.000799
    50     0.003753
Sym=     7a
Ene=   -0.600754E+00
Spin= Alpha
Occup= 1.992223
     1     0.016013
     2     0.029525
     3     0.004546
     4     0.008701
     5    -0.016026
     6    -0.139952
     7    -0.310134
     8    -0.343411
     9    -0.201773
    10    -0.146710
    11     0.386052
    12     0.153494
    13     0.082630
    14    -0.304442
    15    -0.008590
    16    -0.006313
    17    -0.015622
    18     0.015702
    19    -0.007688
    20    -0.025327
    21     0.011072
    22     0.035941
    23     0.038368
    24    -0.075297
    25     0.003049
    26     0.189259
    27     0.054539
    28    -0.069055
    29    -0.118488
    30     0.007592
    31    -0.003657
    32     0.002883
    33    -0.014954
    34    -0.003438
    35     0.029941
    36    -0.001811
    37    -0.005268
    38     0.050500
    39     0.038082
    40     0.003133
    41    -0.064279
    42    -0.044567
    43    -0.031500
    44     0.101843
    45    -0.000035
    46    -0.000836
    47    -0.000013
    48    -0.000224
    49    -0.000828
    50     0.003975
Sym=     8a
Ene=   -0.118088E+01
Spin= Alpha
Occup= 1.991249
     1     0.033505
     2     0.013218
     3    -0.001697
     4    -0.008928
     5     0.000180
     6    -0.082565
     7    -0.172693
     8     0.121595
     9     0.005638
    10     0.335976
    11    -0.000340
    12    -0.024055
    13    -0.082809
    14     0.000077
    15     0.011580
    16    -0.036424
    17     0.009079
    18    -0.006239
    19     0.000054
    20     0.000034
    21    -0.178745
    22    -0.399945
    23    -0.155152
    24     0.071760
    25    -0.370042
    26     0.000821
    27    -0.047767
    28     0.182110
    29    -0.000573
    30    -0.006088
    31    -0.040325
    32    -0.004931
    33     0.007807
    34    -0.000114
    35    -0.000098
    36     0.022184
    37     0.052659
    38    -0.070202
    39    -0.028034
    40     0.068439
    41     0.000667
    42     0.013278
    43     0.002667
    44    -0.000408
    45    -0.001230
    46     0.010283
    47    -0.001895
    48    -0.004336
    49    -0.000035
    50     0.000116
Sym=     9a
Ene=   -0.823648E+00
Spin= Alpha
Occup= 1.981837
     1     0.429849
     2     0.100379
     3    -0.032495
     4     0.016526
     5     0.000040
     6     0.111293
     7     0.224551
     8     0.022993
     9    -0.399944
    10     0.090306
    11    -0.001333
    12     0.182888
    13    -0.015140
    14     0.001302
    15     0.033077
    16    -0.006973
    17    -0.000666
    18     0.009548
    19     0.000024
    20     0.000133
    21    -0.017263
    22    -0.047423
    23    -0.055374
    24    -0.064509
    25    -0.051802
    26    -0.000568
    27     0.042212
    28    -0.008724
    29     0.000367
    30     0.002974
    31    -0.003530
    32    -0.003791
    33    -0.023689
    34    -0.000008
    35    -0.000016
    36     0.005028
    37     0.015206
    38     0.032501
    39     0.043393
    40     0.024054
    41     0.000234
    42    -0.054442
    43    -0.033950
    44    -0.000344
    45     0.000508
    46     0.001235
    47     0.000780
    48     0.000304
    49    -0.000004
    50     0.000016
Sym=    10a
Ene=   -0.610081E+00
Spin= Alpha
Occup= 1.950931
     1     0.000240
     2     0.000363
     3     0.000023
     4     0.000075
     5    -0.005867
     6     0.000180
     7     0.000450
     8     0.000024
     9     0.000011
    10    -0.000185
    11     0.116703
    12     0.000197
    13     0.000327
    14    -0.170873
    15     0.000073
    16     0.000069
    17    -0.000026
    18    -0.000052
    19    -0.004066
    20     0.005145
    21    -0.003039
    22    -0.006605
    23    -0.003136
    24     0.002312
    25     0.004581
    26    -0.396701
    27    -0.001231
    28    -0.001714
    29     0.213374
    30     0.000035
    31    -0.000523
    32    -0.000154
    33     0.000063
    34    -0.008642
    35     0.043486
    36    -0.001671
    37    -0.003156
    38     0.001610
    39     0.004058
    40    -0.003903
    41    -0.486894
    42    -0.001820
    43     0.000193
    44     0.303234
    45     0.000173
    46    -0.000458
    47     0.000114
    48     0.000241
    49     0.009701
    50    -0.041530
Sym=    11a
Ene=   -0.646222E+00
Spin= Alpha
Occup= 1.936341
     1     0.055505
     2     0.039501
     3     0.000510
     4     0.004084
     5     0.000011
     6    -0.012934
     7    -0.023093
     8    -0.121921
     9    -0.047205
    10    -0.038537
    11    -0.000778
    12     0.091943
    13     0.012091
    14     0.001325
    15     0.004177
    16    -0.000089
    17    -0.003098
    18    -0.011746
    19    -0.000016
    20    -0.000057
    21    -0.013833
    22    -0.027058
    23    -0.029072
    24     0.460907
    25     0.099805
    26     0.002784
    27    -0.258848
    28    -0.099771
    29    -0.001728
    30     0.011589
    31    -0.014127
    32    -0.000756
    33    -0.032659
    34     0.000082
    35    -0.000493
    36     0.006877
    37     0.020464
    38     0.050877
    39     0.417266
    40     0.081172
    41     0.003351
    42    -0.231960
    43    -0.063049
    44    -0.002215
    45    -0.014675
    46     0.016861
    47     0.001688
    48     0.039819
    49    -0.000097
    50     0.000526
Sym=    12a
Ene=   -0.349239E-01
Spin= Alpha
Occup= 0.061972
     1    -0.081832
     2    -0.062145
     3     0.000390
     4    -0.006475
     5     0.000635
     6     0.016532
     7     0.013700
     8     0.172465
     9     0.120898
    10     0.053489
    11     0.000119
    12    -0.153355
    13    -0.056435
    14    -0.004402
    15    -0.003138
    16     0.001774
    17     0.000980
    18     0.001686
    19     0.000796
    20     0.000272
    21     0.007941
    22     0.023075
    23     0.020173
    24    -0.654958
    25    -0.146599
    26    -0.005681
    27     0.229066
    28     0.067937
    29     0.004167
    30     0.013035
    31    -0.007226
    32    -0.007517
    33     0.015520
    34    -0.000200
    35     0.002844
    36    -0.001412
    37    -0.000093
    38    -0.028232
    39     0.618767
    40     0.104509
    41     0.003785
    42    -0.284296
    43    -0.050986
    44    -0.004573
    45    -0.004408
    46     0.004093
    47    -0.003187
    48     0.027668
    49    -0.000600
    50     0.004195
Sym=    13a
Ene=   -0.266108E-01
Spin= Alpha
Occup= 0.046852
     1     0.002109
     2    -0.003372
     3    -0.001275
     4    -0.003031
     5     0.014160
     6    -0.000352
     7    -0.001075
     8     0.003960
     9     0.000775
    10     0.002432
    11    -0.201467
    12    -0.001323
    13    -0.000372
    14     0.376664
    15    -0.000861
    16    -0.000565
    17     0.000676
    18    -0.000653
    19     0.017326
    20     0.010199
    21     0.003037
    22     0.011641
    23    -0.004721
    24    -0.001862
    25    -0.006796
    26     0.640364
    27     0.000409
    28     0.001960
    29    -0.294788
    30    -0.000400
    31    -0.001096
    32     0.003317
    33    -0.003210
    34     0.009128
    35    -0.052414
    36    -0.002386
    37    -0.010207
    38     0.004887
    39     0.007858
    40    -0.009509
    41    -0.661318
    42     0.001237
    43    -0.000692
    44     0.149607
    45     0.002692
    46    -0.003291
    47    -0.001148
    48    -0.003607
    49    -0.000371
    50     0.002487
Sym=    14a
Ene=   -0.268992E-02
Spin= Alpha
Occup= 0.002191
     1     1.349141
     2    -0.604821
     3    -0.521427
     4     0.263169
     5    -0.005401
     6    -0.016074
     7     0.026595
     8    -1.003726
     9     0.134818
    10    -0.046203
    11     0.001254
    12    -0.864409
    13    -0.191465
    14     0.001395
    15     0.150163
    16    -0.125990
    17    -0.039083
    18    -0.044273
    19    -0.013364
    20    -0.009361
    21     0.008244
    22     0.030523
    23     0.697940
    24    -0.095663
    25     0.054714
    26    -0.002942
    27     0.218710
    28    -0.126390
    29    -0.000783
    30    -0.000292
    31     0.069559
    32     0.007178
    33    -0.002867
    34     0.001694
    35    -0.007121
    36    -0.001034
    37     0.021658
    38    -0.184756
    39     0.062424
    40    -0.010029
    41    -0.002489
    42    -0.002245
    43     0.108986
    44    -0.001633
    45     0.001878
    46    -0.017631
    47     0.002811
    48     0.019878
    49     0.001090
    50    -0.000834
Sym=    15a
Ene=   -0.101722E-01
Spin= Alpha
Occup= 0.007281
     1    -0.005978
     2     0.038813
     3    -0.003594
     4     0.031405
     5     0.011712
     6    -0.141345
     7    -0.478077
     8     0.282409
     9    -0.041082
    10     0.891777
    11    -0.009532
    12     0.017850
    13     0.044124
    14    -0.018651
    15     0.090660
    16    -0.275319
    17     0.077753
    18    -0.005372
    19     0.005923
    20     0.004869
    21     0.242025
    22     0.966559
    23    -0.377183
    24    -0.088932
    25     0.784309
    26    -0.002648
    27    -0.072685
    28     0.253374
    29     0.003480
    30    -0.088025
    31     0.083066
    32    -0.095267
    33    -0.045559
    34     0.000865
    35    -0.002102
    36    -0.005781
    37    -0.043845
    38    -0.007246
    39    -0.015894
    40    -0.030356
    41     0.001943
    42    -0.007831
    43     0.044446
    44    -0.000354
    45    -0.004613
    46    -0.011393
    47    -0.004288
    48     0.006548
    49     0.001814
    50    -0.002510
Sym=    16a
Ene=   -0.601720E-02
Spin= Alpha
Occup= 0.006624
     1    -0.056342
     2    -0.123700
     3     0.007647
     4    -0.021442
     5     0.004691
     6    -0.191822
     7    -1.012630
     8     1.181613
     9    -0.366463
    10    -0.246910
    11     0.734826
    12    -0.329197
    13    -0.123149
    14     0.754426
    15     0.104905
    16     0.154314
    17    -0.084736
    18    -0.022198
    19     0.111141
    20     0.041655
    21    -0.004201
    22    -0.041121
    23    -0.213677
    24    -0.038672
    25    -0.021298
    26     0.066294
    27     0.002201
    28     0.123996
    29    -0.021883
    30    -0.004958
    31    -0.024327
    32    -0.000006
    33     0.014393
    34     0.001106
    35    -0.019595
    36    -0.001236
    37    -0.005029
    38    -0.010316
    39     0.012627
    40     0.006164
    41    -0.043090
    42     0.037517
    43     0.015463
    44    -0.096532
    45    -0.001002
    46     0.008214
    47    -0.002650
    48    -0.002238
    49    -0.000594
    50     0.002225
Sym=    17a
Ene=   -0.609619E-02
Spin= Alpha
Occup= 0.006602
     1     0.051907
     2     0.140236
     3    -0.007336
     4     0.017429
     5     0.003920
     6     0.200934
     7     1.067203
     8    -1.312606
     9     0.391401
    10     0.275347
    11     0.692501
    12     0.353340
    13     0.100885
    14     0.710109
    15    -0.085262
    16    -0.140047
    17     0.043539
    18     0.044920
    19     0.131313
    20     0.068780
    21     0.005056
    22     0.035033
    23     0.275445
    24     0.045358
    25     0.019696
    26     0.062514
    27     0.003543
    28    -0.186523
    29    -0.026632
    30     0.007778
    31     0.019963
    32     0.001196
    33    -0.019130
    34     0.002646
    35    -0.024150
    36     0.000293
    37     0.006564
    38     0.031133
    39    -0.017805
    40    -0.008746
    41    -0.044866
    42    -0.040485
    43    -0.022142
    44    -0.091270
    45     0.000784
    46    -0.006854
    47     0.002371
    48     0.001687
    49    -0.000808
    50     0.003347
Sym=    18a
Ene=   -0.653242E-02
Spin= Alpha
Occup= 0.006216
     1     0.001164
     2     0.003774
     3    -0.000292
     4     0.000787
     5     0.000220
     6     0.002791
     7    -0.006860
     8    -0.054254
     9     0.000875
    10    -0.006980
    11    -0.000363
    12    -0.011419
    13    -0.021432
    14     0.001146
    15    -0.000000
    16    -0.004517
    17     0.000564
    18     0.000266
    19     0.000120
    20     0.000220
    21    -0.024935
    22     0.012799
    23    -0.292263
    24    -0.004431
    25     0.039121
    26    -0.001375
    27     0.045104
    28    -0.231906
    29    -0.002111
    30    -0.010225
    31     0.007138
    32    -0.009898
    33    -0.007043
    34    -0.000897
    35     0.001483
    36    -0.267860
    37    -1.381076
    38     1.500190
    39    -0.106320
    40     0.656860
    41    -0.000653
    42    -0.056195
    43     0.438162
    44     0.000583
    45     0.207901
    46    -0.121723
    47     0.224520
    48     0.064787
    49    -0.000604
    50     0.004525
Sym=    19a
Ene=   -0.743580E-02
Spin= Alpha
Occup= 0.004241
     1     0.000897
     2     0.046237
     3     0.002916
     4     0.007940
     5     0.004578
     6     0.002091
     7     0.021037
     8     0.242316
     9    -0.012557
    10     0.019840
    11    -0.001044
    12    -0.025280
    13     0.083650
    14    -0.005062
    15    -0.002236
    16    -0.009481
    17    -0.003168
    18     0.002011
    19     0.000697
    20     0.000474
    21     0.244607
    22     1.089587
    23    -0.615233
    24     0.226708
    25    -0.862483
    26    -0.009835
    27    -0.000855
    28     0.155245
    29    -0.004035
    30    -0.092112
    31     0.171022
    32    -0.106808
    33    -0.092393
    34     0.000112
    35     0.006182
    36    -0.243033
    37    -1.116462
    38     0.555303
    39     0.194161
    40    -0.933237
    41     0.011738
    42    -0.006941
    43     0.002587
    44     0.005522
    45     0.108787
    46    -0.316186
    47     0.140551
    48     0.114667
    49     0.001629
    50    -0.000273
Sym=    20a
Ene=   -0.165640E-02
Spin= Alpha
Occup= 0.000087
     1    -0.305963
     2     0.113731
     3     0.099465
     4    -0.028375
     5    -0.002950
     6    -0.832823
     7    -3.125010
     8    -0.434887
     9     0.023992
    10    -0.041146
    11    -0.005958
    12     0.247336
    13     0.071542
    14    -0.004708
    15     1.684888
    16     1.739602
    17     1.558608
    18    -0.025295
    19     0.025045
    20     0.021966
    21    -0.009818
    22    -0.045518
    23     0.535593
    24     0.028147
    25    -0.144014
    26    -0.001479
    27    -0.120604
    28     0.340359
    29    -0.004156
    30    -0.017675
    31    -0.223467
    32    -0.025404
    33     0.025445
    34     0.000582
    35     0.001898
    36    -0.000917
    37     0.012506
    38    -0.492827
    39    -0.025497
    40     0.028339
    41    -0.001660
    42    -0.065897
    43     0.212196
    44    -0.000190
    45     0.000301
    46     0.026957
    47     0.000835
    48    -0.022087
    49    -0.002917
    50     0.005180
Sym=    21a
Ene=   -0.188035E-05
Spin= Alpha
Occup= 0.000000
     1     0.164386
     2     0.505508
     3    -0.073667
     4     0.372679
     5     0.128972
     6    -0.006114
     7     0.234933
     8    -1.076467
     9     0.006378
    10     0.015520
    11     0.068613
    12    -0.323612
    13    -0.263120
    14     0.379601
    15    -0.180739
    16     0.164717
    17     0.171474
    18    -0.392256
    19    -0.090554
    20     0.106590
    21    -0.006099
    22     0.100345
    23     3.778269
    24    -0.019455
    25    -0.309653
    26    -0.378794
    27    -0.546694
    28     1.394095
    29    -0.848955
    30     0.260491
    31     0.105555
    32    -0.087427
    33    -0.343909
    34    -0.003613
    35     0.128323
    36    -0.015687
    37     0.289865
    38    -3.917455
    39     0.021770
    40     0.064573
    41     0.161127
    42    -0.277293
    43     2.346239
    44     0.511101
    45     0.433875
    46    -0.522550
    47     0.460119
    48    -0.059028
    49     0.008030
    50     0.144008
Sym=    22a
Ene=   -0.443698E-05
Spin= Alpha
Occup= 0.000000
     1    -0.197024
     2     0.044375
     3     0.004993
     4    -0.054553
     5    -0.026735
     6    -0.001215
     7    -0.068163
     8    -0.290899
     9     0.018271
    10     0.047210
    11     0.020323
    12     0.745993
    13    -0.044237
    14     0.201059
    15     0.040116
    16     0.007382
    17    -0.032125
    18     0.334831
    19     0.008842
    20     0.086745
    21    -0.004519
    22    -0.033027
    23    -0.780568
    24    -0.465935
    25    -0.054489
    26    -0.096572
    27    -1.351318
    28    -1.081901
    29    -0.384177
    30    -0.065345
    31    -0.004511
    32     0.113532
    33     0.292034
    34    -0.021676
    35     0.052347
    36    -0.000635
    37    -0.004858
    38     1.038386
    39     0.545535
    40     0.154668
    41     0.108546
    42     1.385334
    43    -0.295707
    44     0.282227
    45    -0.016559
    46     0.133019
    47    -0.082202
    48    -0.007436
    49     0.024042
    50    -0.082294
Sym=    23a
Ene=   -0.133263E-02
Spin= Alpha
Occup= 0.001361
     1    -0.064551
     2     0.105635
     3     0.030243
     4     0.027146
     5     0.009801
     6     0.005460
     7     0.026324
     8    -0.296326
     9    -0.024852
    10     0.040951
    11    -0.001486
    12     0.287583
    13    -0.027789
    14     0.015623
    15     0.002416
    16    -0.004688
    17     0.008267
    18     0.023281
    19    -0.000663
    20     0.011266
    21     0.016198
    22     0.093976
    23    -0.150310
    24    -0.555218
    25    -0.127153
    26     0.018680
    27    -0.723985
    28    -0.447613
    29    -0.009620
    30    -0.090681
    31     0.069120
    32     0.028087
    33     0.182814
    34    -0.017407
    35     0.043533
    36    -0.003279
    37     0.002338
    38     0.257138
    39    -0.629029
    40    -0.095137
    41     0.022319
    42    -0.516146
    43    -0.164623
    44     0.019578
    45     0.036280
    46    -0.044006
    47     0.019378
    48    -0.195028
    49     0.005428
    50    -0.038235
Sym=    24a
Ene=   -0.157360E-02
Spin= Alpha
Occup= 0.001694
     1     0.008129
     2    -0.009420
     3    -0.002304
     4    -0.002273
     5    -0.000381
     6    -0.000769
     7    -0.012231
     8    -0.018173
     9     0.005895
    10     0.000776
    11    -0.010124
    12    -0.005262
    13    -0.010991
    14    -0.128493
    15    -0.002327
    16    -0.005365
    17     0.003198
    18    -0.006100
    19     0.006239
    20    -0.001298
    21     0.004473
    22     0.034448
    23    -0.067047
    24    -0.014317
    25    -0.015519
    26     0.447890
    27     0.005934
    28    -0.086169
    29     0.349582
    30     0.012583
    31    -0.003674
    32    -0.001994
    33    -0.036752
    34     0.033455
    35    -0.163653
    36     0.003129
    37     0.022592
    38     0.058685
    39    -0.019286
    40     0.009929
    41     0.696251
    42    -0.002696
    43    -0.000338
    44     0.862808
    45    -0.006816
    46     0.012330
    47    -0.010029
    48     0.013771
    49    -0.059142
    50     0.243237
Sym=    25a
Ene=   -0.139034E-01
Spin= Alpha
Occup= 0.014784
     1     0.948081
     2     0.100669
     3    -0.000443
     4     0.027347
     5     0.003177
     6    -0.163711
     7    -0.652096
     8    -0.043696
     9     0.790809
    10    -0.185113
    11    -0.002294
    12    -0.059784
    13    -0.012561
    14    -0.004382
    15    -0.145998
    16     0.081778
    17     0.067976
    18     0.031852
    19     0.002840
    20     0.000293
    21     0.000892
    22    -0.016600
    23    -0.025281
    24    -0.026945
    25    -0.002107
    26    -0.000329
    27     0.073731
    28    -0.121658
    29     0.000312
    30     0.000284
    31    -0.005096
    32    -0.002749
    33     0.007050
    34     0.000558
    35    -0.001963
    36    -0.001119
    37     0.006403
    38     0.105156
    39     0.003974
    40    -0.000510
    41    -0.000451
    42    -0.003876
    43    -0.044862
    44     0.000239
    45     0.001516
    46     0.003195
    47     0.001434
    48    -0.001337
    49     0.000002
    50    -0.000705
Sym=    26a
Ene=   -0.815736E-03
Spin= Alpha
Occup= 0.000377
     1    -0.198706
     2     0.079660
     3     0.106345
     4     0.184361
     5     0.067727
     6     0.002878
     7     0.030639
     8     0.102127
     9    -0.094677
    10     0.016261
    11    -0.047015
    12     0.057630
    13    -0.062010
    14    -0.009153
    15    -0.001676
    16     0.005920
    17     0.015211
    18    -0.320388
    19    -0.038950
    20    -0.061297
    21     0.014023
    22     0.087084
    23    -0.123801
    24     0.081020
    25     0.062888
    26     0.168343
    27     0.293712
    28     0.144064
    29     0.333127
    30    -0.205461
    31     0.154824
    32     0.006431
    33     0.668747
    34    -0.131668
    35     0.615027
    36     0.000224
    37     0.014056
    38    -0.005506
    39     0.191846
    40     0.076728
    41     0.162806
    42    -0.125771
    43    -0.038514
    44    -0.130427
    45    -0.088252
    46     0.112591
    47     0.004010
    48     0.193681
    49    -0.029124
    50     0.150647
Sym=    27a
Ene=   -0.102106E-02
Spin= Alpha
Occup= 0.000696
     1    -0.144751
     2     0.059790
     3     0.019898
     4     0.023248
     5     0.121185
     6     0.039651
     7     0.179976
     8    -1.158255
     9     0.023293
    10    -0.011688
    11    -0.151928
    12     0.164270
    13    -0.670601
    14    -0.315499
    15     0.021796
    16     0.248143
    17    -0.419809
    18    -0.240140
    19     0.680085
    20     0.415605
    21    -0.010180
    22    -0.149035
    23     0.547835
    24    -0.025941
    25    -0.141377
    26     0.071522
    27     0.098614
    28    -1.276001
    29     0.145201
    30    -0.012905
    31    -0.109979
    32    -0.020821
    33     0.086774
    34     0.032850
    35    -0.060460
    36     0.000093
    37     0.103243
    38     0.668433
    39     0.019812
    40     0.068645
    41    -0.061520
    42     0.145741
    43    -0.281453
    44    -0.102448
    45     0.006316
    46     0.056522
    47     0.021132
    48    -0.001631
    49    -0.008620
    50    -0.016039
Sym=    28a
Ene=   -0.607233E-03
Spin= Alpha
Occup= 0.000368
     1     0.737064
     2    -0.722827
     3    -0.185872
     4     0.273199
     5     0.110596
     6    -0.013985
     7    -0.132399
     8    -0.339107
     9     0.101408
    10    -0.038526
    11     0.007332
    12    -0.092294
    13    -0.460640
    14    -0.089816
    15    -0.866851
    16     0.275118
    17     0.435593
    18     0.117362
    19    -0.253399
    20     0.560117
    21    -0.009205
    22    -0.157223
    23     1.012682
    24     0.034773
    25    -0.058455
    26     0.161006
    27     0.104472
    28    -0.344217
    29     0.172733
    30    -0.068136
    31    -0.053996
    32     0.014431
    33     0.131980
    34    -0.040471
    35     0.079142
    36     0.002045
    37     0.079135
    38    -0.201488
    39     0.018115
    40     0.038148
    41    -0.053405
    42    -0.037818
    43     0.121298
    44    -0.154106
    45    -0.000254
    46     0.030333
    47    -0.010209
    48     0.039560
    49     0.010216
    50     0.010852
Sym=    29a
Ene=   -0.817001E-03
Spin= Alpha
Occup= 0.000454
     1    -0.006349
     2    -0.022173
     3     0.006110
     4     0.028180
     5    -0.001425
     6     0.001074
     7    -0.007590
     8    -0.176858
     9     0.000969
    10     0.011188
    11    -0.006030
    12     0.042970
    13    -0.131033
    14    -0.028302
    15    -0.008932
    16    -0.016912
    17    -0.006050
    18     0.001006
    19    -0.017024
    20    -0.001631
    21    -0.000028
    22    -0.001475
    23     0.039501
    24    -0.245975
    25    -0.064406
    26    -0.290179
    27     0.007744
    28    -0.266903
    29     0.024535
    30    -0.059503
    31     0.080986
    32    -0.005153
    33     0.171575
    34    -0.033718
    35     0.148766
    36    -0.005734
    37    -0.010059
    38     0.180732
    39    -0.115871
    40    -0.005831
    41    -0.147724
    42    -0.155234
    43    -0.084697
    44    -0.268530
    45    -0.259415
    46     0.292157
    47    -0.011655
    48     0.671002
    49    -0.153672
    50     0.735642
Sym=    30a
Ene=   -0.432625E-03
Spin= Alpha
Occup= 0.000181
     1    -0.016011
     2     0.037740
     3     0.015164
     4     0.048743
     5     0.036646
     6    -0.004120
     7     0.179091
     8     1.607150
     9     0.059487
    10    -0.316407
    11    -0.049649
    12    -0.033580
    13     0.780144
    14     0.115320
    15     0.069048
    16     0.286193
    17     0.049518
    18    -0.108843
    19     0.046281
    20     0.185880
    21    -0.028751
    22    -0.148914
    23     0.987589
    24    -0.261355
    25     0.210526
    26     0.185987
    27    -0.624960
    28     3.120926
    29    -0.045216
    30     0.335897
    31    -0.551592
    32     0.128947
    33    -0.319978
    34    -0.088996
    35     0.459627
    36    -0.005842
    37    -0.099835
    38    -2.662480
    39    -0.221561
    40     0.031908
    41     0.215053
    42    -0.365188
    43     1.174026
    44     0.158554
    45    -0.182589
    46     0.220387
    47    -0.070090
    48     0.269389
    49     0.065834
    50    -0.281808
Sym=    31a
Ene=   -0.171600E-04
Spin= Alpha
Occup= 0.000001
     1    -0.121232
     2    -0.073687
     3    -1.114448
     4     0.337097
     5     0.018181
     6     0.034024
     7    -0.278202
     8     1.140205
     9     0.865293
    10    -0.340858
    11     0.004236
    12     0.806289
    13    -0.092453
    14    -0.018820
    15    -0.467045
    16    -0.286536
    17    -0.161828
    18     0.109356
    19    -0.035855
    20    -0.026473
    21    -0.009537
    22     0.123946
    23    -0.684907
    24     0.003260
    25     0.101950
    26    -0.002801
    27    -0.352235
    28     0.361253
    29     0.044745
    30     0.142059
    31    -0.006757
    32     0.163881
    33    -0.005845
    34    -0.007878
    35     0.007741
    36    -0.000535
    37    -0.023714
    38    -0.033839
    39    -0.039346
    40     0.025122
    41    -0.015627
    42     0.064537
    43     0.038178
    44    -0.043731
    45     0.055557
    46    -0.017331
    47    -0.014644
    48    -0.080284
    49    -0.002868
    50     0.039781
Sym=    32a
Ene=   -0.299889E-05
Spin= Alpha
Occup= 0.000000
     1    -0.051766
     2    -0.439046
     3     0.062286
     4    -0.203693
     5    -0.016572
     6     0.006218
     7    -0.198455
     8     0.845542
     9    -0.010165
    10    -0.024770
    11     0.072212
    12     0.044667
    13     0.170916
    14     0.685954
    15     0.021137
    16    -0.076669
    17    -0.098409
    18     0.068096
    19     0.067805
    20     0.304364
    21     0.003299
    22    -0.011952
    23    -3.066368
    24     0.180482
    25     0.187144
    26    -0.507323
    27     0.840118
    28    -1.187909
    29    -1.455067
    30    -0.123013
    31    -0.135018
    32     0.100795
    33     0.194143
    34    -0.013061
    35     0.155020
    36     0.007696
    37    -0.174725
    38     3.035408
    39    -0.108520
    40    -0.025566
    41     0.319976
    42    -0.033771
    43    -1.824034
    44     0.963550
    45    -0.177346
    46     0.296970
    47    -0.276356
    48    -0.067782
    49     0.015588
    50    -0.039788
Sym=    33a
Ene=   -0.151004E-02
Spin= Alpha
Occup= 0.000079
     1    -0.040535
     2     0.018103
     3     0.008450
     4     0.011791
     5     0.005066
     6    -0.000798
     7     0.032325
     8     0.834483
     9    -0.002462
    10    -0.042182
    11     0.000323
    12     0.012307
    13     0.401785
    14     0.000116
    15     0.023752
    16     0.031864
    17     0.006150
    18     0.005081
    19    -0.000037
    20     0.000883
    21     0.026207
    22     0.247396
    23    -0.058314
    24     0.068747
    25    -0.235362
    26    -0.018784
    27    -0.195095
    28     1.195597
    29    -0.010452
    30     0.048430
    31     0.159097
    32     0.046945
    33    -0.047437
    34    -0.003867
    35     0.001846
    36     0.814883
    37     3.030092
    38    -0.428292
    39     0.034527
    40    -0.090770
    41    -0.006622
    42    -0.146015
    43     0.646313
    44    -0.006396
    45    -1.591059
    46    -1.810904
    47    -1.514705
    48     0.029606
    49    -0.016004
    50     0.027504
Sym=    34a
Ene=   -0.479030E-03
Spin= Alpha
Occup= 0.000326
     1     0.007817
     2    -0.001721
     3     0.000590
     4     0.002825
     5    -0.004532
     6    -0.001625
     7    -0.031429
     8    -0.199307
     9     0.005430
    10     0.034936
    11    -0.009389
    12    -0.015494
    13    -0.094113
    14     0.013705
    15     0.008666
    16    -0.026075
    17    -0.015433
    18    -0.010303
    19    -0.051620
    20     0.032624
    21     0.007248
    22     0.034033
    23    -0.111275
    24    -0.000939
    25    -0.034537
    26     0.033996
    27     0.069332
    28    -0.382802
    29     0.031776
    30    -0.214279
    31     0.039429
    32     0.162903
    33    -0.076231
    34     0.692335
    35     0.173941
    36     0.004691
    37     0.028269
    38     0.313226
    39     0.006247
    40     0.003066
    41    -0.002173
    42     0.039299
    43    -0.116916
    44    -0.020723
    45    -0.130963
    46     0.004244
    47     0.110926
    48    -0.018480
    49     0.560816
    50     0.111297
Sym=    35a
Ene=   -0.760007E-03
Spin= Alpha
Occup= 0.000523
     1     0.030437
     2     0.037213
     3    -0.017760
     4    -0.012691
     5    -0.004058
     6    -0.002462
     7    -0.041162
     8    -0.475950
     9    -0.011676
    10     0.054649
    11    -0.000729
    12    -0.035212
    13    -0.183522
    14    -0.000962
    15    -0.038685
    16    -0.038406
    17     0.029357
    18     0.006604
    19    -0.010876
    20    -0.001153
    21     0.013211
    22     0.037606
    23    -0.130230
    24    -0.001750
    25    -0.029309
    26     0.021220
    27     0.112039
    28    -0.738641
    29     0.015936
    30     0.284972
    31     0.058889
    32    -0.361431
    33     0.066412
    34     0.113258
    35     0.014844
    36     0.023826
    37     0.132272
    38     0.581967
    39    -0.045973
    40     0.065357
    41    -0.007583
    42     0.016455
    43    -0.121811
    44    -0.012460
    45     0.548074
    46     0.164564
    47    -0.850915
    48     0.101996
    49     0.195363
    50    -0.004784
Sym=    36a
Ene=   -0.167899E-02
Spin= Alpha
Occup= 0.001189
     1    -0.176468
     2     0.089735
     3     0.250569
     4     0.753808
     5     0.229104
     6    -0.003569
     7    -0.069134
     8     0.605712
     9    -0.033833
    10     0.108442
    11    -0.036799
    12    -0.012444
    13     0.098687
    14    -0.129895
    15     0.137176
    16    -0.144232
    17    -0.044496
    18     0.354784
    19     0.113137
    20     0.023386
    21     0.013308
    22     0.168991
    23    -0.499442
    24     0.066362
    25     0.071836
    26     0.000781
    27    -0.069783
    28     0.368442
    29     0.041300
    30    -0.016009
    31     0.088117
    32    -0.038132
    33     0.053961
    34    -0.005934
    35     0.042095
    36    -0.000980
    37    -0.056569
    38    -0.038459
    39    -0.020477
    40    -0.026338
    41     0.017716
    42    -0.048693
    43    -0.013637
    44    -0.001965
    45    -0.012095
    46    -0.007185
    47     0.007008
    48     0.009764
    49    -0.003210
    50     0.011036
Sym=    37a
Ene=   -0.193848E-02
Spin= Alpha
Occup= 0.001092
     1     0.145699
     2     0.144493
     3    -0.030058
     4     0.098951
     5     0.030167
     6     0.026133
     7     0.324809
     8     2.130229
     9    -0.000424
    10    -0.238942
    11     0.003510
    12    -0.199738
    13     0.857482
    14    -0.004668
    15    -0.107199
    16     0.241267
    17    -0.046171
    18     0.065712
    19    -0.008523
    20    -0.016998
    21     0.096406
    22     0.768615
    23    -0.435429
    24    -0.063175
    25     0.255349
    26    -0.023080
    27    -0.578252
    28     3.856917
    29    -0.017103
    30    -0.214860
    31     0.703727
    32    -0.286259
    33    -0.237337
    34     0.003684
    35    -0.008669
    36    -0.005873
    37    -0.439097
    38    -2.475244
    39     0.118717
    40    -0.336714
    41    -0.007703
    42    -0.300747
    43     1.070279
    44    -0.000124
    45    -0.030971
    46    -0.266436
    47    -0.006151
    48     0.075625
    49    -0.004554
    50     0.021351
Sym=    38a
Ene=   -0.712837E-03
Spin= Alpha
Occup= 0.000457
     1     0.582873
     2    -0.644875
     3    -0.170135
     4     0.070163
     5    -0.040030
     6    -0.000809
     7    -0.038624
     8    -1.156141
     9     0.138411
    10    -0.014688
    11    -0.024531
    12     0.067517
    13    -0.792518
    14     0.010619
    15    -0.613026
    16     0.467509
    17     0.042285
    18     0.232745
    19     0.356014
    20    -0.653949
    21    -0.020728
    22    -0.314623
    23     1.522558
    24     0.047021
    25    -0.147724
    26    -0.123138
    27     0.102455
    28    -1.137476
    29    -0.042441
    30    -0.026217
    31    -0.197140
    32    -0.010168
    33     0.028626
    34     0.027080
    35    -0.029211
    36     0.002075
    37     0.150460
    38     0.123624
    39    -0.043205
    40     0.067964
    41     0.066260
    42     0.039511
    43    -0.013102
    44     0.097378
    45     0.035487
    46     0.040895
    47    -0.000024
    48    -0.027125
    49    -0.016074
    50    -0.011781
Sym=    39a
Ene=   -0.851214E-03
Spin= Alpha
Occup= 0.000559
     1    -0.129762
     2     0.063703
     3     0.059603
     4     0.073964
     5    -0.076720
     6     0.030973
     7     0.191687
     8    -2.111840
     9     0.069158
    10     0.063809
    11     0.033670
    12     0.213691
    13    -1.101620
    14     0.138362
    15     0.150522
    16     0.614949
    17    -0.769515
    18     0.164019
    19    -0.426175
    20     0.111289
    21    -0.023580
    22    -0.331825
    23     1.245836
    24     0.081100
    25    -0.223370
    26     0.026809
    27     0.249422
    28    -2.105158
    29    -0.075826
    30    -0.013862
    31    -0.256159
    32    -0.029054
    33     0.124050
    34    -0.033015
    35     0.106076
    36     0.000294
    37     0.195399
    38     0.956992
    39    -0.072246
    40     0.110596
    41     0.038058
    42     0.084664
    43    -0.421659
    44     0.049050
    45     0.018106
    46     0.099105
    47     0.032797
    48    -0.028648
    49     0.009546
    50     0.005001
Sym=    40a
Ene=   -0.127461E-02
Spin= Alpha
Occup= 0.000783
     1     0.057064
     2     0.001302
     3    -0.026268
     4    -0.020217
     5    -0.005411
     6     0.002596
     7    -0.183118
     8    -1.300331
     9     0.006748
    10     0.206925
    11    -0.001361
    12    -0.072365
    13    -0.651581
    14     0.002804
    15    -0.057620
    16    -0.228737
    17    -0.025335
    18    -0.016843
    19     0.000147
    20    -0.002599
    21     0.005955
    22     0.296533
    23    -2.468378
    24     0.045819
    25    -0.471466
    26     0.067882
    27     0.609242
    28    -3.233106
    29     0.025655
    30    -0.065656
    31     0.498026
    32    -0.098105
    33    -0.103370
    34     0.006373
    35     0.000759
    36     0.101578
    37     0.313267
    38     3.641998
    39     0.032857
    40    -0.392436
    41     0.029276
    42     0.433076
    43    -2.094559
    44     0.032611
    45     0.308102
    46    -1.019448
    47     0.151807
    48     0.522411
    49     0.063992
    50    -0.114058
Sym=    41a
Ene=   -0.886416E-03
Spin= Alpha
Occup= 0.000399
     1     0.124597
     2    -0.082406
     3    -0.043003
     4    -0.047381
     5    -0.009528
     6    -0.005837
     7    -0.356038
     8    -2.761786
     9     0.030776
    10     0.415212
    11    -0.017355
    12    -0.123239
    13    -1.349617
    14     0.048435
    15    -0.087605
    16    -0.385092
    17    -0.053449
    18    -0.090031
    19     0.019337
    20     0.046641
    21     0.086308
    22     0.461605
    23    -1.728508
    24     0.051708
    25    -0.463402
    26     0.089891
    27     0.985676
    28    -5.367312
    29     0.003198
    30    -0.343391
    31     0.562916
    32    -0.216316
    33    -0.319873
    34    -0.133002
    35     0.160098
    36     0.032813
    37     0.307227
    38     4.440163
    39    -0.017976
    40     0.045162
    41     0.066532
    42     0.466300
    43    -1.688769
    44     0.029867
    45    -0.207372
    46     0.128615
    47     0.043286
    48     0.108725
    49    -0.039471
    50    -0.182536
Sym=    42a
Ene=   -0.135732E-05
Spin= Alpha
Occup= 0.000000
     1    -0.011225
     2     0.192317
     3    -0.505680
     4    -0.098088
     5    -0.019791
     6     0.014596
     7    -0.470753
     8     6.271126
     9     0.183930
    10     0.361392
    11    -0.004364
    12    -0.230711
    13     4.274753
    14     0.016277
    15    -0.534409
    16     0.447260
    17    -0.422475
    18     0.025146
    19     0.013617
    20     0.012643
    21     0.014001
    22    -0.019681
    23    -3.227689
    24    -0.011815
    25    -0.039122
    26     0.002421
    27    -0.649849
    28     5.395926
    29    -0.020190
    30    -0.156271
    31     0.030971
    32    -0.282951
    33    -0.036467
    34     0.021942
    35     0.017269
    36     0.013451
    37    -0.426194
    38    -2.269054
    39     0.070170
    40    -0.225838
    41     0.011515
    42    -0.336155
    43     0.847301
    44     0.020941
    45    -0.223172
    46    -0.112746
    47    -0.134713
    48     0.053608
    49    -0.018672
    50    -0.011901
Sym=    43a
Ene=   -0.154570E-02
Spin= Alpha
Occup= 0.000080
     1    -0.016161
     2    -0.079235
     3     0.021493
     4    -0.053002
     5    -0.015620
     6     0.007964
     7     0.029267
     8    -0.286855
     9     0.018531
    10    -0.389662
    11     0.003045
    12     0.075371
    13    -0.104111
    14     0.008766
    15     0.017379
    16     0.401407
    17    -0.008271
    18    -0.000605
    19     0.002206
    20     0.000944
    21     0.830762
    22     3.103453
    23     0.832200
    24    -0.048910
    25     0.081510
    26    -0.005325
    27    -0.025431
    28    -0.099425
    29    -0.009520
    30    -1.496810
    31    -2.267233
    32    -1.491289
    33     0.161291
    34     0.005544
    35    -0.011616
    36     0.026353
    37     0.312193
    38    -0.457154
    39    -0.110602
    40     0.503761
    41    -0.006122
    42     0.003118
    43     0.119906
    44     0.000208
    45     0.046492
    46     0.364034
    47     0.018759
    48    -0.107173
    49    -0.001510
    50     0.001881
Sym=    44a
Ene=   -0.195567E-05
Spin= Alpha
Occup= 0.000000
     1     0.299879
     2     0.521829
     3    -0.159206
     4    -0.077992
     5     0.016902
     6    -0.010423
     7    -0.195082
     8     0.850958
     9    -0.083997
    10    -0.244575
    11     0.008989
    12    -0.796974
    13     1.209627
    14    -0.060143
    15    -0.284137
    16     0.731312
    17    -0.094665
    18     0.064220
    19    -0.005291
    20    -0.065200
    21    -0.012557
    22     0.437995
    23    -5.922957
    24     0.042492
    25    -0.101253
    26     0.019859
    27     0.812731
    28    -1.442370
    29     0.061221
    30     0.562333
    31    -1.002953
    32     0.692965
    33     0.406796
    34     0.037487
    35    -0.143975
    36    -0.010995
    37     0.155390
    38     3.432726
    39    -0.135862
    40     0.566748
    41    -0.052273
    42     0.186613
    43    -1.664267
    44    -0.045085
    45     0.041815
    46     0.516496
    47     0.065467
    48    -0.032190
    49     0.009529
    50    -0.079968
Sym=    45a
Ene=    0.000000E+00
Spin= Alpha
Occup= 0.000000
     1    -0.351891
     2    -0.273186
     3     0.369152
     4     0.418412
     5     0.093206
     6    -0.003000
     7    -0.119827
     8     0.064030
     9    -0.019831
    10    -0.006534
    11     0.087288
    12     0.378188
    13    -0.399040
    14     0.005774
    15     0.003489
    16     0.169897
    17    -0.054707
    18    -0.678919
    19    -0.200456
    20    -0.216825
    21     0.005987
    22    -0.051020
    23    -2.087015
    24    -0.208708
    25     0.047804
    26    -0.034222
    27     0.079577
    28    -1.576284
    29    -0.154116
    30     0.131659
    31    -0.292993
    32    -0.127848
    33    -0.065004
    34     0.353216
    35    -0.428682
    36     0.008706
    37    -0.137351
    38     2.787756
    39     0.006112
    40    -0.001336
    41    -0.062870
    42     0.508110
    43    -1.558034
    44     0.143653
    45    -0.301136
    46     0.312249
    47    -0.183393
    48    -0.072556
    49    -0.198494
    50    -0.360349
Sym=    46a
Ene=    0.000000E+00
Spin= Alpha
Occup= 0.000000
     1    -0.074946
     2    -0.018170
     3    -0.006360
     4     0.107457
     5    -0.021992
     6    -0.000680
     7     0.085086
     8     0.535410
     9     0.004821
    10    -0.007007
    11     0.072892
    12     0.085617
    13     0.149557
    14     0.054290
    15     0.019288
    16    -0.019557
    17     0.009483
    18    -0.042520
    19     0.015925
    20    -0.175406
    21    -0.001526
    22    -0.031349
    23     2.091325
    24    -0.046091
    25     0.008169
    26    -0.012083
    27    -0.200623
    28     1.843853
    29    -0.295280
    30    -0.256960
    31     0.233566
    32     0.078593
    33     0.258481
    34    -0.329801
    35    -0.645892
    36     0.000264
    37     0.056896
    38    -2.587713
    39     0.000265
    40    -0.010344
    41    -0.008530
    42    -0.521892
    43     1.363521
    44     0.298515
    45    -0.113761
    46     0.030323
    47     0.054115
    48     0.449287
    49     0.605095
    50    -0.386481
Sym=    47a
Ene=    0.000000E+00
Spin= Alpha
Occup= 0.000000
     1    -0.395017
     2    -0.802410
     3     0.245737
     4    -0.277076
     5     0.404839
     6     0.000037
     7    -0.030396
     8     2.918279
     9    -0.008507
    10     0.000710
    11     0.030149
    12     0.717513
    13     0.966533
    14    -0.138085
    15     0.313257
    16    -0.100164
    17    -0.203405
    18     0.121585
    19    -0.193396
    20    -0.008545
    21    -0.006433
    22     0.041247
    23     2.616750
    24     0.065171
    25    -0.037026
    26     0.013798
    27    -0.646348
    28     3.908712
    29    -0.029558
    30    -0.332939
    31     0.302624
    32     0.292591
    33     0.121906
    34     0.344812
    35    -0.113683
    36    -0.004200
    37     0.067467
    38    -4.806486
    39     0.005244
    40    -0.015392
    41    -0.002764
    42    -0.744694
    43     2.569134
    44     0.074845
    45     0.290005
    46    -0.240081
    47    -0.004757
    48     0.400720
    49    -0.373542
    50    -0.278945
Sym=    48a
Ene=    0.000000E+00
Spin= Alpha
Occup= 0.000000
     1    -0.001077
     2    -0.034020
     3     0.004071
     4     0.182420
     5    -0.970474
     6     0.001395
     7     0.071920
     8     0.412712
     9     0.006148
    10    -0.005450
    11    -0.026949
    12     0.034637
    13     0.056472
    14     0.451909
    15    -0.032104
    16    -0.082046
    17     0.065308
    18     0.067897
    19     0.379643
    20     0.066375
    21    -0.007115
    22     0.046749
    23     1.618465
    24     0.019536
    25    -0.012074
    26    -0.002769
    27    -0.199872
    28     1.424045
    29    -0.322989
    30    -0.002671
    31     0.240602
    32     0.001391
    33     0.147659
    34     0.227244
    35    -0.010741
    36    -0.003426
    37     0.069535
    38    -2.176452
    39    -0.000408
    40    -0.007673
    41     0.018482
    42    -0.384208
    43     1.194778
    44     0.177567
    45     0.050887
    46    -0.117806
    47     0.117377
    48     0.229857
    49    -0.216463
    50    -0.207659
Sym=    49a
Ene=    0.000000E+00
Spin= Alpha
Occup= 0.000000
     1    -0.787387
     2    -1.319865
     3     0.735598
     4     0.024040
     5    -0.244172
     6    -0.003306
     7    -0.279504
     8     4.322117
     9    -0.038497
    10    -0.008240
    11    -0.029108
    12     1.153266
    13     1.272885
    14     0.024217
    15     0.371390
    16     0.154836
    17    -0.368735
    18    -0.453267
    19     0.098282
    20    -0.004707
    21    -0.001492
    22     0.097487
    23    -1.307157
    24    -0.010792
    25     0.016117
    26     0.001061
    27    -0.676134
    28     2.590639
    29     0.169153
    30    -0.094363
    31    -0.263802
    32     0.386359
    33    -0.349817
    34    -0.281135
    35     0.134479
    36     0.002749
    37    -0.140774
    38    -1.387418
    39     0.005996
    40    -0.004064
    41    -0.036064
    42     0.036257
    43     0.648199
    44    -0.187804
    45     0.273058
    46    -0.140769
    47    -0.199966
    48    -0.225512
    49     0.149746
    50     0.289434
Sym=    50a
Ene=    0.000000E+00
Spin= Alpha
Occup= 0.000000
     1    -0.522635
     2    -1.279129
     3     0.413737
     4    -0.314543
     5     0.052443
     6     0.005357
     7    -0.224300
     8     3.071353
     9    -0.013559
    10     0.015648
    11    -0.000930
    12     1.081391
    13     0.701263
    14    -0.020228
    15     0.262839
    16    -0.183607
    17    -0.203938
    18     0.099803
    19    -0.013127
    20     0.022134
    21    -0.008538
    22     0.073626
    23    -0.058719
    24     0.064394
    25    -0.013448
    26     0.014735
    27    -0.428851
    28     1.842972
    29     0.003458
    30     0.620638
    31     0.200693
    32    -0.544053
    33     0.257193
    34     0.025546
    35    -0.001735
    36    -0.002547
    37    -0.029493
    38    -1.655618
    39     0.007106
    40    -0.009942
    41     0.000858
    42    -0.203334
    43     0.896168
    44     0.005347
    45    -0.265903
    46    -0.152127
    47     0.439742
    48     0.028971
    49     0.131348
    50    -0.006523
