[Molden Format]
p30-5 set                                                                       
[Atoms] AU
 O        1     8        2.1617        0.1424        0.0000
 O        2     8        0.0000        1.0903        0.0000
 O        3     8       -2.0449       -0.9333        0.0000
 H        4     1       -0.9347       -2.3951        0.0000
[GTO]
    1 0
s    5 1.00
    2266.176778500000 -0.538935039217E-02
     340.870101910000 -0.402347213890E-01
      77.363135167000 -0.180081842055E+00
      21.479644940000 -0.468288576577E+00
       6.658943312400 -0.446926171602E+00
s    1 1.00
       0.809759756680  0.100000000000E+01
s    1 1.00
       0.255307722340  0.100000000000E+01
p    3 1.00
      17.721504317000  0.626302487632E-01
       3.863550544000  0.333311384824E+00
       1.048092088300  0.741486383081E+00
p    1 1.00
       0.276415444110  0.100000000000E+01
d    1 1.00
       1.200000000000  0.100000000000E+01

    2 0
s    5 1.00
    2266.176778500000 -0.538935039217E-02
     340.870101910000 -0.402347213890E-01
      77.363135167000 -0.180081842055E+00
      21.479644940000 -0.468288576577E+00
       6.658943312400 -0.446926171602E+00
s    1 1.00
       0.809759756680  0.100000000000E+01
s    1 1.00
       0.255307722340  0.100000000000E+01
p    3 1.00
      17.721504317000  0.626302487632E-01
       3.863550544000  0.333311384824E+00
       1.048092088300  0.741486383081E+00
p    1 1.00
       0.276415444110  0.100000000000E+01
d    1 1.00
       1.200000000000  0.100000000000E+01

    3 0
s    5 1.00
    2266.176778500000 -0.538935039217E-02
     340.870101910000 -0.402347213890E-01
      77.363135167000 -0.180081842055E+00
      21.479644940000 -0.468288576577E+00
       6.658943312400 -0.446926171602E+00
s    1 1.00
       0.809759756680  0.100000000000E+01
s    1 1.00
       0.255307722340  0.100000000000E+01
p    3 1.00
      17.721504317000  0.626302487632E-01
       3.863550544000  0.333311384824E+00
       1.048092088300  0.741486383081E+00
p    1 1.00
       0.276415444110  0.100000000000E+01
d    1 1.00
       1.200000000000  0.100000000000E+01

    4 0
s    3 1.00
      13.010701000000  0.334854848130E-01
       1.962257200000  0.234721870881E+00
       0.444537960000  0.813770285260E+00
s    1 1.00
       0.121949620000  0.100000000000E+01
p    1 1.00
       0.800000000000  0.100000000000E+01

[MO]
Sym=     1a
Ene=   -0.207014E+02
Spin= Alpha
Occup= 1.999963
     1     0.993754
     2    -0.027004
     3     0.017048
     4     0.003650
     5    -0.001076
     6    -0.000002
     7    -0.001315
     8     0.000451
     9     0.000000
    10     0.004113
    11     0.004058
    12     0.004380
    13    -0.000001
    14     0.000001
    15     0.000002
    16    -0.000090
    17    -0.000458
    18    -0.004650
    19     0.001339
    20    -0.000660
    21    -0.000008
    22    -0.001326
    23     0.000431
    24    -0.000006
    25     0.001380
    26     0.000333
    27     0.000074
    28    -0.000656
    29    -0.000002
    30     0.000002
    31     0.000003
    32     0.000013
    33     0.000457
    34     0.000090
    35     0.000131
    36     0.000001
    37    -0.000153
    38    -0.000029
    39    -0.000002
    40     0.000049
    41     0.000017
    42     0.000080
    43    -0.000031
    44     0.000000
    45    -0.000001
    46     0.000001
    47    -0.000771
    48    -0.000140
    49    -0.000256
    50    -0.000002
Sym=     2a
Ene=   -0.207359E+02
Spin= Alpha
Occup= 1.999962
     1    -0.000061
     2    -0.000175
     3    -0.005468
     4    -0.001308
     5     0.000545
     6     0.000014
     7     0.001893
     8    -0.000572
     9     0.000003
    10     0.001219
    11     0.000498
    12     0.000091
    13    -0.000713
    14    -0.000002
    15     0.000001
    16     0.993265
    17    -0.028665
    18     0.019483
    19    -0.001844
    20     0.003977
    21     0.000030
    22     0.000719
    23    -0.002160
    24     0.000022
    25     0.004015
    26     0.004047
    27     0.003505
    28     0.000383
    29    -0.000001
    30     0.000001
    31    -0.000134
    32     0.000089
    33    -0.003898
    34     0.000452
    35     0.000271
    36     0.000003
    37    -0.001517
    38    -0.000801
    39    -0.000004
    40     0.000193
    41     0.000372
    42     0.000201
    43     0.000172
    44    -0.000001
    45     0.000001
    46     0.000516
    47    -0.000005
    48    -0.000105
    49    -0.000167
    50     0.000002
Sym=     3a
Ene=   -0.206517E+02
Spin= Alpha
Occup= 1.999961
     1     0.000001
     2     0.000159
     3    -0.000035
     4    -0.000136
     5     0.000199
     6     0.000001
     7     0.000163
     8    -0.000010
     9    -0.000000
    10     0.000039
    11     0.000037
    12     0.000142
    13     0.000015
    14    -0.000002
    15    -0.000001
    16    -0.000150
    17    -0.000239
    18    -0.002870
    19    -0.000161
    20    -0.000437
    21    -0.000003
    22     0.001057
    23     0.000838
    24    -0.000003
    25     0.000334
    26     0.000231
    27     0.000132
    28     0.000213
    29    -0.000002
    30    -0.000001
    31     0.993100
    32    -0.028968
    33     0.015928
    34    -0.003776
    35     0.001256
    36    -0.000001
    37     0.000371
    38     0.001389
    39     0.000000
    40     0.003944
    41     0.003831
    42     0.003730
    43     0.000773
    44     0.000002
    45     0.000001
    46     0.001666
    47    -0.001972
    48    -0.001252
    49     0.001264
    50    -0.000002
Sym=     4a
Ene=   -0.945926E+00
Spin= Alpha
Occup= 1.995223
     1    -0.004785
     2    -0.017571
     3    -0.032656
     4     0.009514
     5    -0.008136
     6    -0.148964
     7     0.022979
     8    -0.022145
     9    -0.082329
    10    -0.001396
    11     0.000146
    12    -0.002036
    13    -0.003971
    14     0.018916
    15    -0.007488
    16     0.194182
    17     0.423574
    18     0.317567
    19    -0.089176
    20     0.156467
    21    -0.437564
    22    -0.045811
    23     0.101815
    24    -0.292937
    25     0.009539
    26     0.005398
    27     0.011233
    28     0.005163
    29    -0.014144
    30     0.013837
    31    -0.003263
    32    -0.010034
    33    -0.034790
    34     0.014225
    35     0.006373
    36     0.011752
    37     0.001361
    38    -0.008114
    39     0.023643
    40     0.001082
    41     0.004116
    42    -0.002127
    43     0.005179
    44    -0.003921
    45    -0.003967
    46     0.002755
    47     0.014670
    48    -0.000632
    49    -0.000542
    50     0.000570
Sym=     5a
Ene=   -0.942810E+00
Spin= Alpha
Occup= 1.995194
     1    -0.004800
     2    -0.017615
     3    -0.032485
     4     0.009551
     5    -0.007781
     6     0.150005
     7     0.022847
     8    -0.021685
     9     0.082861
    10    -0.001399
    11     0.000129
    12    -0.002036
    13    -0.003936
    14    -0.019056
    15     0.007545
    16     0.192805
    17     0.420756
    18     0.315237
    19    -0.088747
    20     0.155061
    21     0.440580
    22    -0.045535
    23     0.100828
    24     0.295062
    25     0.009490
    26     0.005441
    27     0.011047
    28     0.005128
    29     0.014219
    30    -0.013877
    31    -0.003202
    32    -0.009927
    33    -0.034434
    34     0.014366
    35     0.006476
    36    -0.011807
    37     0.001570
    38    -0.007960
    39    -0.023799
    40     0.001086
    41     0.004081
    42    -0.002132
    43     0.005166
    44     0.003950
    45     0.003994
    46     0.002726
    47     0.014441
    48    -0.000632
    49    -0.000532
    50    -0.000570
Sym=     6a
Ene=   -0.904235E+00
Spin= Alpha
Occup= 1.993569
     1    -0.196683
     2    -0.430658
     3    -0.333311
     4    -0.313243
     5    -0.374088
     6     0.000239
     7    -0.201268
     8    -0.265495
     9     0.000138
    10     0.006313
    11    -0.019053
    12    -0.009961
    13     0.008650
    14    -0.000025
    15     0.000009
    16     0.022104
    17     0.050550
    18     0.091087
    19    -0.020957
    20    -0.061609
    21    -0.000062
    22     0.006196
    23    -0.038756
    24    -0.000057
    25    -0.014005
    26     0.014738
    27     0.002209
    28    -0.010756
    29     0.000003
    30     0.000002
    31    -0.007862
    32    -0.015536
    33    -0.045351
    34    -0.030466
    35    -0.016412
    36    -0.000021
    37    -0.042134
    38    -0.022939
    39    -0.000015
    40     0.000710
    41    -0.000502
    42    -0.000112
    43     0.000503
    44     0.000000
    45    -0.000003
    46     0.001323
    47     0.018406
    48     0.001092
    49    -0.000639
    50    -0.000001
Sym=     7a
Ene=   -0.931695E+00
Spin= Alpha
Occup= 1.993562
     1     0.195428
     2     0.418805
     3     0.341706
     4    -0.047030
     5    -0.484169
     6     0.000320
     7    -0.055073
     8    -0.329445
     9     0.000172
    10     0.012970
    11     0.000101
    12     0.006863
    13     0.015306
    14    -0.000030
    15     0.000006
    16     0.002313
    17    -0.005920
    18    -0.007713
    19    -0.048636
    20    -0.041715
    21     0.000085
    22    -0.051354
    23     0.001149
    24     0.000040
    25    -0.011821
    26     0.009688
    27    -0.002537
    28    -0.013540
    29     0.000013
    30    -0.000004
    31    -0.007859
    32    -0.014899
    33    -0.048888
    34    -0.030105
    35    -0.008101
    36    -0.000030
    37    -0.034607
    38    -0.008367
    39    -0.000022
    40    -0.000114
    41    -0.000023
    42     0.000143
    43     0.000255
    44    -0.000001
    45     0.000001
    46     0.002825
    47     0.038017
    48     0.002390
    49     0.000991
    50     0.000002
Sym=     8a
Ene=   -0.830670E+00
Spin= Alpha
Occup= 1.992872
     1     0.002670
     2     0.008726
     3     0.005534
     4    -0.007927
     5     0.002778
     6    -0.026876
     7    -0.006705
     8     0.005016
     9    -0.017503
    10     0.000396
    11     0.000978
    12     0.001136
    13    -0.000696
    14     0.001661
    15    -0.001546
    16    -0.008126
    17    -0.020993
    18    -0.034354
    19    -0.004594
    20    -0.016673
    21    -0.019461
    22     0.001791
    23    -0.005124
    24    -0.023380
    25     0.004893
    26    -0.000829
    27    -0.002904
    28     0.004687
    29    -0.006851
    30    -0.004845
    31     0.186365
    32     0.400177
    33     0.310199
    34    -0.175522
    35     0.096124
    36     0.466089
    37    -0.125606
    38     0.061313
    39     0.343053
    40     0.002882
    41     0.009430
    42     0.009950
    43     0.004719
    44     0.011742
    45    -0.003871
    46    -0.037169
    47    -0.021941
    48    -0.005184
    49     0.000114
    50     0.020968
Sym=     9a
Ene=   -0.830605E+00
Spin= Alpha
Occup= 1.992872
     1     0.002667
     2     0.008728
     3     0.005545
     4    -0.007888
     5     0.002840
     6     0.026869
     7    -0.006685
     8     0.005073
     9     0.017515
    10     0.000383
    11     0.000978
    12     0.001133
    13    -0.000698
    14    -0.001654
    15     0.001548
    16    -0.008115
    17    -0.020979
    18    -0.034344
    19    -0.004608
    20    -0.016657
    21     0.019446
    22     0.001774
    23    -0.005120
    24     0.023354
    25     0.004902
    26    -0.000822
    27    -0.002904
    28     0.004686
    29     0.006850
    30     0.004846
    31     0.186337
    32     0.400117
    33     0.310182
    34    -0.175505
    35     0.096133
    36    -0.466147
    37    -0.125582
    38     0.061305
    39    -0.343091
    40     0.002877
    41     0.009429
    42     0.009947
    43     0.004715
    44    -0.011744
    45     0.003872
    46    -0.037187
    47    -0.021968
    48    -0.005179
    49     0.000115
    50    -0.020971
Sym=    10a
Ene=   -0.949071E+00
Spin= Alpha
Occup= 1.980937
     1     0.007249
     2     0.017949
     3     0.028542
     4    -0.022315
     5    -0.016140
     6     0.000037
     7    -0.024989
     8    -0.008232
     9     0.000019
    10     0.002747
    11    -0.001258
    12     0.001203
    13    -0.001653
    14    -0.000006
    15     0.000004
    16     0.002612
    17     0.013102
    18    -0.024330
    19    -0.007322
    20    -0.008689
    21     0.000037
    22    -0.020744
    23     0.000261
    24     0.000023
    25     0.006892
    26    -0.007479
    27     0.002734
    28    -0.002989
    29     0.000003
    30     0.000001
    31    -0.102340
    32    -0.210585
    33     0.011438
    34    -0.321907
    35     0.352270
    36     0.000022
    37    -0.160690
    38     0.161117
    39     0.000013
    40    -0.014584
    41    -0.008624
    42     0.003710
    43     0.019397
    44     0.000002
    45     0.000002
    46    -0.431785
    47    -0.057672
    48     0.026703
    49    -0.044072
    50     0.000001
Sym=    11a
Ene=   -0.108468E+01
Spin= Alpha
Occup= 1.976133
     1    -0.064866
     2    -0.146045
     3     0.078157
     4     0.404767
     5    -0.193139
     6     0.000022
     7     0.181089
     8    -0.094659
     9     0.000004
    10    -0.042028
    11     0.002863
    12     0.010803
    13     0.022126
    14    -0.000002
    15     0.000002
    16    -0.071456
    17    -0.153598
    18     0.025020
    19    -0.394044
    20     0.255567
    21     0.000006
    22    -0.175661
    23     0.150062
    24     0.000063
    25    -0.030899
    26    -0.004540
    27     0.011389
    28     0.030856
    29    -0.000036
    30     0.000052
    31    -0.000340
    32    -0.002663
    33    -0.017149
    34     0.026884
    35     0.007961
    36     0.000010
    37     0.030583
    38     0.002694
    39    -0.000004
    40    -0.000991
    41     0.004352
    42    -0.001276
    43     0.001915
    44     0.000001
    45     0.000001
    46     0.012478
    47     0.025609
    48     0.001024
    49     0.001519
    50     0.000001
Sym=    12a
Ene=   -0.710931E+00
Spin= Alpha
Occup= 1.907645
     1     0.004909
     2     0.008669
     3     0.021516
     4    -0.070191
     5    -0.075995
     6     0.000140
     7    -0.077798
     8    -0.087653
     9     0.000099
    10    -0.002571
    11     0.005650
    12    -0.001083
    13    -0.008381
    14    -0.000000
    15     0.000000
    16    -0.022766
    17    -0.034982
    18     0.000714
    19     0.230171
    20     0.413462
    21     0.000321
    22     0.100289
    23     0.278680
    24     0.000235
    25    -0.000290
    26    -0.025766
    27     0.011397
    28    -0.023127
    29    -0.000008
    30     0.000018
    31    -0.015638
    32    -0.022701
    33     0.008379
    34    -0.326662
    35    -0.287411
    36    -0.000019
    37    -0.221989
    38    -0.153917
    39    -0.000023
    40    -0.025097
    41    -0.000924
    42     0.009565
    43    -0.024774
    44     0.000004
    45     0.000005
    46     0.059967
    47     0.057531
    48    -0.014233
    49    -0.001426
    50    -0.000003
Sym=    13a
Ene=   -0.298697E+00
Spin= Alpha
Occup= 1.000000
     1    -0.000008
     2     0.000009
     3    -0.000147
     4     0.000107
     5     0.000306
     6     0.675584
     7     0.000193
     8     0.000169
     9     0.454356
    10     0.000006
    11     0.000007
    12    -0.000007
    13     0.000008
    14    -0.006656
    15     0.000254
    16    -0.000006
    17    -0.000050
    18     0.000195
    19     0.000032
    20     0.000001
    21    -0.304864
    22     0.000038
    23    -0.000066
    24    -0.269741
    25    -0.000017
    26    -0.000044
    27     0.000055
    28     0.000004
    29     0.011433
    30    -0.000285
    31     0.000007
    32     0.000043
    33    -0.000096
    34     0.000051
    35     0.000022
    36     0.047439
    37    -0.000030
    38    -0.000003
    39     0.048602
    40    -0.000006
    41     0.000001
    42     0.000004
    43    -0.000003
    44    -0.001667
    45    -0.004279
    46     0.000030
    47     0.000050
    48    -0.000003
    49     0.000007
    50     0.004529
Sym=    14a
Ene=   -0.456264E-03
Spin= Alpha
Occup= 0.000337
     1     0.001716
     2    -0.024693
     3     0.145627
     4    -0.071040
     5     0.074425
     6     0.002542
     7    -0.149070
     8    -0.313072
     9    -0.003835
    10     0.094995
    11    -0.058688
    12     0.009067
    13     0.061870
    14    -0.002404
    15     0.000596
    16     0.007992
    17     0.195484
    18    -0.275866
    19    -0.334424
    20    -0.514181
    21    -0.000162
    22     0.305618
    23     0.684755
    24     0.000838
    25     0.026810
    26     0.225472
    27     0.074658
    28     0.221569
    29     0.000619
    30    -0.005838
    31    -0.001006
    32     0.175054
    33    -0.403713
    34     0.502461
    35     0.469356
    36     0.000144
    37    -0.666866
    38    -0.289821
    39    -0.000566
    40     0.273084
    41    -0.061880
    42     0.135673
    43     0.210992
    44     0.000158
    45     0.000093
    46     0.378431
    47    -0.044968
    48    -0.047284
    49     0.066477
    50     0.000064
Sym=    15a
Ene=   -0.251811E-01
Spin= Alpha
Occup= 0.022676
     1    -0.121777
     2    -0.361897
     3    -0.110180
     4     0.680751
     5    -0.299242
     6     0.000147
     7     0.160062
     8    -0.076313
     9    -0.000408
    10    -0.065654
    11     0.014731
    12     0.040101
    13     0.040501
    14    -0.000465
    15     0.000281
    16     0.126052
    17     0.385791
    18     0.096409
    19     0.672879
    20    -0.327694
    21     0.000512
    22     0.165814
    23    -0.016765
    24    -0.000639
    25     0.048220
    26    -0.019009
    27    -0.035876
    28    -0.064589
    29     0.001287
    30    -0.001956
    31     0.004560
    32     0.004043
    33     0.049589
    34    -0.006333
    35     0.016057
    36     0.000021
    37    -0.016426
    38     0.024297
    39     0.000104
    40     0.001761
    41    -0.002123
    42    -0.001114
    43    -0.001369
    44     0.000041
    45     0.000019
    46    -0.010096
    47     0.001018
    48    -0.001008
    49     0.000083
    50    -0.000078
Sym=    16a
Ene=   -0.127910E-02
Spin= Alpha
Occup= 0.000773
     1    -0.005967
     2    -0.094283
     3     0.220289
     4     0.023418
     5     0.053911
     6     0.001721
     7    -0.116546
     8    -0.108054
     9    -0.002378
    10    -0.018522
    11    -0.019593
    12    -0.004691
    13     0.028539
    14    -0.002552
    15     0.000913
    16    -0.005641
    17    -0.044553
    18    -0.001822
    19     0.067874
    20     0.069570
    21     0.000171
    22    -0.067161
    23    -0.135919
    24    -0.000023
    25    -0.014458
    26     0.003495
    27     0.001819
    28     0.018911
    29     0.001095
    30    -0.001307
    31    -0.005791
    32     0.000474
    33    -0.161080
    34     0.066194
    35     0.079355
    36     0.000078
    37    -0.044420
    38     0.220837
    39    -0.000437
    40    -0.420102
    41     0.306653
    42     0.135633
    43     0.218495
    44     0.000430
    45    -0.000101
    46     0.434659
    47    -0.339115
    48    -0.688541
    49    -0.368167
    50     0.001051
Sym=    17a
Ene=   -0.764543E-03
Spin= Alpha
Occup= 0.000371
     1     0.001106
     2     0.057131
     3    -0.182834
     4    -0.008077
     5    -0.019412
     6    -0.001564
     7     0.040479
     8     0.054476
     9    -0.032535
    10    -0.000730
    11     0.021372
    12     0.028436
    13    -0.013211
    14     0.002330
    15     0.000653
    16     0.014156
    17     0.102195
    18    -0.170322
    19    -0.098024
    20    -0.129047
    21    -0.020639
    22     0.151393
    23     0.198703
    24     0.097345
    25    -0.031465
    26     0.047430
    27     0.012915
    28    -0.038254
    29     0.001973
    30    -0.028660
    31     0.028280
    32     0.106470
    33     0.184021
    34     0.094223
    35     0.073171
    36    -0.004390
    37     0.222287
    38    -0.278583
    39     0.006136
    40    -0.234881
    41     0.473200
    42    -0.253767
    43    -0.497009
    44    -0.414378
    45    -0.583216
    46    -0.793456
    47     0.565767
    48     0.192545
    49    -0.124851
    50    -0.055939
Sym=    18a
Ene=   -0.781385E-02
Spin= Alpha
Occup= 0.006099
     1     0.001520
     2     0.000008
     3     0.036777
     4    -0.009874
     5     0.001211
     6     0.006473
     7    -0.026514
     8    -0.005781
     9     0.016233
    10     0.001598
    11     0.000840
    12     0.003083
    13    -0.001156
    14     0.000763
    15    -0.001298
    16    -0.009771
    17     0.025012
    18    -0.264410
    19     0.048757
    20     0.032597
    21    -0.016611
    22     0.093907
    23     0.062498
    24    -0.136018
    25     0.002062
    26    -0.009329
    27     0.011000
    28    -0.003688
    29    -0.003313
    30     0.005983
    31    -0.244083
    32    -1.211977
    33     1.171408
    34     0.325650
    35    -0.140738
    36    -0.670310
    37    -0.213474
    38     0.178034
    39     0.765370
    40     0.166194
    41     0.196850
    42    -0.030616
    43     0.009922
    44     0.094690
    45    -0.049225
    46    -0.122728
    47    -0.079020
    48     0.014326
    49    -0.034632
    50     0.007185
Sym=    19a
Ene=   -0.854881E-03
Spin= Alpha
Occup= 0.000461
     1    -0.000795
     2    -0.004069
     3     0.008380
     4     0.000133
     5     0.001417
     6     0.580891
     7    -0.004189
     8    -0.001369
     9    -0.808151
    10    -0.007214
    11     0.013549
    12    -0.004889
    13    -0.004685
    14     0.066468
    15    -0.786014
    16    -0.000159
    17     0.002137
    18    -0.013741
    19     0.000378
    20    -0.001073
    21    -0.027584
    22    -0.001657
    23     0.004587
    24     0.354988
    25     0.003983
    26     0.001893
    27    -0.001971
    28     0.002592
    29     0.076297
    30    -0.056791
    31    -0.000171
    32    -0.002441
    33     0.008440
    34    -0.002528
    35    -0.001919
    36     0.007212
    37     0.006157
    38     0.002432
    39    -0.055226
    40    -0.000806
    41     0.000249
    42    -0.000857
    43     0.000328
    44    -0.005812
    45    -0.011000
    46    -0.001794
    47    -0.002124
    48     0.000477
    49     0.000208
    50    -0.014813
Sym=    20a
Ene=   -0.928844E-03
Spin= Alpha
Occup= 0.000502
     1    -0.012818
     2    -0.056603
     3     0.054594
     4    -0.008361
     5    -0.006863
     6     0.557867
     7    -0.001789
     8     0.018265
     9    -0.766195
    10     0.076231
    11     0.033092
    12    -0.080090
    13     0.148405
    14     0.602409
    15     0.510459
    16    -0.000894
    17     0.002146
    18    -0.027851
    19     0.018031
    20     0.005709
    21    -0.023288
    22    -0.028573
    23     0.009100
    24     0.327652
    25     0.011425
    26     0.007932
    27    -0.000291
    28    -0.007843
    29     0.053343
    30    -0.073475
    31     0.000355
    32     0.004794
    33    -0.017670
    34     0.003768
    35     0.001891
    36    -0.000392
    37    -0.011906
    38    -0.002774
    39    -0.034743
    40     0.000417
    41     0.000825
    42     0.001179
    43     0.001187
    44    -0.002367
    45    -0.011642
    46     0.000381
    47     0.011234
    48     0.002065
    49     0.007247
    50    -0.015644
Sym=    21a
Ene=   -0.100111E-02
Spin= Alpha
Occup= 0.000473
     1    -0.001642
     2    -0.057915
     3     0.194436
     4     0.107803
     5    -0.046224
     6    -0.042445
     7    -0.167075
     8     0.054453
     9    -0.053987
    10    -0.082078
    11    -0.041670
    12    -0.001042
    13     0.030076
    14     0.034245
    15    -0.007240
    16     0.048727
    17     0.212403
    18    -0.308999
    19    -0.033071
    20     0.062334
    21     0.040125
    22     0.043021
    23     0.013883
    24    -0.040533
    25     0.268212
    26     0.388010
    27    -0.780054
    28     0.126053
    29     0.438888
    30    -0.472761
    31    -0.003516
    32    -0.028651
    33     0.119885
    34    -0.093984
    35    -0.083200
    36    -0.002247
    37     0.108788
    38     0.097479
    39     0.016698
    40    -0.048777
    41     0.001327
    42    -0.016075
    43    -0.039259
    44     0.013857
    45     0.011304
    46    -0.036637
    47    -0.011898
    48    -0.016150
    49    -0.002687
    50    -0.016050
Sym=    22a
Ene=   -0.562455E-02
Spin= Alpha
Occup= 0.004024
     1     0.005798
     2    -0.023875
     3     0.315674
     4    -0.041733
     5     0.019872
     6    -0.076698
     7    -0.123023
     8     0.099833
     9    -0.146840
    10     0.023844
    11    -0.004118
    12    -0.000977
    13    -0.014690
    14     0.002367
    15     0.001346
    16     0.256927
    17     1.296513
    18    -1.347602
    19    -0.141755
    20     0.289520
    21    -0.664741
    22     0.085849
    23    -0.168920
    24     0.857398
    25    -0.204452
    26    -0.185155
    27    -0.002388
    28    -0.005613
    29     0.033141
    30    -0.073990
    31     0.006264
    32    -0.053039
    33     0.326044
    34     0.039673
    35     0.043056
    36     0.001880
    37     0.082602
    38     0.104236
    39    -0.168284
    40     0.006983
    41     0.001634
    42    -0.018765
    43     0.008634
    44    -0.015204
    45    -0.000590
    46    -0.024814
    47    -0.038996
    48    -0.000070
    49    -0.008127
    50    -0.004058
Sym=    23a
Ene=   -0.879848E-05
Spin= Alpha
Occup= 0.000000
     1     0.002290
     2    -0.024066
     3    -0.007353
     4     0.052344
     5    -0.017552
     6     0.010178
     7    -0.053009
     8     0.024372
     9    -0.011149
    10    -0.059034
    11     0.005488
    12    -0.011940
    13     0.001200
    14    -0.018576
    15     0.007787
    16     0.000030
    17     0.001922
    18    -0.083067
    19    -0.045023
    20    -0.003853
    21    -0.001011
    22     0.206337
    23    -0.041423
    24     0.000465
    25    -0.086281
    26     0.096473
    27    -0.001612
    28    -0.131471
    29    -0.004873
    30     0.004957
    31    -0.034368
    32     0.240519
    33    -0.444203
    34     0.392108
    35    -0.657806
    36    -0.000227
    37    -0.159180
    38     0.575902
    39     0.000103
    40     0.411822
    41     0.453032
    42     0.095983
    43    -0.186781
    44    -0.000125
    45     0.000341
    46     0.014846
    47     0.070350
    48     0.635474
    49    -0.988828
    50     0.001269
Sym=    24a
Ene=   -0.936155E-03
Spin= Alpha
Occup= 0.000038
     1     0.000020
     2     0.031464
     3    -0.509387
     4    -0.142073
     5     0.067457
     6    -0.002074
     7     0.230363
     8    -0.106354
     9     0.001192
    10     0.110245
    11     0.070585
    12     0.049968
    13    -0.038736
    14     0.004950
    15    -0.002088
    16     0.694573
    17     2.107098
    18     1.736563
    19     0.059641
    20    -0.105935
    21     0.001075
    22    -0.049784
    23    -0.074827
    24    -0.000614
    25    -1.492508
    26    -1.442504
    27    -1.443900
    28     0.042882
    29     0.004698
    30    -0.008106
    31    -0.004327
    32     0.038959
    33    -0.393091
    34    -0.004220
    35    -0.010388
    36     0.000115
    37    -0.136002
    38    -0.105970
    39    -0.000263
    40     0.025744
    41     0.014277
    42     0.023823
    43     0.045677
    44    -0.000177
    45    -0.000047
    46     0.073850
    47    -0.011420
    48    -0.008484
    49    -0.007795
    50    -0.000047
Sym=    25a
Ene=   -0.285575E-08
Spin= Alpha
Occup= 0.000000
     1     0.003626
     2    -0.244030
     3     1.675792
     4     0.007939
     5     0.053736
     6    -0.017295
     7    -0.936669
     8     0.053723
     9     0.023511
    10     0.276127
    11    -0.186478
    12    -0.243820
    13    -0.097822
    14     0.025069
    15    -0.010594
    16     0.001171
    17     0.202164
    18    -1.499729
    19     0.010881
    20    -0.008598
    21     0.003613
    22    -0.790835
    23     0.775095
    24    -0.014547
    25     0.019472
    26    -0.189541
    27     0.140890
    28     0.303921
    29     0.009521
    30    -0.005089
    31     0.005977
    32    -0.383797
    33     2.558362
    34     0.019014
    35    -0.015130
    36     0.001321
    37     1.193527
    38    -1.155090
    39     0.044952
    40     0.275779
    41    -0.068878
    42    -0.400748
    43    -0.663093
    44     0.037312
    45    -0.030097
    46    -1.150056
    47    -1.544841
    48     0.343317
    49    -0.951647
    50    -0.115463
Sym=    26a
Ene=   -0.179989E-03
Spin= Alpha
Occup= 0.000091
     1     0.004715
     2    -0.087838
     3     0.244267
     4     0.150262
     5    -0.031806
     6     0.064388
     7    -0.100059
     8     0.241725
     9    -0.067233
    10    -0.266444
    11     0.098623
    12    -0.057990
    13    -0.148359
    14    -0.116301
    15     0.048236
    16     0.010666
    17    -0.088581
    18     0.292508
    19    -0.055239
    20     0.127767
    21    -0.009808
    22    -0.122628
    23    -0.341850
    24     0.006459
    25    -0.473520
    26     0.491809
    27    -0.215648
    28    -0.676497
    29    -0.039107
    30     0.066730
    31     0.006543
    32    -0.046760
    33     0.163801
    34     0.068938
    35     0.196931
    36    -0.001929
    37    -0.058299
    38    -0.327945
    39     0.002721
    40     0.217408
    41    -0.225296
    42    -0.082993
    43    -0.115942
    44     0.000148
    45     0.000335
    46    -0.088973
    47    -0.283691
    48    -0.221395
    49    -0.160747
    50     0.006398
Sym=    27a
Ene=   -0.181435E-02
Spin= Alpha
Occup= 0.001040
     1    -0.021518
     2    -0.291599
     3     0.339366
     4     0.314280
     5    -0.120181
     6     0.000399
     7    -0.553829
     8     0.205026
     9    -0.001554
    10    -0.445553
    11     0.032315
    12     0.223042
    13     0.263767
    14    -0.003427
    15     0.001504
    16    -0.012274
    17    -0.262906
    18     0.284563
    19    -0.209289
    20     0.156315
    21     0.001469
    22     0.319562
    23    -0.327636
    24    -0.002389
    25    -0.255166
    26    -0.009111
    27     0.087302
    28     0.328304
    29     0.006785
    30    -0.006091
    31    -0.006048
    32     0.011275
    33    -0.100927
    34    -0.031885
    35    -0.012711
    36    -0.000101
    37    -0.175634
    38     0.015474
    39     0.000824
    40    -0.022761
    41     0.008801
    42     0.006355
    43    -0.035132
    44     0.000252
    45     0.000125
    46     0.034173
    47    -0.102145
    48    -0.047477
    49     0.004448
    50    -0.000299
Sym=    28a
Ene=   -0.233490E-02
Spin= Alpha
Occup= 0.001563
     1     0.003446
     2     0.054135
     3    -0.028257
     4    -0.003190
     5    -0.023256
     6    -0.000509
     7     0.004590
     8     0.132181
     9     0.000653
    10     0.007160
    11     0.006603
    12    -0.009018
    13    -0.027696
    14     0.001114
    15    -0.000327
    16    -0.009750
    17     0.050329
    18    -0.401113
    19     0.029727
    20     0.083745
    21     0.000056
    22     0.014767
    23     0.181083
    24     0.000015
    25     0.001186
    26    -0.019786
    27     0.019486
    28    -0.028441
    29    -0.000220
    30     0.000161
    31     0.012372
    32    -0.129600
    33     1.022659
    34     0.025125
    35     0.000436
    36     0.000052
    37     0.744481
    38    -0.632103
    39    -0.000129
    40    -0.096832
    41    -0.097658
    42     0.060063
    43     0.323451
    44     0.000035
    45    -0.000086
    46    -1.236087
    47     0.439345
    48     0.286123
    49    -0.523681
    50     0.000081
Sym=    29a
Ene=   -0.781442E-02
Spin= Alpha
Occup= 0.006100
     1     0.001496
     2    -0.000242
     3     0.037542
     4    -0.009655
     5     0.001126
     6    -0.006996
     7    -0.027064
     8    -0.005489
     9    -0.015655
    10     0.001472
    11     0.000823
    12     0.003071
    13    -0.001172
    14    -0.000151
    15     0.001029
    16    -0.009786
    17     0.025026
    18    -0.265143
    19     0.048658
    20     0.032667
    21     0.016926
    22     0.093726
    23     0.062637
    24     0.135604
    25     0.002146
    26    -0.008761
    27     0.010435
    28    -0.004056
    29     0.003803
    30    -0.006888
    31    -0.244067
    32    -1.212008
    33     1.171839
    34     0.325511
    35    -0.140777
    36     0.670404
    37    -0.213190
    38     0.178002
    39    -0.765429
    40     0.166213
    41     0.196862
    42    -0.030748
    43     0.009935
    44    -0.094584
    45     0.049237
    46    -0.122806
    47    -0.079346
    48     0.014327
    49    -0.034665
    50    -0.007220
Sym=    30a
Ene=   -0.764346E-03
Spin= Alpha
Occup= 0.000371
     1    -0.001184
     2    -0.058254
     3     0.187034
     4     0.009294
     5     0.018959
     6    -0.006879
     7    -0.043824
     8    -0.053654
     9    -0.026046
    10    -0.000192
    11    -0.021686
    12    -0.028197
    13     0.013276
    14     0.010126
    15    -0.002842
    16    -0.014136
    17    -0.101009
    18     0.163648
    19     0.097199
    20     0.128553
    21    -0.020152
    22    -0.151065
    23    -0.196282
    24     0.096569
    25     0.033184
    26    -0.044556
    27    -0.015807
    28     0.037208
    29     0.002171
    30    -0.030020
    31    -0.028466
    32    -0.107668
    33    -0.181425
    34    -0.094151
    35    -0.073571
    36    -0.004405
    37    -0.221865
    38     0.280497
    39     0.005949
    40     0.233191
    41    -0.473357
    42     0.255869
    43     0.497545
    44    -0.415039
    45    -0.582385
    46     0.794771
    47    -0.566884
    48    -0.192153
    49     0.125517
    50    -0.055738
Sym=    31a
Ene=   -0.737481E-02
Spin= Alpha
Occup= 0.005432
     1    -0.261827
     2    -1.276512
     3     1.194925
     4     0.020951
     5     0.722462
     6    -0.000622
     7    -0.219215
     8    -0.779905
     9     0.000797
    10     0.204822
    11    -0.045081
    12     0.200354
    13    -0.028376
    14     0.000254
    15     0.000014
    16    -0.008722
    17     0.004344
    18    -0.275453
    19    -0.005816
    20     0.066187
    21     0.000098
    22    -0.089371
    23     0.171260
    24    -0.000290
    25    -0.020134
    26    -0.000368
    27     0.007955
    28     0.000988
    29     0.000036
    30    -0.000101
    31     0.000785
    32     0.020661
    33    -0.000372
    34     0.005318
    35    -0.013829
    36     0.000000
    37    -0.060610
    38     0.043912
    39     0.000025
    40     0.001895
    41     0.005882
    42    -0.002753
    43    -0.002307
    44    -0.000003
    45     0.000000
    46    -0.073745
    47     0.017009
    48    -0.015742
    49     0.000484
    50    -0.000005
Sym=    32a
Ene=   -0.117049E-02
Spin= Alpha
Occup= 0.000572
     1     0.070503
     2     0.303816
     3    -0.253232
     4     0.051233
     5     0.037064
     6     0.090455
     7    -0.018117
     8    -0.096104
     9    -0.126507
    10    -0.435903
    11    -0.176215
    12     0.437829
    13    -0.815624
    14     0.125248
    15     0.088272
    16     0.003942
    17    -0.004387
    18     0.088517
    19    -0.096904
    20    -0.033396
    21    -0.002597
    22     0.146245
    23    -0.026809
    24     0.057080
    25    -0.043007
    26    -0.030959
    27    -0.013291
    28     0.047576
    29     0.013371
    30    -0.019246
    31    -0.002843
    32    -0.037028
    33     0.132169
    34    -0.028607
    35    -0.016454
    36     0.000133
    37     0.087212
    38     0.023651
    39    -0.006449
    40    -0.005323
    41    -0.002911
    42    -0.008992
    43    -0.003204
    44    -0.000436
    45    -0.001885
    46    -0.006246
    47    -0.073747
    48    -0.008687
    49    -0.038039
    50    -0.003303
Sym=    33a
Ene=   -0.563277E-02
Spin= Alpha
Occup= 0.004047
     1     0.005761
     2    -0.024678
     3     0.321642
     4    -0.041112
     5     0.019712
     6     0.077411
     7    -0.127248
     8     0.100845
     9     0.147427
    10     0.023764
    11    -0.004353
    12    -0.001306
    13    -0.014061
    14    -0.002394
    15    -0.001192
    16     0.255935
    17     1.293927
    18    -1.354518
    19    -0.141545
    20     0.287845
    21     0.666904
    22     0.082717
    23    -0.163597
    24    -0.860227
    25    -0.200986
    26    -0.180006
    27    -0.006451
    28    -0.006337
    29    -0.035342
    30     0.077755
    31     0.006239
    32    -0.053606
    33     0.329002
    34     0.039057
    35     0.042782
    36    -0.001851
    37     0.085072
    38     0.104244
    39     0.168852
    40     0.007087
    41     0.001515
    42    -0.019043
    43     0.008624
    44     0.015203
    45     0.000591
    46    -0.025762
    47    -0.039661
    48     0.000060
    49    -0.008080
    50     0.004154
Sym=    34a
Ene=   -0.631802E-03
Spin= Alpha
Occup= 0.000289
     1    -0.013000
     2    -0.183727
     3     0.429087
     4     0.303758
     5    -0.121897
     6    -0.018993
     7    -0.428290
     8     0.125425
     9    -0.056705
    10    -0.210662
    11    -0.061625
    12    -0.013210
    13     0.103070
    14     0.068514
    15    -0.038495
    16     0.015460
    17    -0.017273
    18    -0.030884
    19    -0.105003
    20    -0.028428
    21    -0.016051
    22    -0.065390
    23    -0.023782
    24     0.034517
    25     0.519036
    26    -0.477601
    27    -0.129718
    28    -0.329324
    29     0.572007
    30     0.429682
    31     0.011091
    32     0.106759
    33    -0.217256
    34     0.139323
    35     0.109180
    36    -0.019933
    37    -0.209028
    38    -0.168243
    39     0.075758
    40     0.048385
    41    -0.037558
    42     0.045015
    43    -0.001997
    44     0.031812
    45     0.008391
    46     0.032701
    47    -0.012486
    48    -0.014345
    49    -0.021401
    50     0.011770
Sym=    35a
Ene=   -0.984226E-06
Spin= Alpha
Occup= 0.000000
     1     0.002663
     2    -0.105835
     3     0.353523
     4     0.040966
     5    -0.009400
     6     0.000485
     7    -0.055955
     8     0.343354
     9    -0.000156
    10     0.007976
    11     0.074295
    12    -0.179347
    13    -0.206494
    14    -0.000075
    15     0.000130
    16     0.012351
    17    -0.407532
    18     1.871132
    19     0.147189
    20     0.263909
    21     0.000156
    22    -1.324807
    23    -1.347271
    24    -0.000567
    25    -0.198221
    26     0.079983
    27    -0.295222
    28     0.256415
    29    -0.000064
    30     0.003022
    31    -0.011069
    32     0.420107
    33    -1.736906
    34     0.308382
    35     0.169247
    36     0.000039
    37    -1.441502
    38    -1.380573
    39     0.002147
    40    -0.414305
    41     0.407701
    42     0.399287
    43    -0.142885
    44     0.002116
    45    -0.001340
    46     0.298112
    47    -0.517311
    48     0.671969
    49     0.150848
    50    -0.004963
Sym=    36a
Ene=   -0.232560E-05
Spin= Alpha
Occup= 0.000000
     1     0.007116
     2     0.050025
     3    -1.435469
     4     0.221133
     5    -0.074658
     6     0.000403
     7     0.595270
     8    -0.375062
     9    -0.001120
    10     0.481595
    11    -0.120203
    12    -0.515825
    13    -0.277449
    14     0.002105
    15    -0.000445
    16     0.032556
    17    -0.292446
    18     1.806096
    19    -0.601481
    20     0.220328
    21     0.000981
    22     1.742065
    23    -0.573229
    24    -0.000551
    25    -0.237093
    26    -0.311084
    27    -0.279301
    28    -0.054218
    29     0.002922
    30    -0.003348
    31     0.002151
    32    -0.026757
    33     0.085159
    34    -0.030388
    35    -0.036700
    36     0.000005
    37    -0.159658
    38     0.412010
    39     0.000314
    40    -0.144285
    41     0.097661
    42    -0.032497
    43     0.128507
    44     0.000154
    45    -0.000131
    46     0.225296
    47    -0.052761
    48    -0.074471
    49     0.063553
    50    -0.000556
Sym=    37a
Ene=   -0.648277E-07
Spin= Alpha
Occup= 0.000000
     1    -0.007350
     2     0.515646
     3    -3.535814
     4    -0.185159
     5     0.104152
     6     0.002284
     7     2.391292
     8    -1.147994
     9    -0.002413
    10    -0.503536
    11     0.231100
    12     0.543331
    13     0.497042
    14    -0.003415
    15     0.001096
    16    -0.000428
    17    -0.504568
    18     3.609458
    19     0.014636
    20     0.012460
    21     0.000225
    22     2.186988
    23    -0.982882
    24    -0.000499
    25     0.415737
    26    -0.178821
    27    -0.319191
    28    -0.356983
    29    -0.000552
    30     0.001240
    31     0.003486
    32    -0.106819
    33     0.690563
    34    -0.000821
    35    -0.018590
    36     0.000016
    37     0.048709
    38    -0.289925
    39     0.001314
    40    -0.166708
    41     0.176681
    42    -0.118667
    43    -0.124179
    44     0.000976
    45    -0.000937
    46    -0.142417
    47    -0.596807
    48     0.306547
    49    -0.210258
    50    -0.002893
Sym=    38a
Ene=   -0.562812E-01
Spin= Alpha
Occup= 0.091927
     1     0.002129
     2     0.006820
     3    -0.022059
     4    -0.080222
     5    -0.085029
     6    -0.000050
     7    -0.073821
     8    -0.113232
     9     0.000179
    10     0.001029
    11     0.002317
    12     0.000130
    13    -0.002749
    14     0.000113
    15    -0.000064
    16    -0.076876
    17    -0.196895
    18    -0.164195
    19     0.379905
    20     0.527225
    21     0.000083
    22     0.176718
    23     0.183050
    24    -0.000040
    25     0.016645
    26    -0.025996
    27     0.003708
    28    -0.012758
    29    -0.000218
    30     0.000244
    31     0.065350
    32     0.155477
    33     0.165733
    34     0.442002
    35     0.438040
    36     0.000030
    37     0.196616
    38     0.226591
    39    -0.000042
    40     0.021122
    41    -0.010071
    42    -0.001936
    43     0.016283
    44    -0.000007
    45    -0.000011
    46    -0.014451
    47    -0.010440
    48     0.010880
    49     0.007488
    50     0.000027
Sym=    39a
Ene=   -0.324284E-03
Spin= Alpha
Occup= 0.000151
     1     0.003047
     2     0.031170
     3    -0.068267
     4    -0.035157
     5     0.013867
     6     0.415901
     7     0.052527
     8    -0.042070
     9    -0.491072
    10     0.033643
    11     0.000582
    12    -0.010569
    13    -0.009304
    14    -0.807573
    15     0.348986
    16     0.001209
    17    -0.005148
    18     0.085267
    19     0.019463
    20    -0.001743
    21    -0.027076
    22    -0.024943
    23    -0.017706
    24    -0.007833
    25     0.051754
    26    -0.102204
    27     0.030959
    28     0.127340
    29    -0.023351
    30     0.062119
    31     0.000128
    32     0.016682
    33    -0.067802
    34    -0.013310
    35    -0.010735
    36    -0.009992
    37    -0.008741
    38    -0.017809
    39     0.030140
    40     0.001263
    41    -0.010652
    42     0.007217
    43    -0.018533
    44     0.010516
    45    -0.000623
    46    -0.009157
    47     0.035080
    48     0.000862
    49     0.006185
    50     0.010444
Sym=    40a
Ene=   -0.177914E-01
Spin= Alpha
Occup= 0.016726
     1     0.004704
     2    -0.001781
     3     0.054506
     4    -0.012530
     5    -0.017924
     6     0.000137
     7    -0.037515
     8    -0.062578
     9    -0.000146
    10     0.002715
    11    -0.005546
    12     0.001906
    13     0.000313
    14    -0.000168
    15     0.000055
    16     0.004051
    17     0.010302
    18     0.006141
    19    -0.002122
    20     0.000518
    21    -0.000056
    22    -0.025103
    23     0.027186
    24     0.000060
    25    -0.001164
    26    -0.000867
    27     0.001283
    28    -0.004229
    29    -0.000055
    30     0.000141
    31     0.152422
    32     0.575830
    33     0.031293
    34     0.491216
    35    -0.629943
    36    -0.000003
    37    -0.009109
    38    -0.072131
    39    -0.000008
    40    -0.006859
    41     0.030474
    42    -0.060081
    43    -0.098525
    44     0.000022
    45    -0.000012
    46    -0.996827
    47    -0.036715
    48     0.030369
    49    -0.078413
    50     0.000032
Sym=    41a
Ene=   -0.129010E-02
Spin= Alpha
Occup= 0.000658
     1    -0.000436
     2    -0.005521
     3     0.058997
     4     0.001017
     5    -0.009297
     6    -0.000560
     7    -0.006996
     8     0.071551
     9     0.011174
    10    -0.006661
    11     0.010221
    12    -0.005521
    13    -0.018759
    14    -0.004091
    15     0.002953
    16    -0.005748
    17    -0.028494
    18     0.066747
    19     0.090585
    20     0.107409
    21     0.005791
    22    -0.181925
    23    -0.129684
    24    -0.036730
    25     0.000309
    26    -0.047873
    27    -0.009972
    28    -0.010516
    29     0.016216
    30     0.016979
    31     0.063471
    32     0.260546
    33    -0.151055
    34    -0.061590
    35     0.048904
    36    -0.090238
    37     0.027408
    38    -0.192468
    39     0.174843
    40     0.231528
    41     0.251490
    42    -0.704604
    43     0.245973
    44    -0.527035
    45     0.393141
    46    -0.107722
    47     0.016639
    48     0.017130
    49     0.019107
    50    -0.115198
Sym=    42a
Ene=   -0.128977E-02
Spin= Alpha
Occup= 0.000658
     1     0.000414
     2     0.005455
     3    -0.059090
     4    -0.001086
     5     0.009370
     6     0.001188
     7     0.006985
     8    -0.071747
     9     0.008988
    10     0.006669
    11    -0.010143
    12     0.005613
    13     0.018833
    14    -0.006771
    15     0.003993
    16     0.005748
    17     0.028586
    18    -0.066877
    19    -0.090786
    20    -0.107903
    21     0.005709
    22     0.182268
    23     0.130168
    24    -0.036758
    25    -0.000669
    26     0.047968
    27     0.010463
    28     0.010168
    29     0.016671
    30     0.016647
    31    -0.063458
    32    -0.260533
    33     0.151201
    34     0.062212
    35    -0.048535
    36    -0.090047
    37    -0.027964
    38     0.192463
    39     0.174743
    40    -0.233359
    41    -0.250808
    42     0.705605
    43    -0.245994
    44    -0.524858
    45     0.394090
    46     0.107912
    47    -0.016477
    48    -0.017308
    49    -0.019111
    50    -0.115334
Sym=    43a
Ene=   -0.113035E-02
Spin= Alpha
Occup= 0.000544
     1    -0.064964
     2    -0.260048
     3     0.154112
     4    -0.069292
     5     0.095832
     6    -0.018906
     7     0.047737
     8    -0.144300
     9     0.023577
    10    -0.369491
    11     1.029158
    12    -0.454990
    13    -0.164904
    14     0.015199
    15     0.002813
    16    -0.001335
    17     0.071487
    18    -0.251424
    19     0.003356
    20    -0.108783
    21     0.001455
    22     0.031308
    23     0.122587
    24    -0.006157
    25     0.037587
    26     0.009049
    27     0.071755
    28    -0.008629
    29     0.002272
    30    -0.004921
    31    -0.001684
    32    -0.055347
    33     0.234700
    34    -0.031724
    35    -0.020773
    36     0.000149
    37     0.149750
    38     0.056791
    39     0.000239
    40     0.002253
    41    -0.002606
    42    -0.024597
    43     0.008425
    44    -0.000121
    45     0.000251
    46    -0.035464
    47    -0.081490
    48    -0.011741
    49    -0.022472
    50    -0.000084
Sym=    44a
Ene=   -0.718244E-02
Spin= Alpha
Occup= 0.005357
     1     0.260348
     2     1.260499
     3    -1.167678
     4     0.525707
     5     0.504463
     6     0.000041
     7    -0.431102
     8    -0.695646
     9     0.000015
    10    -0.111940
    11    -0.070630
    12    -0.206565
    13     0.145589
    14    -0.000126
    15     0.000248
    16     0.006757
    17    -0.035965
    18     0.354161
    19     0.067153
    20     0.034106
    21    -0.000226
    22     0.167408
    23     0.036437
    24     0.000245
    25     0.011778
    26     0.005711
    27    -0.007492
    28    -0.017925
    29    -0.000401
    30     0.000741
    31    -0.000694
    32     0.022396
    33    -0.058595
    34     0.004947
    35    -0.001817
    36    -0.000004
    37    -0.074178
    38    -0.001033
    39    -0.000031
    40     0.000143
    41     0.002830
    42     0.004769
    43    -0.002339
    44    -0.000010
    45    -0.000007
    46    -0.009523
    47     0.005005
    48    -0.008514
    49    -0.003870
    50     0.000021
Sym=    45a
Ene=   -0.627732E-03
Spin= Alpha
Occup= 0.000286
     1    -0.013317
     2    -0.189735
     3     0.442007
     4     0.314951
     5    -0.126506
     6     0.021619
     7    -0.439831
     8     0.134316
     9     0.051174
    10    -0.220084
    11    -0.063367
    12    -0.013359
    13     0.104148
    14    -0.076998
    15     0.041605
    16     0.018968
    17    -0.006453
    18    -0.039648
    19    -0.106982
    20    -0.016708
    21     0.016654
    22    -0.066177
    23    -0.038888
    24    -0.036007
    25     0.538529
    26    -0.438049
    27    -0.200332
    28    -0.321679
    29    -0.562727
    30    -0.443771
    31     0.010913
    32     0.105457
    33    -0.214075
    34     0.129753
    35     0.103346
    36     0.019790
    37    -0.203431
    38    -0.167294
    39    -0.075009
    40     0.045066
    41    -0.040507
    42     0.043329
    43    -0.010282
    44    -0.030719
    45    -0.007654
    46     0.027028
    47    -0.014669
    48    -0.018920
    49    -0.022810
    50    -0.012746
Sym=    46a
Ene=   -0.986312E-03
Spin= Alpha
Occup= 0.000464
     1     0.000974
     2    -0.033626
     3     0.118400
     4     0.084396
     5    -0.037487
     6     0.053535
     7    -0.117633
     8     0.019164
     9     0.054476
    10    -0.059792
    11    -0.044819
    12    -0.006178
    13     0.032580
    14    -0.065176
    15     0.018458
    16     0.047371
    17     0.184440
    18    -0.173641
    19    -0.025111
    20     0.044515
    21    -0.056251
    22     0.047248
    23    -0.001849
    24     0.053305
    25     0.259646
    26     0.241270
    27    -0.656052
    28     0.179468
    29    -0.471246
    30     0.620312
    31    -0.001488
    32    -0.001567
    33     0.035069
    34    -0.077067
    35    -0.075110
    36    -0.000371
    37     0.064887
    38     0.080445
    39    -0.009658
    40    -0.043430
    41    -0.003520
    42    -0.006724
    43    -0.042218
    44    -0.010000
    45    -0.010086
    46    -0.024086
    47     0.019765
    48    -0.016176
    49    -0.001259
    50     0.017872
Sym=    47a
Ene=   -0.945170E-03
Spin= Alpha
Occup= 0.000038
     1    -0.000124
     2     0.004368
     3     0.006008
     4    -0.020954
     5     0.006434
     6    -0.000535
     7     0.007006
     8    -0.031630
     9     0.000231
    10     0.004835
    11     0.003304
    12     0.012534
    13     0.000270
    14     0.001340
    15    -0.000524
    16    -0.004849
    17     0.024237
    18    -0.294325
    19    -0.000335
    20    -0.015538
    21     0.000297
    22     0.152757
    23     0.099411
    24    -0.000175
    25     0.005864
    26     0.044603
    27     0.021092
    28     0.038788
    29     0.001619
    30    -0.002133
    31     0.696171
    32     2.148066
    33     1.341656
    34     0.085386
    35    -0.019126
    36     0.000044
    37    -0.080507
    38     0.284798
    39     0.000002
    40    -1.454147
    41    -1.508478
    42    -1.399964
    43     0.065343
    44     0.000149
    45    -0.000031
    46     0.298018
    47    -0.237136
    48    -0.081521
    49     0.056682
    50    -0.000167
Sym=    48a
Ene=   -0.385462E-06
Spin= Alpha
Occup= 0.000000
     1     0.005056
     2    -0.200111
     3     1.580189
     4     0.075762
     5    -0.017245
     6     0.026156
     7    -1.045604
     8     0.095743
     9    -0.025856
    10    -0.007587
    11    -0.144090
    12    -0.029029
    13     0.018671
    14    -0.054027
    15     0.022353
    16    -0.014155
    17     0.515053
    18    -2.854479
    19    -0.114331
    20    -0.291680
    21    -0.004518
    22     0.018068
    23     1.544530
    24     0.000943
    25    -0.060839
    26     0.183702
    27     0.345102
    28    -0.322647
    29    -0.021857
    30     0.025544
    31     0.007313
    32    -0.479808
    33     2.388818
    34    -0.120274
    35    -0.073806
    36    -0.000599
    37     1.067188
    38     0.259891
    39     0.002765
    40    -0.450810
    41     0.359686
    42    -0.228630
    43     0.385891
    44     0.002690
    45    -0.000625
    46    -0.210367
    47    -0.866158
    48     0.433246
    49     0.129317
    50    -0.002705
Sym=    49a
Ene=   -0.901529E-03
Spin= Alpha
Occup= 0.000037
     1     0.689784
     2     2.136340
     3     1.501922
     4    -0.057182
     5     0.030849
     6    -0.002726
     7    -0.088764
     8     0.009597
     9     0.002628
    10    -1.484730
    11    -1.421589
    12    -1.456529
    13     0.048774
    14     0.004438
    15    -0.002118
    16    -0.000065
    17     0.022847
    18    -0.486820
    19     0.116768
    20    -0.056614
    21     0.000611
    22    -0.186871
    23     0.094278
    24    -0.000550
    25     0.161862
    26     0.025665
    27     0.027648
    28    -0.063703
    29     0.002648
    30    -0.004115
    31     0.000076
    32     0.000515
    33     0.048259
    34     0.019273
    35     0.005807
    36     0.000086
    37    -0.011174
    38     0.000724
    39    -0.000090
    40     0.006711
    41    -0.000851
    42     0.005013
    43    -0.000598
    44    -0.000055
    45    -0.000015
    46    -0.001968
    47    -0.079503
    48    -0.030603
    49    -0.018849
    50    -0.000229
Sym=    50a
Ene=    0.000000E+00
Spin= Alpha
Occup= 0.000000
     1     0.000407
     2    -0.024769
     3     0.170150
     4     0.000989
     5     0.005483
     6     0.019567
     7    -0.094444
     8     0.003946
     9    -0.070685
    10     0.027506
    11    -0.019382
    12    -0.024568
    13    -0.009250
    14     0.029019
    15    -0.011741
    16     0.000102
    17     0.019804
    18    -0.148331
    19     0.001094
    20    -0.000926
    21    -0.018805
    22    -0.080464
    23     0.077736
    24     0.135226
    25     0.004708
    26    -0.019519
    27     0.012279
    28     0.032473
    29    -0.010178
    30    -0.058399
    31     0.000658
    32    -0.039672
    33     0.266757
    34     0.002132
    35    -0.001435
    36    -0.010110
    37     0.120927
    38    -0.124268
    39    -0.443486
    40     0.023189
    41    -0.003425
    42    -0.040520
    43    -0.067872
    44    -0.370046
    45     0.291312
    46    -0.118462
    47    -0.165068
    48     0.041491
    49    -0.095746
    50     1.115087
