[Molden Format]
p30-5 set                                                                       
[Atoms] AU
 O        1     8        0.0000        0.0000        0.8338
 O        2     8        0.0000        2.0457       -0.4169
 O        3     8        0.0000       -2.0457       -0.4169
[GTO]
    1 0
s    5 1.00
    2266.176778500000 -0.538935039217E-02
     340.870101910000 -0.402347213890E-01
      77.363135167000 -0.180081842055E+00
      21.479644940000 -0.468288576577E+00
       6.658943312400 -0.446926171602E+00
s    1 1.00
       0.809759756680  0.100000000000E+01
s    1 1.00
       0.255307722340  0.100000000000E+01
p    3 1.00
      17.721504317000  0.626302487632E-01
       3.863550544000  0.333311384824E+00
       1.048092088300  0.741486383081E+00
p    1 1.00
       0.276415444110  0.100000000000E+01
d    1 1.00
       1.200000000000  0.100000000000E+01

    2 0
s    5 1.00
    2266.176778500000 -0.538935039217E-02
     340.870101910000 -0.402347213890E-01
      77.363135167000 -0.180081842055E+00
      21.479644940000 -0.468288576577E+00
       6.658943312400 -0.446926171602E+00
s    1 1.00
       0.809759756680  0.100000000000E+01
s    1 1.00
       0.255307722340  0.100000000000E+01
p    3 1.00
      17.721504317000  0.626302487632E-01
       3.863550544000  0.333311384824E+00
       1.048092088300  0.741486383081E+00
p    1 1.00
       0.276415444110  0.100000000000E+01
d    1 1.00
       1.200000000000  0.100000000000E+01

    3 0
s    5 1.00
    2266.176778500000 -0.538935039217E-02
     340.870101910000 -0.402347213890E-01
      77.363135167000 -0.180081842055E+00
      21.479644940000 -0.468288576577E+00
       6.658943312400 -0.446926171602E+00
s    1 1.00
       0.809759756680  0.100000000000E+01
s    1 1.00
       0.255307722340  0.100000000000E+01
p    3 1.00
      17.721504317000  0.626302487632E-01
       3.863550544000  0.333311384824E+00
       1.048092088300  0.741486383081E+00
p    1 1.00
       0.276415444110  0.100000000000E+01
d    1 1.00
       1.200000000000  0.100000000000E+01

[MO]
Sym=     1a
Ene=   -0.207059E+02
Spin= Alpha
Occup= 2.000000
     1    -0.000071
     2    -0.000348
     3    -0.003064
     4    -0.000001
     5    -0.000865
     6    -0.000758
     7     0.000002
     8     0.001298
     9     0.000074
    10     0.000087
    11     0.001151
    12     0.000552
    13     0.000000
    14    -0.000001
    15     0.000687
    16    -0.000009
    17     0.000248
    18    -0.001024
    19    -0.000001
    20    -0.000101
    21     0.000023
    22    -0.000003
    23     0.000756
    24     0.000036
    25     0.000266
    26     0.000032
    27     0.000107
    28     0.000001
    29    -0.000002
    30     0.000059
    31     0.991090
    32    -0.032528
    33     0.012209
    34     0.000002
    35    -0.002031
    36    -0.000981
    37    -0.000004
    38     0.001723
    39     0.001096
    40     0.004180
    41     0.003954
    42     0.003840
    43    -0.000000
    44    -0.000001
    45     0.000084
Sym=     2a
Ene=   -0.207054E+02
Spin= Alpha
Occup= 1.999962
     1    -0.000085
     2    -0.000488
     3    -0.003362
     4    -0.000002
     5     0.000859
     6    -0.000785
     7    -0.000002
     8    -0.001417
     9     0.000142
    10     0.000065
    11     0.001158
    12     0.000538
    13     0.000006
    14    -0.000004
    15    -0.000702
    16     0.992281
    17    -0.030058
    18     0.014085
    19    -0.000003
    20     0.002661
    21    -0.001297
    22     0.000001
    23    -0.001395
    24     0.000947
    25     0.004370
    26     0.004132
    27     0.004029
    28    -0.000000
    29    -0.000003
    30    -0.000075
    31    -0.000045
    32     0.000260
    33    -0.000985
    34     0.000003
    35     0.000076
    36     0.000112
    37    -0.000002
    38    -0.000743
    39     0.000089
    40     0.000256
    41     0.000026
    42     0.000111
    43    -0.000000
    44    -0.000000
    45    -0.000061
Sym=     3a
Ene=   -0.207993E+02
Spin= Alpha
Occup= 1.999959
     1     0.993900
     2    -0.027107
     3     0.020997
     4     0.000636
     5     0.000011
     6     0.005809
     7     0.000429
     8    -0.000001
     9    -0.001360
    10     0.003768
    11     0.003919
    12     0.003755
    13    -0.000002
    14    -0.000026
    15    -0.000001
    16    -0.000091
    17    -0.000262
    18    -0.005168
    19     0.000189
    20    -0.001279
    21     0.000656
    22     0.000096
    23     0.001602
    24    -0.000818
    25     0.000077
    26     0.000917
    27     0.000699
    28    -0.000022
    29     0.000015
    30    -0.000779
    31    -0.000062
    32    -0.000257
    33    -0.005178
    34     0.000189
    35     0.001273
    36     0.000647
    37     0.000095
    38    -0.001605
    39    -0.000824
    40     0.000076
    41     0.000919
    42     0.000702
    43     0.000022
    44     0.000015
    45     0.000777
Sym=     4a
Ene=   -0.976194E+00
Spin= Alpha
Occup= 1.995592
     1     0.180689
     2     0.403621
     3     0.297787
     4     0.418318
     5     0.000429
     6     0.231074
     7     0.279781
     8     0.000230
     9     0.147110
    10     0.012319
    11     0.012337
    12     0.000362
    13     0.000008
    14    -0.019752
    15    -0.000047
    16    -0.002330
    17    -0.012609
    18    -0.023846
    19     0.123199
    20    -0.004899
    21    -0.006213
    22     0.064364
    23     0.004057
    24    -0.028420
    25    -0.002218
    26    -0.002825
    27     0.002087
    28    -0.015146
    29     0.008670
    30    -0.004909
    31    -0.002471
    32    -0.012908
    33    -0.023840
    34     0.123058
    35     0.004778
    36    -0.006741
    37     0.064262
    38    -0.004071
    39    -0.028692
    40    -0.002225
    41    -0.002837
    42     0.002084
    43     0.015145
    44     0.008667
    45     0.004849
Sym=     5a
Ene=   -0.973771E+00
Spin= Alpha
Occup= 1.995431
     1    -0.183224
     2    -0.406091
     3    -0.300766
     4     0.413154
     5    -0.000014
     6    -0.240334
     7     0.276037
     8    -0.000038
     9    -0.153162
    10    -0.012530
    11    -0.012159
    12    -0.000204
    13    -0.000038
    14    -0.020019
    15    -0.000007
    16     0.003357
    17     0.014837
    18     0.023931
    19     0.121477
    20     0.002850
    21     0.007755
    22     0.063458
    23    -0.004577
    24     0.029797
    25     0.002237
    26     0.003123
    27    -0.002175
    28    -0.015020
    29     0.008546
    30     0.004807
    31     0.003461
    32     0.015051
    33     0.024044
    34     0.121437
    35    -0.002955
    36     0.007832
    37     0.063466
    38     0.004458
    39     0.029809
    40     0.002224
    41     0.003140
    42    -0.002151
    43     0.015015
    44     0.008568
    45    -0.004814
Sym=     6a
Ene=   -0.926546E+00
Spin= Alpha
Occup= 1.994057
     1    -0.003695
     2     0.004914
     3    -0.008166
     4     0.000909
     5    -0.027626
     6     0.010033
     7     0.000542
     8    -0.046100
     9    -0.021447
    10     0.002529
    11     0.013656
    12    -0.010973
    13    -0.000050
    14    -0.000080
    15    -0.011608
    16     0.008295
    17     0.023001
    18     0.026351
    19     0.000127
    20    -0.030563
    21     0.000657
    22     0.000018
    23    -0.029487
    24     0.010512
    25     0.002288
    26     0.002671
    27     0.000168
    28    -0.000014
    29     0.000022
    30    -0.001033
    31    -0.204890
    32    -0.426761
    33    -0.341452
    34     0.000880
    35    -0.133073
    36     0.474774
    37     0.000671
    38    -0.111572
    39     0.319113
    40    -0.007306
    41    -0.016881
    42     0.003312
    43     0.000063
    44     0.000065
    45     0.010240
Sym=     7a
Ene=   -0.909108E+00
Spin= Alpha
Occup= 1.994010
     1    -0.019829
     2    -0.044123
     3    -0.118431
     4    -0.000564
     5    -0.011442
     6     0.012069
     7    -0.000427
     8     0.002654
     9     0.015199
    10    -0.002961
    11     0.016724
    12    -0.014564
    13    -0.000004
    14    -0.000001
    15    -0.005236
    16     0.009063
    17     0.023661
    18     0.040334
    19    -0.000300
    20    -0.035322
    21     0.010179
    22    -0.000204
    23    -0.046543
    24     0.015864
    25     0.001428
    26     0.001546
    27     0.001599
    28     0.000028
    29    -0.000014
    30    -0.001470
    31     0.206903
    32     0.437028
    33     0.335387
    34     0.000450
    35    -0.346022
    36     0.349188
    37     0.000406
    38    -0.226985
    39     0.250586
    40     0.009029
    41    -0.005749
    42     0.019606
    43    -0.000006
    44    -0.000003
    45     0.004077
Sym=     8a
Ene=   -0.925030E+00
Spin= Alpha
Occup= 1.993913
     1     0.003593
     2    -0.005131
     3     0.008403
     4    -0.000828
     5    -0.028359
     6    -0.009267
     7    -0.000532
     8    -0.046326
     9     0.021941
    10    -0.002499
    11    -0.013740
    12     0.010956
    13    -0.000034
    14     0.000082
    15    -0.011545
    16     0.201335
    17     0.425439
    18     0.341034
    19    -0.000683
    20    -0.132786
    21    -0.475995
    22    -0.000396
    23    -0.111623
    24    -0.320001
    25     0.007394
    26     0.016862
    27    -0.003305
    28     0.000111
    29     0.000023
    30     0.010285
    31    -0.008319
    32    -0.022949
    33    -0.026234
    34    -0.000108
    35    -0.030507
    36    -0.000816
    37    -0.000034
    38    -0.029398
    39    -0.010722
    40    -0.002290
    41    -0.002676
    42    -0.000158
    43    -0.000023
    44    -0.000011
    45    -0.001018
Sym=     9a
Ene=   -0.909972E+00
Spin= Alpha
Occup= 1.993889
     1    -0.020147
     2    -0.044829
     3    -0.118703
     4    -0.000617
     5     0.010699
     6     0.012432
     7    -0.000488
     8    -0.003061
     9     0.015452
    10    -0.002976
    11     0.016623
    12    -0.014561
    13    -0.000028
    14     0.000010
    15     0.005283
    16     0.204053
    17     0.437431
    18     0.336329
    19     0.000078
    20     0.346577
    21     0.347712
    22     0.000314
    23     0.227159
    24     0.249788
    25     0.009136
    26    -0.005713
    27     0.019662
    28    -0.000024
    29    -0.000133
    30    -0.003963
    31     0.009063
    32     0.023490
    33     0.040206
    34    -0.000274
    35     0.035531
    36     0.009996
    37    -0.000159
    38     0.046747
    39     0.015689
    40     0.001411
    41     0.001542
    42     0.001603
    43    -0.000022
    44    -0.000012
    45     0.001481
Sym=    10a
Ene=   -0.105385E+01
Spin= Alpha
Occup= 1.972954
     1     0.073703
     2     0.158217
     3     0.015576
     4    -0.003647
     5     0.344603
     6    -0.350884
     7    -0.002470
     8     0.145376
     9    -0.211784
    10    -0.010394
    11     0.019521
    12     0.016300
    13    -0.000383
    14     0.000179
    15    -0.032598
    16     0.049112
    17     0.111556
    18    -0.113291
    19    -0.001253
    20    -0.371417
    21     0.237965
    22    -0.000832
    23    -0.157507
    24     0.115522
    25    -0.009910
    26     0.036477
    27     0.002382
    28     0.000195
    29    -0.000088
    30    -0.028161
    31    -0.006415
    32    -0.009125
    33    -0.020481
    34    -0.000972
    35    -0.056474
    36     0.026517
    37    -0.000355
    38    -0.068239
    39     0.050527
    40     0.001870
    41     0.003050
    42    -0.005185
    43    -0.000079
    44    -0.000028
    45    -0.006107
Sym=    11a
Ene=   -0.105246E+01
Spin= Alpha
Occup= 1.972883
     1     0.073954
     2     0.158723
     3     0.016249
     4    -0.003163
     5    -0.344795
     6    -0.350592
     7    -0.002197
     8    -0.145690
     9    -0.211675
    10    -0.010304
    11     0.019520
    12     0.016255
    13     0.000309
    14     0.000108
    15     0.032565
    16    -0.006431
    17    -0.009193
    18    -0.020460
    19    -0.000880
    20     0.056521
    21     0.026384
    22    -0.000334
    23     0.068267
    24     0.050469
    25     0.001859
    26     0.003053
    27    -0.005188
    28     0.000050
    29    -0.000066
    30     0.006119
    31     0.048346
    32     0.109553
    33    -0.114787
    34    -0.001139
    35     0.371743
    36     0.238291
    37    -0.000665
    38     0.157659
    39     0.115644
    40    -0.009990
    41     0.036383
    42     0.002365
    43    -0.000152
    44    -0.000080
    45     0.028164
Sym=    12a
Ene=   -0.461909E+00
Spin= Alpha
Occup= 1.555429
     1    -0.000026
     2    -0.000078
     3     0.000073
     4    -0.000077
     5     0.000073
     6    -0.000033
     7    -0.000064
     8    -0.000040
     9    -0.000104
    10    -0.000016
    11     0.000001
    12    -0.000016
    13     0.031800
    14     0.000004
    15    -0.000040
    16     0.000109
    17     0.000331
    18    -0.000083
    19     0.483828
    20    -0.000529
    21    -0.000271
    22     0.335507
    23    -0.000472
    24    -0.000179
    25     0.000149
    26    -0.000054
    27    -0.000050
    28    -0.014179
    29     0.008344
    30    -0.000105
    31    -0.000044
    32    -0.000060
    33    -0.000218
    34    -0.483863
    35    -0.000649
    36     0.000555
    37    -0.335486
    38    -0.000572
    39     0.000359
    40     0.000015
    41     0.000012
    42    -0.000034
    43    -0.014154
    44    -0.008376
    45     0.000012
Sym=    13a
Ene=   -0.169232E+00
Spin= Alpha
Occup= 0.444571
     1    -0.000187
     2    -0.000301
     3    -0.001429
     4    -0.331749
     5    -0.000092
     6     0.000485
     7    -0.340838
     8     0.000035
     9     0.000793
    10    -0.000105
    11     0.000213
    12    -0.000144
    13     0.000048
    14     0.005124
    15     0.000014
    16     0.000207
    17     0.000805
    18    -0.000002
    19     0.514489
    20    -0.000696
    21     0.000050
    22     0.282790
    23    -0.000803
    24     0.000059
    25     0.000386
    26    -0.000188
    27    -0.000103
    28     0.002544
    29    -0.001615
    30    -0.000342
    31     0.000104
    32     0.000266
    33     0.000558
    34     0.514647
    35     0.000895
    36    -0.000188
    37     0.282660
    38     0.000736
    39    -0.000015
    40    -0.000032
    41    -0.000069
    42     0.000183
    43    -0.002629
    44    -0.001542
    45     0.000006
Sym=    14a
Ene=   -0.276026E-01
Spin= Alpha
Occup= 0.026208
     1    -0.127674
     2    -0.393971
     3    -0.088100
     4     0.002220
     5     0.590108
     6     0.454505
     7    -0.001449
     8     0.143152
     9     0.018590
    10     0.033242
    11    -0.005198
    12    -0.009186
    13    -0.009912
    14     0.001436
    15    -0.066528
    16    -0.000957
    17     0.001859
    18    -0.063509
    19     0.001971
    20    -0.036827
    21    -0.036049
    22    -0.000610
    23    -0.036505
    24    -0.077757
    25    -0.000742
    26     0.001901
    27    -0.001909
    28     0.001699
    29    -0.000089
    30     0.000999
    31     0.107516
    32     0.298494
    33     0.128729
    34    -0.002024
    35     0.623992
    36     0.372924
    37     0.000493
    38     0.173652
    39     0.112111
    40    -0.033450
    41     0.051557
    42    -0.003591
    43     0.000656
    44     0.001480
    45     0.042770
Sym=    15a
Ene=   -0.159068E-02
Spin= Alpha
Occup= 0.000876
     1     0.011666
     2     0.282011
     3    -0.549386
     4     0.017781
     5     0.116582
     6    -0.148269
     7    -0.033215
     8    -0.164931
     9     0.468731
    10    -0.198380
    11     0.280679
    12     0.118609
    13     0.137098
    14    -0.115262
    15    -0.420129
    16     0.004041
    17     0.178190
    18    -0.171790
    19    -0.006458
    20    -0.235907
    21     0.128613
    22    -0.018819
    23     0.369427
    24    -0.230946
    25    -0.228609
    26     0.362660
    27     0.056693
    28    -0.068137
    29     0.042805
    30    -0.304128
    31     0.001615
    32    -0.042078
    33     0.298673
    34     0.014803
    35     0.049077
    36     0.054764
    37     0.004543
    38     0.262398
    39    -0.162744
    40     0.000237
    41     0.088600
    42    -0.059517
    43    -0.001406
    44    -0.007672
    45    -0.003326
Sym=    16a
Ene=   -0.750257E-02
Spin= Alpha
Occup= 0.005545
     1     0.007277
     2    -0.043498
     3     0.445381
     4    -0.000507
     5     0.062336
     6     0.009913
     7    -0.000349
     8     0.160856
     9    -0.007693
    10    -0.007435
    11     0.000071
    12     0.014528
    13     0.002495
    14     0.002725
    15    -0.017022
    16     0.265334
    17     1.290525
    18    -1.213687
    19    -0.003053
    20     0.562408
    21     0.443253
    22     0.003416
    23    -0.472297
    24    -0.652215
    25    -0.210039
    26    -0.085846
    27    -0.096299
    28    -0.004478
    29    -0.004389
    30     0.153143
    31    -0.003862
    32     0.017309
    33    -0.095803
    34     0.001144
    35    -0.009577
    36    -0.004943
    37    -0.000615
    38    -0.091434
    39    -0.000967
    40     0.000039
    41    -0.000617
    42     0.006259
    43    -0.000114
    44    -0.000019
    45     0.000509
Sym=    17a
Ene=   -0.753074E-02
Spin= Alpha
Occup= 0.005522
     1    -0.009141
     2    -0.004817
     3    -0.247152
     4     0.000436
     5    -0.004549
     6     0.052629
     7     0.000538
     8    -0.084111
     9     0.165408
    10     0.005198
    11    -0.020045
    12     0.005392
    13    -0.002475
    14    -0.000790
    15     0.003544
    16    -0.266521
    17    -1.297660
    18     1.199811
    19     0.003967
    20     0.136217
    21     0.698243
    22    -0.004331
    23    -0.336485
    24    -0.729914
    25     0.207918
    26     0.200850
    27    -0.030144
    28     0.001510
    29    -0.001651
    30    -0.075047
    31    -0.003246
    32     0.024559
    33    -0.038228
    34    -0.000960
    35    -0.012300
    36    -0.011572
    37     0.000532
    38    -0.061127
    39     0.073020
    40    -0.004959
    41    -0.003945
    42     0.009646
    43     0.001171
    44     0.000911
    45     0.008666
Sym=    18a
Ene=   -0.743629E-02
Spin= Alpha
Occup= 0.005422
     1     0.007610
     2    -0.041874
     3     0.442125
     4    -0.000488
     5    -0.066279
     6     0.007540
     7     0.001285
     8    -0.158933
     9    -0.005314
    10    -0.007234
    11     0.000581
    12     0.016120
    13    -0.000534
    14     0.003251
    15     0.017670
    16    -0.003790
    17     0.017739
    18    -0.095845
    19     0.000147
    20     0.009637
    21    -0.005374
    22    -0.000087
    23     0.090741
    24     0.000037
    25     0.000069
    26    -0.000645
    27     0.006454
    28    -0.000658
    29    -0.000344
    30    -0.000680
    31     0.281900
    32     1.343690
    33    -1.185980
    34     0.001279
    35    -0.555461
    36     0.447874
    37    -0.001608
    38     0.464327
    39    -0.657737
    40    -0.246537
    41    -0.118472
    42    -0.129797
    43    -0.000798
    44    -0.000738
    45    -0.157532
Sym=    19a
Ene=   -0.117275E-02
Spin= Alpha
Occup= 0.000564
     1    -0.002571
     2    -0.103101
     3     0.438291
     4    -0.004519
     5    -0.022511
     6     0.085594
     7     0.023138
     8     0.131561
     9    -0.146580
    10    -0.065686
    11    -0.059887
    12     0.002247
    13     0.013404
    14     0.022731
    15    -0.053918
    16     0.002004
    17     0.034456
    18    -0.260309
    19    -0.005713
    20    -0.007490
    21     0.005700
    22    -0.001064
    23     0.182127
    24    -0.097515
    25    -0.025373
    26     0.005197
    27     0.014834
    28    -0.006195
    29     0.001773
    30    -0.015144
    31     0.113856
    32     0.439671
    33    -0.146127
    34     0.028287
    35    -0.022496
    36    -0.076467
    37    -0.035197
    38    -0.033212
    39     0.108728
    40     0.361632
    41     0.296737
    42    -1.103995
    43     0.010112
    44    -0.094217
    45     0.112978
Sym=    20a
Ene=   -0.104305E-02
Spin= Alpha
Occup= 0.000504
     1    -0.039124
     2    -0.107385
     3    -0.064636
     4     0.108400
     5     0.000831
     6    -0.014384
     7    -0.206309
     8     0.002284
     9     0.030798
    10     0.369329
    11    -0.311400
    12     0.127507
    13    -0.037143
    14    -0.891915
    15     0.012476
    16     0.000323
    17     0.006892
    18    -0.000115
    19    -0.061691
    20    -0.068766
    21     0.042845
    22     0.054098
    23     0.037777
    24     0.011193
    25     0.008842
    26     0.041942
    27     0.029654
    28    -0.063171
    29     0.016482
    30    -0.015674
    31     0.002054
    32     0.014153
    33    -0.001086
    34    -0.074539
    35     0.065273
    36     0.041307
    37     0.056775
    38    -0.037917
    39     0.014805
    40     0.013148
    41     0.028157
    42     0.029872
    43     0.059945
    44     0.025974
    45     0.028014
Sym=    21a
Ene=   -0.559820E-02
Spin= Alpha
Occup= 0.004004
     1     0.237868
     2     1.196445
     3    -1.278071
     4     0.674089
     5     0.000625
     6     0.367841
     7    -0.836004
     8    -0.001169
     9    -0.304184
    10     0.017848
    11    -0.219048
    12    -0.169195
    13    -0.001471
    14     0.121959
    15    -0.000136
    16     0.005543
    17    -0.019564
    18     0.268271
    19     0.088452
    20    -0.033852
    21     0.023459
    22     0.101783
    23    -0.066997
    24     0.134476
    25     0.003317
    26     0.014926
    27     0.000334
    28     0.003561
    29    -0.006430
    30    -0.018415
    31     0.005496
    32    -0.020051
    33     0.268135
    34     0.089102
    35     0.034126
    36     0.023601
    37     0.100490
    38     0.066733
    39     0.133904
    40     0.001734
    41     0.015156
    42     0.001278
    43    -0.005073
    44    -0.003919
    45     0.017502
Sym=    22a
Ene=   -0.100880E-02
Spin= Alpha
Occup= 0.000041
     1     0.705384
     2     2.200619
     3     1.595770
     4     0.006600
     5    -0.002143
     6    -0.114150
     7    -0.011795
     8     0.004993
     9     0.029644
    10    -1.502899
    11    -1.452875
    12    -1.419528
    13     0.003018
    14    -0.050733
    15     0.003189
    16    -0.001740
    17     0.002559
    18    -0.406462
    19    -0.004623
    20    -0.099789
    21     0.066837
    22     0.003483
    23     0.131270
    24    -0.125053
    25     0.042286
    26     0.096236
    27     0.051600
    28     0.001336
    29     0.005506
    30    -0.029951
    31     0.005499
    32     0.022874
    33    -0.381474
    34    -0.004290
    35     0.101047
    36     0.067996
    37     0.004152
    38    -0.130377
    39    -0.124107
    40     0.022695
    41     0.076679
    42     0.038888
    43     0.002576
    44    -0.000459
    45     0.027385
Sym=    23a
Ene=   -0.281819E-04
Spin= Alpha
Occup= 0.000001
     1    -0.000854
     2     0.004812
     3    -0.068156
     4     0.066091
     5     0.004720
     6     0.002919
     7    -0.458183
     8    -0.042956
     9     0.015416
    10    -0.032720
    11     0.043478
    12     0.014275
    13    -0.080389
    14     0.083971
    15    -0.038859
    16     0.007652
    17    -0.003700
    18     0.137740
    19    -0.890114
    20     0.017897
    21    -0.012823
    22     1.222229
    23    -0.049914
    24     0.034103
    25    -0.086633
    26    -0.012232
    27    -0.018893
    28    -0.008022
    29     0.023472
    30     0.063118
    31     0.001972
    32     0.015001
    33    -0.024597
    34     0.087983
    35     0.009914
    36     0.002478
    37     0.024343
    38    -0.019653
    39    -0.014201
    40    -0.009820
    41     0.008849
    42    -0.000117
    43    -0.007496
    44     0.009544
    45     0.004267
Sym=    24a
Ene=   -0.101769E-07
Spin= Alpha
Occup= 0.000000
     1     0.002154
     2    -0.006167
     3    -0.177035
     4     0.061679
     5    -0.000107
     6     0.056241
     7    -0.466262
     8     0.318904
     9    -0.008067
    10    -0.103493
    11     0.111547
    12    -0.055103
    13     0.156119
    14     0.085248
    15     0.132649
    16    -0.003311
    17     0.045147
    18    -0.289023
    19    -0.003881
    20    -0.023718
    21     0.008883
    22     0.131863
    23     0.135817
    24    -0.104932
    25     0.003230
    26     0.066623
    27     0.023595
    28     0.264108
    29     0.021721
    30    -0.081719
    31     0.010819
    32    -0.085044
    33     0.542342
    34    -0.673023
    35    -0.172014
    36    -0.100893
    37     0.966824
    38     0.397293
    39     0.266348
    40    -0.041315
    41    -0.109928
    42    -0.108133
    43     0.528115
    44     0.167798
    45    -0.023222
Sym=    25a
Ene=   -0.130296E-05
Spin= Alpha
Occup= 0.000000
     1    -0.000269
     2    -0.003018
     3     0.011287
     4    -0.043581
     5    -0.000757
     6    -0.006254
     7     0.228380
     8     0.055843
     9    -0.006713
    10     0.014973
    11     0.008834
    12    -0.017462
    13     0.093865
    14    -0.013614
    15     0.036131
    16    -0.002888
    17     0.021984
    18    -0.128162
    19    -0.002410
    20    -0.028508
    21     0.020973
    22    -0.070836
    23     0.075531
    24    -0.052861
    25     0.023017
    26    -0.006089
    27     0.055040
    28     0.360437
    29     0.003531
    30    -0.061280
    31    -0.007643
    32    -0.051237
    33     0.090052
    34     0.555102
    35    -0.040309
    36    -0.019778
    37    -0.731200
    38     0.085960
    39     0.044438
    40     0.043754
    41    -0.049117
    42     0.004429
    43     0.653421
    44     0.188205
    45    -0.045473
Sym=    26a
Ene=   -0.162793E-02
Spin= Alpha
Occup= 0.000910
     1     0.012159
     2     0.284666
     3    -0.555372
     4     0.015005
     5    -0.120496
     6    -0.145862
     7    -0.031294
     8     0.182342
     9     0.466167
    10    -0.209656
    11     0.276741
    12     0.133587
    13    -0.104396
    14    -0.093604
    15     0.431776
    16     0.001831
    17    -0.039482
    18     0.285385
    19     0.013036
    20    -0.049565
    21     0.055446
    22     0.002597
    23    -0.258288
    24    -0.166654
    25     0.005261
    26     0.085049
    27    -0.056772
    28     0.012518
    29     0.015014
    30    -0.003537
    31     0.005378
    32     0.179809
    33    -0.153441
    34    -0.011901
    35     0.234112
    36     0.127049
    37    -0.004715
    38    -0.364349
    39    -0.221079
    40    -0.227612
    41     0.360646
    42     0.044016
    43     0.056140
    44     0.039180
    45     0.303889
Sym=    27a
Ene=   -0.275964E-01
Spin= Alpha
Occup= 0.026170
     1    -0.127753
     2    -0.395292
     3    -0.080913
     4     0.003067
     5    -0.590491
     6     0.454768
     7    -0.001864
     8    -0.141898
     9     0.016433
    10     0.034960
    11    -0.005890
    12    -0.011095
    13     0.011599
    14    -0.000032
    15     0.067235
    16     0.107176
    17     0.299252
    18     0.119597
    19    -0.001252
    20    -0.623573
    21     0.372516
    22    -0.000915
    23    -0.171919
    24     0.111153
    25    -0.030717
    26     0.054608
    27    -0.002266
    28    -0.000081
    29     0.001987
    30    -0.043316
    31    -0.001023
    32     0.001849
    33    -0.065565
    34     0.002084
    35     0.037192
    36    -0.036123
    37    -0.000578
    38     0.034823
    39    -0.078342
    40    -0.000933
    41     0.002252
    42    -0.001562
    43    -0.001106
    44    -0.001139
    45    -0.001336
Sym=    28a
Ene=   -0.117215E-02
Spin= Alpha
Occup= 0.000566
     1    -0.008863
     2    -0.028422
     3    -0.015798
     4    -0.003473
     5     0.095989
     6     0.023898
     7     0.041613
     8    -0.187172
     9     0.033563
    10    -0.014429
    11     0.026801
    12     0.064674
    13     0.006250
    14    -0.000698
    15    -0.005104
    16    -0.069493
    17    -0.306063
    18     0.273032
    19     0.072064
    20    -0.052243
    21    -0.027163
    22    -0.098301
    23     0.012616
    24     0.093159
    25    -0.409185
    26     0.648087
    27    -0.059581
    28     0.184582
    29     0.201264
    30     0.703535
    31     0.007750
    32     0.045492
    33    -0.115440
    34    -0.012282
    35     0.012150
    36    -0.007080
    37     0.004868
    38    -0.088029
    39    -0.041667
    40    -0.036457
    41     0.013841
    42    -0.009082
    43     0.003885
    44     0.003065
    45     0.019726
Sym=    29a
Ene=   -0.117539E-02
Spin= Alpha
Occup= 0.000565
     1    -0.003904
     2    -0.114472
     3     0.485043
     4    -0.002390
     5     0.006150
     6     0.096065
     7    -0.008292
     8    -0.126375
     9    -0.170565
    10    -0.068291
    11    -0.069245
    12    -0.000686
    13    -0.008760
    14     0.025132
    15     0.055133
    16     0.072449
    17     0.308073
    18    -0.232351
    19    -0.025951
    20     0.040759
    21    -0.079064
    22     0.037195
    23     0.021218
    24     0.109684
    25     0.459742
    26     0.363215
    27    -1.008798
    28     0.055181
    29     0.107716
    30    -0.163502
    31     0.002926
    32     0.040188
    33    -0.280365
    34     0.009075
    35     0.009933
    36     0.008403
    37    -0.006518
    38    -0.198053
    39    -0.105122
    40    -0.026830
    41     0.005019
    42     0.013540
    43     0.002890
    44     0.003028
    45     0.015948
Sym=    30a
Ene=   -0.118593E-02
Spin= Alpha
Occup= 0.000568
     1    -0.009157
     2    -0.028562
     3    -0.021040
     4    -0.000727
     5    -0.094547
     6     0.030543
     7     0.003684
     8     0.193352
     9     0.033139
    10    -0.020995
    11     0.027277
    12     0.064815
    13     0.002676
    14     0.006611
    15     0.008115
    16     0.005406
    17     0.036806
    18    -0.118041
    19     0.000790
    20    -0.009927
    21    -0.008551
    22    -0.001882
    23     0.083606
    24    -0.041161
    25    -0.033746
    26     0.020741
    27    -0.004791
    28    -0.005454
    29     0.001369
    30    -0.020595
    31    -0.116680
    32    -0.465748
    33     0.231121
    34     0.007181
    35     0.042768
    36    -0.038621
    37    -0.008465
    38     0.004758
    39     0.112617
    40    -0.336809
    41     0.747973
    42     0.035363
    43    -0.007301
    44     0.005966
    45    -0.737201
Sym=    31a
Ene=   -0.744574E-02
Spin= Alpha
Occup= 0.005380
     1     0.009632
     2     0.008779
     3     0.234583
     4    -0.000619
     5    -0.007658
     6    -0.056379
     7     0.001067
     8    -0.084940
     9    -0.158664
    10    -0.003851
    11     0.021547
    12    -0.004573
    13    -0.002365
    14     0.001274
    15     0.003957
    16     0.003385
    17    -0.025226
    18     0.046639
    19     0.000749
    20    -0.011791
    21     0.012280
    22    -0.000752
    23    -0.065837
    24    -0.072019
    25     0.004318
    26     0.002932
    27    -0.010697
    28     0.002725
    29     0.000721
    30     0.008146
    31     0.283829
    32     1.353819
    33    -1.171383
    34    -0.001662
    35     0.143046
    36    -0.693078
    37     0.001304
    38    -0.342718
    39     0.723723
    40    -0.246645
    41    -0.238137
    42     0.001089
    43     0.000726
    44    -0.000425
    45    -0.077748
Sym=    32a
Ene=   -0.564992E-02
Spin= Alpha
Occup= 0.004065
     1    -0.240708
     2    -1.208209
     3     1.284773
     4     0.667546
     5    -0.000157
     6    -0.380114
     7    -0.829909
     8     0.000810
     9     0.318538
    10     0.002910
    11     0.207962
    12     0.167211
    13    -0.002672
    14     0.104835
    15     0.000388
    16    -0.004973
    17     0.023370
    18    -0.270166
    19     0.086035
    20     0.032940
    21    -0.022788
    22     0.102034
    23     0.066580
    24    -0.136618
    25     0.000514
    26    -0.016013
    27    -0.001307
    28     0.003914
    29    -0.002325
    30     0.015794
    31    -0.005309
    32     0.021778
    33    -0.268248
    34     0.085515
    35    -0.031951
    36    -0.022434
    37     0.101737
    38    -0.067438
    39    -0.136432
    40    -0.001386
    41    -0.015263
    42     0.000298
    43    -0.002710
    44    -0.003285
    45    -0.017554
Sym=    33a
Ene=   -0.843997E-03
Spin= Alpha
Occup= 0.000404
     1    -0.003502
     2    -0.020765
     3     0.060090
     4     0.002625
     5    -0.011923
     6    -0.009231
     7     0.004315
     8     0.210830
     9     0.000660
    10     0.088634
    11    -0.008070
    12    -0.084566
    13     0.933694
    14    -0.019920
    15     0.332002
    16     0.009311
    17     0.062335
    18    -0.187995
    19    -0.092334
    20    -0.073615
    21     0.045717
    22    -0.051724
    23     0.108003
    24    -0.142308
    25    -0.017643
    26     0.079483
    27    -0.026646
    28    -0.007417
    29     0.033768
    30    -0.005711
    31    -0.016037
    32    -0.075383
    33     0.131650
    34     0.104697
    35    -0.056041
    36    -0.034337
    37     0.030342
    38     0.079474
    39     0.105254
    40     0.014012
    41    -0.044858
    42     0.054677
    43    -0.018146
    44    -0.029147
    45    -0.009472
Sym=    34a
Ene=   -0.194294E-05
Spin= Alpha
Occup= 0.000000
     1     0.003220
     2    -0.021342
     3     0.183026
     4     0.000405
     5     0.741378
     6     0.030848
     7    -0.002003
     8    -1.946662
     9    -0.081196
    10    -0.039566
    11    -0.021233
    12    -0.017558
    13     0.001350
    14    -0.001627
    15     0.199532
    16    -0.014840
    17     0.010234
    18     0.624166
    19    -0.007157
    20    -0.275942
    21     0.117166
    22     0.008811
    23     0.030305
    24     0.386820
    25     0.341301
    26    -0.206041
    27     0.172887
    28    -0.020843
    29    -0.033634
    30     0.134904
    31    -0.067639
    32    -0.261618
    33    -0.906957
    34     0.008265
    35    -0.308070
    36    -0.136279
    37    -0.009689
    38    -0.020985
    39    -0.392154
    40    -0.178961
    41     0.400193
    42    -0.009549
    43     0.008328
    44     0.003338
    45     0.154042
Sym=    35a
Ene=   -0.899643E-03
Spin= Alpha
Occup= 0.000037
     1     0.001712
     2    -0.032537
     3     0.475871
     4     0.003000
     5    -0.108294
     6     0.079279
     7    -0.013538
     8     0.184040
     9    -0.136673
    10    -0.047879
    11    -0.097600
    12    -0.067753
    13     0.024762
    14    -0.006279
    15     0.049034
    16    -0.686103
    17    -2.144672
    18    -1.432226
    19    -0.022817
    20     0.104951
    21    -0.062986
    22     0.026102
    23     0.022633
    24    -0.006128
    25     1.448092
    26     1.428550
    27     1.411491
    28    -0.020378
    29    -0.008639
    30    -0.025859
    31    -0.000683
    32    -0.022738
    33     0.010995
    34     0.006941
    35    -0.009970
    36     0.011672
    37    -0.000806
    38     0.005625
    39    -0.027095
    40    -0.017723
    41     0.008686
    42    -0.006225
    43    -0.000607
    44    -0.001284
    45    -0.003648
Sym=    36a
Ene=   -0.919834E-06
Spin= Alpha
Occup= 0.000000
     1    -0.010629
     2     0.007057
     3    -0.533549
     4    -0.001977
     5    -0.018527
     6    -0.073142
     7     0.005620
     8    -0.017733
     9     0.140697
    10     0.060831
    11     0.124817
    12     0.080578
    13     0.031530
    14     0.004052
    15     0.087410
    16    -0.002398
    17     0.025811
    18     0.049715
    19    -0.000554
    20    -0.046696
    21     0.001479
    22    -0.005618
    23     0.017619
    24     0.073200
    25     0.064153
    26    -0.029792
    27     0.032566
    28    -0.001920
    29    -0.007525
    30     0.010029
    31     0.656840
    32     1.999592
    33     1.475806
    34     0.012542
    35     0.065855
    36     0.045541
    37    -0.011192
    38     0.055813
    39    -0.019325
    40    -1.530853
    41    -1.362343
    42    -1.362507
    43     0.002311
    44     0.019627
    45    -0.059618
Sym=    37a
Ene=    0.000000E+00
Spin= Alpha
Occup= 0.000000
     1    -0.008173
     2    -0.347078
     3     1.978204
     4     0.023613
     5     0.001285
     6     0.030850
     7    -0.151445
     8    -0.558802
     9    -0.906853
    10    -0.520804
    11     0.597803
    12     0.110886
    13     0.093127
    14    -0.076477
    15     0.025723
    16     0.010352
    17     0.076160
    18    -0.436618
    19     0.001738
    20     0.106119
    21    -0.058401
    22     0.021416
    23     0.346414
    24    -0.065800
    25     0.162850
    26    -0.328865
    27    -0.066475
    28    -0.256037
    29     0.036488
    30     0.306475
    31     0.000604
    32     0.245328
    33    -1.541335
    34     0.003299
    35     0.006526
    36     0.001745
    37     0.044339
    38    -0.970992
    39    -0.534303
    40     0.375244
    41    -0.301836
    42    -0.054019
    43    -0.035591
    44     0.637905
    45    -0.381748
Sym=    38a
Ene=    0.000000E+00
Spin= Alpha
Occup= 0.000000
     1    -0.021301
     2     0.183414
     3    -0.524343
     4    -0.012002
     5     0.018270
     6    -0.338475
     7    -0.191184
     8    -0.467376
     9     0.569776
    10     0.495479
    11    -0.070771
    12     0.119131
    13    -0.040684
    14     0.256589
    15    -0.078645
    16    -0.008953
    17    -0.025779
    18     0.452827
    19    -0.009922
    20    -0.154406
    21     0.117569
    22     0.091475
    23    -0.169979
    24    -0.016207
    25     0.253870
    26    -0.172712
    27     0.090034
    28    -0.201139
    29     0.607687
    30     0.111269
    31    -0.012651
    32     0.118656
    33    -0.431027
    34    -0.096696
    35     0.299420
    36     0.192245
    37     0.195220
    38    -0.369470
    39    -0.434679
    40     0.257847
    41     0.054241
    42     0.054539
    43     0.235846
    44    -0.068099
    45    -0.181960
Sym=    39a
Ene=    0.000000E+00
Spin= Alpha
Occup= 0.000000
     1    -0.035686
     2     0.554810
     3    -3.314921
     4    -0.006250
     5     0.021247
     6    -0.428848
     7     0.115246
     8    -0.062773
     9     1.673542
    10     0.436554
    11     0.249683
    12     0.328018
    13     0.013503
    14    -0.040979
    15     0.216663
    16    -0.011040
    17    -0.102114
    18     1.279019
    19    -0.002257
    20    -0.193176
    21     0.099004
    22    -0.030901
    23    -0.740596
    24     0.149494
    25     0.233265
    26     0.148082
    27    -0.174827
    28     0.154330
    29    -0.481200
    30     0.187229
    31     0.000102
    32    -0.127708
    33     1.430997
    34    -0.008709
    35     0.030281
    36     0.019438
    37    -0.029489
    38     0.899394
    39     0.218614
    40     0.293991
    41    -0.175776
    42    -0.174587
    43    -0.095838
    44    -0.023473
    45    -0.276843
Sym=    40a
Ene=    0.000000E+00
Spin= Alpha
Occup= 0.000000
     1    -0.006477
     2     0.093941
     3    -0.760547
     4     0.011008
     5    -0.015124
     6    -0.040582
     7    -0.019063
     8     1.120403
     9     0.297023
    10    -0.039904
    11     0.168016
    12     0.067112
    13     0.283664
    14    -0.056053
    15    -0.901314
    16     0.017667
    17     0.064637
    18    -0.248145
    19     0.010481
    20     0.226598
    21    -0.135274
    22    -0.058015
    23     0.018402
    24    -0.143677
    25     0.285005
    26    -0.500356
    27    -0.183937
    28     0.057210
    29    -0.202136
    30     0.458900
    31    -0.007859
    32    -0.124205
    33     0.980022
    34    -0.049165
    35     0.152083
    36     0.077847
    37     0.102412
    38     0.505053
    39     0.342439
    40    -0.233344
    41     0.422003
    42     0.027254
    43     0.183242
    44    -0.094367
    45     0.323114
Sym=    41a
Ene=    0.000000E+00
Spin= Alpha
Occup= 0.000000
     1    -0.003955
     2     0.045056
     3    -0.451467
     4     0.014650
     5     0.011040
     6    -0.006903
     7     0.162019
     8    -1.484966
     9     0.115231
    10    -0.106874
    11     0.137549
    12     0.092152
    13     0.111199
    14    -0.235521
    15     0.034643
    16     0.012267
    17    -0.222574
    18     1.562128
    19     0.011760
    20     0.205027
    21    -0.102084
    22    -0.097059
    23    -0.962955
    24     0.688344
    25    -0.097215
    26    -0.239512
    27     0.026443
    28     0.713923
    29     0.244135
    30    -0.231513
    31    -0.004199
    32     0.190255
    33    -1.149151
    34    -0.031929
    35     0.093463
    36     0.051765
    37    -0.008309
    38    -0.629538
    39    -0.542715
    40     0.196859
    41    -0.012118
    42    -0.018842
    43    -0.333562
    44    -0.061300
    45    -0.178766
Sym=    42a
Ene=    0.000000E+00
Spin= Alpha
Occup= 0.000000
     1     0.004748
     2    -0.619653
     3     4.670753
     4    -0.009154
     5    -0.002429
     6     0.020226
     7     0.106946
     8     0.406835
     9    -1.774201
    10    -0.203192
    11    -0.019946
    12    -0.028437
    13     0.040962
    14     0.019958
    15    -0.056478
    16    -0.015237
    17     0.378271
    18    -2.769342
    19    -0.004761
    20    -0.249224
    21     0.173544
    22    -0.024532
    23     1.903203
    24    -0.970822
    25     0.297888
    26    -0.151985
    27     0.238369
    28     0.310836
    29    -0.304345
    30     0.258187
    31    -0.007120
    32     0.268579
    33    -1.995450
    34    -0.064247
    35     0.188541
    36     0.143116
    37     0.052249
    38    -1.469910
    39    -0.647602
    40     0.161396
    41    -0.167968
    42     0.234222
    43    -0.049599
    44    -0.161352
    45    -0.171423
Sym=    43a
Ene=    0.000000E+00
Spin= Alpha
Occup= 0.000000
     1    -0.003756
     2     0.097345
     3    -0.547248
     4    -0.003883
     5    -0.011194
     6    -0.052319
     7     0.060707
     8     2.425745
     9     0.243535
    10     0.071289
    11    -0.097269
    12     0.137547
    13    -0.089236
    14    -0.036573
    15    -0.257017
    16    -0.015973
    17     0.319016
    18    -2.026326
    19    -0.006492
    20    -0.216309
    21     0.132026
    22     0.004208
    23     1.146789
    24    -0.941500
    25     0.402208
    26    -0.105975
    27     0.126697
    28     0.240584
    29     0.325616
    30     0.202639
    31     0.007576
    32    -0.380550
    33     2.438825
    34     0.048737
    35    -0.180687
    36    -0.097224
    37    -0.090138
    38     1.431614
    39     1.048857
    40    -0.281383
    41     0.052610
    42    -0.067644
    43    -0.339787
    44     0.323117
    45     0.307064
Sym=    44a
Ene=    0.000000E+00
Spin= Alpha
Occup= 0.000000
     1    -0.005750
     2    -0.108732
     3     0.334439
     4     0.011536
     5    -0.005521
     6     0.095030
     7     0.005331
     8     0.425572
     9    -0.444856
    10    -0.612603
    11     0.062520
    12     0.730306
    13    -0.078635
    14    -0.079230
    15     0.116841
    16     0.001347
    17     0.089052
    18    -0.610202
    19     0.000506
    20     0.012760
    21    -0.007374
    22    -0.005593
    23     0.395039
    24    -0.120917
    25     0.165902
    26    -0.247546
    27     0.073371
    28    -0.104570
    29     0.181300
    30     0.098721
    31     0.009325
    32    -0.057351
    33     0.293862
    34     0.047666
    35    -0.171576
    36    -0.095366
    37    -0.074464
    38     0.137940
    39     0.289475
    40     0.057054
    41    -0.408516
    42     0.062724
    43     0.110944
    44    -0.499633
    45    -0.094655
Sym=    45a
Ene=    0.000000E+00
Spin= Alpha
Occup= 0.000000
     1     0.005272
     2     0.160260
     3    -0.738014
     4    -0.017750
     5     0.000721
     6     0.042324
     7    -0.034910
     8    -0.572230
     9     0.199431
    10     0.029234
    11    -0.871750
    12     0.725946
    13     0.175612
    14     0.208800
    15    -0.037780
    16    -0.001841
    17    -0.169648
    18     0.901255
    19    -0.000460
    20    -0.008668
    21     0.011295
    22     0.007864
    23    -0.475244
    24     0.469743
    25    -0.183826
    26     0.044516
    27     0.146959
    28     0.010782
    29    -0.172420
    30    -0.292749
    31    -0.009018
    32     0.017794
    33    -0.241616
    34    -0.053619
    35     0.161143
    36     0.095644
    37     0.118732
    38    -0.193855
    39    -0.039962
    40    -0.013171
    41     0.116529
    42     0.172858
    43     0.024127
    44     0.375329
    45     0.226091
