[Molden Format]
p30-5 set                                                                       
[Atoms] AU
 O        1     8        2.2193        0.3672        0.0000
 O        2     8        0.0000        1.0454        0.0000
 O        3     8       -1.7961       -1.3563        0.0000
 H        4     1       -3.3852       -0.4502        0.0000
[GTO]
    1 0
s    5 1.00
    2266.176778500000 -0.538935039217E-02
     340.870101910000 -0.402347213890E-01
      77.363135167000 -0.180081842055E+00
      21.479644940000 -0.468288576577E+00
       6.658943312400 -0.446926171602E+00
s    1 1.00
       0.809759756680  0.100000000000E+01
s    1 1.00
       0.255307722340  0.100000000000E+01
p    3 1.00
      17.721504317000  0.626302487632E-01
       3.863550544000  0.333311384824E+00
       1.048092088300  0.741486383081E+00
p    1 1.00
       0.276415444110  0.100000000000E+01
d    1 1.00
       1.200000000000  0.100000000000E+01

    2 0
s    5 1.00
    2266.176778500000 -0.538935039217E-02
     340.870101910000 -0.402347213890E-01
      77.363135167000 -0.180081842055E+00
      21.479644940000 -0.468288576577E+00
       6.658943312400 -0.446926171602E+00
s    1 1.00
       0.809759756680  0.100000000000E+01
s    1 1.00
       0.255307722340  0.100000000000E+01
p    3 1.00
      17.721504317000  0.626302487632E-01
       3.863550544000  0.333311384824E+00
       1.048092088300  0.741486383081E+00
p    1 1.00
       0.276415444110  0.100000000000E+01
d    1 1.00
       1.200000000000  0.100000000000E+01

    3 0
s    5 1.00
    2266.176778500000 -0.538935039217E-02
     340.870101910000 -0.402347213890E-01
      77.363135167000 -0.180081842055E+00
      21.479644940000 -0.468288576577E+00
       6.658943312400 -0.446926171602E+00
s    1 1.00
       0.809759756680  0.100000000000E+01
s    1 1.00
       0.255307722340  0.100000000000E+01
p    3 1.00
      17.721504317000  0.626302487632E-01
       3.863550544000  0.333311384824E+00
       1.048092088300  0.741486383081E+00
p    1 1.00
       0.276415444110  0.100000000000E+01
d    1 1.00
       1.200000000000  0.100000000000E+01

    4 0
s    3 1.00
      13.010701000000  0.334854848130E-01
       1.962257200000  0.234721870881E+00
       0.444537960000  0.813770285260E+00
s    1 1.00
       0.121949620000  0.100000000000E+01
p    1 1.00
       0.800000000000  0.100000000000E+01

[MO]
Sym=     1a
Ene=   -0.206879E+02
Spin= Alpha
Occup= 1.999963
     1     0.993863
     2    -0.026689
     3     0.016890
     4     0.003963
     5    -0.000978
     6     0.000004
     7    -0.001103
     8     0.000356
     9    -0.000003
    10     0.004057
    11     0.004110
    12     0.004452
    13     0.000045
    14    -0.000003
    15     0.000002
    16    -0.000067
    17    -0.000431
    18    -0.004469
    19     0.001503
    20    -0.000493
    21     0.000005
    22    -0.001271
    23     0.000173
    24     0.000004
    25     0.001580
    26     0.000260
    27     0.000062
    28    -0.000531
    29    -0.000002
    30     0.000001
    31    -0.000053
    32     0.000009
    33    -0.000228
    34     0.000105
    35     0.000085
    36    -0.000001
    37    -0.000636
    38     0.000117
    39    -0.000001
    40     0.000151
    41     0.000150
    42     0.000146
    43    -0.000078
    44     0.000000
    45     0.000000
    46    -0.000257
    47    -0.000061
    48    -0.000068
    49     0.000135
    50     0.000000
Sym=     2a
Ene=   -0.207328E+02
Spin= Alpha
Occup= 1.999962
     1    -0.000031
     2    -0.000124
     3    -0.005331
     4    -0.001536
     5     0.000398
     6     0.000110
     7     0.001765
     8    -0.000281
     9     0.000057
    10     0.001468
    11     0.000362
    12     0.000101
    13    -0.000628
    14    -0.000013
    15     0.000004
    16     0.993287
    17    -0.028572
    18     0.019123
    19    -0.002549
    20     0.003307
    21     0.000324
    22     0.000624
    23    -0.001918
    24     0.000215
    25     0.003833
    26     0.004138
    27     0.003530
    28     0.000406
    29     0.000011
    30    -0.000009
    31    -0.000089
    32     0.000103
    33    -0.002884
    34     0.000236
    35     0.000415
    36    -0.000010
    37    -0.001254
    38    -0.001123
    39    -0.000016
    40     0.000014
    41     0.000283
    42     0.000122
    43    -0.000028
    44     0.000002
    45     0.000002
    46     0.000128
    47    -0.000435
    48    -0.000082
    49     0.000086
    50    -0.000000
Sym=     3a
Ene=   -0.206416E+02
Spin= Alpha
Occup= 1.999962
     1    -0.000052
     2     0.000116
     3    -0.000983
     4    -0.000007
     5     0.000205
     6     0.000005
     7     0.000647
     8     0.000226
     9     0.000005
    10     0.000071
    11     0.000123
    12     0.000213
    13     0.000019
    14    -0.000000
    15     0.000000
    16    -0.000094
    17    -0.000185
    18    -0.001546
    19     0.000006
    20    -0.000447
    21     0.000006
    22     0.001121
    23     0.000647
    24     0.000005
    25     0.000064
    26     0.000210
    27     0.000038
    28     0.000075
    29     0.000002
    30     0.000001
    31     0.993130
    32    -0.028850
    33     0.015459
    34     0.001965
    35    -0.003276
    36    -0.000140
    37     0.001454
    38     0.000377
    39    -0.000101
    40     0.003616
    41     0.004106
    42     0.003760
    43     0.000748
    44     0.000001
    45    -0.000003
    46     0.001834
    47    -0.001934
    48     0.001487
    49    -0.001115
    50    -0.000006
Sym=     4a
Ene=   -0.957228E+00
Spin= Alpha
Occup= 1.995284
     1    -0.005745
     2    -0.020612
     3    -0.024216
     4     0.014976
     5    -0.009276
     6    -0.145895
     7     0.023929
     8    -0.018532
     9    -0.075243
    10    -0.000784
    11    -0.001176
    12    -0.002115
    13    -0.003293
    14     0.019498
    15    -0.005752
    16     0.197439
    17     0.428541
    18     0.321579
    19    -0.130230
    20     0.127466
    21    -0.427678
    22    -0.078278
    23     0.085438
    24    -0.286398
    25     0.007934
    26     0.007110
    27     0.011009
    28     0.005914
    29    -0.015452
    30     0.009963
    31    -0.002185
    32    -0.009274
    33    -0.022575
    34     0.010420
    35     0.016549
    36     0.010935
    37     0.000489
    38    -0.000329
    39     0.019831
    40    -0.000949
    41     0.005831
    42    -0.002359
    43     0.004847
    44    -0.002914
    45    -0.003217
    46    -0.008964
    47     0.005406
    48    -0.000025
    49     0.000853
    50     0.000727
Sym=     5a
Ene=   -0.934587E+00
Spin= Alpha
Occup= 1.995065
     1    -0.005293
     2    -0.019258
     3    -0.023350
     4     0.013176
     5    -0.006599
     6     0.153553
     7     0.022235
     8    -0.015983
     9     0.079099
    10    -0.000611
    11    -0.001130
    12    -0.002054
    13    -0.003236
    14    -0.020536
    15     0.006061
    16     0.187159
    17     0.407908
    18     0.304978
    19    -0.121932
    20     0.120520
    21     0.450213
    22    -0.073307
    23     0.080786
    24     0.301688
    25     0.007640
    26     0.006854
    27     0.010254
    28     0.005518
    29     0.016201
    30    -0.010486
    31    -0.002126
    32    -0.008907
    33    -0.021240
    34     0.010193
    35     0.015717
    36    -0.011690
    37     0.000609
    38    -0.000115
    39    -0.021034
    40    -0.000901
    41     0.005528
    42    -0.002241
    43     0.004615
    44     0.003069
    45     0.003381
    46    -0.008790
    47     0.005021
    48    -0.000057
    49     0.000833
    50    -0.000771
Sym=     6a
Ene=   -0.905232E+00
Spin= Alpha
Occup= 1.993852
     1    -0.197268
     2    -0.428626
     3    -0.349107
     4    -0.266429
     5    -0.400183
     6     0.001806
     7    -0.159801
     8    -0.280684
     9     0.000982
    10     0.005753
    11    -0.018399
    12    -0.008533
    13     0.011983
    14    -0.000095
    15     0.000071
    16     0.021084
    17     0.050169
    18     0.094792
    19    -0.019891
    20    -0.084356
    21     0.000176
    22     0.013483
    23    -0.051968
    24     0.000019
    25    -0.011589
    26     0.013114
    27     0.002509
    28    -0.015079
    29     0.000068
    30    -0.000009
    31    -0.008505
    32    -0.016134
    33    -0.050530
    34    -0.021203
    35    -0.020612
    36    -0.000252
    37    -0.027212
    38    -0.036633
    39    -0.000196
    40     0.002187
    41    -0.000846
    42    -0.000188
    43     0.000986
    44     0.000002
    45    -0.000009
    46     0.009949
    47     0.015120
    48    -0.000442
    49    -0.001964
    50    -0.000009
Sym=     7a
Ene=   -0.900281E+00
Spin= Alpha
Occup= 1.993690
     1    -0.192985
     2    -0.418983
     3    -0.329660
     4    -0.018776
     5     0.493475
     6    -0.001789
     7     0.005008
     8     0.332461
     9    -0.000969
    10    -0.011027
    11    -0.001240
    12    -0.009076
    13    -0.017086
    14     0.000089
    15    -0.000054
    16    -0.002147
    17     0.006774
    18    -0.000799
    19     0.052589
    20     0.065049
    21    -0.000385
    22     0.053893
    23     0.017742
    24    -0.000139
    25     0.009846
    26    -0.007590
    27     0.002528
    28     0.017486
    29    -0.000076
    30     0.000018
    31     0.009330
    32     0.019292
    33     0.045056
    34     0.020481
    35     0.018488
    36     0.000250
    37     0.016176
    38     0.032598
    39     0.000194
    40    -0.000729
    41     0.001422
    42     0.000647
    43    -0.000203
    44    -0.000003
    45     0.000007
    46    -0.010867
    47    -0.017199
    48    -0.000523
    49     0.001721
    50     0.000009
Sym=     8a
Ene=   -0.836632E+00
Spin= Alpha
Occup= 1.993056
     1     0.002299
     2     0.005721
     3     0.012660
     4    -0.009048
     5    -0.012181
     6     0.022331
     7    -0.012343
     8    -0.007844
     9     0.015594
    10     0.001574
    11    -0.000638
    12     0.000384
    13    -0.000468
    14    -0.001639
    15     0.001303
    16     0.003675
    17     0.015051
    18     0.003605
    19     0.002022
    20     0.020572
    21     0.018244
    22    -0.014886
    23     0.009126
    24     0.018102
    25     0.002332
    26    -0.005776
    27     0.003264
    28    -0.004616
    29     0.005258
    30     0.004561
    31    -0.189477
    32    -0.404238
    33    -0.319936
    34    -0.127367
    35     0.143358
    36    -0.459622
    37    -0.084710
    38     0.102546
    39    -0.340247
    40    -0.008094
    41    -0.004491
    42    -0.009121
    43    -0.006026
    44     0.005455
    45    -0.009764
    46     0.036392
    47     0.027184
    48    -0.001148
    49     0.004794
    50    -0.020453
Sym=     9a
Ene=   -0.826224E+00
Spin= Alpha
Occup= 1.992863
     1    -0.002248
     2    -0.005599
     3    -0.012300
     4     0.009038
     5     0.012445
     6     0.022659
     7     0.012140
     8     0.008056
     9     0.015881
    10    -0.001558
    11     0.000636
    12    -0.000374
    13     0.000437
    14    -0.001655
    15     0.001323
    16    -0.003704
    17    -0.014938
    18    -0.003787
    19    -0.001860
    20    -0.019872
    21     0.018720
    22     0.014649
    23    -0.008729
    24     0.018529
    25    -0.002270
    26     0.005631
    27    -0.003203
    28     0.004530
    29     0.005370
    30     0.004650
    31     0.185370
    32     0.396125
    33     0.313515
    34     0.124500
    35    -0.140402
    36    -0.469252
    37     0.082866
    38    -0.100432
    39    -0.347398
    40     0.007858
    41     0.004360
    42     0.008953
    43     0.005912
    44     0.005577
    45    -0.009983
    46    -0.035518
    47    -0.026622
    48     0.001167
    49    -0.004688
    50    -0.020890
Sym=    10a
Ene=   -0.930374E+00
Spin= Alpha
Occup= 1.980039
     1     0.005557
     2     0.015672
     3     0.017147
     4    -0.020196
     5    -0.005744
     6     0.000160
     7    -0.020349
     8     0.000844
     9     0.000102
    10     0.002046
    11     0.000666
    12     0.001288
    13    -0.001390
    14    -0.000016
    15     0.000004
    16    -0.012527
    17    -0.025585
    18    -0.043302
    19     0.011873
    20    -0.000732
    21     0.000253
    22    -0.009591
    23    -0.000587
    24     0.000156
    25     0.007458
    26    -0.004559
    27    -0.001590
    28     0.002634
    29     0.000019
    30    -0.000012
    31     0.100291
    32     0.208673
    33    -0.025487
    34    -0.394956
    35     0.267094
    36     0.000209
    37    -0.184253
    38     0.131079
    39     0.000118
    40     0.014506
    41     0.008667
    42    -0.002968
    43    -0.019608
    44    -0.000002
    45    -0.000009
    46     0.435119
    47     0.063272
    48     0.045569
    49    -0.021208
    50     0.000008
Sym=    11a
Ene=   -0.111576E+01
Spin= Alpha
Occup= 1.978487
     1     0.067713
     2     0.153605
     3    -0.094406
     4    -0.423675
     5     0.135994
     6    -0.000529
     7    -0.177003
     8     0.063532
     9    -0.000235
    10     0.045154
    11    -0.006138
    12    -0.010712
    13    -0.016238
    14     0.000049
    15    -0.000017
    16     0.079803
    17     0.175397
    18    -0.018140
    19     0.424844
    20    -0.197651
    21    -0.001784
    22     0.200636
    23    -0.118524
    24    -0.001271
    25     0.038022
    26    -0.001899
    27    -0.010246
    28    -0.024885
    29     0.000080
    30    -0.000042
    31    -0.004884
    32    -0.004740
    33    -0.020654
    34    -0.020255
    35    -0.004899
    36     0.000001
    37    -0.026209
    38    -0.001687
    39     0.000063
    40     0.003309
    41    -0.003078
    42     0.001460
    43    -0.001601
    44    -0.000012
    45    -0.000015
    46     0.016250
    47     0.004291
    48     0.001362
    49    -0.000317
    50     0.000000
Sym=    12a
Ene=   -0.637558E+00
Spin= Alpha
Occup= 1.870058
     1    -0.001841
     2     0.000349
     3    -0.009877
     4     0.052918
     5     0.104935
     6    -0.000504
     7     0.057534
     8     0.125600
     9    -0.000398
    10     0.003061
    11    -0.002535
    12     0.001890
    13     0.008428
    14    -0.000015
    15    -0.000001
    16     0.005684
    17     0.000683
    18    -0.033457
    19    -0.161164
    20    -0.438985
    21     0.000151
    22    -0.083286
    23    -0.290635
    24     0.000156
    25    -0.002124
    26     0.023026
    27    -0.010364
    28     0.016668
    29     0.000061
    30     0.000038
    31     0.003453
    32    -0.000798
    33    -0.032539
    34     0.231092
    35     0.379298
    36    -0.000225
    37     0.127155
    38     0.259520
    39    -0.000174
    40    -0.001805
    41     0.023450
    42    -0.008391
    43     0.016948
    44     0.000049
    45     0.000036
    46    -0.031485
    47    -0.039524
    48     0.000716
    49     0.014038
    50    -0.000031
Sym=    13a
Ene=   -0.291163E+00
Spin= Alpha
Occup= 1.000000
     1    -0.000045
     2    -0.000215
     3     0.000369
     4    -0.000615
     5    -0.002006
     6    -0.678611
     7    -0.000634
     8    -0.001259
     9    -0.456740
    10    -0.000036
    11     0.000055
    12    -0.000067
    13     0.000055
    14     0.006663
    15    -0.001499
    16     0.000024
    17     0.000145
    18    -0.000390
    19     0.000175
    20     0.000099
    21     0.302564
    22    -0.000040
    23     0.000310
    24     0.274288
    25     0.000030
    26     0.000137
    27    -0.000128
    28    -0.000070
    29    -0.012839
    30     0.000436
    31    -0.000045
    32    -0.000097
    33    -0.000067
    34    -0.000260
    35    -0.000208
    36    -0.041785
    37    -0.000044
    38    -0.000095
    39    -0.041432
    40     0.000015
    41    -0.000021
    42    -0.000008
    43    -0.000002
    44     0.002426
    45     0.002563
    46     0.000110
    47     0.000126
    48     0.000006
    49    -0.000021
    50    -0.001514
Sym=    14a
Ene=   -0.690604E-01
Spin= Alpha
Occup= 0.129664
     1    -0.000855
     2    -0.005889
     3     0.032888
     4     0.068657
     5     0.119830
     6     0.000373
     7     0.054872
     8     0.144145
     9    -0.001003
    10    -0.001525
    11    -0.001386
    12    -0.000834
    13     0.003721
    14    -0.000676
    15     0.000107
    16     0.062310
    17     0.146044
    18     0.165145
    19    -0.288812
    20    -0.556071
    21     0.000023
    22    -0.176512
    23    -0.250229
    24     0.000373
    25    -0.008361
    26     0.013943
    27     0.000744
    28     0.000889
    29     0.000617
    30     0.000581
    31    -0.055300
    32    -0.121667
    33    -0.175890
    34    -0.352156
    35    -0.490171
    36    -0.000133
    37    -0.207724
    38    -0.246928
    39    -0.000032
    40     0.009153
    41    -0.013082
    42    -0.000738
    43    -0.001372
    44    -0.000475
    45    -0.000428
    46     0.002775
    47     0.013222
    48    -0.004048
    49    -0.007862
    50     0.000386
Sym=    15a
Ene=   -0.236340E-01
Spin= Alpha
Occup= 0.020315
     1    -0.126688
     2    -0.379717
     3    -0.109279
     4     0.723980
     5    -0.209945
     6     0.000981
     7     0.170004
     8    -0.061933
     9    -0.003099
    10    -0.087972
    11     0.032045
    12     0.042531
    13     0.026449
    14    -0.000623
    15     0.000553
    16     0.136880
    17     0.429353
    18     0.088839
    19     0.708809
    20    -0.255485
    21    -0.001021
    22     0.158914
    23     0.002468
    24     0.001745
    25     0.063126
    26    -0.035117
    27    -0.039961
    28    -0.051906
    29     0.005885
    30    -0.004675
    31     0.001068
    32     0.003575
    33     0.012657
    34    -0.007859
    35     0.011634
    36     0.000009
    37    -0.003270
    38     0.020565
    39    -0.000174
    40     0.000807
    41    -0.002359
    42     0.000523
    43    -0.001219
    44     0.000061
    45     0.000063
    46     0.015434
    47     0.012939
    48     0.000687
    49     0.002162
    50    -0.000173
Sym=    16a
Ene=   -0.182049E-01
Spin= Alpha
Occup= 0.017499
     1     0.000761
     2     0.006979
     3    -0.004897
     4    -0.004009
     5     0.004261
     6    -0.000524
     7     0.002801
     8     0.024236
     9     0.000725
    10     0.000134
    11     0.002722
    12     0.001727
    13    -0.002766
    14     0.000493
    15    -0.000183
    16    -0.005290
    17    -0.004875
    18    -0.042350
    19     0.012405
    20     0.003745
    21     0.000057
    22    -0.000768
    23    -0.007739
    24    -0.000491
    25     0.003277
    26    -0.001078
    27     0.000057
    28     0.002952
    29     0.000103
    30    -0.000172
    31    -0.150712
    32    -0.564043
    33    -0.047850
    34     0.683334
    35    -0.403910
    36    -0.001240
    37     0.072054
    38     0.005105
    39     0.001495
    40    -0.052291
    41     0.028114
    42     0.058160
    43     0.085866
    44     0.000535
    45     0.000831
    46     0.980960
    47     0.062988
    48     0.071139
    49    -0.016054
    50    -0.000314
Sym=    17a
Ene=   -0.779095E-02
Spin= Alpha
Occup= 0.006095
     1     0.001319
     2    -0.016684
     3     0.040595
     4    -0.004526
     5     0.005687
     6     0.006890
     7    -0.024503
     8    -0.046387
     9     0.015894
    10    -0.000078
    11    -0.006331
    12     0.001434
    13     0.004837
    14    -0.000137
    15    -0.000508
    16     0.010704
    17    -0.005285
    18     0.176470
    19    -0.014364
    20    -0.052490
    21    -0.015161
    22    -0.078089
    23    -0.093366
    24    -0.123541
    25    -0.001041
    26     0.003694
    27    -0.005962
    28     0.004247
    29    -0.004006
    30     0.005065
    31     0.245412
    32     1.220899
    33    -1.174630
    34     0.204158
    35    -0.268020
    36    -0.676405
    37    -0.214366
    38     0.153734
    39     0.764076
    40    -0.189778
    41    -0.172011
    42     0.038624
    43    -0.012472
    44    -0.067091
    45     0.076170
    46     0.121016
    47     0.086670
    48     0.035611
    49    -0.008571
    50     0.007060
Sym=    18a
Ene=   -0.770382E-02
Spin= Alpha
Occup= 0.005966
     1     0.001185
     2    -0.018291
     3     0.043967
     4    -0.003573
     5     0.005854
     6    -0.005344
     7    -0.027261
     8    -0.047232
     9    -0.017991
    10    -0.000573
    11    -0.006426
    12     0.001305
    13     0.005121
    14    -0.001756
    15     0.001346
    16     0.010780
    17    -0.005193
    18     0.175226
    19    -0.014818
    20    -0.053293
    21     0.013876
    22    -0.078188
    23    -0.093246
    24     0.123459
    25    -0.000103
    26     0.004600
    27    -0.007809
    28     0.003244
    29     0.004389
    30    -0.005047
    31     0.249377
    32     1.238590
    33    -1.185686
    34     0.209462
    35    -0.273881
    36     0.666172
    37    -0.220966
    38     0.160104
    39    -0.753129
    40    -0.191301
    41    -0.173068
    42     0.032120
    43    -0.014293
    44     0.068564
    45    -0.080194
    46     0.118729
    47     0.088539
    48     0.036320
    49    -0.008554
    50    -0.005556
Sym=    19a
Ene=   -0.115505E-02
Spin= Alpha
Occup= 0.000561
     1    -0.072125
     2    -0.308657
     3     0.310142
     4    -0.099312
     5     0.065699
     6    -0.017644
     7     0.029603
     8    -0.093540
     9     0.018974
    10    -0.337067
    11     1.019855
    12    -0.512817
    13    -0.053980
    14     0.022098
    15    -0.112904
    16     0.003455
    17     0.110535
    18    -0.346320
    19     0.069818
    20    -0.122426
    21     0.000813
    22    -0.087900
    23     0.164857
    24     0.005436
    25     0.069669
    26     0.017629
    27     0.060803
    28    -0.026951
    29     0.005762
    30     0.000748
    31    -0.002022
    32    -0.048280
    33     0.195923
    34    -0.003470
    35    -0.031098
    36     0.000938
    37     0.023600
    38     0.130615
    39    -0.002982
    40     0.011218
    41     0.000665
    42    -0.021410
    43     0.008240
    44    -0.000418
    45    -0.000411
    46    -0.046126
    47    -0.056622
    48    -0.017439
    49    -0.004760
    50    -0.000536
Sym=    20a
Ene=   -0.694631E-02
Spin= Alpha
Occup= 0.005160
     1     0.260931
     2     1.265719
     3    -1.195373
     4     0.461152
     5     0.560980
     6    -0.001722
     7    -0.330374
     8    -0.746418
     9     0.002330
    10    -0.146080
    11    -0.032656
    12    -0.208278
    13     0.134727
    14    -0.001426
    15    -0.001483
    16     0.007325
    17    -0.028648
    18     0.364204
    19     0.062936
    20     0.044253
    21    -0.000799
    22     0.176283
    23     0.055452
    24     0.000197
    25     0.017655
    26     0.003885
    27    -0.006403
    28    -0.017176
    29    -0.001739
    30     0.000893
    31    -0.000631
    32     0.028969
    33    -0.081442
    34     0.000696
    35     0.007686
    36    -0.000038
    37    -0.058666
    38    -0.024274
    39    -0.000136
    40     0.004102
    41     0.002362
    42     0.006981
    43    -0.005413
    44    -0.000006
    45    -0.000085
    46    -0.009292
    47     0.031904
    48     0.000815
    49     0.006878
    50     0.000061
Sym=    21a
Ene=   -0.569043E-02
Spin= Alpha
Occup= 0.004130
     1    -0.005581
     2     0.019722
     3    -0.293854
     4     0.042053
     5    -0.013581
     6    -0.076204
     7     0.128712
     8    -0.076833
     9    -0.156741
    10    -0.026914
    11     0.004406
    12     0.001883
    13     0.010355
    14     0.000288
    15     0.000890
    16    -0.252517
    17    -1.276228
    18     1.326011
    19     0.214004
    20    -0.227847
    21    -0.676727
    22    -0.145842
    23     0.111458
    24     0.869162
    25     0.191045
    26     0.178773
    27    -0.001341
    28     0.006492
    29     0.054965
    30    -0.061530
    31    -0.007600
    32     0.033004
    33    -0.256901
    34    -0.028366
    35    -0.054198
    36     0.002990
    37    -0.059694
    38    -0.133336
    39    -0.155954
    40     0.002797
    41    -0.008269
    42     0.012224
    43    -0.010637
    44     0.002026
    45    -0.014233
    46     0.001502
    47    -0.010312
    48     0.007979
    49    -0.009734
    50    -0.002918
Sym=    22a
Ene=   -0.565004E-02
Spin= Alpha
Occup= 0.004022
     1     0.005277
     2    -0.021493
     3     0.276968
     4    -0.041532
     5     0.012993
     6    -0.073319
     7    -0.118872
     8     0.077676
     9    -0.152827
    10     0.026171
    11    -0.003128
    12    -0.001451
    13    -0.010937
    14     0.002672
    15     0.000423
    16     0.260908
    17     1.308926
    18    -1.325681
    19    -0.227516
    20     0.240590
    21    -0.654732
    22     0.172677
    23    -0.133278
    24     0.841834
    25    -0.198556
    26    -0.190833
    27    -0.002899
    28    -0.007132
    29     0.053992
    30    -0.063466
    31     0.007754
    32    -0.032166
    33     0.254670
    34     0.029633
    35     0.056650
    36     0.003563
    37     0.055113
    38     0.132410
    39    -0.152008
    40    -0.003035
    41     0.008731
    42    -0.012201
    43     0.009791
    44     0.002239
    45    -0.013807
    46    -0.001888
    47     0.013706
    48    -0.007140
    49     0.011362
    50    -0.002720
Sym=    23a
Ene=   -0.166847E-06
Spin= Alpha
Occup= 0.000000
     1     0.001707
     2     0.016400
     3    -0.235894
     4     0.024270
     5    -0.021509
     6    -0.011725
     7     0.232322
     8     0.273961
     9     0.029430
    10    -0.049882
    11     0.084140
    12    -0.073218
    13    -0.138512
    14     0.009242
    15    -0.003348
    16     0.007859
    17    -0.301283
    18     1.449203
    19     0.069797
    20     0.246755
    21     0.012774
    22    -0.542604
    23    -1.156546
    24    -0.069712
    25    -0.043000
    26     0.019621
    27    -0.225892
    28     0.108070
    29     0.004717
    30     0.032664
    31    -0.009933
    32     0.500840
    33    -2.636255
    34     0.112798
    35     0.231673
    36     0.009496
    37     0.187190
    38    -1.504999
    39     0.281517
    40    -0.068596
    41    -0.044769
    42     0.464349
    43     0.225005
    44    -0.217837
    45     0.216604
    46     0.868210
    47     0.779253
    48     0.558166
    49    -0.048607
    50    -0.726506
Sym=    24a
Ene=   -0.400020E-06
Spin= Alpha
Occup= 0.000000
     1     0.002314
     2     0.097042
     3    -1.118040
     4     0.019934
     5     0.017997
     6    -0.014480
     7     0.826187
     8     0.019086
     9     0.007677
    10    -0.132334
    11     0.119748
    12    -0.031951
    13    -0.059428
    14     0.032612
    15    -0.011806
    16     0.014273
    17    -0.564996
    18     2.938235
    19     0.081512
    20     0.339514
    21    -0.004297
    22    -0.030628
    23    -1.596456
    24     0.046786
    25    -0.022649
    26    -0.047491
    27    -0.423950
    28     0.083624
    29    -0.004204
    30    -0.025646
    31    -0.006518
    32     0.312505
    33    -1.112987
    34     0.115821
    35     0.298285
    36    -0.005233
    37    -1.126812
    38    -1.227870
    39    -0.216085
    40     0.247148
    41    -0.274699
    42     0.284687
    43    -0.108809
    44     0.169398
    45    -0.161876
    46     0.197637
    47    -0.620513
    48    -0.052089
    49     0.551809
    50     0.551984
Sym=    25a
Ene=   -0.179222E-06
Spin= Alpha
Occup= 0.000000
     1    -0.006076
     2     0.542597
     3    -3.766400
     4    -0.142643
     5     0.040223
     6     0.075379
     7     2.558077
     8    -0.761282
     9    -0.074224
    10    -0.718411
    11     0.336817
    12     0.623052
    13     0.423799
    14    -0.157907
    15     0.043215
    16    -0.004937
    17    -0.434510
    18     3.449706
    19     0.053318
    20    -0.025811
    21    -0.004581
    22     2.414916
    23    -0.674845
    24    -0.015728
    25     0.544973
    26    -0.170069
    27    -0.300601
    28    -0.456454
    29    -0.058851
    30     0.031789
    31     0.002049
    32    -0.032992
    33    -0.030452
    34    -0.019698
    35    -0.051932
    36    -0.000184
    37     0.027658
    38     0.152910
    39     0.052014
    40    -0.133346
    41     0.124080
    42    -0.068752
    43    -0.047181
    44    -0.035598
    45     0.036786
    46    -0.017058
    47     0.235611
    48     0.063412
    49    -0.043728
    50    -0.122669
Sym=    26a
Ene=   -0.333467E-03
Spin= Alpha
Occup= 0.000257
     1     0.001543
     2     0.024770
     3    -0.025189
     4    -0.107263
     5     0.070366
     6     0.013463
     7     0.004765
     8    -0.330536
     9    -0.021759
    10     0.110587
    11    -0.034855
    12     0.025559
    13     0.054261
    14    -0.006406
    15     0.003631
    16    -0.007155
    17     0.087892
    18    -0.088151
    19    -0.259028
    20    -0.575235
    21    -0.000846
    22     0.210561
    23     0.735095
    24     0.004723
    25    -0.038090
    26     0.262087
    27     0.106640
    28     0.182814
    29     0.020812
    30    -0.001730
    31    -0.010398
    32     0.077438
    33    -0.211005
    34     0.389117
    35     0.553002
    36    -0.000017
    37    -0.214711
    38    -0.650892
    39     0.000781
    40    -0.122888
    41     0.287855
    42     0.153511
    43     0.159203
    44     0.007387
    45     0.008123
    46     0.373287
    47    -0.170280
    48     0.029882
    49    -0.024255
    50    -0.000194
Sym=    27a
Ene=   -0.183375E-02
Spin= Alpha
Occup= 0.001018
     1     0.019894
     2     0.262356
     3    -0.218941
     4    -0.290327
     5     0.077712
     6     0.008155
     7     0.503475
     8    -0.131886
     9    -0.004173
    10     0.434657
    11    -0.050753
    12    -0.229843
    13    -0.231407
    14     0.008449
    15    -0.002000
    16     0.016027
    17     0.275367
    18    -0.324143
    19     0.232460
    20    -0.097968
    21    -0.006793
    22    -0.428021
    23     0.259898
    24     0.012128
    25     0.364715
    26    -0.109901
    27    -0.110876
    28    -0.273333
    29    -0.037458
    30     0.022547
    31    -0.006312
    32    -0.118796
    33     0.284270
    34     0.024126
    35     0.029170
    36     0.000435
    37     0.160731
    38     0.003494
    39    -0.002708
    40     0.009254
    41     0.005282
    42    -0.041319
    43     0.031950
    44     0.000528
    45     0.000163
    46     0.012572
    47    -0.092018
    48    -0.004207
    49    -0.048167
    50    -0.000727
Sym=    28a
Ene=   -0.140657E-02
Spin= Alpha
Occup= 0.000875
     1     0.001124
     2     0.033974
     3    -0.142152
     4    -0.010702
     5    -0.007684
     6    -0.004365
     7     0.129011
     8     0.016430
     9     0.007083
    10     0.014675
    11     0.007289
    12    -0.012073
    13    -0.020694
    14     0.007802
    15    -0.002230
    16    -0.015159
    17    -0.117161
    18     0.251618
    19     0.017451
    20     0.069485
    21     0.001128
    22    -0.006424
    23    -0.066129
    24    -0.003716
    25     0.014607
    26    -0.007508
    27    -0.033219
    28     0.008433
    29    -0.004199
    30     0.001241
    31    -0.008628
    32    -0.038987
    33    -0.020099
    34     0.052967
    35     0.041634
    36     0.000166
    37     0.157787
    38     0.115266
    39     0.007383
    40     0.237779
    41    -0.355371
    42     0.116817
    43     0.317615
    44     0.010170
    45     0.006506
    46     0.292759
    47    -0.268100
    48    -0.333479
    49    -0.704044
    50    -0.018227
Sym=    29a
Ene=   -0.784843E-03
Spin= Alpha
Occup= 0.000388
     1    -0.001575
     2    -0.027162
     3     0.103658
     4    -0.001608
     5     0.002029
     6     0.012156
     7    -0.071295
     8    -0.016403
     9    -0.046915
    10    -0.016373
    11     0.004875
    12     0.011380
    13     0.010286
    14    -0.017544
    15     0.004882
    16     0.011430
    17     0.090950
    18    -0.208036
    19    -0.057156
    20    -0.130911
    21    -0.024559
    22     0.032644
    23     0.121812
    24     0.096917
    25    -0.005477
    26     0.040741
    27     0.013438
    28    -0.033270
    29     0.002997
    30    -0.013230
    31     0.022452
    32     0.130229
    33    -0.023044
    34     0.081859
    35     0.161652
    36     0.005539
    37    -0.316673
    38    -0.009066
    39    -0.011374
    40     0.545522
    41    -0.311302
    42    -0.192487
    43    -0.327092
    44    -0.557072
    45    -0.499824
    46    -0.689980
    47     0.548801
    48    -0.108294
    49     0.164981
    50    -0.032803
Sym=    30a
Ene=   -0.686032E-03
Spin= Alpha
Occup= 0.000335
     1     0.001369
     2     0.027398
     3    -0.113171
     4     0.007291
     5    -0.004294
     6    -0.014955
     7     0.075293
     8     0.020727
     9    -0.012255
    10     0.013189
    11    -0.004417
    12    -0.012132
    13    -0.011860
    14     0.028791
    15    -0.006642
    16    -0.010769
    17    -0.095181
    18     0.237516
    19     0.057539
    20     0.138616
    21    -0.018997
    22    -0.034092
    23    -0.129849
    24     0.082818
    25     0.011108
    26    -0.047796
    27    -0.025670
    28     0.024028
    29     0.010108
    30    -0.028035
    31    -0.020727
    32    -0.123573
    33    -0.010563
    34    -0.079129
    35    -0.165635
    36     0.010045
    37     0.367879
    38    -0.019477
    39    -0.001055
    40    -0.607927
    41     0.337457
    42     0.204696
    43     0.389586
    44    -0.525490
    45    -0.430206
    46     0.799943
    47    -0.598280
    48     0.132711
    49    -0.198495
    50    -0.071328
Sym=    31a
Ene=   -0.708373E-02
Spin= Alpha
Occup= 0.005275
     1    -0.260669
     2    -1.264461
     3     1.166165
     4    -0.077751
     5     0.718824
     6    -0.002883
     7    -0.101961
     8    -0.813520
     9     0.004004
    10     0.216629
    11    -0.045155
    12     0.205004
    13     0.019989
    14    -0.001094
    15    -0.000241
    16    -0.007187
    17     0.005265
    18    -0.249755
    19    -0.018878
    20     0.064478
    21     0.000291
    22    -0.100496
    23     0.161663
    24    -0.001714
    25    -0.023201
    26     0.002628
    27     0.006009
    28    -0.003689
    29    -0.000504
    30    -0.000304
    31     0.001820
    32     0.052219
    33    -0.087873
    34    -0.014359
    35     0.003195
    36    -0.000185
    37    -0.045988
    38     0.019067
    39     0.000295
    40     0.000008
    41    -0.002046
    42     0.009682
    43    -0.003573
    44    -0.000047
    45    -0.000187
    46    -0.009632
    47     0.043728
    48    -0.008571
    49     0.004542
    50     0.000135
Sym=    32a
Ene=   -0.967335E-03
Spin= Alpha
Occup= 0.000483
     1     0.039658
     2     0.157965
     3    -0.031255
     4     0.014694
     5     0.054408
     6     0.354700
     7    -0.036409
     8    -0.058563
     9    -0.505311
    10    -0.397734
    11     0.004063
    12     0.257346
    13    -0.622107
    14     0.452442
    15     0.365343
    16     0.006717
    17     0.038612
    18    -0.056174
    19    -0.014966
    20    -0.067850
    21    -0.011522
    22    -0.004550
    23     0.004407
    24     0.235873
    25    -0.028548
    26     0.029635
    27    -0.017898
    28    -0.031325
    29     0.064301
    30    -0.047927
    31    -0.005762
    32    -0.046795
    33     0.103122
    34    -0.005288
    35    -0.026838
    36    -0.000385
    37    -0.012001
    38     0.064301
    39    -0.024089
    40     0.008967
    41     0.000544
    42    -0.011090
    43    -0.004541
    44    -0.000668
    45    -0.007464
    46    -0.030188
    47    -0.048998
    48    -0.005046
    49     0.003159
    50    -0.004502
Sym=    33a
Ene=   -0.673995E-03
Spin= Alpha
Occup= 0.000312
     1    -0.009152
     2    -0.125188
     3     0.175994
     4     0.244444
     5    -0.069978
     6    -0.016863
     7    -0.282672
     8    -0.057827
     9     0.074871
    10    -0.117301
    11    -0.083372
    12    -0.011895
    13     0.113241
    14    -0.004604
    15     0.018405
    16     0.016870
    17    -0.013173
    18     0.061659
    19    -0.112205
    20    -0.057894
    21     0.021808
    22     0.146626
    23     0.072639
    24    -0.038521
    25     0.554877
    26    -0.521053
    27    -0.152540
    28     0.113102
    29    -0.413592
    30    -0.652334
    31     0.007821
    32     0.065179
    33    -0.086703
    34     0.054091
    35     0.081604
    36     0.023385
    37    -0.044359
    38    -0.113377
    39    -0.072100
    40    -0.015656
    41     0.007629
    42     0.018148
    43    -0.021752
    44    -0.002230
    45    -0.021559
    46     0.036984
    47     0.008141
    48    -0.001243
    49    -0.006478
    50    -0.017655
Sym=    34a
Ene=   -0.557140E-03
Spin= Alpha
Occup= 0.000250
     1     0.009805
     2     0.149015
     3    -0.211940
     4    -0.308179
     5     0.088244
     6     0.044186
     7     0.335361
     8     0.051461
     9     0.004721
    10     0.169231
    11     0.098256
    12     0.014354
    13    -0.144178
    14    -0.102394
    15     0.041913
    16    -0.011219
    17     0.052348
    18    -0.083477
    19     0.129362
    20     0.059222
    21     0.006768
    22    -0.184665
    23    -0.068409
    24    -0.021504
    25    -0.671653
    26     0.643723
    27     0.124602
    28    -0.047702
    29    -0.410280
    30    -0.501424
    31    -0.007225
    32    -0.063405
    33     0.085811
    34    -0.068828
    35    -0.104002
    36     0.018936
    37     0.055052
    38     0.131758
    39    -0.063389
    40     0.020492
    41    -0.023947
    42    -0.022727
    43     0.008522
    44    -0.002489
    45    -0.025261
    46    -0.056961
    47     0.015969
    48     0.005494
    49     0.009003
    50    -0.005425
Sym=    35a
Ene=   -0.954839E-05
Spin= Alpha
Occup= 0.000000
     1    -0.002276
     2     0.024414
     3     0.013971
     4    -0.036103
     5    -0.010731
     6    -0.014879
     7     0.016471
     8     0.066365
     9     0.018051
    10     0.017660
    11     0.028737
    12     0.020875
    13    -0.028693
    14     0.020681
    15    -0.006685
    16     0.000063
    17     0.001288
    18    -0.016823
    19     0.032195
    20    -0.017492
    21     0.000516
    22    -0.184742
    23     0.036653
    24    -0.000874
    25    -0.001183
    26    -0.008051
    27     0.001285
    28     0.027806
    29     0.001234
    30     0.000178
    31    -0.035290
    32     0.283435
    33    -0.606392
    34    -0.712145
    35     0.306845
    36     0.001517
    37     0.512737
    38    -0.141497
    39    -0.002138
    40     0.462337
    41     0.421613
    42     0.105299
    43    -0.292462
    44    -0.003274
    45     0.001188
    46    -0.046267
    47     0.118467
    48    -1.114863
    49     0.448281
    50    -0.000107
Sym=    36a
Ene=   -0.929530E-03
Spin= Alpha
Occup= 0.000038
     1     0.001669
     2     0.037170
     3    -0.498404
     4    -0.157661
     5     0.048933
     6    -0.001649
     7     0.225684
     8    -0.053027
     9     0.000654
    10     0.130753
    11     0.052856
    12     0.054146
    13    -0.026021
    14    -0.001586
    15    -0.000404
    16     0.694415
    17     2.100972
    18     1.739589
    19     0.073911
    20    -0.080414
    21     0.000716
    22    -0.084716
    23    -0.089864
    24    -0.001852
    25    -1.515519
    26    -1.427139
    27    -1.457373
    28     0.019342
    29     0.009076
    30    -0.000084
    31    -0.004024
    32     0.026053
    33    -0.286335
    34    -0.002707
    35    -0.001357
    36    -0.000215
    37    -0.079592
    38    -0.190506
    39     0.001527
    40    -0.011529
    41     0.017320
    42     0.012727
    43     0.018391
    44     0.001211
    45     0.002164
    46     0.085757
    47    -0.113477
    48    -0.013569
    49    -0.038520
    50    -0.001432
Sym=    37a
Ene=   -0.391239E-05
Spin= Alpha
Occup= 0.000000
     1     0.018437
     2    -0.222489
     3     1.313881
     4     0.318205
     5    -0.071314
     6     0.310850
     7    -0.953899
     8     0.392778
     9    -0.327955
    10    -0.173610
    11    -0.080379
    12    -0.246926
    13    -0.196496
    14    -0.562968
    15     0.153452
    16     0.002749
    17     0.025864
    18    -0.861371
    19    -0.117268
    20     0.037210
    21    -0.033579
    22    -0.543900
    23     0.009437
    24     0.012872
    25    -0.034295
    26     0.087732
    27    -0.122581
    28    -0.558509
    29    -0.222296
    30     0.122456
    31    -0.005770
    32    -0.011588
    33     0.083454
    34     0.075559
    35     0.129639
    36    -0.006468
    37    -0.229708
    38    -0.054276
    39     0.009468
    40    -0.045929
    41     0.155707
    42     0.015572
    43    -0.045276
    44     0.012164
    45    -0.000462
    46    -0.046247
    47    -0.222648
    48    -0.167092
    49    -0.031985
    50     0.011364
Sym=    38a
Ene=   -0.395092E-04
Spin= Alpha
Occup= 0.000021
     1    -0.001067
     2    -0.044016
     3     0.333463
     4    -0.049915
     5     0.023564
     6    -0.042505
     7    -0.102588
     8     0.186303
     9     0.045371
    10    -0.039771
    11     0.033980
    12     0.021640
    13    -0.025082
    14     0.069024
    15    -0.020518
    16     0.001562
    17    -0.120298
    18     0.317625
    19     0.226060
    20     0.204000
    21     0.004168
    22    -0.721340
    23    -0.639966
    24    -0.002796
    25    -0.100945
    26     0.106455
    27    -0.093879
    28     0.191619
    29     0.030178
    30    -0.011854
    31     0.003150
    32     0.084495
    33    -0.285200
    34     0.187908
    35     0.093378
    36     0.000085
    37    -0.626768
    38    -0.181451
    39     0.000292
    40    -0.374084
    41     0.418551
    42    -0.075403
    43    -0.725865
    44    -0.008963
    45    -0.001977
    46    -0.398647
    47    -0.046354
    48    -0.385940
    49    -0.523253
    50    -0.002441
Sym=    39a
Ene=   -0.396257E-03
Spin= Alpha
Occup= 0.000179
     1    -0.016864
     2    -0.168355
     3     0.396836
     4     0.213127
     5    -0.060359
     6    -0.319725
     7    -0.337278
     8     0.197220
     9     0.407543
    10    -0.193913
    11     0.007003
    12     0.037274
    13     0.062222
    14     0.585442
    15    -0.171607
    16    -0.001066
    17     0.022097
    18    -0.388910
    19    -0.070551
    20    -0.027589
    21     0.014686
    22     0.006096
    23     0.083822
    24    -0.002834
    25     0.043754
    26     0.188124
    27    -0.150482
    28    -0.635708
    29    -0.091248
    30     0.018132
    31     0.001557
    32    -0.041385
    33     0.215484
    34     0.058205
    35     0.078208
    36     0.009012
    37    -0.077890
    38     0.068325
    39    -0.022961
    40    -0.027943
    41     0.066820
    42    -0.015809
    43     0.025426
    44    -0.002496
    45    -0.000388
    46    -0.043242
    47    -0.089751
    48    -0.050313
    49    -0.000589
    50    -0.010499
Sym=    40a
Ene=   -0.234454E-02
Spin= Alpha
Occup= 0.001588
     1    -0.000866
     2    -0.054452
     3     0.226352
     4    -0.002416
     5     0.010451
     6    -0.002432
     7    -0.150435
     8    -0.036272
     9     0.002188
    10    -0.000329
    11    -0.014842
    12    -0.001924
    13     0.011390
    14     0.002582
    15    -0.000585
    16    -0.000398
    17     0.133153
    18    -0.598336
    19     0.059823
    20     0.064186
    21     0.000711
    22     0.100586
    23     0.094973
    24    -0.000758
    25    -0.007339
    26    -0.009864
    27     0.041000
    28    -0.015931
    29     0.003782
    30    -0.002899
    31     0.016796
    32    -0.089545
    33     0.957538
    34    -0.009381
    35     0.061174
    36     0.000091
    37    -0.722403
    38     0.589828
    39    -0.000459
    40    -0.193142
    41     0.012800
    42     0.061479
    43     0.291948
    44     0.001702
    45    -0.003247
    46    -1.253223
    47     0.470208
    48    -0.535202
    49     0.262701
    50     0.001415
Sym=    41a
Ene=   -0.127929E-02
Spin= Alpha
Occup= 0.000654
     1    -0.000721
     2     0.018332
     3    -0.035086
     4    -0.014997
     5    -0.000223
     6     0.010813
     7     0.011213
     8    -0.019333
     9    -0.011991
    10     0.008462
    11     0.004527
    12     0.020185
    13     0.007528
    14    -0.008050
    15     0.000411
    16     0.003736
    17     0.025604
    18    -0.081540
    19    -0.039562
    20    -0.107395
    21    -0.005389
    22     0.033602
    23     0.159350
    24     0.028320
    25     0.005784
    26     0.027028
    27     0.009677
    28    -0.002442
    29    -0.012254
    30    -0.011616
    31    -0.065083
    32    -0.273490
    33     0.144616
    34    -0.072077
    35     0.026586
    36     0.089826
    37     0.188846
    38     0.015849
    39    -0.171009
    40    -0.187887
    41    -0.305300
    42     0.706419
    43    -0.236179
    44    -0.437192
    45     0.485520
    46     0.091981
    47    -0.011631
    48    -0.017023
    49    -0.019664
    50     0.118563
Sym=    42a
Ene=   -0.126171E-02
Spin= Alpha
Occup= 0.000643
     1    -0.000651
     2     0.019618
     3    -0.037722
     4    -0.016212
     5    -0.000061
     6     0.003092
     7     0.013433
     8    -0.018736
     9    -0.005525
    10     0.009504
    11     0.004701
    12     0.020206
    13     0.007515
    14    -0.011364
    15     0.004880
    16     0.003536
    17     0.024268
    18    -0.077057
    19    -0.037617
    20    -0.104980
    21     0.002782
    22     0.030433
    23     0.156006
    24    -0.022526
    25     0.005518
    26     0.025811
    27     0.010625
    28     0.001542
    29     0.010017
    30     0.019061
    31    -0.066292
    32    -0.278037
    33     0.143217
    34    -0.077617
    35     0.025925
    36    -0.086594
    37     0.198877
    38     0.008515
    39     0.166391
    40    -0.200535
    41    -0.288015
    42     0.702700
    43    -0.236273
    44     0.433267
    45    -0.498335
    46     0.106412
    47    -0.019750
    48    -0.013305
    49    -0.015936
    50    -0.115664
Sym=    43a
Ene=   -0.879906E-03
Spin= Alpha
Occup= 0.000474
     1    -0.006704
     2    -0.026621
     3     0.003809
     4    -0.006310
     5     0.004912
     6    -0.556198
     7     0.008942
     8    -0.009963
     9     0.783710
    10    -0.009693
    11     0.082671
    12    -0.049201
    13    -0.021264
    14    -0.181475
    15     0.787541
    16    -0.000092
    17     0.002927
    18    -0.005628
    19    -0.006191
    20    -0.011795
    21     0.021737
    22     0.012852
    23     0.011584
    24    -0.351091
    25    -0.005657
    26    -0.004213
    27     0.012839
    28    -0.009731
    29    -0.087138
    30     0.041349
    31    -0.000111
    32    -0.005638
    33     0.024688
    34     0.003773
    35     0.001130
    36    -0.005739
    37    -0.007180
    38     0.011505
    39     0.049773
    40    -0.000001
    41     0.001070
    42    -0.001824
    43    -0.001445
    44    -0.001435
    45     0.013331
    46    -0.007468
    47    -0.009179
    48    -0.002420
    49     0.000912
    50     0.006818
Sym=    44a
Ene=   -0.974277E-03
Spin= Alpha
Occup= 0.000505
     1    -0.040322
     2    -0.167347
     3     0.094332
     4    -0.019657
     5    -0.042465
     6     0.435669
     7     0.020129
     8     0.054945
     9    -0.601841
    10     0.302219
    11     0.086173
    12    -0.272479
    13     0.594948
    14     0.365502
    15     0.429956
    16    -0.004687
    17    -0.017858
    18    -0.005046
    19     0.039415
    20     0.058143
    21    -0.017561
    22    -0.043032
    23     0.001474
    24     0.249787
    25     0.047524
    26    -0.016463
    27     0.005734
    28     0.023160
    29     0.040793
    30    -0.041590
    31     0.005773
    32     0.047903
    33    -0.109623
    34    -0.000928
    35     0.020291
    36    -0.001600
    37     0.026717
    38    -0.061168
    39    -0.023002
    40    -0.007982
    41    -0.002292
    42     0.009706
    43     0.007620
    44     0.000295
    45    -0.008139
    46     0.034222
    47     0.052384
    48     0.005252
    49    -0.006762
    50    -0.003180
Sym=    45a
Ene=   -0.102866E-02
Spin= Alpha
Occup= 0.000493
     1    -0.004299
     2    -0.082034
     3     0.274289
     4     0.123221
     5    -0.035968
     6    -0.024020
     7    -0.226052
     8     0.046277
     9    -0.072621
    10    -0.092355
    11    -0.040820
    12     0.006940
    13     0.035368
    14    -0.004555
    15     0.004016
    16     0.050030
    17     0.246693
    18    -0.435624
    19    -0.054221
    20     0.028562
    21     0.033952
    22     0.024735
    23     0.062865
    24    -0.031108
    25     0.267121
    26     0.489917
    27    -0.835171
    28     0.074454
    29     0.465781
    30    -0.273345
    31    -0.001812
    32     0.001019
    33     0.034542
    34    -0.055462
    35    -0.094659
    36    -0.005441
    37     0.040180
    38     0.137967
    39     0.022145
    40     0.013872
    41    -0.026496
    42    -0.003106
    43    -0.018530
    44     0.004000
    45     0.014702
    46    -0.061080
    47     0.074415
    48     0.014746
    49     0.014517
    50    -0.007894
Sym=    46a
Ene=   -0.957904E-03
Spin= Alpha
Occup= 0.000445
     1    -0.004207
     2    -0.004362
     3     0.016549
     4    -0.025085
     5     0.009244
     6    -0.044955
     7     0.022878
     8     0.074467
     9    -0.098417
    10    -0.015288
    11     0.061166
    12     0.004766
    13    -0.036089
    14     0.066065
    15    -0.014142
    16    -0.043547
    17    -0.170485
    18     0.069338
    19     0.041805
    20    -0.013677
    21     0.056621
    22    -0.125283
    23    -0.030420
    24    -0.037505
    25    -0.150275
    26    -0.214775
    27     0.515584
    28    -0.350244
    29     0.666118
    30    -0.482351
    31     0.001798
    32    -0.014426
    33     0.036641
    34     0.046461
    35     0.091279
    36    -0.002722
    37    -0.027178
    38    -0.085103
    39     0.018925
    40    -0.011506
    41     0.033220
    42    -0.002248
    43     0.032336
    44     0.004211
    45     0.016905
    46     0.047247
    47    -0.093521
    48    -0.033065
    49    -0.012744
    50    -0.011471
Sym=    47a
Ene=   -0.934306E-03
Spin= Alpha
Occup= 0.000038
     1    -0.000970
     2     0.051674
     3    -0.139447
     4    -0.027959
     5    -0.018520
     6     0.002238
     7     0.087991
     8     0.046372
     9    -0.001914
    10     0.015724
    11     0.024145
    12     0.024263
    13    -0.023987
    14    -0.004538
    15     0.000484
    16    -0.004434
    17     0.013749
    18    -0.155944
    19     0.001828
    20    -0.013008
    21    -0.000199
    22     0.080620
    23     0.144164
    24    -0.000673
    25    -0.003322
    26     0.025760
    27     0.004342
    28    -0.003023
    29    -0.001747
    30     0.004324
    31     0.694647
    32     2.137824
    33     1.319327
    34    -0.044234
    35     0.070613
    36    -0.000201
    37     0.310259
    38    -0.047283
    39     0.001455
    40    -1.521872
    41    -1.440666
    42    -1.406109
    43     0.048885
    44     0.001932
    45     0.003916
    46     0.302581
    47    -0.227912
    48     0.065520
    49    -0.084018
    50    -0.002250
Sym=    48a
Ene=   -0.382212E-05
Spin= Alpha
Occup= 0.000000
     1    -0.003084
     2    -0.108087
     3     1.923326
     4    -0.152724
     5     0.014764
     6     0.011416
     7    -0.975970
     8     0.359275
     9    -0.002442
    10    -0.443606
    11     0.032245
    12     0.458240
    13     0.296479
    14    -0.079233
    15     0.019570
    16    -0.030812
    17     0.366145
    18    -2.312561
    19     0.581084
    20    -0.138217
    21    -0.009181
    22    -1.943601
    23     0.543335
    24    -0.003766
    25     0.281451
    26     0.240430
    27     0.312775
    28     0.066527
    29    -0.044488
    30     0.023423
    31    -0.000145
    32    -0.013615
    33     0.082147
    34     0.008806
    35     0.081547
    36    -0.000483
    37     0.190630
    38    -0.287524
    39    -0.009162
    40     0.117619
    41    -0.175802
    42     0.049352
    43     0.177064
    44     0.009540
    45    -0.006790
    46     0.243629
    47    -0.311626
    48     0.019554
    49     0.044775
    50     0.026481
Sym=    49a
Ene=   -0.900303E-03
Spin= Alpha
Occup= 0.000036
     1    -0.689433
     2    -2.148784
     3    -1.455189
     4     0.061859
     5    -0.017153
     6     0.019430
     7     0.061863
     8    -0.002049
     9    -0.021442
    10     1.478650
    11     1.428651
    12     1.442839
    13    -0.061973
    14    -0.024971
    15     0.007617
    16    -0.001365
    17    -0.034231
    18     0.497556
    19    -0.129509
    20     0.054862
    21    -0.001794
    22     0.166829
    23    -0.089262
    24     0.002955
    25    -0.173424
    26    -0.028161
    27    -0.030270
    28     0.042352
    29    -0.011357
    30     0.009791
    31     0.000543
    32    -0.013563
    33    -0.003713
    34    -0.007351
    35    -0.002864
    36    -0.000424
    37     0.041060
    38    -0.040503
    39     0.000444
    40    -0.015907
    41    -0.013014
    42    -0.011574
    43     0.006108
    44     0.000691
    45    -0.000020
    46     0.043629
    47    -0.008335
    48     0.017228
    49    -0.012143
    50     0.000740
Sym=    50a
Ene=    0.000000E+00
Spin= Alpha
Occup= 0.000000
     1     0.000980
     2    -0.047475
     3     0.126089
     4     0.008266
     5     0.034521
     6    -0.000070
     7    -0.095906
     8    -0.133632
     9     0.008740
    10     0.066482
    11    -0.055230
    12    -0.047580
    13     0.033943
    14     0.006864
    15     0.001922
    16     0.002500
    17    -0.041595
    18     0.098105
    19    -0.000484
    20     0.002174
    21     0.009730
    22     0.042564
    23     0.097785
    24    -0.054518
    25    -0.073432
    26    -0.009181
    27    -0.027204
    28     0.040458
    29     0.015845
    30     0.020198
    31     0.004494
    32    -0.291094
    33     2.040755
    34    -0.021542
    35     0.014735
    36     0.006898
    37    -1.215166
    38     0.611588
    39     0.248901
    40     0.361759
    41    -0.228946
    42    -0.273031
    43    -0.367638
    44    -0.200775
    45     0.181923
    46    -0.869661
    47    -1.429854
    48    -0.691870
    49     0.576879
    50    -0.639930
