[Molden Format]
p30-5 set                                                                       
[Atoms] AU
 B        1     5        0.0000        0.0000       -1.4663
 N        2     7        0.0000        0.0000        1.0474
[GTO]
    1 0
s    5 1.00
     839.318300860000 -0.562888359825E-02
     126.264648430000 -0.418327946095E-01
      28.620600763000 -0.184174881258E+00
       7.879372271000 -0.468396550281E+00
       2.408885717200 -0.444579308833E+00
s    1 1.00
       0.251051090360  0.100000000000E+01
s    1 1.00
       0.083648866069  0.100000000000E+01
p    3 1.00
       6.033222361900 -0.540325003228E-01
       1.249915786600 -0.301940343932E+00
       0.338716763500 -0.771707916582E+00
p    1 1.00
       0.096415632351  0.100000000000E+01
d    1 1.00
       0.500000000000  0.100000000000E+01

    2 0
s    5 1.00
    1712.841585300000 -0.544779958049E-02
     257.648126770000 -0.406271746324E-01
      58.458245853000 -0.181119622506E+00
      16.198367905000 -0.468439755632E+00
       5.005260080900 -0.446168462892E+00
s    1 1.00
       0.587318565710  0.100000000000E+01
s    1 1.00
       0.187645922530  0.100000000000E+01
p    3 1.00
      13.571470233000 -0.588481169695E-01
       2.925737287400 -0.320246247625E+00
       0.799277507540 -0.753282265204E+00
p    1 1.00
       0.219543480340  0.100000000000E+01
d    1 1.00
       1.000000000000  0.100000000000E+01

[MO]
Sym=     1a
Ene=   -0.769074E+01
Spin= Alpha
Occup= 2.000000
     1     0.993279
     2    -0.026826
     3     0.008637
     4     0.000028
     5    -0.000010
     6     0.000032
     7    -0.000014
     8     0.000001
     9    -0.001942
    10     0.000108
    11     0.000359
    12    -0.001149
    13     0.000084
    14    -0.000005
    15     0.000002
    16     0.000732
    17     0.000757
    18     0.002094
    19     0.000033
    20    -0.000005
    21    -0.000240
    22    -0.000019
    23     0.000006
    24    -0.002730
    25     0.000262
    26     0.000326
    27    -0.002434
    28     0.000021
    29     0.000001
    30     0.000001
Sym=     2a
Ene=   -0.155995E+02
Spin= Alpha
Occup= 2.000000
     1    -0.000645
     2     0.000026
     3    -0.004930
     4    -0.000005
     5     0.000004
     6    -0.003028
     7     0.000007
     8    -0.000001
     9    -0.003541
    10    -0.000588
    11    -0.000608
    12     0.002500
    13    -0.000008
    14     0.000001
    15    -0.000002
    16     0.995246
    17    -0.024917
    18     0.022749
    19     0.000000
    20    -0.000001
    21    -0.005174
    22    -0.000007
    23     0.000001
    24     0.000191
    25     0.001530
    26     0.001806
    27     0.000353
    28     0.000095
    29     0.000001
    30    -0.000002
Sym=     3a
Ene=   -0.970900E+00
Spin= Alpha
Occup= 1.992949
     1     0.175378
     2     0.366123
     3     0.036322
     4    -0.002686
     5     0.000682
     6    -0.293173
     7     0.001333
     8    -0.000344
     9     0.013687
    10    -0.004774
    11    -0.005934
    12     0.057926
    13    -0.000407
    14     0.000470
    15    -0.000119
    16     0.168058
    17     0.342442
    18     0.025349
    19    -0.004077
    20     0.001032
    21     0.358598
    22     0.002960
    23    -0.000749
    24    -0.118643
    25     0.001268
    26     0.000666
    27     0.040036
    28    -0.000219
    29    -0.000278
    30     0.000071
Sym=     4a
Ene=   -0.658383E+00
Spin= Alpha
Occup= 1.989204
     1    -0.062633
     2    -0.160408
     3    -0.007665
     4     0.002196
     5    -0.000523
     6     0.091957
     7    -0.001088
     8     0.000261
     9     0.020746
    10    -0.004954
    11    -0.008048
    12    -0.014571
    13    -0.001045
    14    -0.000356
    15     0.000082
    16     0.208498
    17     0.463472
    18     0.418351
    19     0.003983
    20    -0.000923
    21    -0.395627
    22    -0.002853
    23     0.000664
    24     0.249826
    25     0.018237
    26     0.020099
    27     0.000308
    28     0.000624
    29     0.000161
    30    -0.000040
Sym=     5a
Ene=   -0.445067E+00
Spin= Alpha
Occup= 1.936447
     1     0.002187
     2     0.005115
     3     0.001125
     4     0.335787
     5    -0.090529
     6    -0.002783
     7    -0.172923
     8     0.046644
     9     0.000067
    10     0.000237
    11     0.000065
    12     0.000523
    13    -0.000057
    14    -0.046503
    15     0.012529
    16    -0.000293
    17    -0.000955
    18    -0.003363
    19     0.473484
    20    -0.127515
    21     0.005773
    22    -0.329028
    23     0.088594
    24    -0.002649
    25    -0.000198
    26    -0.000119
    27     0.000344
    28     0.000013
    29     0.026403
    30    -0.007112
Sym=     6a
Ene=   -0.252075E+00
Spin= Alpha
Occup= 1.000000
     1     0.122338
     2     0.295173
     3     0.222846
     4     0.059315
     5     0.223830
     6     0.318958
     7    -0.027729
     8    -0.105328
     9    -0.128277
    10     0.014846
    11     0.019965
    12     0.034949
    13     0.001685
    14    -0.009313
    15    -0.034200
    16    -0.018355
    17    -0.045669
    18     0.019760
    19     0.099850
    20     0.370768
    21    -0.100294
    22    -0.072361
    23    -0.268143
    24     0.061608
    25     0.000986
    26    -0.000038
    27    -0.011167
    28    -0.000366
    29     0.006262
    30     0.023364
Sym=     7a
Ene=   -0.252282E+00
Spin= Alpha
Occup= 1.000000
     1     0.137747
     2     0.332314
     3     0.251035
     4    -0.054473
     5    -0.198179
     6     0.359403
     7     0.025809
     8     0.093171
     9    -0.144500
    10     0.016753
    11     0.022451
    12     0.039348
    13     0.001940
    14     0.008080
    15     0.030414
    16    -0.020627
    17    -0.051340
    18     0.022444
    19    -0.088723
    20    -0.329139
    21    -0.113196
    22     0.064033
    23     0.238117
    24     0.069484
    25     0.001131
    26    -0.000028
    27    -0.012583
    28    -0.000371
    29    -0.005624
    30    -0.020723
Sym=     8a
Ene=   -0.259300E-01
Spin= Alpha
Occup= 0.060575
     1     0.001674
     2     0.007407
     3    -0.000927
     4     0.606278
     5    -0.163543
     6    -0.004643
     7    -0.328439
     8     0.088605
     9     0.002077
    10     0.002251
    11    -0.000712
    12    -0.000771
    13    -0.000951
    14    -0.049626
    15     0.013376
    16    -0.000609
    17    -0.001711
    18    -0.004125
    19    -0.639833
    20     0.172507
    21    -0.006915
    22     0.147598
    23    -0.039902
    24     0.000009
    25     0.000411
    26    -0.000521
    27    -0.000245
    28    -0.000276
    29     0.003921
    30    -0.001045
Sym=     9a
Ene=   -0.673521E-02
Spin= Alpha
Occup= 0.006757
     1    -0.032619
     2     0.031274
     3    -0.038247
     4    -0.000992
     5     0.000409
     6     0.073091
     7     0.000494
     8    -0.000276
     9    -0.027588
    10    -0.023011
    11    -0.028858
    12    -0.014957
    13    -0.001923
    14     0.000565
    15    -0.000130
    16    -0.284726
    17    -1.417817
    18     1.158014
    19    -0.006473
    20     0.001287
    21     0.698482
    22    -0.006644
    23     0.001592
    24     0.662068
    25     0.246606
    26     0.250921
    27    -0.072252
    28     0.001456
    29     0.003421
    30    -0.000648
Sym=    10a
Ene=   -0.683263E-02
Spin= Alpha
Occup= 0.005423
     1    -0.208946
     2    -0.910187
     3     0.212081
     4     0.005355
     5    -0.001196
     6     0.912368
     7     0.000517
     8    -0.000059
     9    -0.067620
    10     0.107914
    11     0.116814
    12    -0.148588
    13     0.002883
    14    -0.002581
    15     0.000527
    16     0.280455
    17     1.304057
    18    -0.276396
    19    -0.006819
    20     0.001629
    21     0.820186
    22    -0.002366
    23     0.000599
    24    -0.042963
    25    -0.184730
    26    -0.178919
    27     0.126010
    28     0.001870
    29    -0.002984
    30     0.000677
Sym=    11a
Ene=   -0.539452E-09
Spin= Alpha
Occup= 0.000000
     1    -0.016242
     2    -0.134996
     3    -0.530382
     4     0.310231
     5     0.253368
     6     0.112313
     7     0.392433
     8    -0.264868
     9    -0.323122
    10     0.462488
    11    -0.219084
    12    -0.020835
    13     0.098039
    14    -0.479928
    15    -0.663888
    16     0.002500
    17    -0.099692
    18     0.712849
    19    -0.254992
    20     0.085338
    21     0.015540
    22    -0.158604
    23     0.632443
    24    -0.172089
    25    -0.238400
    26     0.146999
    27    -0.001211
    28    -0.049313
    29    -0.273973
    30    -0.431151
Sym=    12a
Ene=   -0.197612E-10
Spin= Alpha
Occup= 0.000000
     1    -0.035363
     2    -0.004887
     3    -0.481744
     4     0.335312
     5    -0.080735
     6     0.148719
     7     0.756708
     8    -0.169331
     9     0.203876
    10     0.269582
    11     0.164691
    12     0.253373
    13    -0.096069
    14     0.911815
    15    -0.202155
    16    -0.000485
    17    -0.018562
    18    -0.015598
    19    -0.017500
    20     0.004053
    21    -0.007232
    22    -0.611030
    23     0.133309
    24     0.061973
    25    -0.003318
    26     0.022111
    27    -0.020072
    28     0.043260
    29     0.286482
    30    -0.055961
Sym=    13a
Ene=   -0.515846E-03
Spin= Alpha
Occup= 0.000410
     1     0.000180
     2     0.001103
     3     0.016706
     4     0.002341
     5     0.004013
     6     0.001759
     7     0.002157
     8     0.002181
     9     0.012693
    10     0.132485
    11    -0.116170
    12    -0.015072
    13     0.358199
    14    -0.002713
    15    -0.004441
    16     0.005553
    17     0.030434
    18    -0.015896
    19    -0.000709
    20     0.000359
    21     0.014205
    22     0.000579
    23     0.004095
    24     0.024038
    25     0.225727
    26    -0.299374
    27     0.036804
    28     0.829928
    29     0.001035
    30     0.006971
Sym=    14a
Ene=   -0.142911E-06
Spin= Alpha
Occup= 0.000000
     1    -0.062437
     2    -0.845193
     3    -0.228172
     4     0.009078
     5    -0.013792
     6     0.953698
     7     0.007280
     8    -0.006534
     9    -0.134778
    10     0.506799
    11     0.560581
    12    -1.273084
    13     0.017259
    14    -0.019687
    15     0.019111
    16    -0.230761
    17    -0.678445
    18     0.930128
    19    -0.002945
    20     0.002542
    21     0.517007
    22     0.002671
    23    -0.007697
    24    -0.620700
    25     0.239893
    26    -0.044530
    27     1.370063
    28    -0.096250
    29    -0.024873
    30     0.016312
Sym=    15a
Ene=   -0.136569E-02
Spin= Alpha
Occup= 0.000905
     1    -0.252842
     2    -1.812618
     3    -0.020500
     4     0.003803
     5    -0.000353
     6     0.620225
     7     0.000131
     8     0.000799
     9    -0.057217
    10     0.448933
    11     0.630724
    12    -0.174597
    13     0.055760
    14     0.002333
    15    -0.001756
    16     0.046522
    17     0.104194
    18     1.016322
    19     0.007335
    20    -0.001745
    21    -0.049680
    22     0.009485
    23    -0.001981
    24    -1.105241
    25     0.030339
    26     0.325915
    27    -0.484754
    28     0.094243
    29     0.006403
    30    -0.001142
Sym=    16a
Ene=   -0.301796E-07
Spin= Alpha
Occup= 0.000000
     1     0.255050
     2     1.959524
     3     0.318587
     4    -0.002582
     5    -0.012176
     6    -0.271347
     7     0.000094
     8    -0.011274
     9     0.368299
    10    -0.393630
    11    -0.407026
    12    -0.604398
    13    -0.003509
    14    -0.009016
    15     0.017461
    16    -0.614066
    17    -1.894736
    18    -2.157785
    19    -0.005191
    20     0.007607
    21     0.194403
    22    -0.003689
    23     0.001344
    24     0.796777
    25     1.503771
    26     1.671442
    27     0.982596
    28     0.058619
    29    -0.000788
    30     0.010393
Sym=    17a
Ene=   -0.229882E-10
Spin= Alpha
Occup= 0.000000
     1    -0.083316
     2    -0.060983
     3    -1.119254
     4    -0.136113
     5     0.063162
     6     0.377153
     7    -0.272987
     8     0.246214
     9     0.513665
    10     0.574941
    11     0.375871
    12     0.662709
    13    -0.165896
    14    -0.305915
    15     0.332432
    16     0.000033
    17    -0.073202
    18     0.016055
    19     0.009489
    20    -0.006949
    21    -0.053236
    22     0.206771
    23    -0.237499
    24     0.081455
    25    -0.062890
    26     0.060732
    27    -0.050856
    28     0.089621
    29    -0.085152
    30     0.150910
Sym=    18a
Ene=   -0.775254E-03
Spin= Alpha
Occup= 0.000616
     1    -0.011592
     2    -0.118969
     3    -0.108109
     4    -0.029817
     5     0.008935
     6     0.046610
     7     0.011727
     8    -0.002712
     9    -0.086148
    10     0.265460
    11    -0.318812
    12     0.066878
    13    -0.109242
    14    -0.021150
    15     0.004776
    16    -0.027647
    17    -0.173495
    18     0.208746
    19    -0.039270
    20     0.010681
    21    -0.081960
    22    -0.051100
    23     0.014662
    24    -0.223924
    25     0.878573
    26    -0.498547
    27    -0.202882
    28    -0.285234
    29     0.062176
    30    -0.015593
Sym=    19a
Ene=   -0.345865E-02
Spin= Alpha
Occup= 0.003616
     1    -0.000197
     2    -0.001423
     3    -0.000031
     4    -0.102729
     5    -0.380861
     6     0.000497
     7     0.076253
     8     0.282677
     9    -0.000300
    10     0.000420
    11    -0.000333
    12     0.000354
    13     0.000753
    14     0.016686
    15     0.061771
    16    -0.000214
    17    -0.001283
    18     0.001711
    19     0.154259
    20     0.572109
    21     0.000211
    22    -0.006596
    23    -0.024525
    24    -0.000615
    25     0.002942
    26    -0.002343
    27    -0.000070
    28     0.005651
    29    -0.140980
    30    -0.522630
Sym=    20a
Ene=   -0.102028E-02
Spin= Alpha
Occup= 0.000673
     1     0.000095
     2     0.000705
     3    -0.000119
     4     0.035464
     5     0.131077
     6     0.000076
     7    -0.077121
     8    -0.286303
     9     0.000354
    10     0.001448
    11    -0.000548
    12    -0.001286
    13     0.002332
    14     0.070625
    15     0.262343
    16     0.000467
    17     0.002334
    18    -0.000721
    19    -0.130088
    20    -0.482610
    21     0.000220
    22    -0.089569
    23    -0.332461
    24    -0.000005
    25     0.003097
    26    -0.003255
    27    -0.001724
    28     0.006931
    29    -0.172654
    30    -0.640686
Sym=    21a
Ene=   -0.423296E-08
Spin= Alpha
Occup= 0.000000
     1     0.005462
     2     0.039574
     3     0.003243
     4    -0.039275
     5    -0.146541
     6    -0.006850
     7     0.174294
     8     0.643416
     9     0.005055
    10    -0.005547
    11    -0.004211
    12    -0.017310
    13    -0.001580
    14    -0.075228
    15    -0.276915
    16    -0.001224
    17     0.004801
    18    -0.031682
    19    -0.195994
    20    -0.725029
    21     0.006331
    22    -0.302462
    23    -1.119364
    24     0.018313
    25     0.008793
    26     0.008449
    27     0.000451
    28     0.000327
    29     0.000923
    30     0.003641
Sym=    22a
Ene=   -0.104149E-08
Spin= Alpha
Occup= 0.000000
     1     0.722824
     2     2.476084
     3    -0.872649
     4     0.008607
     5     0.017036
     6     1.015559
     7     0.008912
     8     0.008911
     9    -0.211594
    10    -1.528463
    11    -1.453506
    12    -1.557151
    13     0.021443
    14     0.011098
    15    -0.015899
    16     0.000859
    17    -0.295055
    18     1.964793
    19     0.002464
    20    -0.001439
    21     0.029808
    22    -0.001819
    23     0.008714
    24    -1.322745
    25    -0.235091
    26    -0.203687
    27     0.233787
    28     0.010126
    29     0.001311
    30    -0.011692
Sym=    23a
Ene=   -0.145501E-02
Spin= Alpha
Occup= 0.001952
     1     0.001946
     2     0.018387
     3    -0.007579
     4     0.608611
     5    -0.164113
     6    -0.003724
     7     0.267363
     8    -0.072059
     9    -0.002093
    10    -0.001187
    11    -0.004163
    12     0.001380
    13    -0.001142
    14    -0.277794
    15     0.074871
    16    -0.000807
    17    -0.003238
    18    -0.003067
    19     0.567886
    20    -0.152989
    21     0.004678
    22     0.907461
    23    -0.244570
    24     0.013730
    25     0.003507
    26    -0.003646
    27     0.002860
    28    -0.001970
    29     0.270187
    30    -0.072766
Sym=    24a
Ene=   -0.692777E-03
Spin= Alpha
Occup= 0.000423
     1     0.005984
     2     0.051671
     3    -0.003790
     4     0.420731
     5    -0.113616
     6    -0.026596
     7    -0.022027
     8     0.005885
     9     0.003101
    10    -0.007091
    11    -0.027787
    12     0.018833
    13    -0.003708
    14    -0.107419
    15     0.029081
    16     0.005651
    17     0.019008
    18    -0.027916
    19     0.304643
    20    -0.082286
    21    -0.009635
    22     0.523079
    23    -0.141269
    24     0.020074
    25     0.071736
    26    -0.045909
    27    -0.060445
    28    -0.023530
    29    -0.937809
    30     0.253131
Sym=    25a
Ene=   -0.114963E-03
Spin= Alpha
Occup= 0.000049
     1    -0.441610
     2    -2.876217
     3     0.039239
     4     0.008240
     5     0.019171
     6     0.522592
     7    -0.004659
     8     0.015594
     9    -0.263107
    10     0.429344
    11     0.472809
    12     1.123514
    13     0.013156
    14     0.019409
    15    -0.029284
    16    -0.460036
    17    -2.254538
    18     1.379582
    19     0.014234
    20    -0.011622
    21    -0.372154
    22     0.014705
    23     0.000427
    24    -1.164782
    25     0.504233
    26     0.535028
    27     1.123434
    28     0.008723
    29    -0.006184
    30    -0.015662
Sym=    26a
Ene=   -0.159782E-08
Spin= Alpha
Occup= 0.000000
     1    -0.001340
     2     0.008758
     3     0.285831
     4     0.374046
     5    -0.285807
     6    -0.063154
     7     0.849283
     8    -0.135630
     9     0.182364
    10    -0.275445
    11     0.149544
    12     0.076810
    13    -0.046442
    14    -0.302624
    15     0.528183
    16    -0.000411
    17     0.036268
    18    -0.357188
    19    -0.464784
    20     0.116494
    21    -0.036464
    22    -0.682119
    23    -0.147053
    24     0.067367
    25     0.102063
    26    -0.075127
    27    -0.010503
    28     0.034401
    29    -0.147961
    30     0.322978
Sym=    27a
Ene=   -0.122369E-09
Spin= Alpha
Occup= 0.000000
     1     0.006404
     2     0.078380
     3     0.260137
     4     0.269991
     5     0.991850
     6    -0.080400
     7     0.272726
     8     0.979920
     9     0.124692
    10    -0.191937
    11     0.101923
    12    -0.017731
    13    -0.036525
    14     0.048678
    15     0.114891
    16    -0.001848
    17     0.058379
    18    -0.359773
    19     0.002868
    20     0.006361
    21     0.005900
    22    -0.021642
    23    -0.048819
    24     0.114303
    25     0.108816
    26    -0.046487
    27    -0.000117
    28     0.016311
    29    -0.037508
    30    -0.171779
Sym=    28a
Ene=    0.000000E+00
Spin= Alpha
Occup= 0.000000
     1    -0.012068
     2     0.103014
     3    -0.376626
     4    -0.019888
     5     0.006696
     6    -0.026357
     7    -0.119647
     8    -0.315001
     9    -0.029960
    10    -0.539841
    11     0.737321
    12     0.191272
    13    -0.220037
    14    -0.169622
    15    -0.540958
    16    -0.000457
    17    -0.042709
    18     0.073659
    19     0.003232
    20     0.009811
    21    -0.021421
    22     0.125601
    23     0.395377
    24     0.104406
    25     0.345319
    26    -0.285458
    27    -0.085119
    28     0.128363
    29    -0.073948
    30    -0.293806
Sym=    29a
Ene=    0.000000E+00
Spin= Alpha
Occup= 0.000000
     1     0.014944
     2    -0.125869
     3     0.353534
     4    -0.000053
     5    -0.000355
     6     0.024880
     7    -0.015857
     8    -0.017783
     9    -0.076340
    10     0.096532
    11    -0.303851
    12    -0.261285
    13    -0.875197
    14    -0.038757
    15    -0.023524
    16     0.000821
    17     0.032870
    18     0.068417
    19    -0.000529
    20     0.001046
    21     0.035920
    22     0.021865
    23     0.020419
    24    -0.143163
    25    -0.119434
    26     0.041697
    27     0.095203
    28     0.429885
    29    -0.023836
    30    -0.010651
Sym=    30a
Ene=    0.000000E+00
Spin= Alpha
Occup= 0.000000
     1    -0.001196
     2    -0.387763
     3    -2.042612
     4    -0.000942
     5    -0.003481
     6     0.112633
     7     0.036412
     8     0.131465
     9    -2.131530
    10     0.140438
    11     0.233459
    12    -0.380955
    13    -0.036421
    14     0.063924
    15     0.227942
    16     0.012917
    17    -0.516187
    18     3.602567
    19    -0.002595
    20    -0.003468
    21     0.054568
    22    -0.047934
    23    -0.165546
    24    -0.784217
    25    -0.193860
    26    -0.156828
    27    -0.134200
    28     0.047922
    29     0.033267
    30     0.123428
