[Molden Format]
p30-5 set                                                                       
[Atoms] AU
 C        1     6        0.0000        0.0000        1.1716
 C        2     6        0.0000        0.0000       -1.1716
[GTO]
    1 0
s    5 1.00
    1238.401693800000  0.551736504811E-02
     186.290049920000  0.410888285559E-01
      42.251176346000  0.182253821265E+00
      11.676557932000  0.468284594374E+00
       3.593050648200  0.445758173360E+00
s    1 1.00
       0.402451473630  0.100000000000E+01
s    1 1.00
       0.130901826680  0.100000000000E+01
p    3 1.00
       9.468097062100  0.568883320110E-01
       2.010354514200  0.312940593365E+00
       0.547710047070  0.760650165091E+00
p    1 1.00
       0.152686137950  0.100000000000E+01
d    1 1.00
       0.800000000000  0.100000000000E+01

    2 0
s    5 1.00
    1238.401693800000  0.551736504811E-02
     186.290049920000  0.410888285559E-01
      42.251176346000  0.182253821265E+00
      11.676557932000  0.468284594374E+00
       3.593050648200  0.445758173360E+00
s    1 1.00
       0.402451473630  0.100000000000E+01
s    1 1.00
       0.130901826680  0.100000000000E+01
p    3 1.00
       9.468097062100  0.568883320110E-01
       2.010354514200  0.312940593365E+00
       0.547710047070  0.760650165091E+00
p    1 1.00
       0.152686137950  0.100000000000E+01
d    1 1.00
       0.800000000000  0.100000000000E+01

[MO]
Sym=     1a
Ene=   -0.113076E+02
Spin= Alpha
Occup= 1.999781
     1     0.998958
     2     0.013587
     3    -0.020029
     4    -0.000167
     5     0.000523
     6     0.005446
     7    -0.000072
     8     0.000213
     9     0.003476
    10     0.000586
    11     0.000588
    12     0.001269
    13     0.000001
    14     0.000007
    15    -0.000028
    16     0.005820
    17    -0.014944
    18     0.004393
    19    -0.000130
    20     0.000394
    21    -0.009063
    22    -0.000070
    23     0.000222
    24     0.001075
    25    -0.000248
    26    -0.000252
    27    -0.001159
    28     0.000003
    29    -0.000008
    30     0.000027
Sym=     2a
Ene=   -0.113075E+02
Spin= Alpha
Occup= 1.999780
     1    -0.005801
     2     0.015015
     3    -0.004417
     4    -0.000132
     5     0.000393
     6    -0.009104
     7    -0.000076
     8     0.000220
     9     0.001095
    10     0.000242
    11     0.000254
    12     0.001169
    13    -0.000004
    14     0.000007
    15    -0.000026
    16    -0.998986
    17    -0.013531
    18     0.020105
    19    -0.000175
    20     0.000525
    21     0.005477
    22    -0.000071
    23     0.000215
    24     0.003503
    25    -0.000589
    26    -0.000591
    27    -0.001262
    28     0.000002
    29    -0.000009
    30     0.000029
Sym=     3a
Ene=   -0.104749E+01
Spin= Alpha
Occup= 1.996627
     1     0.166372
     2    -0.366478
     3    -0.112000
     4    -0.000044
     5     0.000415
     6     0.211950
     7    -0.000202
     8     0.000785
     9     0.031980
    10    -0.011354
    11    -0.011777
    12    -0.041823
    13     0.000178
    14    -0.000072
    15     0.000192
    16     0.166188
    17    -0.366456
    18    -0.111811
    19     0.000253
    20    -0.000495
    21    -0.211972
    22     0.000316
    23    -0.000820
    24    -0.031893
    25    -0.011355
    26    -0.011779
    27    -0.041828
    28     0.000174
    29    -0.000058
    30     0.000189
Sym=     4a
Ene=   -0.450211E+00
Spin= Alpha
Occup= 1.932412
     1    -0.000151
     2     0.000335
     3     0.000319
     4     0.413906
     5     0.133347
     6     0.000094
     7     0.233430
     8     0.075208
     9     0.000053
    10    -0.000121
    11     0.000164
    12     0.000025
    13     0.000236
    14    -0.029281
    15    -0.009434
    16     0.000074
    17    -0.000189
    18    -0.000261
    19     0.413842
    20     0.133332
    21     0.000154
    22     0.233380
    23     0.075187
    24     0.000054
    25     0.000135
    26    -0.000153
    27    -0.000006
    28    -0.000236
    29     0.029278
    30     0.009430
Sym=     5a
Ene=   -0.449594E+00
Spin= Alpha
Occup= 1.930545
     1     0.020313
     2    -0.046659
     3    -0.050098
     4    -0.132282
     5     0.410707
     6    -0.022843
     7    -0.074702
     8     0.231935
     9    -0.010097
    10    -0.002665
    11    -0.003593
    12    -0.002179
    13     0.000382
    14     0.009273
    15    -0.028788
    16    -0.020261
    17     0.046546
    18     0.050084
    19    -0.132297
    20     0.410753
    21    -0.022922
    22    -0.074714
    23     0.231964
    24    -0.010118
    25     0.002665
    26     0.003583
    27     0.002171
    28    -0.000380
    29    -0.009274
    30     0.028790
Sym=     6a
Ene=   -0.453144E+00
Spin= Alpha
Occup= 1.539744
     1     0.172999
     2    -0.386105
     3    -0.170113
     4     0.016817
     5    -0.051213
     6    -0.223701
     7     0.008814
     8    -0.026815
     9    -0.191014
    10    -0.017764
    11    -0.017879
    12    -0.037918
    13     0.000049
    14    -0.000394
    15     0.001205
    16    -0.173019
    17     0.386162
    18     0.170116
    19     0.016804
    20    -0.051200
    21    -0.223693
    22     0.008792
    23    -0.026803
    24    -0.191047
    25     0.017787
    26     0.017884
    27     0.037918
    28    -0.000044
    29     0.000396
    30    -0.001209
Sym=     7a
Ene=   -0.159597E+00
Spin= Alpha
Occup= 0.460133
     1    -0.075088
     2     0.228014
     3     0.185211
     4    -0.013906
     5     0.042366
     6     0.468202
     7    -0.011855
     8     0.036109
     9     0.227213
    10     0.006619
    11     0.007054
    12     0.024915
    13    -0.000189
    14    -0.002782
    15     0.008472
    16    -0.075085
    17     0.228083
    18     0.185012
    19     0.013892
    20    -0.042408
    21    -0.468175
    22     0.011841
    23    -0.036102
    24    -0.227226
    25     0.006567
    26     0.007063
    27     0.025000
    28    -0.000214
    29    -0.002789
    30     0.008489
Sym=     8a
Ene=   -0.271256E-01
Spin= Alpha
Occup= 0.066638
     1     0.008931
     2    -0.035350
     3     0.002758
     4    -0.196543
     5     0.610238
     6    -0.048065
     7    -0.101702
     8     0.315513
     9    -0.001969
    10     0.007068
    11    -0.017888
    12     0.010063
    13     0.010353
    14    -0.001151
    15     0.003575
    16     0.008891
    17    -0.035079
    18     0.000462
    19     0.196520
    20    -0.610162
    21     0.048260
    22     0.101715
    23    -0.315536
    24     0.000838
    25     0.007006
    26    -0.017864
    27     0.010161
    28     0.010304
    29    -0.001152
    30     0.003585
Sym=     9a
Ene=   -0.262048E-01
Spin= Alpha
Occup= 0.064073
     1    -0.000084
     2     0.000344
     3     0.000135
     4     0.618064
     5     0.199126
     6     0.000169
     7     0.307265
     8     0.098982
     9    -0.000120
    10    -0.000050
    11     0.000145
    12    -0.000093
    13     0.000389
    14     0.000004
    15     0.000000
    16    -0.000019
    17     0.000061
    18    -0.000156
    19    -0.618283
    20    -0.199190
    21    -0.000331
    22    -0.307122
    23    -0.098940
    24    -0.000147
    25    -0.000136
    26     0.000157
    27    -0.000041
    28     0.000357
    29    -0.000038
    30    -0.000013
Sym=    10a
Ene=   -0.289764E-02
Spin= Alpha
Occup= 0.002097
     1    -0.189250
     2     1.006695
     3    -0.525985
     4    -0.006911
     5     0.018392
     6    -1.096566
     7     0.008262
     8    -0.020521
     9     0.089602
    10     0.007105
    11    -0.029823
    12     0.243161
    13     0.015294
    14     0.005086
    15    -0.014705
    16     0.188253
    17    -0.996685
    18     0.510599
    19    -0.004230
    20     0.015687
    21    -1.098223
    22     0.002495
    23    -0.012425
    24     0.087684
    25    -0.003685
    26     0.034100
    27    -0.240218
    28    -0.015630
    29    -0.005573
    30     0.017958
Sym=    11a
Ene=   -0.375632E-05
Spin= Alpha
Occup= 0.000000
     1    -0.001831
     2    -0.027908
     3     0.355186
     4    -0.570021
     5    -0.202194
     6    -0.007653
     7     1.094535
     8     0.433802
     9    -0.268374
    10    -0.097978
    11    -0.078795
    12     0.153768
    13    -0.006882
    14     0.291945
    15     0.034796
    16    -0.000767
    17    -0.086151
    18    -0.251019
    19     0.587082
    20     0.204900
    21    -0.109964
    22    -1.106372
    23    -0.435660
    24    -0.054779
    25    -0.008797
    26    -0.042284
    27    -0.048500
    28     0.014425
    29     0.275505
    30     0.031365
Sym=    12a
Ene=   -0.792599E-07
Spin= Alpha
Occup= 0.000000
     1    -0.029458
     2    -0.118798
     3     2.069812
     4    -0.007084
     5     0.012218
     6     0.032485
     7    -0.171452
     8    -0.609603
     9    -1.016723
    10    -0.270571
    11    -0.352370
    12     0.056327
    13     0.032694
    14     0.264971
    15     0.766353
    16    -0.023647
    17    -0.060623
    18    -1.362793
    19     0.009700
    20    -0.016808
    21    -0.039260
    22     0.169311
    23     0.614425
    24    -0.682369
    25    -0.219125
    26    -0.241309
    27    -0.014352
    28     0.010561
    29     0.262896
    30     0.766795
Sym=    13a
Ene=   -0.645785E-04
Spin= Alpha
Occup= 0.000070
     1    -0.057752
     2     0.016767
     3     0.065759
     4     0.013531
     5    -0.058442
     6    -0.240539
     7     0.000760
     8     0.034731
     9     0.833363
    10    -0.412381
    11    -0.217029
    12    -0.617070
    13    -0.080346
    14     0.004790
    15    -0.012328
    16     0.062687
    17    -0.017569
    18    -0.133468
    19     0.028627
    20    -0.070406
    21    -0.259292
    22    -0.037221
    23     0.076605
    24     0.848549
    25     0.446376
    26     0.259990
    27     0.638584
    28     0.076523
    29    -0.011242
    30     0.037029
Sym=    14a
Ene=   -0.170594E-02
Spin= Alpha
Occup= 0.002546
     1     0.016630
     2    -0.091560
     3     0.209217
     4    -0.180917
     5     0.561634
     6    -0.013998
     7     0.182407
     8    -0.566196
     9    -0.019728
    10    -0.007398
    11    -0.024268
    12     0.011772
    13     0.007015
    14     0.058801
    15    -0.182648
    16    -0.016610
    17     0.091444
    18    -0.208643
    19    -0.181058
    20     0.562045
    21    -0.013670
    22     0.182603
    23    -0.566914
    24    -0.020173
    25     0.007342
    26     0.024160
    27    -0.012096
    28    -0.007021
    29    -0.058874
    30     0.182723
Sym=    15a
Ene=   -0.174406E-02
Spin= Alpha
Occup= 0.002593
     1    -0.000115
     2     0.000766
     3    -0.002068
     4     0.563421
     5     0.181510
     6     0.000043
     7    -0.572770
     8    -0.184516
     9     0.000426
    10     0.001006
    11    -0.000910
    12     0.000237
    13    -0.001470
    14    -0.190389
    15    -0.061351
    16     0.000046
    17    -0.000273
    18     0.001329
    19     0.557762
    20     0.179686
    21    -0.000129
    22    -0.561816
    23    -0.181004
    24     0.000485
    25    -0.000870
    26     0.000910
    27     0.000029
    28     0.001492
    29     0.188540
    30     0.060746
Sym=    16a
Ene=   -0.134262E-02
Spin= Alpha
Occup= 0.000919
     1    -0.047006
     2     0.310627
     3    -0.244342
     4     0.011864
     5    -0.035831
     6    -0.143590
     7    -0.009173
     8     0.026665
     9     0.482671
    10    -0.081729
    11    -0.292627
    12     0.444814
    13     0.087542
    14    -0.004869
    15     0.015063
    16    -0.047910
    17     0.316886
    18    -0.264734
    19    -0.012015
    20     0.035724
    21     0.152716
    22     0.009370
    23    -0.026555
    24    -0.492337
    25    -0.083386
    26    -0.291228
    27     0.448871
    28     0.086262
    29    -0.005063
    30     0.014949
Sym=    17a
Ene=   -0.693540E-07
Spin= Alpha
Occup= 0.000000
     1     0.019579
     2     0.064981
     3    -0.065834
     4    -0.004153
     5    -0.003384
     6    -0.028410
     7    -0.631308
     8     0.116228
     9     0.024772
    10     0.176503
    11     0.217196
    12    -0.007540
    13    -0.017256
    14     0.867713
    15    -0.131266
    16     0.020113
    17     0.068865
    18    -0.461883
    19     0.004986
    20     0.003738
    21     0.025521
    22     0.631004
    23    -0.116207
    24    -0.224596
    25     0.189787
    26     0.225675
    27    -0.024514
    28    -0.014370
    29     0.865696
    30    -0.132447
Sym=    18a
Ene=   -0.125003E-04
Spin= Alpha
Occup= 0.000001
     1     0.049204
     2    -0.690533
     3    -0.555922
     4    -0.004757
     5     0.031501
     6     0.995080
     7    -0.010846
     8    -0.002321
     9    -0.435727
    10     0.432482
    11     0.154190
    12    -0.465056
    13     0.114650
    14     0.008392
    15    -0.030059
    16     0.035235
    17    -0.005417
    18     0.105474
    19    -0.004816
    20    -0.002612
    21     0.209044
    22     0.017265
    23    -0.016891
    24     0.861725
    25    -0.407559
    26    -0.093219
    27     1.329166
    28    -0.129606
    29     0.015394
    30    -0.051748
Sym=    19a
Ene=   -0.320405E-04
Spin= Alpha
Occup= 0.000026
     1     0.040713
     2     0.102317
     3    -1.778627
     4    -0.065176
     5     0.093733
     6    -0.031432
     7     0.186950
     8    -0.363292
     9     0.582758
    10     0.476925
    11     0.067941
    12     0.298761
    13    -0.524686
    14    -0.079635
    15     0.229847
    16     0.034545
    17    -0.091968
    18     0.862403
    19     0.054726
    20    -0.094373
    21    -0.207812
    22    -0.179194
    23     0.361449
    24     0.648659
    25     0.045410
    26     0.571694
    27    -0.080545
    28     0.475717
    29    -0.068424
    30     0.235484
Sym=    20a
Ene=   -0.135574E-03
Spin= Alpha
Occup= 0.000151
     1     0.004548
     2     0.060448
     3    -0.233132
     4     0.183154
     5    -0.573583
     6     0.013088
     7    -0.313131
     8     0.983064
     9     0.036039
    10     0.066285
    11     0.152713
    12    -0.018823
    13    -0.035302
    14    -0.133346
    15     0.414297
    16     0.003812
    17     0.063686
    18    -0.119003
    19    -0.182774
    20     0.572257
    21    -0.006563
    22     0.313036
    23    -0.982621
    24     0.015974
    25     0.079276
    26     0.120715
    27    -0.009407
    28    -0.017560
    29    -0.134455
    30     0.417678
Sym=    21a
Ene=   -0.608061E-03
Spin= Alpha
Occup= 0.000543
     1    -0.013656
     2     0.026943
     3     0.092546
     4    -0.009517
     5     0.032428
     6    -0.044612
     7     0.009025
     8    -0.032428
     9     0.087002
    10    -0.571427
    11     0.339765
    12     0.097889
    13    -0.378163
    14     0.003736
    15    -0.011876
    16    -0.013757
    17     0.029980
    18     0.046018
    19     0.009628
    20    -0.032100
    21     0.049046
    22    -0.009095
    23     0.032205
    24    -0.111471
    25    -0.571065
    26     0.337393
    27     0.101123
    28    -0.377016
    29     0.003585
    30    -0.012138
Sym=    22a
Ene=   -0.301477E-03
Spin= Alpha
Occup= 0.000174
     1    -0.000056
     2    -0.000164
     3     0.001989
     4    -0.357379
     5    -0.115919
     6     0.000236
     7     0.206922
     8     0.066973
     9     0.000005
    10    -0.005709
    11     0.005670
    12    -0.001337
    13     0.009686
    14    -0.544932
    15    -0.176576
    16    -0.000080
    17     0.000753
    18    -0.000882
    19    -0.338096
    20    -0.109644
    21     0.001088
    22     0.172796
    23     0.056180
    24    -0.001282
    25     0.004829
    26    -0.005968
    27     0.000621
    28    -0.009493
    29     0.557795
    30     0.181095
Sym=    23a
Ene=   -0.979696E-05
Spin= Alpha
Occup= 0.000001
     1     0.013084
     2    -0.083561
     3     1.350546
     4     0.103816
     5    -0.026366
     6    -0.161285
     7    -0.251277
     8     0.179946
     9    -1.400317
    10    -0.543510
    11    -0.310524
    12     1.240225
    13    -0.096783
    14     0.027256
    15    -0.196066
    16     0.026835
    17    -0.660054
    18    -1.286359
    19    -0.098529
    20    -0.000922
    21    -0.919641
    22     0.247541
    23    -0.160985
    24    -0.010533
    25     0.235143
    26    -0.029274
    27    -0.429993
    28     0.109588
    29     0.024835
    30    -0.177031
Sym=    24a
Ene=   -0.144248E-09
Spin= Alpha
Occup= 0.000000
     1     0.001958
     2    -0.103738
     3     9.505483
     4    -0.007487
     5     0.018896
     6    -0.050958
     7     0.092489
     8    -0.023717
     9    -4.743341
    10    -0.026760
    11    -0.114732
    12     0.244281
    13     0.034541
    14    -0.099696
    15    -0.035750
    16     0.031134
    17     0.202969
    18    -9.935595
    19     0.015310
    20    -0.043025
    21    -0.015786
    22    -0.100689
    23     0.048792
    24    -4.927129
    25     0.325098
    26     0.470317
    27    -0.262570
    28    -0.058311
    29    -0.100713
    30    -0.031932
Sym=    25a
Ene=   -0.295119E-04
Spin= Alpha
Occup= 0.000026
     1     0.046509
     2     0.115231
     3    -1.994359
     4    -0.064024
     5     0.110711
     6    -0.034668
     7     0.205202
     8    -0.418574
     9     0.645932
    10    -0.030252
    11     0.651143
    12     0.341926
    13     0.326104
    14    -0.077860
    15     0.266822
    16     0.039396
    17    -0.104344
    18     0.949359
    19     0.072022
    20    -0.105177
    21    -0.236713
    22    -0.209701
    23     0.412288
    24     0.722664
    25     0.625809
    26     0.078033
    27    -0.092076
    28    -0.381984
    29    -0.089477
    30     0.265574
Sym=    26a
Ene=   -0.159318E-03
Spin= Alpha
Occup= 0.000120
     1     0.017655
     2    -0.255218
     3     1.097643
     4    -0.004504
     5     0.020294
     6     0.356930
     7     0.003035
     8    -0.023042
     9    -0.677253
    10    -0.263031
    11     0.670901
    12    -0.358850
    13    -0.387080
    14     0.011186
    15    -0.036354
    16    -0.021025
    17     0.246587
    18    -1.042474
    19    -0.003839
    20     0.005119
    21     0.363321
    22     0.007150
    23    -0.008251
    24    -0.674618
    25     0.234862
    26    -0.712723
    27     0.352887
    28     0.392640
    29    -0.002592
    30     0.006897
Sym=    27a
Ene=   -0.427620E-03
Spin= Alpha
Occup= 0.000379
     1     0.000005
     2     0.000097
     3    -0.000942
     4     0.000284
     5     0.000188
     6     0.000005
     7    -0.001156
     8    -0.000715
     9     0.000352
    10    -0.339047
    11     0.339268
    12     0.000074
    13     0.544632
    14    -0.000225
    15    -0.000093
    16     0.000014
    17    -0.000005
    18     0.000463
    19    -0.000060
    20    -0.000227
    21    -0.000098
    22     0.001029
    23     0.000726
    24     0.000390
    25    -0.338846
    26     0.339174
    27    -0.000004
    28     0.544691
    29    -0.000556
    30     0.000019
Sym=    28a
Ene=   -0.313881E-03
Spin= Alpha
Occup= 0.000183
     1    -0.004081
     2     0.010769
     3     0.155073
     4    -0.109001
     5     0.336465
     6    -0.055371
     7     0.057668
     8    -0.178037
     9    -0.022447
    10    -0.051875
    11    -0.003448
    12    -0.003926
    13    -0.019761
    14    -0.179726
    15     0.553093
    16     0.003712
    17    -0.009879
    18    -0.151358
    19    -0.110303
    20     0.339632
    21    -0.053715
    22     0.059716
    23    -0.183867
    24    -0.024393
    25     0.050073
    26     0.001148
    27     0.002047
    28     0.020246
    29     0.178641
    30    -0.551669
Sym=    29a
Ene=   -0.307009E-02
Spin= Alpha
Occup= 0.000219
     1    -0.013963
     2     0.108112
     3     0.144707
     4    -0.000017
     5     0.000994
     6    -0.299870
     7    -0.001438
     8     0.002039
     9    -0.064858
    10     0.006183
    11    -0.001286
    12     0.182139
    13     0.003067
    14     0.002206
    15    -0.006570
    16    -0.983948
    17     4.424641
    18    -0.737997
    19     0.006127
    20    -0.019866
    21    -0.344891
    22    -0.004747
    23     0.017062
    24     0.031589
    25    -1.712282
    26    -1.693361
    27    -1.929605
    28    -0.007831
    29     0.003094
    30    -0.009311
Sym=    30a
Ene=   -0.306510E-02
Spin= Alpha
Occup= 0.000218
     1    -0.983641
     2     4.419575
     3    -0.704434
     4    -0.005982
     5     0.019600
     6     0.351093
     7     0.004297
     8    -0.015953
     9    -0.048487
    10    -1.711093
    11    -1.694096
    12    -1.934484
    13    -0.007046
    14     0.002990
    15    -0.009684
    16    -0.013994
    17     0.110097
    18     0.114796
    19    -0.000363
    20    -0.000474
    21     0.305835
    22     0.002091
    23    -0.003311
    24     0.049392
    25     0.003870
    26    -0.002213
    27     0.187570
    28     0.002489
    29     0.002163
    30    -0.007166
