[Molden Format]
p30-5 set                                                                       
[Atoms] AU
 B        1     5        0.0000        0.0000       -1.4143
 N        2     7        0.0000        0.0000        1.0102
[GTO]
    1 0
s    5 1.00
     839.318300860000 -0.562888359825E-02
     126.264648430000 -0.418327946095E-01
      28.620600763000 -0.184174881258E+00
       7.879372271000 -0.468396550281E+00
       2.408885717200 -0.444579308833E+00
s    1 1.00
       0.251051090360  0.100000000000E+01
s    1 1.00
       0.083648866069  0.100000000000E+01
p    3 1.00
       6.033222361900 -0.540325003228E-01
       1.249915786600 -0.301940343932E+00
       0.338716763500 -0.771707916582E+00
p    1 1.00
       0.096415632351  0.100000000000E+01
d    1 1.00
       0.500000000000  0.100000000000E+01

    2 0
s    5 1.00
    1712.841585300000 -0.544779958049E-02
     257.648126770000 -0.406271746324E-01
      58.458245853000 -0.181119622506E+00
      16.198367905000 -0.468439755632E+00
       5.005260080900 -0.446168462892E+00
s    1 1.00
       0.587318565710  0.100000000000E+01
s    1 1.00
       0.187645922530  0.100000000000E+01
p    3 1.00
      13.571470233000 -0.588481169695E-01
       2.925737287400 -0.320246247625E+00
       0.799277507540 -0.753282265204E+00
p    1 1.00
       0.219543480340  0.100000000000E+01
d    1 1.00
       1.000000000000  0.100000000000E+01

[MO]
Sym=     1a
Ene=   -0.769430E+01
Spin= Alpha
Occup= 2.000000
     1     0.996321
     2    -0.018015
     3     0.009095
     4    -0.004642
     5     0.002309
     6    -0.006254
     7     0.002268
     8    -0.001157
     9    -0.002467
    10     0.000155
    11     0.000417
    12     0.000172
    13     0.000182
    14     0.000726
    15    -0.000353
    16     0.006399
    17    -0.006972
    18    -0.008228
    19    -0.006293
    20     0.003214
    21     0.012360
    22     0.004602
    23    -0.002350
    24    -0.009376
    25    -0.000133
    26    -0.000091
    27    -0.002754
    28     0.000028
    29    -0.000403
    30     0.000208
Sym=     2a
Ene=   -0.471635E+01
Spin= Alpha
Occup= 2.000000
     1    -0.016983
     2    -0.122966
     3    -0.003295
     4     0.023744
     5    -0.015465
     6     0.057229
     7    -0.011642
     8     0.007617
     9     0.024423
    10    -0.004671
    11    -0.007097
    12    -0.008521
    13    -0.001654
    14    -0.003672
    15     0.002472
    16    -0.317048
    17     0.427903
    18     0.356905
    19     0.031689
    20    -0.022450
    21    -0.307327
    22    -0.023242
    23     0.016254
    24     0.199927
    25     0.016842
    26     0.017468
    27     0.002735
    28     0.000444
    29     0.002009
    30    -0.001459
Sym=     3a
Ene=   -0.121308E+01
Spin= Alpha
Occup= 2.000000
     1     0.151532
     2     0.332996
     3     0.032827
     4     0.188285
     5    -0.084188
     6    -0.246650
     7    -0.092307
     8     0.041583
     9     0.002923
    10    -0.001433
    11    -0.002363
    12     0.046550
    13    -0.000499
    14    -0.029437
    15     0.012970
    16    -0.105150
    17     0.148939
    18    -0.100632
    19     0.256743
    20    -0.114029
    21     0.358556
    22    -0.187527
    23     0.083648
    24    -0.134672
    25    -0.004058
    26    -0.005336
    27     0.032763
    28    -0.000777
    29     0.016399
    30    -0.007186
Sym=     4a
Ene=   -0.113942E+01
Spin= Alpha
Occup= 2.000000
     1     0.091462
     2     0.233285
     3     0.023674
     4    -0.252787
     5     0.120383
     6    -0.175838
     7     0.124167
     8    -0.058910
     9     0.004652
    10    -0.001658
    11    -0.002332
    12     0.033431
    13    -0.000662
    14     0.039375
    15    -0.018885
    16    -0.109212
    17     0.152756
    18    -0.038175
    19    -0.344155
    20     0.164261
    21     0.233072
    22     0.251656
    23    -0.119857
    24    -0.078978
    25    -0.001393
    26    -0.002080
    27     0.024460
    28    -0.000622
    29    -0.021899
    30     0.010522
Sym=     5a
Ene=   -0.105586E+02
Spin= Alpha
Occup= 1.999731
     1     0.032889
     2     0.053107
     3     0.004346
     4    -0.000503
     5    -0.001168
     6    -0.064611
     7     0.000306
     8     0.000692
     9     0.012450
    10    -0.004550
    11    -0.006442
    12     0.016028
    13    -0.001304
    14     0.000070
    15     0.000169
    16     0.968059
    17     0.301078
    18     0.218309
    19    -0.001006
    20    -0.002275
    21    -0.063357
    22     0.000728
    23     0.001647
    24     0.076209
    25     0.011682
    26     0.011789
    27     0.015417
    28     0.000077
    29    -0.000063
    30    -0.000136
Sym=     6a
Ene=   -0.257423E+00
Spin= Alpha
Occup= 1.022933
     1    -0.125723
     2    -0.302605
     3    -0.220507
     4     0.071335
     5     0.152741
     6    -0.350408
     7    -0.024824
     8    -0.053151
     9     0.153690
    10    -0.016038
    11    -0.011811
    12    -0.046446
    13     0.002912
    14    -0.020811
    15    -0.044569
    16     0.018084
    17     0.043606
    18    -0.037769
    19     0.167935
    20     0.359596
    21     0.100082
    22    -0.120393
    23    -0.257786
    24    -0.057505
    25    -0.001316
    26    -0.001072
    27     0.012387
    28     0.000169
    29     0.008997
    30     0.019261
Sym=     7a
Ene=   -0.284865E-08
Spin= Alpha
Occup= 0.000000
     1     0.148944
     2     0.552294
     3    -0.455058
     4    -0.051787
     5    -0.046904
     6     0.188175
     7    -0.107716
     8    -0.227376
     9     0.025850
    10     0.020831
    11    -0.278419
    12    -0.360162
    13    -0.164912
    14     0.061010
    15     0.144005
    16     0.013781
    17     0.018031
    18     0.491018
    19    -0.113436
    20    -0.246802
    21    -0.069537
    22    -0.129087
    23    -0.252883
    24    -0.305812
    25     0.298863
    26    -0.309839
    27    -0.205915
    28    -0.378666
    29    -0.180871
    30    -0.487779
Sym=     8a
Ene=   -0.352219E-09
Spin= Alpha
Occup= 0.000000
     1     0.029468
     2     0.232601
     3    -0.130625
     4    -0.001739
     5     0.036806
     6    -0.013976
     7     0.071701
     8     0.024425
     9    -0.040435
    10    -0.049521
    11    -0.053560
    12    -0.106660
    13     0.021282
    14    -0.067672
    15    -0.032901
    16     0.036093
    17     0.042149
    18     0.450539
    19    -0.074509
    20    -0.533555
    21     0.176931
    22    -0.191319
    23    -0.419338
    24     0.136779
    25    -0.024277
    26     0.025046
    27    -0.534899
    28     0.059151
    29    -0.515139
    30     0.526763
Sym=     9a
Ene=   -0.142833E-26
Spin= Alpha
Occup= 0.000000
     1     0.009351
     2    -0.133108
     3     0.604643
     4    -0.018293
     5    -0.026346
     6     0.039988
     7     0.100183
     8     0.233058
     9     0.206200
    10    -0.181509
    11    -0.148371
    12    -0.050996
    13     0.490745
    14     0.463730
    15     0.433160
    16    -0.047498
    17    -0.022189
    18    -0.792984
    19    -0.078016
    20    -0.245924
    21    -0.164397
    22    -0.338703
    23    -0.586808
    24    -0.237398
    25    -0.179703
    26     0.490740
    27     0.409984
    28    -0.201859
    29     0.021120
    30     0.056781
Sym=    10a
Ene=   -0.100261E-31
Spin= Alpha
Occup= 0.000000
     1    -0.011444
     2    -0.136428
     3    -0.698943
     4     0.006022
     5     0.037178
     6     0.000575
     7     0.705499
     8     0.681306
     9    -0.272144
    10     0.142554
    11    -0.140448
    12     0.427224
    13    -0.100260
    14     0.551912
    15     0.242786
    16     0.045139
    17    -0.196891
    18     1.182534
    19    -0.090196
    20     0.115901
    21    -0.090549
    22    -0.728481
    23    -0.355707
    24    -0.135201
    25    -0.068713
    26    -0.431403
    27    -0.324489
    28    -0.043746
    29     0.280282
    30     0.188953
Sym=    11a
Ene=   -0.232316E-19
Spin= Alpha
Occup= 0.000000
     1    -0.021200
     2    -0.370153
     3    -0.278226
     4     0.005355
     5    -0.014065
     6     0.061135
     7    -0.361235
     8     0.199929
     9     0.195277
    10    -0.369318
    11     0.078511
    12     0.873765
    13     0.220646
    14    -0.333543
    15    -0.015439
    16     0.012073
    17    -0.310797
    18     0.406438
    19     0.116100
    20    -0.249057
    21    -0.439275
    22     0.487574
    23    -0.349153
    24    -0.399518
    25     0.041960
    26    -0.597580
    27     0.145120
    28    -0.278021
    29    -0.082830
    30     0.209536
Sym=    12a
Ene=   -0.764854E-12
Spin= Alpha
Occup= 0.000000
     1    -0.034078
     2    -1.563675
     3    -0.918995
     4     0.270962
     5     0.439823
     6     1.507903
     7     0.128522
     8     0.191101
     9    -0.209453
    10     0.278819
    11     0.185700
    12    -0.664884
    13    -0.015785
    14    -0.068771
    15    -0.035291
    16    -0.013737
    17    -0.231662
    18     2.427550
    19    -0.018199
    20     0.004685
    21     0.019574
    22     0.091417
    23     0.165972
    24    -1.932520
    25    -0.309488
    26    -0.091828
    27     0.612486
    28     0.159864
    29    -0.069564
    30    -0.020218
Sym=    13a
Ene=   -0.247476E+00
Spin= Alpha
Occup= 0.977067
     1    -0.123358
     2    -0.297807
     3    -0.220473
     4    -0.067407
     5    -0.144364
     6    -0.361059
     7     0.022673
     8     0.048556
     9     0.154802
    10    -0.015876
    11    -0.011783
    12    -0.045793
    13     0.002824
    14     0.021289
    15     0.045586
    16     0.014958
    17     0.035991
    18    -0.047857
    19    -0.167691
    20    -0.359091
    21     0.114294
    22     0.120402
    23     0.257822
    24    -0.064566
    25    -0.001712
    26    -0.002184
    27     0.013382
    28    -0.000326
    29    -0.008913
    30    -0.019089
Sym=    14a
Ene=   -0.366862E-09
Spin= Alpha
Occup= 0.000000
     1     0.094492
     2     0.310841
     3    -0.220700
     4     0.020335
     5     0.009414
     6     0.278674
     7     0.038194
     8     0.015167
     9    -0.163407
    10     0.078212
    11     0.025721
    12    -0.655722
    13    -0.018643
    14    -0.037359
    15    -0.001588
    16     0.059267
    17     0.283079
    18     0.776037
    19    -0.165127
    20    -0.123141
    21     0.522457
    22    -0.178040
    23    -0.134357
    24     0.355696
    25    -0.677387
    26    -0.633685
    27     0.612858
    28     0.071614
    29    -0.192810
    30    -0.081618
Sym=    15a
Ene=   -0.416489E-15
Spin= Alpha
Occup= 0.000000
     1     0.007822
     2    -0.007233
     3     0.148418
     4    -0.007547
     5     0.002356
     6    -0.004407
     7    -0.137358
     8     0.058773
     9    -0.018397
    10    -0.239698
    11    -0.166933
    12     0.194405
    13     0.012592
    14     0.188479
    15    -0.047437
    16    -0.025904
    17    -0.145729
    18    -0.180385
    19    -0.020065
    20    -0.162417
    21    -0.093820
    22    -0.014501
    23    -0.215674
    24    -0.117722
    25     0.419245
    26    -0.195421
    27     0.100107
    28     0.774525
    29    -0.127521
    30    -0.269768
Sym=    16a
Ene=   -0.181484E-17
Spin= Alpha
Occup= 0.000000
     1    -0.022972
     2     0.236472
     3    -0.088339
     4    -0.019423
     5    -0.054088
     6    -0.037198
     7     0.348387
     8    -0.805495
     9     0.426740
    10    -0.008286
    11     0.361889
    12     0.284360
    13     0.080086
    14     0.413328
    15     0.090689
    16    -0.024366
    17     0.049704
    18    -0.934223
    19    -0.186734
    20     0.150733
    21    -0.078876
    22    -0.593279
    23     0.611809
    24     0.307883
    25     0.311167
    26    -0.112143
    27     0.184311
    28     0.037816
    29     0.289786
    30     0.266770
Sym=    17a
Ene=   -0.121536E-17
Spin= Alpha
Occup= 0.000000
     1     0.013896
     2    -0.522802
     3    -0.344474
     4    -0.001393
     5     0.011514
     6     0.052649
     7     0.087572
     8    -0.498101
     9    -0.426885
    10    -0.388174
    11    -0.362908
    12     0.520036
    13     0.191150
    14     0.131758
    15    -0.397840
    16     0.091309
    17    -0.333116
    18     2.162541
    19    -0.063831
    20     0.184267
    21    -0.142778
    22    -0.184692
    23     0.619312
    24    -0.560041
    25    -0.731597
    26    -0.282052
    27    -0.603419
    28    -0.044861
    29    -0.031853
    30    -0.397452
Sym=    18a
Ene=   -0.196921E-12
Spin= Alpha
Occup= 0.000000
     1    -0.003805
     2    -0.073705
     3    -0.054498
     4    -0.849287
     5     0.425830
     6     0.045605
     7    -0.711053
     8     0.348226
     9    -0.002296
    10    -0.158156
    11     0.203002
    12    -0.002089
    13    -0.145139
    14     0.165730
    15    -0.075590
    16    -0.002190
    17    -0.016746
    18     0.076271
    19    -0.280952
    20     0.127938
    21    -0.036603
    22    -0.419813
    23     0.201817
    24    -0.100379
    25    -0.020070
    26     0.033120
    27     0.011160
    28    -0.032482
    29     0.111256
    30    -0.035504
Sym=    19a
Ene=   -0.274155E-09
Spin= Alpha
Occup= 0.000000
     1     0.013884
     2     0.008679
     3    -0.082910
     4     0.266794
     5    -0.169926
     6     0.090350
     7    -0.056097
     8    -0.021955
     9    -0.000557
    10    -0.426020
    11     0.435716
    12    -0.080278
    13    -0.474291
    14     0.533491
    15    -0.207966
    16     0.002327
    17     0.008061
    18     0.137857
    19     0.235748
    20    -0.107852
    21     0.028582
    22     0.260596
    23    -0.136391
    24    -0.065240
    25    -0.131788
    26     0.066090
    27     0.042527
    28    -0.066893
    29     0.042143
    30    -0.024679
Sym=    20a
Ene=   -0.183852E-09
Spin= Alpha
Occup= 0.000000
     1     0.046473
     2     0.233648
     3    -0.172574
     4     0.019974
     5    -0.009397
     6     0.005707
     7    -0.020980
     8     0.080021
     9    -0.020377
    10    -0.062796
    11    -0.008133
    12    -0.117948
    13     0.009704
    14     0.011195
    15    -0.085140
    16     0.032952
    17     0.049920
    18     0.415827
    19    -0.403860
    20    -0.518815
    21     0.092505
    22    -0.249952
    23    -0.549912
    24     0.065873
    25    -0.189711
    26    -0.000047
    27    -0.300604
    28     0.123138
    29     0.717571
    30    -0.042158
Sym=    21a
Ene=   -0.119875E-18
Spin= Alpha
Occup= 0.000000
     1    -0.024220
     2     0.692633
     3     0.692160
     4     0.011454
     5     0.007187
     6    -0.168055
     7     0.020669
     8     0.038554
     9     1.521050
    10     0.120760
    11    -0.222357
    12     0.939856
    13    -0.328693
    14    -0.177538
    15     0.144452
    16    -0.024317
    17     0.127731
    18    -2.636177
    19    -0.061104
    20    -0.030411
    21    -0.079587
    22    -0.014257
    23    -0.114133
    24     0.902462
    25    -0.130064
    26     0.546819
    27    -0.027945
    28     0.135767
    29    -0.136474
    30    -0.061407
Sym=    22a
Ene=   -0.183365E-24
Spin= Alpha
Occup= 0.000000
     1    -0.005602
     2     0.088781
     3    -0.406128
     4    -0.022430
     5    -0.019781
     6    -0.036230
     7    -0.631877
     8     0.029203
     9    -0.087113
    10     0.220082
    11    -0.016256
    12     0.079162
    13     0.112128
    14     0.142703
    15     0.664853
    16     0.062471
    17     0.049846
    18     0.792241
    19     0.331840
    20     0.246374
    21     0.179637
    22     0.688855
    23    -0.064106
    24     0.245629
    25    -0.247098
    26    -0.222218
    27    -0.472348
    28     0.104926
    29     0.100436
    30     0.324988
Sym=    23a
Ene=   -0.146893E-21
Spin= Alpha
Occup= 0.000000
     1    -0.004006
     2    -0.202102
     3    -1.334799
     4     0.024676
     5    -0.019636
     6     0.050846
     7     0.172179
     8     0.011042
     9    -1.221490
    10    -0.305188
    11     0.348398
    12     0.090819
    13    -0.192283
    14    -0.365917
    15     0.526598
    16    -0.000145
    17    -0.399251
    18     2.055873
    19    -0.090100
    20    -0.018396
    21    -0.039077
    22    -0.078832
    23    -0.243494
    24    -0.417465
    25    -0.212392
    26     0.096623
    27    -0.067077
    28     0.102168
    29    -0.153783
    30     0.032105
Sym=    24a
Ene=   -0.773776E-13
Spin= Alpha
Occup= 0.000000
     1    -0.033863
     2     0.786031
     3    -0.057160
     4     0.310476
     5     0.641727
     6    -0.541764
     7     0.194144
     8     0.400191
     9     0.424206
    10     0.029932
    11     0.597542
    12     0.321968
    13     0.361052
    14    -0.045377
    15    -0.215644
    16     0.011428
    17     0.241711
    18    -1.348000
    19     0.019260
    20    -0.036260
    21     0.090889
    22     0.093659
    23     0.152131
    24     1.110358
    25     0.210496
    26     0.119237
    27    -0.431076
    28    -0.052107
    29    -0.141263
    30    -0.426087
Sym=    25a
Ene=   -0.211159E-07
Spin= Alpha
Occup= 0.000000
     1    -0.209911
     2    -0.951954
     3     0.697974
     4     0.357881
     5     0.693155
     6    -0.577414
     7     0.067197
     8     0.156318
     9    -0.240253
    10     0.324872
    11    -0.073807
    12     0.681233
    13    -0.309729
    14     0.027859
    15     0.056021
    16     0.000940
    17    -0.102129
    18    -0.343415
    19    -0.116984
    20    -0.163832
    21    -0.247969
    22     0.054374
    23     0.132382
    24     0.187789
    25    -0.004815
    26    -0.095352
    27    -0.023777
    28    -0.079865
    29    -0.007996
    30     0.003261
Sym=    26a
Ene=   -0.349184E-02
Spin= Alpha
Occup= 0.000269
     1    -0.015816
     2    -0.029927
     3    -0.009600
     4    -0.000052
     5     0.000068
     6     0.024078
     7    -0.000033
     8    -0.000090
     9    -0.041440
    10    -0.013319
    11    -0.011915
    12     0.064870
    13     0.000970
    14     0.000021
    15    -0.000014
    16     0.881273
    17     3.544385
    18    -0.295388
    19    -0.000429
    20    -0.001246
    21    -0.019656
    22    -0.000271
    23    -0.000707
    24    -0.067013
    25    -1.363232
    26    -1.363718
    27    -1.399774
    28    -0.000332
    29     0.000030
    30    -0.000007
Sym=    27a
Ene=   -0.206202E-05
Spin= Alpha
Occup= 0.000000
     1    -0.144064
     2    -0.668554
     3     0.132428
     4     0.453939
     5    -0.216932
     6     0.552666
     7    -0.048072
     8     0.023401
     9    -0.020455
    10     0.064428
    11     0.151385
    12    -0.078377
    13     0.062547
    14    -0.170059
    15     0.081403
    16    -0.042717
    17    -0.075737
    18     0.035432
    19    -0.672188
    20     0.320163
    21     0.540749
    22    -0.181837
    23     0.087135
    24     0.001292
    25     0.349781
    26     0.140692
    27     0.261134
    28    -0.148548
    29    -0.230377
    30     0.109392
Sym=    28a
Ene=   -0.226263E-07
Spin= Alpha
Occup= 0.000000
     1     0.246984
     2     1.261253
     3    -0.194549
     4     0.311142
     5    -0.199380
     6    -0.893816
     7    -0.015824
     8     0.003683
     9     0.073061
    10    -0.221780
    11    -0.254040
    12     0.121377
    13    -0.017498
    14    -0.153748
    15     0.060257
    16     0.052788
    17     0.098009
    18    -0.295891
    19    -0.441459
    20     0.226843
    21    -0.846354
    22    -0.114945
    23     0.052041
    24     0.048284
    25    -0.313605
    26    -0.138503
    27    -0.515272
    28     0.130828
    29    -0.240931
    30     0.142506
Sym=    29a
Ene=   -0.517666E-21
Spin= Alpha
Occup= 0.000000
     1    -0.027819
     2     0.159809
     3    -1.495425
     4    -0.022126
     5     0.000375
     6    -0.010956
     7    -0.259116
     8    -0.122015
     9    -0.854597
    10     0.633033
    11    -0.106553
    12     0.260663
    13     0.088580
    14     0.177930
    15    -0.397251
    16    -0.034475
    17    -0.308360
    18     0.977386
    19     0.030746
    20    -0.125351
    21    -0.039839
    22     0.128781
    23     0.102726
    24     0.019692
    25    -0.069141
    26     0.311469
    27     0.145526
    28    -0.049123
    29     0.002311
    30    -0.067194
Sym=    30a
Ene=   -0.131456E-10
Spin= Alpha
Occup= 0.000000
     1     0.860029
     2     4.145475
     3    -0.246941
     4     0.094538
     5     0.243254
     6     0.133517
     7     0.033758
     8     0.093225
     9     0.043029
    10    -1.702391
    11    -1.729907
    12    -1.640623
    13    -0.018172
    14     0.006681
    15    -0.010278
    16    -0.016814
    17     0.112166
    18    -0.331513
    19     0.042338
    20     0.048945
    21     0.215591
    22     0.080332
    23     0.150431
    24     0.140793
    25     0.156676
    26     0.132348
    27     0.051962
    28    -0.034707
    29     0.058555
    30     0.059918
