[Molden Format]
p30-5 set                                                                       
[Atoms] AU
 N        1     7        0.0000        0.0000        0.6122
 O        2     8        0.0000        2.0810       -0.2678
 O        3     8        0.0000       -2.0810       -0.2678
[GTO]
    1 0
s    5 1.00
    1712.841585300000 -0.544779958049E-02
     257.648126770000 -0.406271746324E-01
      58.458245853000 -0.181119622506E+00
      16.198367905000 -0.468439755632E+00
       5.005260080900 -0.446168462892E+00
s    1 1.00
       0.587318565710  0.100000000000E+01
s    1 1.00
       0.187645922530  0.100000000000E+01
p    3 1.00
      13.571470233000 -0.588481169695E-01
       2.925737287400 -0.320246247625E+00
       0.799277507540 -0.753282265204E+00
p    1 1.00
       0.219543480340  0.100000000000E+01
d    1 1.00
       1.000000000000  0.100000000000E+01

    2 0
s    5 1.00
    2266.176778500000 -0.538935039217E-02
     340.870101910000 -0.402347213890E-01
      77.363135167000 -0.180081842055E+00
      21.479644940000 -0.468288576577E+00
       6.658943312400 -0.446926171602E+00
s    1 1.00
       0.809759756680  0.100000000000E+01
s    1 1.00
       0.255307722340  0.100000000000E+01
p    3 1.00
      17.721504317000  0.626302487632E-01
       3.863550544000  0.333311384824E+00
       1.048092088300  0.741486383081E+00
p    1 1.00
       0.276415444110  0.100000000000E+01
d    1 1.00
       1.200000000000  0.100000000000E+01

    3 0
s    5 1.00
    2266.176778500000 -0.538935039217E-02
     340.870101910000 -0.402347213890E-01
      77.363135167000 -0.180081842055E+00
      21.479644940000 -0.468288576577E+00
       6.658943312400 -0.446926171602E+00
s    1 1.00
       0.809759756680  0.100000000000E+01
s    1 1.00
       0.255307722340  0.100000000000E+01
p    3 1.00
      17.721504317000  0.626302487632E-01
       3.863550544000  0.333311384824E+00
       1.048092088300  0.741486383081E+00
p    1 1.00
       0.276415444110  0.100000000000E+01
d    1 1.00
       1.200000000000  0.100000000000E+01

[MO]
Sym=     1a
Ene=   -0.206845E+02
Spin= Alpha
Occup= 2.000000
     1     0.001901
     2    -0.004546
     3     0.005403
     4    -0.000001
     5     0.002702
     6     0.002152
     7     0.000005
     8     0.003936
     9    -0.004046
    10    -0.000223
    11    -0.002082
    12    -0.000125
    13     0.000001
    14    -0.000001
    15     0.000601
    16    -0.993863
    17     0.027509
    18    -0.021722
    19     0.000001
    20    -0.004288
    21    -0.001642
    22    -0.000007
    23     0.002473
    24    -0.003086
    25    -0.003630
    26    -0.003287
    27    -0.003827
    28    -0.000000
    29     0.000000
    30     0.000007
    31    -0.000025
    32    -0.000196
    33    -0.000022
    34     0.000003
    35     0.000023
    36    -0.000207
    37    -0.000004
    38    -0.000166
    39     0.000980
    40    -0.000113
    41     0.000078
    42     0.000203
    43    -0.000001
    44    -0.000001
    45     0.000231
Sym=     2a
Ene=   -0.206848E+02
Spin= Alpha
Occup= 2.000000
     1     0.000203
     2    -0.001234
     3     0.006955
     4     0.000002
     5    -0.001565
     6    -0.000400
     7    -0.000004
     8    -0.004870
     9    -0.002471
    10    -0.000153
    11    -0.001699
    12    -0.000267
    13     0.000000
    14     0.000002
    15    -0.000740
    16    -0.000088
    17    -0.000071
    18     0.000620
    19    -0.000002
    20    -0.000347
    21    -0.000671
    22     0.000005
    23    -0.000327
    24     0.000437
    25    -0.000112
    26     0.000032
    27     0.000200
    28    -0.000002
    29    -0.000002
    30    -0.000249
    31    -0.992184
    32     0.031202
    33    -0.020104
    34    -0.000002
    35     0.002611
    36     0.002124
    37     0.000003
    38    -0.004162
    39    -0.000847
    40    -0.003787
    41    -0.003347
    42    -0.003389
    43     0.000002
    44    -0.000002
    45     0.000137
Sym=     3a
Ene=   -0.265291E+01
Spin= Alpha
Occup= 2.000000
     1     0.158250
     2    -0.395064
     3    -0.229030
     4    -0.000013
     5     0.088806
     6     0.319228
     7     0.000011
     8    -0.073280
     9    -0.196536
    10    -0.012938
    11    -0.039871
    12     0.009309
    13    -0.000002
    14    -0.000001
    15    -0.010082
    16    -0.014266
    17    -0.047377
    18     0.056158
    19     0.000013
    20    -0.047950
    21    -0.309558
    22     0.000006
    23    -0.073078
    24    -0.170560
    25     0.001926
    26     0.008686
    27    -0.012629
    28    -0.000004
    29    -0.000001
    30     0.019912
    31    -0.006726
    32    -0.009703
    33    -0.036200
    34     0.000013
    35    -0.004559
    36    -0.007285
    37     0.000002
    38    -0.017590
    39     0.026554
    40     0.000445
    41     0.007712
    42    -0.001952
    43    -0.000001
    44    -0.000001
    45    -0.004978
Sym=     4a
Ene=   -0.140904E+02
Spin= Alpha
Occup= 1.999862
     1     0.998537
     2     0.112616
     3     0.090407
     4     0.000007
     5    -0.030564
     6    -0.114172
     7    -0.000002
     8     0.025868
     9     0.069903
    10     0.007545
    11     0.014156
    12    -0.001025
    13    -0.000002
    14     0.000000
    15     0.003607
    16     0.009743
    17     0.017336
    18    -0.020082
    19    -0.000005
    20     0.013070
    21     0.111370
    22    -0.000004
    23     0.022665
    24     0.061937
    25    -0.000844
    26    -0.001281
    27     0.004769
    28    -0.000003
    29    -0.000001
    30    -0.008134
    31     0.004071
    32     0.004892
    33     0.012819
    34    -0.000002
    35     0.006649
    36     0.004708
    37    -0.000007
    38     0.010015
    39    -0.007702
    40    -0.000371
    41    -0.000806
    42     0.001005
    43    -0.000002
    44    -0.000002
    45     0.002881
Sym=     5a
Ene=   -0.881091E+00
Spin= Alpha
Occup= 1.993920
     1    -0.022232
     2    -0.068329
     3    -0.041887
     4    -0.153429
     5     0.033775
     6     0.004490
     7     0.072880
     8    -0.013042
     9    -0.001871
    10    -0.005460
    11    -0.001168
    12    -0.005113
    13     0.026500
    14    -0.012764
    15    -0.000779
    16     0.187893
    17     0.405171
    18     0.325664
    19     0.426032
    20     0.181517
    21    -0.056919
    22     0.295286
    23     0.107980
    24    -0.032394
    25     0.010505
    26     0.000986
    27     0.008461
    28    -0.021209
    29     0.008216
    30     0.004054
    31     0.002166
    32     0.006123
    33     0.007753
    34    -0.041555
    35     0.008442
    36     0.005643
    37    -0.055252
    38     0.010074
    39     0.004833
    40     0.000009
    41     0.000661
    42     0.000944
    43     0.002145
    44     0.000542
    45     0.000881
Sym=     6a
Ene=   -0.881089E+00
Spin= Alpha
Occup= 1.993920
     1    -0.022238
     2    -0.068335
     3    -0.041875
     4     0.153426
     5     0.033770
     6     0.004511
     7    -0.072877
     8    -0.013041
     9    -0.001885
    10    -0.005459
    11    -0.001169
    12    -0.005110
    13    -0.026501
    14     0.012763
    15    -0.000783
    16     0.187894
    17     0.405168
    18     0.325642
    19    -0.426036
    20     0.181499
    21    -0.056938
    22    -0.295292
    23     0.107979
    24    -0.032412
    25     0.010512
    26     0.000987
    27     0.008469
    28     0.021209
    29    -0.008216
    30     0.004056
    31     0.002167
    32     0.006129
    33     0.007738
    34     0.041563
    35     0.008441
    36     0.005643
    37     0.055255
    38     0.010067
    39     0.004836
    40     0.000010
    41     0.000659
    42     0.000944
    43    -0.002141
    44    -0.000539
    45     0.000883
Sym=     7a
Ene=   -0.875794E+00
Spin= Alpha
Occup= 1.993746
     1    -0.024605
     2    -0.069898
     3    -0.099456
     4    -0.000004
     5    -0.009803
     6    -0.052031
     7     0.000005
     8    -0.044891
     9     0.016367
    10    -0.004920
    11     0.012924
    12    -0.018930
    13     0.000000
    14     0.000001
    15    -0.019111
    16     0.008842
    17     0.018801
    18     0.083765
    19    -0.000000
    20    -0.051656
    21    -0.059610
    22    -0.000002
    23    -0.072841
    24    -0.033674
    25     0.000223
    26     0.000522
    27    -0.001767
    28     0.000001
    29    -0.000003
    30     0.001874
    31     0.201796
    32     0.426170
    33     0.323093
    34     0.000009
    35    -0.356409
    36     0.324112
    37     0.000006
    38    -0.237288
    39     0.227644
    40     0.010852
    41    -0.009320
    42     0.020006
    43    -0.000000
    44    -0.000002
    45     0.007341
Sym=     8a
Ene=   -0.839057E+00
Spin= Alpha
Occup= 1.992926
     1    -0.015905
     2    -0.058284
     3     0.035661
     4    -0.000005
     5    -0.068919
     6     0.050171
     7    -0.000000
     8     0.082153
     9    -0.012323
    10    -0.004422
    11    -0.016954
    12     0.009615
    13    -0.000002
    14     0.000001
    15     0.023894
    16    -0.005942
    17    -0.009811
    18    -0.082475
    19    -0.000004
    20     0.044522
    21     0.091274
    22    -0.000001
    23     0.065013
    24     0.055060
    25    -0.000230
    26     0.000141
    27     0.004383
    28     0.000002
    29     0.000001
    30    -0.005042
    31     0.179243
    32     0.377502
    33     0.335508
    34     0.000007
    35     0.019947
    36    -0.511442
    37     0.000012
    38     0.039582
    39    -0.341211
    40     0.008354
    41     0.012049
    42    -0.003393
    43     0.000002
    44     0.000001
    45    -0.018447
Sym=     9a
Ene=   -0.127734E+01
Spin= Alpha
Occup= 1.989911
     1     0.129243
     2     0.299426
     3     0.039355
     4    -0.000000
     5     0.362070
     6     0.184078
     7     0.000003
     8    -0.073565
     9    -0.071167
    10    -0.004117
    11     0.026609
    12     0.010466
    13     0.000002
    14     0.000000
    15     0.025004
    16    -0.012685
    17    -0.027005
    18    -0.005581
    19     0.000000
    20     0.029565
    21    -0.108337
    22     0.000000
    23     0.025830
    24    -0.057530
    25     0.001210
    26     0.001369
    27    -0.006373
    28     0.000003
    29     0.000000
    30     0.010731
    31     0.095651
    32     0.200426
    33    -0.026213
    34    -0.000004
    35     0.378749
    36     0.146969
    37    -0.000000
    38     0.165216
    39     0.068167
    40    -0.007743
    41     0.033098
    42    -0.003587
    43    -0.000001
    44     0.000002
    45     0.017673
Sym=    10a
Ene=   -0.116515E+01
Spin= Alpha
Occup= 1.987116
     1     0.106695
     2     0.245157
     3    -0.014048
     4    -0.000008
     5    -0.298737
     6     0.275894
     7     0.000003
     8     0.009678
     9    -0.121248
    10    -0.009236
    11     0.019577
    12     0.016385
    13    -0.000000
    14    -0.000002
    15    -0.037230
    16     0.092138
    17     0.196769
    18     0.017907
    19     0.000012
    20    -0.458560
    21    -0.046509
    22     0.000007
    23    -0.235665
    24    -0.050416
    25    -0.007798
    26     0.039588
    27    -0.011542
    28    -0.000003
    29    -0.000001
    30    -0.007274
    31    -0.010386
    32    -0.020175
    33    -0.049399
    34    -0.000001
    35    -0.051004
    36     0.012369
    37    -0.000003
    38    -0.065085
    39     0.030577
    40     0.001073
    41     0.002768
    42    -0.003846
    43    -0.000002
    44     0.000002
    45    -0.006222
Sym=    11a
Ene=   -0.643415E+00
Spin= Alpha
Occup= 1.924253
     1    -0.000011
     2    -0.000023
     3    -0.000011
     4     0.364424
     5    -0.000002
     6     0.000013
     7    -0.214101
     8     0.000002
     9    -0.000005
    10     0.000004
    11    -0.000001
    12     0.000003
    13     0.040955
    14     0.019332
    15    -0.000002
    16     0.000003
    17     0.000016
    18    -0.000000
    19     0.116594
    20    -0.000002
    21    -0.000003
    22     0.140514
    23     0.000003
    24    -0.000004
    25    -0.000004
    26    -0.000003
    27    -0.000000
    28     0.004822
    29    -0.001799
    30    -0.000001
    31     0.000009
    32     0.000016
    33     0.000017
    34    -0.513430
    35    -0.000005
    36     0.000000
    37    -0.339908
    38     0.000001
    39    -0.000003
    40    -0.000004
    41    -0.000000
    42    -0.000001
    43    -0.033484
    44    -0.013779
    45    -0.000001
Sym=    12a
Ene=   -0.257314E+00
Spin= Alpha
Occup= 1.000000
     1    -0.079505
     2    -0.164447
     3    -0.437573
     4    -0.000004
     5    -0.001071
     6     0.397601
     7     0.000007
     8    -0.010217
     9    -0.237439
    10    -0.018097
    11     0.033670
    12    -0.030005
    13    -0.000003
    14     0.000002
    15     0.011499
    16     0.023557
    17     0.062696
    18     0.074361
    19    -0.000010
    20     0.038370
    21     0.547946
    22    -0.000004
    23     0.022925
    24     0.417039
    25    -0.001095
    26     0.003891
    27     0.005005
    28    -0.000002
    29    -0.000001
    30    -0.009699
    31     0.026391
    32     0.062740
    33     0.080306
    34     0.000002
    35     0.085530
    36     0.193744
    37    -0.000002
    38     0.064113
    39     0.194054
    40    -0.001131
    41     0.011092
    42    -0.003300
    43     0.000002
    44    -0.000001
    45     0.000921
Sym=    13a
Ene=   -0.418022E-01
Spin= Alpha
Occup= 0.074257
     1    -0.000003
     2    -0.000028
     3     0.000138
     4     0.602048
     5     0.000007
     6     0.000016
     7    -0.363521
     8    -0.000038
     9    -0.000031
    10    -0.000013
    11    -0.000007
    12    -0.000011
    13     0.046553
    14     0.014063
    15    -0.000002
    16    -0.000001
    17     0.000001
    18    -0.000015
    19     0.210450
    20     0.000009
    21     0.000002
    22     0.313748
    23    -0.000002
    24     0.000016
    25    -0.000007
    26     0.000002
    27    -0.000003
    28    -0.005944
    29     0.002119
    30    -0.000002
    31    -0.000001
    32     0.000001
    33    -0.000091
    34     0.631825
    35     0.000008
    36     0.000004
    37     0.130680
    38    -0.000052
    39    -0.000014
    40    -0.000006
    41     0.000004
    42     0.000008
    43    -0.013016
    44    -0.001600
    45     0.000000
Sym=    14a
Ene=   -0.151406E-01
Spin= Alpha
Occup= 0.011533
     1    -0.165424
     2    -0.563914
     3    -0.063251
     4     0.000057
     5     0.642481
     6    -0.460347
     7     0.000102
     8    -0.032486
     9     0.033151
    10     0.056787
    11    -0.043630
    12    -0.044103
    13    -0.000011
    14     0.000022
    15     0.146492
    16     0.164567
    17     0.573523
    18     0.005494
    19     0.000017
    20    -0.819130
    21     0.117674
    22    -0.000044
    23    -0.024282
    24     0.163294
    25    -0.067263
    26     0.097884
    27    -0.068238
    28     0.000002
    29     0.000001
    30    -0.016577
    31     0.006912
    32    -0.005876
    33     0.053179
    34     0.000016
    35     0.045414
    36    -0.027120
    37    -0.000046
    38     0.129781
    39    -0.104243
    40    -0.001305
    41     0.002359
    42    -0.007711
    43     0.000000
    44    -0.000001
    45    -0.011489
Sym=    15a
Ene=   -0.131445E-01
Spin= Alpha
Occup= 0.009124
     1    -0.179809
     2    -0.664358
     3     0.066412
     4    -0.000023
     5    -0.781303
     6    -0.369655
     7    -0.000055
     8     0.026645
     9     0.040617
    10     0.078443
    11    -0.095557
    12     0.042014
    13     0.000004
    14    -0.000016
    15    -0.125382
    16    -0.009077
    17    -0.035359
    18    -0.020687
    19    -0.000002
    20     0.015021
    21    -0.073388
    22     0.000019
    23    -0.044820
    24    -0.075314
    25    -0.000749
    26    -0.010646
    27     0.003132
    28    -0.000003
    29     0.000001
    30    -0.001854
    31     0.161946
    32     0.546670
    33     0.034499
    34    -0.000010
    35     0.753346
    36     0.314805
    37     0.000035
    38     0.137028
    39     0.025538
    40    -0.089942
    41     0.105783
    42    -0.044453
    43     0.000003
    44     0.000005
    45     0.077984
Sym=    16a
Ene=   -0.757464E-02
Spin= Alpha
Occup= 0.005965
     1    -0.013285
     2    -0.086252
     3    -0.072441
     4     0.000012
     5    -0.034434
     6    -0.069504
     7     0.000025
     8     0.075009
     9     0.168469
    10    -0.006422
    11    -0.060298
    12    -0.002260
    13    -0.000000
    14     0.000001
    15     0.010629
    16    -0.002680
    17     0.011874
    18    -0.017714
    19     0.000002
    20     0.003268
    21     0.001804
    22    -0.000014
    23     0.033166
    24     0.012546
    25    -0.007760
    26     0.011606
    27    -0.006322
    28    -0.000000
    29    -0.000003
    30    -0.009197
    31    -0.253690
    32    -1.215049
    33     1.074380
    34    -0.000008
    35    -0.000736
    36     0.756114
    37    -0.000000
    38     0.154736
    39    -0.826380
    40     0.213884
    41     0.239373
    42    -0.054508
    43     0.000005
    44     0.000012
    45     0.031447
Sym=    17a
Ene=   -0.311198E-03
Spin= Alpha
Occup= 0.000125
     1     0.006050
     2     0.302576
     3     0.679490
     4    -0.001573
     5     0.522493
     6     0.287681
     7    -0.003288
     8     0.823001
     9    -0.049544
    10    -0.070984
    11     0.486783
    12     0.210157
    13     0.000197
    14    -0.000282
    15     0.362947
    16    -0.004500
    17     0.102324
    18    -0.969922
    19    -0.000198
    20     0.014845
    21     0.045175
    22     0.001209
    23     0.318338
    24    -0.444013
    25     0.054831
    26     0.073323
    27    -0.062260
    28    -0.000216
    29     0.000109
    30     0.078921
    31     0.038815
    32     0.313029
    33    -0.364302
    34    -0.000650
    35     0.086807
    36     0.067949
    37     0.001909
    38    -0.716298
    39    -0.173428
    40     0.514631
    41    -1.066915
    42     0.323062
    43    -0.000247
    44     0.000364
    45    -0.491161
Sym=    18a
Ene=   -0.656001E-02
Spin= Alpha
Occup= 0.004990
     1     0.011893
     2     0.052551
     3     0.147154
     4     0.063557
     5    -0.059494
     6     0.009356
     7    -0.116503
     8     0.119457
     9    -0.027766
    10     0.009749
    11     0.036272
    12     0.023321
    13     0.031860
    14    -0.001811
    15    -0.012428
    16     0.263878
    17     1.259749
    18    -1.100938
    19    -0.681097
    20     0.306418
    21    -0.104606
    22     0.788871
    23    -0.196770
    24     0.039404
    25    -0.007642
    26    -0.205986
    27    -0.228881
    28    -0.096056
    29     0.039070
    30    -0.005899
    31    -0.000410
    32    -0.002385
    33     0.023329
    34     0.049751
    35    -0.004939
    36     0.000992
    37    -0.052962
    38     0.004708
    39    -0.013431
    40    -0.000902
    41    -0.002439
    42    -0.006142
    43    -0.002859
    44    -0.001503
    45    -0.006643
Sym=    19a
Ene=   -0.110006E-02
Spin= Alpha
Occup= 0.000561
     1     0.003385
     2     0.037226
     3    -0.005037
     4    -0.091484
     5    -0.025170
     6     0.036779
     7    -0.070355
     8    -0.032548
     9    -0.043303
    10     0.011934
    11    -0.014032
    12     0.025728
    13    -0.091755
    14     0.040981
    15    -0.014646
    16    -0.106486
    17    -0.399630
    18     0.049447
    19    -0.074136
    20    -0.095872
    21    -0.170264
    22     0.163755
    23     0.144929
    24     0.214042
    25     0.765930
    26    -0.010664
    27    -0.320573
    28     0.592767
    29    -0.288635
    30    -0.129847
    31    -0.000494
    32    -0.000492
    33    -0.029223
    34    -0.072267
    35     0.012249
    36     0.012378
    37     0.085807
    38    -0.017541
    39    -0.015212
    40     0.006092
    41     0.004713
    42     0.005717
    43    -0.002631
    44    -0.010167
    45     0.002412
Sym=    20a
Ene=   -0.235363E-02
Spin= Alpha
Occup= 0.000137
     1     0.863475
     2     3.442241
     3    -0.403591
     4     0.000423
     5    -0.073205
     6    -0.249333
     7     0.000741
     8    -0.091315
     9    -0.063481
    10    -1.439408
    11    -1.757865
    12    -1.517352
    13    -0.000027
    14     0.000133
    15    -0.003176
    16     0.020542
    17     0.024282
    18     0.260793
    19     0.000042
    20    -0.185388
    21     0.043295
    22    -0.000252
    23    -0.101152
    24     0.119449
    25    -0.029565
    26     0.090241
    27     0.022963
    28     0.000005
    29    -0.000008
    30    -0.040019
    31     0.020327
    32     0.007551
    33     0.206086
    34     0.000074
    35     0.179852
    36     0.085991
    37    -0.000315
    38     0.161150
    39     0.064139
    40    -0.019364
    41     0.118799
    42     0.001716
    43     0.000053
    44    -0.000006
    45     0.081418
Sym=    21a
Ene=   -0.135882E-06
Spin= Alpha
Occup= 0.000000
     1    -0.000359
     2     0.027735
     3    -0.071153
     4     0.163945
     5     0.027254
     6    -0.008326
     7     0.542382
     8     0.087864
     9    -0.004188
    10    -0.044071
    11    -0.085895
    12     0.141159
    13    -0.564701
    14    -0.783866
    15    -0.127095
    16    -0.007389
    17    -0.032293
    18    -0.026110
    19     0.038072
    20     0.014709
    21     0.048916
    22    -0.158031
    23    -0.009379
    24    -0.021796
    25     0.032717
    26    -0.077266
    27     0.086999
    28     0.014633
    29     0.062180
    30    -0.084174
    31     0.001762
    32     0.025642
    33     0.030756
    34     0.037270
    35     0.055069
    36     0.023399
    37    -0.442626
    38    -0.018002
    39     0.002639
    40     0.014783
    41     0.035288
    42     0.004960
    43    -0.553192
    44    -0.122505
    45     0.021946
Sym=    22a
Ene=   -0.255421E-09
Spin= Alpha
Occup= 0.000000
     1    -0.044174
     2     0.177696
     3     1.551156
     4    -0.075883
     5    -0.123883
     6     0.061975
     7    -0.251734
     8    -3.648604
     9    -0.780136
    10     0.469538
    11     0.388979
    12     0.223435
    13    -0.280232
    14     0.148558
    15     0.022790
    16     0.003740
    17    -0.029677
    18     1.546012
    19     0.001016
    20    -0.120128
    21    -0.132813
    22     0.178701
    23    -0.040617
    24     0.831762
    25     0.047771
    26    -0.375960
    27     0.276633
    28    -0.151295
    29     0.052803
    30     0.169838
    31    -0.010794
    32     0.632377
    33    -4.539573
    34    -0.072328
    35     0.221428
    36     0.145437
    37     0.124347
    38    -2.125418
    39    -1.258680
    40     0.359713
    41     0.016896
    42     0.168970
    43    -0.048888
    44    -0.036849
    45    -0.308870
Sym=    23a
Ene=   -0.855432E-10
Spin= Alpha
Occup= 0.000000
     1    -0.020824
     2     0.021735
     3     3.612377
     4    -0.052074
     5    -0.327883
     6    -0.035303
     7    -0.138422
     8     3.567116
     9    -1.687634
    10     0.117701
    11     0.068286
    12     0.293549
    13    -0.081614
    14     0.039853
    15    -0.136812
    16    -0.014657
    17     0.904999
    18    -6.059064
    19    -0.003352
    20    -0.350034
    21     0.136195
    22     0.077074
    23     3.048709
    24    -1.187202
    25     0.499607
    26    -0.185701
    27     0.500711
    28    -0.050306
    29     0.018245
    30     0.286964
    31     0.000622
    32    -0.038030
    33     0.845285
    34    -0.033987
    35     0.013981
    36    -0.047069
    37     0.073329
    38     0.016039
    39     0.916388
    40    -0.142394
    41    -0.077103
    42     0.198298
    43    -0.013644
    44    -0.008771
    45     0.328279
Sym=    24a
Ene=   -0.396729E-03
Spin= Alpha
Occup= 0.000247
     1    -0.000053
     2     0.000337
     3    -0.004616
     4    -0.318052
     5    -0.000664
     6    -0.000307
     7     0.035693
     8     0.000279
     9     0.000906
    10     0.000734
    11     0.000406
    12     0.000353
    13     0.148695
    14     0.251132
    15    -0.000110
    16     0.000039
    17     0.000020
    18     0.001497
    19     0.001725
    20    -0.000118
    21    -0.000045
    22    -0.098099
    23    -0.000186
    24    -0.000065
    25     0.000077
    26    -0.000463
    27     0.000028
    28     0.069529
    29    -0.046341
    30     0.000459
    31    -0.000167
    32    -0.001098
    33     0.002944
    34     0.285354
    35    -0.000227
    36    -0.000064
    37    -0.332453
    38     0.001710
    39     0.000379
    40     0.000057
    41     0.000486
    42     0.000007
    43    -0.834996
    44     0.063927
    45     0.000099
Sym=    25a
Ene=   -0.178239E-02
Spin= Alpha
Occup= 0.000947
     1    -0.029272
     2    -0.293615
     3    -0.118186
     4     0.000087
     5     0.118268
     6    -0.156573
     7     0.000206
     8    -0.178486
     9    -0.289631
    10     0.205094
    11    -0.101391
    12    -0.130477
    13    -0.000071
    14     0.000080
    15     0.379508
    16    -0.027617
    17    -0.302638
    18     0.737355
    19     0.000005
    20     0.222843
    21     0.096690
    22    -0.000045
    23    -0.769614
    24     0.102626
    25     0.186258
    26    -0.570002
    27     0.305974
    28     0.000063
    29    -0.000008
    30     0.028373
    31    -0.000947
    32     0.016980
    33    -0.215076
    34     0.000047
    35    -0.045642
    36    -0.038220
    37    -0.000143
    38    -0.145251
    39     0.190501
    40    -0.013935
    41    -0.067919
    42     0.049290
    43     0.000004
    44    -0.000022
    45     0.031051
Sym=    26a
Ene=   -0.300928E-03
Spin= Alpha
Occup= 0.000126
     1     0.016226
     2     0.081247
     3    -0.794174
     4     0.000289
     5    -0.146271
     6     0.233474
     7     0.000631
     8    -1.516657
     9     0.706174
    10    -0.076781
    11    -0.888037
    12     0.453530
    13     0.000340
    14     0.000168
    15     0.767533
    16     0.043786
    17     0.123735
    18     1.471489
    19     0.000030
    20    -0.413578
    21     0.178554
    22    -0.000318
    23    -0.434858
    24     0.200525
    25    -0.062961
    26     0.211121
    27    -0.002544
    28     0.000111
    29    -0.000062
    30    -0.252569
    31    -0.024968
    32    -0.135551
    33    -0.337259
    34     0.000161
    35    -0.091204
    36     0.046228
    37    -0.000307
    38     0.129997
    39    -0.113089
    40    -0.013130
    41     0.045540
    42     0.075209
    43     0.000163
    44     0.000016
    45     0.112665
Sym=    27a
Ene=   -0.969434E-03
Spin= Alpha
Occup= 0.000487
     1    -0.000003
     2     0.000249
     3    -0.001130
     4    -0.166404
     5     0.000003
     6    -0.000025
     7    -0.006888
     8     0.000691
     9     0.000261
    10     0.000144
    11     0.000323
    12     0.000147
    13     0.029007
    14     0.020447
    15     0.000019
    16     0.000009
    17     0.000056
    18    -0.000152
    19     0.006763
    20    -0.000021
    21    -0.000011
    22    -0.051435
    23     0.000157
    24    -0.000246
    25     0.000057
    26    -0.000129
    27     0.000004
    28     0.030449
    29    -0.010351
    30     0.000178
    31    -0.000020
    32    -0.000196
    33     0.001006
    34     0.133347
    35    -0.000032
    36    -0.000038
    37    -0.166024
    38     0.000358
    39     0.000164
    40     0.000346
    41    -0.000078
    42    -0.000257
    43     0.025875
    44    -0.982277
    45    -0.000322
Sym=    28a
Ene=   -0.121315E-02
Spin= Alpha
Occup= 0.000601
     1    -0.000619
     2    -0.017890
     3    -0.547128
     4     0.000019
     5    -0.107648
     6     0.098213
     7     0.000003
     8    -0.665964
     9     0.260430
    10     0.002673
    11    -0.063526
    12    -0.004559
    13     0.000031
    14     0.000007
    15     0.051174
    16    -0.006602
    17    -0.120465
    18     0.838935
    19     0.000002
    20     0.006247
    21     0.005428
    22    -0.000004
    23    -0.364951
    24     0.156859
    25    -0.001743
    26    -0.023969
    27     0.016646
    28     0.000006
    29     0.000000
    30    -0.011620
    31     0.116309
    32     0.430161
    33    -0.195075
    34    -0.000022
    35    -0.106434
    36     0.037773
    37     0.000041
    38     0.171070
    39    -0.179642
    40     0.370690
    41    -0.528327
    42    -0.318047
    43     0.000035
    44    -0.000083
    45     0.794965
Sym=    29a
Ene=   -0.943858E-03
Spin= Alpha
Occup= 0.000528
     1    -0.004455
     2     0.004117
     3     0.568547
     4     0.005438
     5    -0.022262
     6    -0.109898
     7     0.014541
     8    -0.306908
     9    -0.031001
    10    -0.027205
    11     0.039938
    12     0.006687
    13     0.020684
    14    -0.017557
    15     0.019493
    16     0.000118
    17     0.019969
    18    -0.041884
    19     0.004014
    20     0.101178
    21     0.541707
    22    -0.018743
    23    -0.099534
    24    -0.603097
    25     0.172216
    26     0.139586
    27    -0.292901
    28    -0.295066
    29    -0.641199
    30     0.269267
    31     0.010062
    32     0.146543
    33    -0.628890
    34     0.008940
    35     0.027141
    36     0.006772
    37    -0.016158
    38    -0.317008
    39    -0.158086
    40     0.000164
    41     0.018189
    42    -0.006500
    43    -0.002145
    44    -0.000631
    45    -0.010798
Sym=    30a
Ene=   -0.943813E-03
Spin= Alpha
Occup= 0.000528
     1    -0.004451
     2     0.004126
     3     0.568575
     4    -0.005954
     5    -0.022268
     6    -0.109885
     7    -0.015438
     8    -0.306917
     9    -0.031007
    10    -0.027206
    11     0.039954
    12     0.006669
    13    -0.020640
    14     0.017452
    15     0.019515
    16     0.000050
    17     0.019727
    18    -0.041898
    19    -0.004135
    20     0.101123
    21     0.541660
    22     0.019146
    23    -0.099448
    24    -0.603054
    25     0.172561
    26     0.139681
    27    -0.293034
    28     0.295322
    29     0.641055
    30     0.269193
    31     0.010062
    32     0.146548
    33    -0.628883
    34    -0.009066
    35     0.027130
    36     0.006779
    37     0.016588
    38    -0.317003
    39    -0.158097
    40     0.000151
    41     0.018179
    42    -0.006514
    43     0.002107
    44     0.000636
    45    -0.010805
Sym=    31a
Ene=   -0.799221E-05
Spin= Alpha
Occup= 0.000000
     1     0.010839
     2    -0.059418
     3     0.402193
     4    -0.689825
     5     0.123380
     6    -0.052022
     7    -1.410214
     8    -0.185657
     9    -0.175101
    10    -0.088736
    11    -0.143049
    12    -0.046299
    13     0.099245
    14    -0.301563
    15     0.052618
    16    -0.024835
    17    -0.118262
    18     0.062125
    19    -0.087925
    20     0.026648
    21    -0.005466
    22     0.495802
    23    -0.141846
    24     0.128304
    25    -0.028843
    26     0.191880
    27    -0.008992
    28    -0.056095
    29     0.046956
    30    -0.139638
    31     0.033310
    32     0.168015
    33    -0.367603
    34    -0.274298
    35     0.026337
    36     0.006570
    37     0.794356
    38    -0.206946
    39    -0.023522
    40    -0.061949
    41    -0.065457
    42    -0.022645
    43    -0.037575
    44     0.056253
    45     0.028388
Sym=    32a
Ene=   -0.789358E-08
Spin= Alpha
Occup= 0.000000
     1    -0.022545
     2    -0.125363
     3     0.582572
     4    -0.052532
     5    -0.318395
     6    -0.019724
     7    -0.117265
     8    -0.554195
     9    -0.466558
    10    -0.823081
    11     0.992713
    12     0.403371
    13     0.014697
    14     0.009225
    15    -0.015683
    16    -0.001533
    17     0.040746
    18    -0.234673
    19    -0.006891
    20     0.138764
    21    -0.135049
    22     0.043203
    23     0.384993
    24     0.090705
    25     0.225814
    26    -0.587439
    27     0.134398
    28    -0.009179
    29     0.002944
    30     0.319499
    31     0.007499
    32    -0.067024
    33    -0.388920
    34    -0.021635
    35    -0.343585
    36    -0.156825
    37     0.069922
    38     0.017657
    39    -0.011439
    40    -0.016808
    41    -0.266564
    42    -0.164172
    43     0.013152
    44     0.006324
    45    -0.183528
Sym=    33a
Ene=   -0.265118E-10
Spin= Alpha
Occup= 0.000000
     1     0.038052
     2    -0.237177
     3     5.442397
     4     0.132137
     5     0.210765
     6    -0.024072
     7     0.376520
     8    -1.859995
     9    -2.016623
    10    -0.574414
    11    -0.048324
    12    -0.166162
    13     0.293612
    14    -0.143078
    15     0.191180
    16    -0.003281
    17     0.203794
    18    -1.396045
    19     0.005406
    20    -0.013624
    21    -0.134894
    22    -0.229985
    23     0.743632
    24     0.572997
    25    -0.049642
    26     0.163388
    27     0.071016
    28     0.168126
    29    -0.060318
    30    -0.240321
    31    -0.009527
    32     0.682492
    33    -4.965335
    34     0.098565
    35     0.114030
    36     0.025755
    37    -0.194365
    38    -2.343413
    39    -0.597336
    40     0.249627
    41    -0.072915
    42     0.345400
    43     0.052515
    44     0.035137
    45    -0.019538
Sym=    34a
Ene=   -0.790485E-11
Spin= Alpha
Occup= 0.000000
     1    -0.033259
     2     0.159909
     3    -1.145419
     4     0.016730
     5    -0.166499
     6     0.028795
     7     0.292507
     8    -0.181594
     9     0.310167
    10     0.395803
    11     0.173074
    12     0.188362
    13     0.822215
    14    -0.465803
    15    -0.089440
    16    -0.000560
    17     0.009024
    18     0.400737
    19    -0.028120
    20    -0.075760
    21     0.021524
    22    -0.353388
    23     0.048250
    24    -0.061283
    25     0.100568
    26    -0.229080
    27     0.138176
    28     0.402286
    29    -0.135194
    30     0.187964
    31    -0.000416
    32    -0.043397
    33     0.394173
    34     0.123140
    35     0.036303
    36     0.036674
    37    -0.110565
    38     0.149550
    39    -0.116972
    40     0.017961
    41     0.025983
    42    -0.051940
    43     0.145555
    44     0.121861
    45    -0.067709
Sym=    35a
Ene=   -0.133538E-02
Spin= Alpha
Occup= 0.001244
     1     0.000017
     2     0.000396
     3    -0.002151
     4    -0.434150
     5    -0.000181
     6    -0.000110
     7    -0.173537
     8     0.000428
     9     0.000437
    10     0.000238
    11     0.000177
    12     0.000182
    13    -0.187171
    14    -0.056119
    15     0.000020
    16     0.000012
    17     0.000012
    18     0.000454
    19    -0.000849
    20    -0.000082
    21    -0.000002
    22     0.025420
    23    -0.000006
    24    -0.000143
    25     0.000048
    26    -0.000165
    27     0.000025
    28     0.014782
    29    -0.001229
    30     0.000169
    31    -0.000064
    32    -0.000446
    33     0.001476
    34     0.692741
    35    -0.000079
    36    -0.000016
    37    -0.941369
    38     0.000727
    39     0.000192
    40     0.000175
    41     0.000020
    42    -0.000008
    43     0.277095
    44     0.140534
    45    -0.000034
Sym=    36a
Ene=   -0.811651E-03
Spin= Alpha
Occup= 0.000404
     1     0.013806
     2     0.128281
     3     0.403035
     4    -0.000051
     5    -0.052493
     6    -0.007124
     7    -0.000171
     8    -0.437703
     9    -0.072040
    10     0.056481
    11     0.403147
    12    -0.377600
    13     0.000098
    14    -0.000066
    15     0.171148
    16     0.046488
    17     0.268036
    18    -0.195052
    19    -0.000017
    20    -0.100398
    21     0.317763
    22     0.000048
    23     0.298287
    24    -0.520279
    25     0.007455
    26    -0.166081
    27     0.021450
    28    -0.000039
    29    -0.000007
    30    -0.625092
    31    -0.021469
    32    -0.080592
    33    -0.419783
    34    -0.000056
    35    -0.162821
    36    -0.057587
    37     0.000155
    38    -0.046093
    39    -0.171460
    40     0.031972
    41    -0.044623
    42    -0.030805
    43     0.000036
    44     0.000026
    45    -0.140513
Sym=    37a
Ene=   -0.159543E-02
Spin= Alpha
Occup= 0.000840
     1    -0.049082
     2    -0.431704
     3    -0.095033
     4     0.000196
     5    -0.159411
     6    -0.155887
     7     0.000353
     8    -0.238782
     9    -0.264410
    10     0.263923
    11    -0.356548
    12     0.015854
    13    -0.000008
    14     0.000019
    15    -0.315653
    16     0.014112
    17     0.071023
    18     0.057310
    19     0.000019
    20    -0.044187
    21     0.053397
    22    -0.000127
    23     0.091526
    24     0.250053
    25    -0.020476
    26    -0.042144
    27     0.052980
    28     0.000021
    29    -0.000005
    30    -0.080473
    31    -0.041804
    32    -0.359390
    33     0.568838
    34     0.000036
    35    -0.228203
    36    -0.092695
    37    -0.000157
    38     0.752014
    39     0.328793
    40     0.219354
    41    -0.313915
    42     0.063047
    43     0.000049
    44     0.000019
    45    -0.219510
Sym=    38a
Ene=   -0.121446E-02
Spin= Alpha
Occup= 0.000623
     1    -0.003742
     2    -0.036728
     3     0.760556
     4    -0.000172
     5     0.092970
     6    -0.084573
     7    -0.000484
     8     0.811840
     9    -0.327482
    10    -0.030307
    11     0.114571
    12     0.009755
    13    -0.000008
    14    -0.000049
    15    -0.022656
    16     0.003400
    17     0.148044
    18    -1.106158
    19    -0.000027
    20    -0.013052
    21    -0.011701
    22     0.000201
    23     0.485982
    24    -0.222852
    25     0.020660
    26     0.034193
    27    -0.006538
    28    -0.000046
    29     0.000019
    30     0.030294
    31     0.107041
    32     0.412924
    33     0.104573
    34    -0.000156
    35     0.013369
    36    -0.122148
    37     0.000355
    38    -0.090261
    39     0.303859
    40     0.450562
    41     0.114552
    42    -1.049662
    43    -0.000086
    44     0.000353
    45    -0.260872
Sym=    39a
Ene=   -0.736156E-02
Spin= Alpha
Occup= 0.005527
     1    -0.012079
     2    -0.031153
     3    -0.267536
     4    -0.000009
     5    -0.070894
     6     0.036902
     7    -0.000014
     8     0.114737
     9    -0.061940
    10    -0.021099
    11    -0.021673
    12    -0.025276
    13    -0.000001
    14    -0.000001
    15    -0.033847
    16     0.004523
    17    -0.016360
    18     0.061755
    19    -0.000001
    20    -0.006971
    21     0.021738
    22     0.000003
    23    -0.073533
    24    -0.001421
    25     0.002099
    26    -0.004206
    27     0.007484
    28     0.000001
    29     0.000001
    30    -0.003791
    31    -0.273221
    32    -1.300266
    33     1.126867
    34    -0.000013
    35     0.570394
    36    -0.462259
    37     0.000013
    38    -0.499906
    39     0.627517
    40     0.235565
    41     0.098111
    42     0.136008
    43     0.000002
    44    -0.000000
    45     0.160995
Sym=    40a
Ene=   -0.110011E-02
Spin= Alpha
Occup= 0.000561
     1    -0.003373
     2    -0.036960
     3     0.003496
     4    -0.091566
     5     0.024954
     6    -0.036750
     7    -0.070521
     8     0.032836
     9     0.043621
    10    -0.011762
    11     0.014181
    12    -0.025583
    13    -0.091747
    14     0.040958
    15     0.014628
    16     0.106500
    17     0.399719
    18    -0.049250
    19    -0.074171
    20     0.095701
    21     0.170024
    22     0.163842
    23    -0.144683
    24    -0.213903
    25    -0.765967
    26     0.010456
    27     0.320735
    28     0.592883
    29    -0.288360
    30     0.129854
    31     0.000448
    32     0.000127
    33     0.030399
    34    -0.072298
    35    -0.012339
    36    -0.012390
    37     0.085901
    38     0.018178
    39     0.015360
    40    -0.006056
    41    -0.004666
    42    -0.005715
    43    -0.002635
    44    -0.010160
    45    -0.002433
Sym=    41a
Ene=   -0.655998E-02
Spin= Alpha
Occup= 0.004990
     1     0.011899
     2     0.052602
     3     0.146964
     4    -0.063586
     5    -0.059514
     6     0.009341
     7     0.116448
     8     0.119477
     9    -0.027727
    10     0.009762
    11     0.036281
    12     0.023324
    13    -0.031858
    14     0.001802
    15    -0.012424
    16     0.263882
    17     1.259750
    18    -1.100879
    19     0.681089
    20     0.306437
    21    -0.104569
    22    -0.788845
    23    -0.196804
    24     0.039355
    25    -0.007654
    26    -0.205989
    27    -0.228883
    28     0.096075
    29    -0.039054
    30    -0.005881
    31    -0.000419
    32    -0.002418
    33     0.023433
    34    -0.049757
    35    -0.004949
    36     0.000989
    37     0.052989
    38     0.004767
    39    -0.013413
    40    -0.000894
    41    -0.002431
    42    -0.006133
    43     0.002863
    44     0.001507
    45    -0.006645
Sym=    42a
Ene=   -0.122861E-04
Spin= Alpha
Occup= 0.000001
     1     0.065191
     2     0.172385
     3     1.297108
     4    -0.044232
     5    -0.167331
     6     0.718811
     7    -0.090598
     8     0.586549
     9     0.849741
    10    -0.245308
    11     0.008024
    12    -0.551493
    13     0.004398
    14    -0.018007
    15    -0.388097
    16     0.100886
    17     0.510791
    18    -0.948756
    19    -0.005529
    20    -0.030783
    21     0.062511
    22     0.032397
    23     0.502570
    24    -0.561912
    25     0.049515
    26    -0.629578
    27     0.047293
    28    -0.004448
    29     0.003280
    30     0.280342
    31     0.040599
    32     0.178569
    33     0.127356
    34    -0.017548
    35     0.073379
    36     0.038855
    37     0.050596
    38     0.120386
    39    -0.273374
    40    -0.059837
    41     0.066467
    42    -0.149074
    43    -0.002964
    44     0.003277
    45    -0.140463
Sym=    43a
Ene=   -0.437809E-06
Spin= Alpha
Occup= 0.000000
     1     0.009521
     2     0.126325
     3    -0.234784
     4    -0.006967
     5     0.243786
     6    -0.043566
     7    -0.056606
     8     0.436378
     9     0.001103
    10    -0.185676
    11    -0.635758
    12     0.615085
    13     0.097908
    14     0.167252
    15    -0.625492
    16    -0.049781
    17    -0.233720
    18    -0.054604
    19    -0.003911
    20     0.077136
    21     0.263079
    22     0.015954
    23    -0.189675
    24    -0.068000
    25     0.123328
    26    -0.225565
    27     0.417599
    28    -0.004576
    29    -0.012468
    30    -0.535444
    31     0.029943
    32     0.234420
    33     0.062806
    34     0.001682
    35     0.334188
    36     0.141081
    37     0.057776
    38    -0.173444
    39    -0.003018
    40     0.033018
    41     0.173521
    42     0.017758
    43     0.106917
    44     0.020490
    45     0.142806
Sym=    44a
Ene=   -0.893444E-07
Spin= Alpha
Occup= 0.000000
     1    -0.006467
     2    -0.056589
     3    -0.913344
     4     0.038286
     5     0.138172
     6     0.044833
     7     0.080177
     8     0.260376
     9     0.203302
    10     0.098929
    11     0.127424
    12     0.046529
    13    -0.008020
    14     0.010724
    15     0.105532
    16     0.004178
    17    -0.001639
    18     0.192057
    19     0.004973
    20    -0.030527
    21    -0.012902
    22    -0.028308
    23    -0.064047
    24     0.024158
    25    -0.015096
    26     0.033976
    27    -0.030574
    28     0.003666
    29    -0.002334
    30    -0.017170
    31     0.667463
    32     1.955396
    33     1.971871
    34     0.015366
    35    -0.018030
    36    -0.006013
    37    -0.046159
    38     0.252847
    39     0.092161
    40    -1.577025
    41    -1.456613
    42    -1.372028
    43    -0.001510
    44    -0.003742
    45    -0.045647
Sym=    45a
Ene=   -0.418493E-08
Spin= Alpha
Occup= 0.000000
     1    -0.015817
     2    -0.072318
     3    -0.840578
     4    -0.018302
     5    -0.105776
     6    -0.005560
     7    -0.037757
     8    -0.403227
     9     0.015808
    10     0.071181
    11     0.144744
    12     0.200121
    13     0.006109
    14    -0.005887
    15    -0.106235
    16     0.660078
    17     1.916983
    18     2.024447
    19    -0.002457
    20     0.024501
    21    -0.050627
    22     0.012694
    23    -0.252248
    24     0.229166
    25    -1.362834
    26    -1.495442
    27    -1.524355
    28    -0.000758
    29     0.000764
    30    -0.034465
    31    -0.000864
    32     0.025925
    33    -0.082225
    34    -0.007025
    35     0.041016
    36     0.001551
    37     0.021922
    38    -0.093582
    39    -0.004895
    40     0.025939
    41     0.002339
    42     0.020745
    43     0.001333
    44     0.002118
    45     0.036230
