[Molden Format]
p30-5 set                                                                       
[Atoms] AU
 S        1    16        0.0000        0.0000        0.0000
 O        2     8        0.0000        2.6887        0.0000
 O        3     8        2.3285       -1.3443        0.0000
 O        4     8       -2.3285       -1.3443        0.0000
[GTO]
    1 0
s    5 1.00
    9184.930301000000 -0.547294661347E-02
    1381.510550300000 -0.409544021551E-01
     313.871475800000 -0.184758289562E+00
      88.053870623000 -0.475672806440E+00
      27.039914905000 -0.434951535842E+00
s    3 1.00
      45.648731303000 -0.919040458089E-01
       4.966452232600  0.556987772145E+00
       2.011624204700  0.511154682985E+00
s    1 1.00
       0.356610770130  0.100000000000E+01
s    1 1.00
       0.135072214770  0.100000000000E+01
p    5 1.00
     261.982334390000 -0.918305465927E-02
      61.306894736000 -0.659022265260E-01
      19.103729887000 -0.245877845187E+00
       6.656772037800 -0.482314710760E+00
       2.395963516100 -0.389563143514E+00
p    1 1.00
       0.617761616790  0.100000000000E+01
p    1 1.00
       0.169933768710  0.100000000000E+01
d    1 1.00
       0.550000000000  0.100000000000E+01
 
    2 0
s    5 1.00
    2266.176778500000 -0.538935039217E-02
     340.870101910000 -0.402347213890E-01
      77.363135167000 -0.180081842055E+00
      21.479644940000 -0.468288576577E+00
       6.658943312400 -0.446926171602E+00
s    1 1.00
       0.809759756680  0.100000000000E+01
s    1 1.00
       0.255307722340  0.100000000000E+01
p    3 1.00
      17.721504317000  0.626302487632E-01
       3.863550544000  0.333311384824E+00
       1.048092088300  0.741486383081E+00
p    1 1.00
       0.276415444110  0.100000000000E+01
d    1 1.00
       1.200000000000  0.100000000000E+01
 
    3 0
s    5 1.00
    2266.176778500000 -0.538935039217E-02
     340.870101910000 -0.402347213890E-01
      77.363135167000 -0.180081842055E+00
      21.479644940000 -0.468288576577E+00
       6.658943312400 -0.446926171602E+00
s    1 1.00
       0.809759756680  0.100000000000E+01
s    1 1.00
       0.255307722340  0.100000000000E+01
p    3 1.00
      17.721504317000  0.626302487632E-01
       3.863550544000  0.333311384824E+00
       1.048092088300  0.741486383081E+00
p    1 1.00
       0.276415444110  0.100000000000E+01
d    1 1.00
       1.200000000000  0.100000000000E+01
 
    4 0
s    5 1.00
    2266.176778500000 -0.538935039217E-02
     340.870101910000 -0.402347213890E-01
      77.363135167000 -0.180081842055E+00
      21.479644940000 -0.468288576577E+00
       6.658943312400 -0.446926171602E+00
s    1 1.00
       0.809759756680  0.100000000000E+01
s    1 1.00
       0.255307722340  0.100000000000E+01
p    3 1.00
      17.721504317000  0.626302487632E-01
       3.863550544000  0.333311384824E+00
       1.048092088300  0.741486383081E+00
p    1 1.00
       0.276415444110  0.100000000000E+01
d    1 1.00
       1.200000000000  0.100000000000E+01
 
[MO]
Sym=     1a
Ene=   -0.922680E+02
Spin= Alpha
Occup= 2.000000
     1     0.991590
     2    -0.035539
     3     0.026270
     4     0.000126
     5    -0.003094
     6    -0.004407
     7     0.005489
     8     0.000125
     9     0.000179
    10    -0.000206
    11    -0.000014
    12    -0.000019
    13     0.000052
    14    -0.010162
    15    -0.010150
    16    -0.009470
    17    -0.000005
    18    -0.000000
    19    -0.000000
    20     0.000007
    21     0.000032
    22     0.000519
    23     0.000001
    24    -0.000190
    25     0.000014
    26     0.000001
    27    -0.000588
    28     0.000005
    29    -0.000042
    30     0.000117
    31    -0.000060
    32     0.000001
    33     0.000000
    34    -0.000003
    35     0.000007
    36     0.000032
    37     0.000526
    38    -0.000169
    39     0.000098
    40     0.000013
    41    -0.000520
    42     0.000303
    43     0.000004
    44     0.000080
    45    -0.000002
    46    -0.000060
    47    -0.000081
    48    -0.000002
    49     0.000001
    50     0.000007
    51     0.000034
    52     0.000534
    53     0.000176
    54     0.000102
    55     0.000014
    56     0.000538
    57     0.000312
    58     0.000005
    59     0.000081
    60    -0.000001
    61    -0.000061
    62     0.000082
    63     0.000002
    64     0.000002
Sym=     2a
Ene=   -0.700907E+01
Spin= Alpha
Occup= 1.999992
     1    -0.037804
     2    -0.138916
     3    -0.002666
     4     0.000850
     5    -0.376128
     6     0.162258
     7    -0.888183
     8     0.015204
     9    -0.006560
    10     0.033367
    11    -0.001730
    12     0.000747
    13    -0.008423
    14    -0.000187
    15    -0.000621
    16    -0.000234
    17    -0.000583
    18    -0.000002
    19     0.000000
    20     0.000022
    21     0.000126
    22     0.000412
    23     0.000024
    24    -0.000377
    25    -0.002139
    26     0.000175
    27    -0.000893
    28    -0.000694
    29    -0.000011
    30     0.000071
    31    -0.000017
    32     0.000038
    33     0.000000
    34     0.000387
    35    -0.000011
    36    -0.000026
    37    -0.000375
    38     0.000419
    39    -0.000239
    40    -0.002142
    41     0.000994
    42    -0.000548
    43    -0.000696
    44    -0.000132
    45    -0.000031
    46     0.000016
    47     0.000110
    48     0.000335
    49    -0.000193
    50     0.000019
    51     0.000153
    52     0.000528
    53     0.000444
    54     0.000236
    55    -0.002137
    56     0.001102
    57     0.000463
    58    -0.000693
    59     0.000053
    60     0.000040
    61    -0.000022
    62     0.000079
    63    -0.000335
    64    -0.000193
Sym=     3a
Ene=   -0.743063E+01
Spin= Alpha
Occup= 1.999985
     1    -0.136055
     2    -0.463769
     3    -0.009150
     4     0.002844
     5     0.722229
     6     0.481538
     7    -0.152235
     8    -0.029243
     9    -0.019501
    10     0.005719
    11     0.003341
    12     0.002229
    13    -0.001459
    14    -0.000598
    15    -0.001867
    16    -0.000663
    17     0.001099
    18     0.000002
    19     0.000007
    20    -0.000006
    21     0.000420
    22     0.001288
    23    -0.000072
    24    -0.001173
    25    -0.000355
    26    -0.000359
    27    -0.002769
    28    -0.000107
    29    -0.000036
    30     0.000215
    31    -0.000060
    32    -0.000073
    33     0.000000
    34     0.000068
    35     0.000038
    36     0.000395
    37     0.001158
    38    -0.000935
    39     0.000447
    40    -0.000377
    41    -0.002296
    42     0.000878
    43    -0.000125
    44     0.000062
    45     0.000080
    46    -0.000054
    47    -0.000140
    48     0.000060
    49    -0.000034
    50     0.000100
    51     0.000034
    52    -0.000590
    53    -0.000719
    54    -0.000418
    55    -0.000385
    56    -0.001752
    57    -0.001039
    58    -0.000131
    59    -0.000301
    60    -0.000056
    61     0.000031
    62    -0.000232
    63    -0.000060
    64    -0.000034
Sym=     4a
Ene=   -0.786600E+01
Spin= Alpha
Occup= 1.999970
     1     0.198597
     2     0.644075
     3     0.012704
     4    -0.004010
     5     0.545890
     6    -0.377954
     7    -0.392751
     8    -0.022066
     9     0.015268
    10     0.014734
    11     0.002590
    12    -0.001813
    13    -0.003811
    14     0.001045
    15     0.002019
    16     0.000791
    17     0.000813
    18    -0.000013
    19     0.000006
    20    -0.000161
    21    -0.000508
    22    -0.001297
    23    -0.000023
    24     0.001362
    25    -0.000973
    26    -0.000257
    27     0.002888
    28    -0.000318
    29     0.000035
    30    -0.000190
    31     0.000075
    32    -0.000061
    33     0.000000
    34     0.000181
    35    -0.000096
    36    -0.000181
    37     0.000118
    38    -0.000275
    39     0.000142
    40    -0.001012
    41    -0.000792
    42     0.000475
    43    -0.000344
    44     0.000244
    45     0.000044
    46    -0.000014
    47    -0.000184
    48     0.000157
    49    -0.000091
    50    -0.000135
    51    -0.000478
    52    -0.001176
    53    -0.001037
    54    -0.000587
    55    -0.000967
    56    -0.002323
    57    -0.001025
    58    -0.000313
    59    -0.000043
    60    -0.000066
    61     0.000063
    62    -0.000116
    63    -0.000157
    64    -0.000091
Sym=     5a
Ene=   -0.787496E+01
Spin= Alpha
Occup= 1.999969
     1     0.199884
     2     0.647179
     3     0.012800
     4    -0.004022
     5    -0.106486
     6     0.755905
     7     0.091317
     8     0.004280
     9    -0.030562
    10    -0.003426
    11    -0.000525
    12     0.003586
    13     0.000900
    14     0.002518
    15     0.000567
    16     0.000784
    17    -0.000161
    18     0.000004
    19     0.000005
    20    -0.000102
    21    -0.000149
    22     0.000245
    23    -0.000021
    24    -0.000450
    25     0.000246
    26     0.000035
    27    -0.001255
    28     0.000087
    29    -0.000052
    30     0.000377
    31    -0.000021
    32     0.000014
    33     0.000000
    34    -0.000045
    35    -0.000182
    36    -0.000535
    37    -0.001431
    38     0.001286
    39    -0.000787
    40     0.000238
    41     0.002652
    42    -0.001867
    43     0.000080
    44    -0.000216
    45     0.000023
    46     0.000082
    47     0.000105
    48    -0.000038
    49     0.000022
    50    -0.000114
    51    -0.000474
    52    -0.001191
    53    -0.001011
    54    -0.000605
    55     0.000218
    56    -0.002028
    57    -0.001549
    58     0.000066
    59    -0.000155
    60     0.000046
    61     0.000064
    62    -0.000041
    63     0.000037
    64     0.000022
Sym=     6a
Ene=   -0.206485E+02
Spin= Alpha
Occup= 1.999961
     1     0.000160
     2     0.000828
     3    -0.000410
     4     0.004945
     5    -0.000084
     6    -0.000929
     7     0.000029
     8     0.000003
     9    -0.001580
    10    -0.000002
    11    -0.000001
    12     0.005131
    13     0.000002
    14     0.000474
    15    -0.001501
    16    -0.000041
    17     0.000000
    18    -0.000000
    19    -0.000001
    20    -0.993697
    21     0.028273
    22    -0.020965
    23     0.000000
    24    -0.003260
    25    -0.000001
    26     0.000000
    27     0.002855
    28    -0.000001
    29    -0.003747
    30    -0.003971
    31    -0.003878
    32     0.000000
    33    -0.000000
    34    -0.000000
    35     0.000033
    36    -0.000007
    37     0.000465
    38     0.000140
    39     0.000202
    40     0.000001
    41    -0.000744
    42    -0.000606
    43    -0.000000
    44     0.000063
    45    -0.000246
    46    -0.000122
    47     0.000160
    48     0.000000
    49     0.000000
    50     0.000033
    51    -0.000005
    52     0.000466
    53    -0.000140
    54     0.000203
    55     0.000001
    56     0.000745
    57    -0.000606
    58     0.000000
    59     0.000063
    60    -0.000246
    61    -0.000124
    62    -0.000159
    63     0.000000
    64     0.000000
Sym=     7a
Ene=   -0.206485E+02
Spin= Alpha
Occup= 1.999961
     1    -0.000155
     2    -0.000809
     3     0.000416
     4    -0.004948
     5     0.000788
     6    -0.000373
     7    -0.000034
     8     0.001371
     9    -0.000794
    10     0.000001
    11    -0.004441
    12     0.002567
    13     0.000001
    14     0.001007
    15     0.000019
    16     0.000041
    17    -0.000988
    18    -0.000000
    19     0.000000
    20    -0.000033
    21     0.000005
    22    -0.000464
    23    -0.000246
    24    -0.000020
    25     0.000001
    26     0.000897
    27     0.000342
    28     0.000000
    29     0.000049
    30     0.000134
    31     0.000123
    32    -0.000234
    33     0.000000
    34     0.000000
    35     0.993690
    36    -0.028290
    37     0.020955
    38     0.002816
    39    -0.001625
    40    -0.000001
    41    -0.002478
    42     0.001431
    43    -0.000001
    44     0.003914
    45     0.003803
    46     0.003877
    47    -0.000112
    48    -0.000000
    49     0.000000
    50    -0.000033
    51     0.000004
    52    -0.000462
    53    -0.000107
    54     0.000223
    55     0.000000
    56     0.000153
    57    -0.000948
    58     0.000000
    59     0.000288
    60    -0.000106
    61     0.000124
    62    -0.000075
    63     0.000001
    64    -0.000000
Sym=     8a
Ene=   -0.206486E+02
Spin= Alpha
Occup= 1.999961
     1     0.000152
     2     0.000798
     3    -0.000412
     4     0.004945
     5     0.000782
     6     0.000464
     7     0.000008
     8     0.001367
     9     0.000789
    10     0.000000
    11    -0.004445
    12    -0.002566
    13     0.000000
    14    -0.001005
    15    -0.000018
    16    -0.000040
    17    -0.000987
    18    -0.000000
    19    -0.000000
    20     0.000032
    21    -0.000007
    22     0.000465
    23    -0.000246
    24     0.000020
    25     0.000000
    26     0.000897
    27    -0.000342
    28     0.000001
    29    -0.000048
    30    -0.000133
    31    -0.000124
    32    -0.000234
    33    -0.000000
    34    -0.000000
    35     0.000033
    36    -0.000006
    37     0.000466
    38    -0.000106
    39    -0.000223
    40    -0.000000
    41     0.000152
    42     0.000949
    43     0.000000
    44    -0.000287
    45     0.000106
    46    -0.000124
    47    -0.000075
    48    -0.000000
    49     0.000000
    50    -0.993692
    51     0.028285
    52    -0.020960
    53     0.002822
    54     0.001629
    55     0.000001
    56    -0.002475
    57    -0.001429
    58     0.000001
    59    -0.003915
    60    -0.003803
    61    -0.003877
    62    -0.000112
    63     0.000000
    64     0.000000
Sym=     9a
Ene=   -0.825678E+00
Spin= Alpha
Occup= 1.992320
     1    -0.007653
     2    -0.052366
     3     0.104906
     4     0.017844
     5    -0.038497
     6     0.021810
     7     0.000137
     8    -0.085481
     9     0.023003
    10     0.000333
    11    -0.067794
    12     0.081702
    13     0.000302
    14     0.072964
    15    -0.068409
    16     0.011101
    17    -0.038724
    18    -0.000189
    19    -0.000088
    20    -0.008986
    21    -0.015407
    22    -0.060788
    23     0.023723
    24     0.031293
    25    -0.000025
    26     0.034023
    27     0.041420
    28    -0.000068
    29     0.001466
    30     0.003270
    31     0.000505
    32    -0.000530
    33    -0.000001
    34    -0.000009
    35     0.003181
    36     0.001399
    37     0.042210
    38    -0.012114
    39    -0.013437
    40    -0.000093
    41    -0.022385
    42    -0.017835
    43    -0.000124
    44    -0.001958
    45    -0.004757
    46    -0.000590
    47     0.002988
    48    -0.000004
    49     0.000001
    50    -0.179345
    51    -0.381670
    52    -0.326782
    53    -0.030656
    54     0.482567
    55     0.000919
    56    -0.038562
    57     0.331884
    58     0.000673
    59    -0.019333
    60     0.010594
    61    -0.009424
    62     0.017789
    63     0.000056
    64     0.000033
Sym=    10a
Ene=   -0.825590E+00
Spin= Alpha
Occup= 1.992320
     1    -0.007685
     2    -0.052572
     3     0.105227
     4     0.017882
     5    -0.000481
     6    -0.044278
     7    -0.000091
     8    -0.023042
     9    -0.085614
    10    -0.000162
    11     0.036772
    12    -0.099548
    13    -0.000132
    14    -0.062016
    15     0.066613
    16     0.011095
    17     0.051360
    18     0.000067
    19     0.000044
    20     0.003172
    21     0.001381
    22     0.042167
    23    -0.017661
    24    -0.003730
    25     0.000025
    26    -0.026600
    27    -0.010415
    28     0.000041
    29    -0.001815
    30    -0.004897
    31    -0.000589
    32     0.002896
    33    -0.000000
    34     0.000003
    35    -0.008987
    36    -0.015413
    37    -0.060775
    38     0.038982
    39     0.004890
    40    -0.000005
    41     0.052900
    42     0.008744
    43     0.000018
    44     0.002424
    45     0.002310
    46     0.000504
    47    -0.001165
    48     0.000004
    49    -0.000002
    50    -0.179375
    51    -0.381737
    52    -0.326955
    53     0.402806
    54    -0.267407
    55    -0.000361
    56     0.268235
    57    -0.199069
    58    -0.000270
    59     0.016461
    60    -0.025183
    61    -0.009433
    62    -0.006043
    63    -0.000023
    64    -0.000013
Sym=    11a
Ene=   -0.825278E+00
Spin= Alpha
Occup= 1.992319
     1     0.007745
     2     0.052957
     3    -0.105857
     4    -0.017933
     5    -0.000717
     6     0.044377
     7     0.000072
     8    -0.023526
     9     0.085761
    10     0.000112
    11     0.036595
    12     0.099527
    13     0.000120
    14     0.061847
    15    -0.066511
    16    -0.011075
    17     0.051461
    18     0.000078
    19    -0.000048
    20    -0.003159
    21    -0.001356
    22    -0.042097
    23    -0.017594
    24     0.003657
    25    -0.000042
    26    -0.026522
    27     0.010326
    28    -0.000054
    29     0.001814
    30     0.004892
    31     0.000588
    32     0.002902
    33     0.000000
    34    -0.000001
    35     0.179402
    36     0.381784
    37     0.327242
    38     0.403277
    39     0.266610
    40     0.000396
    41     0.268460
    42     0.198572
    43     0.000288
    44    -0.016478
    45     0.025163
    46     0.009448
    47    -0.005991
    48    -0.000024
    49     0.000014
    50     0.009004
    51     0.015454
    52     0.060754
    53     0.039081
    54    -0.004867
    55    -0.000044
    56     0.052973
    57    -0.008724
    58    -0.000054
    59    -0.002424
    60    -0.002300
    61    -0.000506
    62    -0.001156
    63     0.000001
    64    -0.000000
Sym=    12a
Ene=   -0.825517E+00
Spin= Alpha
Occup= 1.992318
     1    -0.007639
     2    -0.052273
     3     0.104754
     4     0.017811
     5     0.038221
     6     0.022506
     7    -0.000068
     8     0.062622
     9     0.062443
    10    -0.000090
    11     0.104685
    12     0.017844
    13    -0.000065
    14    -0.004034
    15     0.008548
    16     0.011094
    17     0.090119
    18    -0.000005
    19    -0.000024
    20    -0.179264
    21    -0.381517
    22    -0.326624
    23     0.433465
    24    -0.214550
    25    -0.000118
    26     0.306869
    27    -0.132453
    28    -0.000089
    29    -0.010223
    30     0.001482
    31    -0.009417
    32    -0.023868
    33    -0.000000
    34     0.000009
    35    -0.009009
    36    -0.015448
    37    -0.060812
    38     0.015292
    39    -0.036246
    40    -0.000030
    41     0.018886
    42    -0.050214
    43    -0.000013
    44     0.003215
    45     0.001517
    46     0.000508
    47    -0.000631
    48     0.000004
    49    -0.000002
    50     0.003196
    51     0.001427
    52     0.042257
    53    -0.005535
    54     0.017248
    55    -0.000002
    56    -0.004213
    57     0.028345
    58     0.000009
    59    -0.006298
    60    -0.000418
    61    -0.000592
    62    -0.000092
    63    -0.000002
    64    -0.000001
Sym=    13a
Ene=   -0.825286E+00
Spin= Alpha
Occup= 1.992318
     1     0.007721
     2     0.052806
     3    -0.105618
     4    -0.017904
     5     0.038077
     6    -0.022723
     7    -0.000150
     8     0.062529
     9    -0.063079
    10    -0.000349
    11     0.104542
    12    -0.018023
    13    -0.000322
    14     0.004146
    15    -0.008779
    16    -0.011075
    17     0.089967
    18     0.000015
    19    -0.000227
    20     0.179342
    21     0.381692
    22     0.327086
    23     0.432764
    24     0.215630
    25    -0.001001
    26     0.306369
    27     0.133036
    28    -0.000734
    29     0.010250
    30    -0.001555
    31     0.009441
    32    -0.023829
    33     0.000000
    34     0.000070
    35    -0.003169
    36    -0.001375
    37    -0.042139
    38    -0.005599
    39    -0.017108
    40     0.000100
    41    -0.004289
    42    -0.028181
    43     0.000132
    44     0.006298
    45     0.000409
    46     0.000589
    47    -0.000089
    48     0.000003
    49    -0.000003
    50     0.009007
    51     0.015458
    52     0.060772
    53     0.015326
    54     0.036279
    55     0.000041
    56     0.018926
    57     0.050240
    58     0.000085
    59    -0.003202
    60    -0.001524
    61    -0.000507
    62    -0.000637
    63    -0.000006
    64    -0.000005
Sym=    14a
Ene=   -0.825579E+00
Spin= Alpha
Occup= 1.992317
     1     0.007616
     2     0.052129
     3    -0.104513
     4    -0.017787
     5    -0.038507
     6    -0.021970
     7     0.000107
     8    -0.085244
     9    -0.023158
    10     0.000118
    11    -0.067773
    12    -0.081814
    13     0.000124
    14    -0.072982
    15     0.068495
    16    -0.011101
    17    -0.038847
    18     0.000094
    19    -0.000056
    20     0.009002
    21     0.015429
    22     0.060824
    23     0.023734
    24    -0.031320
    25    -0.000065
    26     0.034040
    27    -0.041430
    28    -0.000072
    29    -0.001468
    30    -0.003269
    31    -0.000507
    32    -0.000537
    33     0.000001
    34     0.000000
    35     0.179252
    36     0.381443
    37     0.326463
    38    -0.031336
    39    -0.482703
    40     0.000468
    41    -0.038970
    42    -0.332031
    43     0.000345
    44     0.019371
    45    -0.010615
    46     0.009410
    47     0.017778
    48    -0.000027
    49     0.000015
    50    -0.003202
    51    -0.001440
    52    -0.042290
    53    -0.012211
    54     0.013428
    55    -0.000047
    56    -0.022492
    57     0.017832
    58    -0.000058
    59     0.001961
    60     0.004758
    61     0.000593
    62     0.002985
    63     0.000001
    64    -0.000000
Sym=    15a
Ene=   -0.943361E+00
Spin= Alpha
Occup= 1.986638
     1     0.027670
     2     0.175459
     3    -0.271817
     4    -0.030960
     5    -0.000259
     6    -0.116270
     7    -0.074174
     8    -0.000145
     9    -0.219139
    10    -0.144873
    11    -0.000264
    12    -0.062303
    13    -0.123082
    14     0.049613
    15    -0.080980
    16     0.010875
    17    -0.000291
    18     0.000008
    19    -0.098941
    20    -0.083143
    21    -0.173857
    22    -0.021059
    23    -0.001169
    24     0.285711
    25    -0.391791
    26    -0.000823
    27     0.142018
    28    -0.288647
    29     0.004672
    30    -0.026933
    31     0.002225
    32     0.000063
    33    -0.000003
    34     0.027349
    35     0.006802
    36     0.014417
    37     0.015070
    38    -0.017918
    39     0.030389
    40     0.036626
    41    -0.018000
    42     0.032512
    43     0.049697
    44     0.001945
    45    -0.002706
    46    -0.000684
    47     0.001662
    48     0.000800
    49    -0.001337
    50     0.006727
    51     0.014293
    52     0.014756
    53     0.017772
    54     0.030280
    55     0.036554
    56     0.017874
    57     0.032330
    58     0.049636
    59     0.001960
    60    -0.002699
    61    -0.000677
    62    -0.001665
    63    -0.000805
    64    -0.001339
Sym=    16a
Ene=   -0.943442E+00
Spin= Alpha
Occup= 1.986633
     1     0.027682
     2     0.175502
     3    -0.271832
     4    -0.030979
     5    -0.100802
     6     0.057897
     7     0.074279
     8    -0.189921
     9     0.109483
    10     0.144860
    11    -0.054072
    12     0.030999
    13     0.123077
    14    -0.048473
    15     0.017119
    16     0.010872
    17     0.065215
    18     0.085678
    19    -0.049451
    20     0.006794
    21     0.014404
    22     0.015028
    23     0.017338
    24    -0.030678
    25    -0.036561
    26     0.019131
    27    -0.031812
    28    -0.049643
    29    -0.000295
    30    -0.000462
    31    -0.000683
    32     0.003160
    33     0.000758
    34    -0.001364
    35    -0.083148
    36    -0.173869
    37    -0.021032
    38     0.247086
    39    -0.143598
    40     0.391712
    41     0.122731
    42    -0.071523
    43     0.288584
    44    -0.019003
    45    -0.003262
    46     0.002227
    47     0.015829
    48    -0.023682
    49     0.013675
    50     0.006754
    51     0.014343
    52     0.014810
    53     0.035200
    54     0.000291
    55    -0.036588
    56     0.037011
    57    -0.000669
    58    -0.049662
    59    -0.002780
    60     0.002042
    61    -0.000679
    62     0.001501
    63     0.001560
    64     0.000026
Sym=    17a
Ene=   -0.944683E+00
Spin= Alpha
Occup= 1.986627
     1    -0.027806
     2    -0.176328
     3     0.273250
     4     0.031064
     5     0.000155
     6     0.116805
     7    -0.074250
     8     0.000054
     9     0.220012
    10    -0.144586
    11    -0.000001
    12     0.062525
    13    -0.122768
    14    -0.049769
    15     0.081226
    16    -0.010913
    17    -0.000039
    18    -0.000023
    19    -0.098604
    20     0.083015
    21     0.173567
    22     0.020396
    23    -0.000074
    24    -0.287072
    25    -0.390441
    26    -0.000054
    27    -0.142729
    28    -0.287644
    29    -0.004708
    30     0.027031
    31    -0.002261
    32     0.000004
    33     0.000000
    34     0.027272
    35    -0.006787
    36    -0.014411
    37    -0.015002
    38     0.017848
    39    -0.030334
    40     0.036296
    41     0.017985
    42    -0.032467
    43     0.049379
    44    -0.001959
    45     0.002715
    46     0.000680
    47    -0.001679
    48     0.000811
    49    -0.001340
    50    -0.006807
    51    -0.014450
    52    -0.015004
    53    -0.017936
    54    -0.030421
    55     0.036382
    56    -0.018030
    57    -0.032527
    58     0.049449
    59    -0.001962
    60     0.002712
    61     0.000680
    62     0.001672
    63    -0.000807
    64    -0.001338
Sym=    18a
Ene=   -0.944652E+00
Spin= Alpha
Occup= 1.986627
     1     0.027792
     2     0.176292
     3    -0.273284
     4    -0.031062
     5    -0.101241
     6     0.058148
     7    -0.074131
     8    -0.190553
     9     0.109800
    10    -0.144671
    11    -0.054235
    12     0.031048
    13    -0.122818
    14    -0.048628
    15     0.017137
    16     0.010894
    17     0.065370
    18    -0.085411
    19     0.049287
    20     0.006802
    21     0.014432
    22     0.015136
    23     0.017351
    24    -0.030629
    25     0.036276
    26     0.019159
    27    -0.031852
    28     0.049372
    29    -0.000291
    30    -0.000480
    31    -0.000681
    32     0.003172
    33    -0.000755
    34     0.001375
    35    -0.082996
    36    -0.173530
    37    -0.020390
    38     0.248112
    39    -0.144273
    40    -0.390502
    41     0.123263
    42    -0.071884
    43    -0.287682
    44    -0.019055
    45    -0.003262
    46     0.002260
    47     0.015891
    48     0.023621
    49    -0.013640
    50     0.006767
    51     0.014383
    52     0.014882
    53     0.035192
    54     0.000278
    55     0.036327
    56     0.037064
    57    -0.000657
    58     0.049411
    59    -0.002797
    60     0.002052
    61    -0.000677
    62     0.001499
    63    -0.001566
    64    -0.000033
Sym=    19a
Ene=   -0.944603E+00
Spin= Alpha
Occup= 1.986618
     1    -0.027784
     2    -0.176233
     3     0.273161
     4     0.031075
     5    -0.101105
     6    -0.058270
     7    -0.074238
     8    -0.190556
     9    -0.109911
    10    -0.144628
    11    -0.054223
    12    -0.031073
    13    -0.122811
    14     0.048661
    15    -0.017168
    16    -0.010892
    17     0.065359
    18     0.085399
    19     0.049319
    20    -0.006820
    21    -0.014469
    22    -0.015120
    23     0.017365
    24     0.030761
    25     0.036357
    26     0.019168
    27     0.031923
    28     0.049436
    29     0.000293
    30     0.000469
    31     0.000681
    32     0.003172
    33     0.000755
    34     0.001370
    35    -0.006759
    36    -0.014365
    37    -0.014886
    38     0.035156
    39    -0.000273
    40     0.036294
    41     0.037041
    42     0.000658
    43     0.049383
    44     0.002800
    45    -0.002053
    46     0.000677
    47     0.001500
    48     0.001568
    49    -0.000034
    50     0.082984
    51     0.173496
    52     0.020362
    53     0.248142
    54     0.144319
    55    -0.390504
    56     0.123280
    57     0.071919
    58    -0.287679
    59     0.019056
    60     0.003262
    61    -0.002262
    62     0.015892
    63    -0.023620
    64    -0.013640
Sym=    20a
Ene=   -0.943247E+00
Spin= Alpha
Occup= 1.986602
     1     0.027673
     2     0.175529
     3    -0.272027
     4    -0.031027
     5     0.100661
     6     0.058159
     7    -0.074243
     8     0.189859
     9     0.109629
    10    -0.144940
    11     0.053917
    12     0.031247
    13    -0.123123
    14    -0.048240
    15     0.016833
    16     0.010838
    17    -0.065362
    18     0.085678
    19     0.049441
    20     0.006741
    21     0.014317
    22     0.014882
    23    -0.017323
    24    -0.030525
    25     0.036474
    26    -0.019075
    27    -0.031684
    28     0.049578
    29    -0.000287
    30    -0.000463
    31    -0.000677
    32    -0.003163
    33     0.000757
    34     0.001372
    35     0.006786
    36     0.014397
    37     0.015006
    38    -0.035251
    39     0.000323
    40     0.036574
    41    -0.037119
    42    -0.000653
    43     0.049661
    44    -0.002788
    45     0.002034
    46    -0.000680
    47    -0.001496
    48     0.001561
    49    -0.000027
    50    -0.082994
    51    -0.173526
    52    -0.020737
    53    -0.247882
    54    -0.142527
    55    -0.391701
    56    -0.123268
    57    -0.070754
    58    -0.288559
    59    -0.019053
    60    -0.003202
    61     0.002236
    62    -0.015795
    63    -0.023684
    64    -0.013673
Sym=    21a
Ene=   -0.135297E-01
Spin= Alpha
Occup= 0.012483
     1    -0.024108
     2    -0.160992
     3     0.328077
     4    -0.007747
     5    -0.154797
     6    -0.089476
     7     0.097354
     8    -0.392083
     9    -0.226685
    10     0.221510
    11    -0.115397
    12    -0.066762
    13     0.103840
    14     0.095869
    15    -0.071816
    16     0.034023
    17     0.168560
    18    -0.318604
    19    -0.183968
    20     0.001834
    21     0.024254
    22    -0.000543
    23     0.006287
    24    -0.010875
    25     0.003843
    26     0.093712
    27     0.062849
    28    -0.120965
    29    -0.000933
    30     0.012345
    31     0.007232
    32    -0.005998
    33    -0.000957
    34    -0.004241
    35     0.001815
    36     0.024300
    37    -0.000726
    38    -0.006365
    39     0.010964
    40     0.003901
    41     0.101765
    42     0.049852
    43    -0.121060
    44     0.004379
    45     0.007008
    46     0.007311
    47    -0.009499
    48    -0.004116
    49     0.001197
    50    -0.134844
    51    -0.536345
    52     0.142349
    53    -0.499843
    54    -0.287834
    55    -0.594462
    56     0.023575
    57     0.013133
    58     0.267534
    59     0.000188
    60     0.030789
    61    -0.021620
    62    -0.030520
    63    -0.050461
    64    -0.029031
Sym=    22a
Ene=   -0.135175E-01
Spin= Alpha
Occup= 0.012457
     1    -0.024296
     2    -0.162745
     3     0.333245
     4    -0.009043
     5    -0.155734
     6    -0.089540
     7    -0.097890
     8    -0.395239
     9    -0.226861
    10    -0.223882
    11    -0.114372
    12    -0.067141
    13    -0.100107
    14     0.096474
    15    -0.074426
    16     0.032427
    17     0.168462
    18     0.318400
    19     0.183742
    20     0.001848
    21     0.024424
    22    -0.000043
    23     0.006291
    24    -0.011283
    25    -0.004124
    26     0.094154
    27     0.063235
    28     0.120084
    29    -0.000814
    30     0.012131
    31     0.007464
    32    -0.006102
    33     0.001038
    34     0.003842
    35     0.001834
    36     0.024075
    37    -0.000483
    38    -0.006244
    39     0.010796
    40    -0.004102
    41     0.100964
    42     0.049826
    43     0.119995
    44     0.004663
    45     0.006854
    46     0.007090
    47    -0.009704
    48     0.003889
    49    -0.001135
    50    -0.134906
    51    -0.536059
    52     0.141229
    53    -0.500403
    54    -0.290284
    55     0.592541
    56     0.022498
    57     0.013986
    58    -0.266941
    59    -0.000133
    60     0.030704
    61    -0.021150
    62    -0.030944
    63     0.050894
    64     0.029570
Sym=    23a
Ene=   -0.135101E-01
Spin= Alpha
Occup= 0.012451
     1    -0.024381
     2    -0.163774
     3     0.336370
     4    -0.010501
     5     0.155686
     6    -0.089212
     7     0.098097
     8     0.394922
     9    -0.225488
    10     0.224744
    11     0.114915
    12    -0.068946
    13     0.098822
    14     0.095441
    15    -0.076334
    16     0.031389
    17    -0.168667
    18     0.318671
    19    -0.183649
    20     0.001923
    21     0.024755
    22     0.001000
    23    -0.006203
    24    -0.011749
    25     0.004239
    26    -0.094337
    27     0.063271
    28    -0.119842
    29    -0.000882
    30     0.011978
    31     0.007808
    32     0.006070
    33     0.001004
    34    -0.003731
    35    -0.134945
    36    -0.536439
    37     0.141627
    38     0.500494
    39    -0.290378
    40    -0.592468
    41    -0.023022
    42     0.014458
    43     0.267167
    44     0.000063
    45     0.030763
    46    -0.021369
    47     0.030744
    48     0.051059
    49    -0.029673
    50     0.001873
    51     0.024112
    52    -0.000045
    53     0.006531
    54     0.010799
    55     0.004336
    56    -0.100835
    57     0.050310
    58    -0.119743
    59     0.004740
    60     0.006766
    61     0.007167
    62     0.009673
    63     0.003781
    64     0.001025
Sym=    24a
Ene=   -0.135096E-01
Spin= Alpha
Occup= 0.012449
     1    -0.024492
     2    -0.165094
     3     0.339761
     4    -0.010158
     5     0.000224
     6     0.179389
     7    -0.097947
     8     0.000983
     9     0.454505
    10    -0.224229
    11    -0.001320
    12     0.134653
    13    -0.099190
    14    -0.161736
    15     0.177721
    16     0.029493
    17     0.000171
    18    -0.000073
    19    -0.367532
    20    -0.134979
    21    -0.536604
    22     0.141464
    23     0.000041
    24     0.578804
    25     0.592541
    26     0.000185
    27    -0.027391
    28    -0.267359
    29     0.046168
    30    -0.015339
    31    -0.021364
    32    -0.000049
    33    -0.000005
    34    -0.059013
    35     0.001930
    36     0.024622
    37     0.001008
    38    -0.013192
    39     0.000500
    40    -0.004175
    41     0.007391
    42    -0.112886
    43     0.119769
    44     0.013211
    45    -0.002139
    46     0.007779
    47    -0.003527
    48     0.002796
    49    -0.002757
    50     0.001871
    51     0.024214
    52     0.000560
    53     0.012886
    54     0.000374
    55    -0.004241
    56    -0.006772
    57    -0.112865
    58     0.119796
    59     0.013425
    60    -0.002047
    61     0.007412
    62     0.003686
    63    -0.002740
    64    -0.002790
Sym=    25a
Ene=   -0.135129E-01
Spin= Alpha
Occup= 0.012454
     1    -0.024267
     2    -0.163045
     3     0.333518
     4    -0.008761
     5     0.154754
     6    -0.088698
     7    -0.097054
     8     0.391638
     9    -0.223598
    10    -0.220516
    11     0.115907
    12    -0.069892
    13    -0.104553
    14     0.094437
    15    -0.076684
    16     0.031424
    17    -0.168032
    18    -0.318668
    19     0.183802
    20     0.001907
    21     0.024731
    22     0.001170
    23    -0.006223
    24    -0.011890
    25    -0.003906
    26    -0.094357
    27     0.063279
    28     0.121113
    29    -0.000770
    30     0.011782
    31     0.007907
    32     0.006057
    33    -0.001027
    34     0.004220
    35    -0.135053
    36    -0.537754
    37     0.143848
    38     0.499010
    39    -0.289395
    40     0.594685
    41    -0.024208
    42     0.015157
    43    -0.267848
    44     0.000610
    45     0.030903
    46    -0.021927
    47     0.030304
    48    -0.050530
    49     0.029351
    50     0.001837
    51     0.024060
    52    -0.000206
    53     0.006521
    54     0.010836
    55    -0.003927
    56    -0.100944
    57     0.050397
    58     0.121017
    59     0.004679
    60     0.006799
    61     0.007223
    62     0.009583
    63    -0.004213
    64    -0.001273
Sym=    26a
Ene=   -0.135056E-01
Spin= Alpha
Occup= 0.012447
     1     0.024253
     2     0.162933
     3    -0.333302
     4     0.008836
     5    -0.000598
     6    -0.178327
     7    -0.097002
     8    -0.002239
     9    -0.450792
    10    -0.220412
    11     0.002071
    12    -0.135608
    13    -0.104284
    14     0.159940
    15    -0.178215
    16    -0.031084
    17    -0.001665
    18    -0.000215
    19    -0.367866
    20     0.135058
    21     0.537817
    22    -0.143715
    23     0.001558
    24    -0.576897
    25     0.594948
    26    -0.001262
    27     0.028578
    28    -0.268301
    29    -0.046046
    30     0.014562
    31     0.021936
    32    -0.000034
    33     0.000209
    34    -0.058230
    35    -0.001921
    36    -0.024855
    37    -0.000844
    38     0.013423
    39    -0.000632
    40    -0.004008
    41    -0.007650
    42     0.113560
    43     0.121084
    44    -0.013108
    45     0.002144
    46    -0.007983
    47     0.003235
    48     0.003080
    49    -0.002996
    50    -0.001878
    51    -0.024181
    52    -0.000026
    53    -0.012702
    54    -0.000329
    55    -0.004004
    56     0.006746
    57     0.112412
    58     0.120912
    59    -0.013431
    60     0.001986
    61    -0.007265
    62    -0.003829
    63    -0.003245
    64    -0.002999
Sym=    27a
Ene=   -0.849487E-02
Spin= Alpha
Occup= 0.006948
     1    -0.005813
     2    -0.038329
     3     0.103714
     4     0.052377
     5     0.030339
     6    -0.008995
     7     0.000062
     8     0.087414
     9    -0.066097
    10     0.000313
    11     0.046440
    12    -0.048230
    13    -0.000441
    14     0.123467
    15    -0.083567
    16     0.033071
    17     0.052023
    18    -0.000219
    19     0.000019
    20     0.000815
    21     0.027849
    22    -0.025382
    23    -0.004621
    24    -0.015175
    25     0.000067
    26    -0.097766
    27     0.051645
    28     0.000122
    29    -0.004060
    30     0.006030
    31     0.002937
    32     0.011057
    33    -0.000024
    34     0.000034
    35     0.226775
    36     1.118890
    37    -1.022218
    38    -0.027562
    39    -0.780023
    40     0.000790
    41     0.104972
    42     0.714291
    43    -0.000537
    44    -0.185256
    45     0.108229
    46    -0.185862
    47     0.032904
    48     0.000079
    49    -0.000383
    50    -0.000574
    51    -0.016273
    52    -0.008816
    53    -0.007226
    54    -0.008457
    55    -0.000033
    56     0.041376
    57    -0.066097
    58     0.000158
    59     0.004363
    60    -0.009805
    61     0.002211
    62    -0.014303
    63    -0.000074
    64    -0.000044
Sym=    28a
Ene=   -0.849377E-02
Spin= Alpha
Occup= 0.006949
     1    -0.005871
     2    -0.038706
     3     0.104113
     4     0.051833
     5    -0.007256
     6     0.031184
     7     0.000057
     8     0.013963
     9     0.109506
    10     0.000014
    11     0.018293
    12     0.063986
    13     0.000228
    14     0.007182
    15     0.032901
    16     0.032891
    17    -0.129042
    18    -0.000076
    19     0.000328
    20     0.226757
    21     1.118885
    22    -1.022121
    23     0.687818
    24     0.368810
    25    -0.001652
    26    -0.669585
    27    -0.268374
    28     0.001279
    29     0.058771
    30    -0.135798
    31    -0.186019
    32     0.131236
    33    -0.000639
    34    -0.000451
    35    -0.000560
    36    -0.016078
    37    -0.008976
    38     0.010813
    39    -0.001992
    40     0.000021
    41     0.036761
    42     0.068321
    43    -0.000216
    44    -0.017015
    45     0.011494
    46     0.002308
    47     0.000250
    48    -0.000071
    49     0.000013
    50     0.000802
    51     0.027707
    52    -0.025288
    53     0.015341
    54     0.003492
    55     0.000021
    56     0.004221
    57    -0.110455
    58    -0.000281
    59     0.011799
    60    -0.009819
    61     0.002861
    62    -0.000455
    63     0.000056
    64    -0.000019
Sym=    29a
Ene=   -0.849523E-02
Spin= Alpha
Occup= 0.006949
     1    -0.005831
     2    -0.038490
     3     0.103970
     4     0.052314
     5     0.007346
     6     0.030845
     7    -0.000114
     8    -0.013625
     9     0.108830
    10    -0.000396
    11    -0.018542
    12     0.064383
    13     0.000420
    14     0.007031
    15     0.032682
    16     0.032894
    17     0.129397
    18    -0.000033
    19     0.000004
    20     0.226752
    21     1.118818
    22    -1.022264
    23    -0.688957
    24     0.366800
    25     0.000180
    26     0.670764
    27    -0.266809
    28    -0.000255
    29     0.059389
    30    -0.136326
    31    -0.185877
    32    -0.130499
    33    -0.000141
    34    -0.000068
    35     0.000823
    36     0.027873
    37    -0.025360
    38    -0.015456
    39     0.003592
    40    -0.000051
    41    -0.004170
    42    -0.110479
    43     0.000009
    44     0.011761
    45    -0.009839
    46     0.002980
    47     0.000472
    48    -0.000009
    49     0.000044
    50    -0.000572
    51    -0.016235
    52    -0.008820
    53    -0.010915
    54    -0.002015
    55    -0.000022
    56    -0.036554
    57     0.068747
    58    -0.000051
    59    -0.016981
    60     0.011530
    61     0.002226
    62    -0.000112
    63     0.000031
    64     0.000067
Sym=    30a
Ene=   -0.135205E-02
Spin= Alpha
Occup= 0.000731
     1    -0.002059
     2    -0.023113
     3     0.123310
     4    -0.110358
     5     0.006478
     6    -0.007367
     7     0.000546
     8     0.055473
     9    -0.041137
    10     0.002040
    11    -0.337824
    12    -0.486972
    13    -0.002615
    14    -0.111914
    15     0.091388
    16    -0.023638
    17    -0.062174
    18     0.000335
    19     0.000081
    20    -0.001224
    21    -0.098460
    22     0.471486
    23    -0.020491
    24     0.065434
    25     0.000012
    26     0.135622
    27    -0.226890
    28     0.000581
    29    -0.020673
    30    -0.051639
    31    -0.026369
    32    -0.049885
    33     0.000095
    34     0.000532
    35    -0.077345
    36    -0.301717
    37     0.102424
    38    -0.182291
    39    -0.075143
    40    -0.000221
    41     0.331943
    42     0.296628
    43     0.000908
    44     0.610888
    45     0.107782
    46    -0.427381
    47     0.676981
    48     0.002596
    49     0.000605
    50     0.003761
    51     0.083233
    52    -0.388604
    53     0.052369
    54     0.006238
    55    -0.000016
    56    -0.212034
    57     0.020295
    58     0.000821
    59    -0.010772
    60     0.054507
    61     0.013986
    62     0.040271
    63    -0.000339
    64    -0.000142
Sym=    31a
Ene=   -0.135230E-02
Spin= Alpha
Occup= 0.000732
     1    -0.001987
     2    -0.022314
     3     0.120800
     4    -0.110347
     5    -0.006623
     6    -0.007829
     7    -0.000137
     8    -0.056209
     9    -0.042921
    10    -0.000389
    11     0.340051
    12    -0.483925
    13    -0.000043
    14    -0.111592
    15     0.093208
    16    -0.022907
    17     0.061814
    18     0.000340
    19     0.000055
    20    -0.001225
    21    -0.098373
    22     0.469630
    23     0.020448
    24     0.065671
    25    -0.000017
    26    -0.135807
    27    -0.226735
    28     0.000158
    29    -0.020884
    30    -0.051188
    31    -0.026559
    32     0.049945
    33    -0.000125
    34     0.000116
    35     0.003754
    36     0.083285
    37    -0.389003
    38    -0.052130
    39     0.006252
    40    -0.000126
    41     0.211890
    42     0.019757
    43     0.000239
    44    -0.010803
    45     0.054847
    46     0.013537
    47    -0.040468
    48     0.000110
    49    -0.000167
    50    -0.077270
    51    -0.301863
    52     0.105183
    53     0.182162
    54    -0.075251
    55    -0.000103
    56    -0.330906
    57     0.297057
    58     0.000511
    59     0.607396
    60     0.110232
    61    -0.427241
    62    -0.678847
    63    -0.001856
    64     0.001649
Sym=    32a
Ene=   -0.849448E-02
Spin= Alpha
Occup= 0.006948
     1    -0.005809
     2    -0.038153
     3     0.103021
     4     0.052253
     5    -0.030510
     6    -0.009069
     7     0.000093
     8    -0.087818
     9    -0.066261
    10     0.000147
    11    -0.046046
    12    -0.047951
    13     0.000099
    14     0.123778
    15    -0.082892
    16     0.033386
    17    -0.052044
    18    -0.000326
    19    -0.000053
    20     0.000789
    21     0.027734
    22    -0.025500
    23     0.004678
    24    -0.015006
    25     0.000009
    26     0.097699
    27     0.051732
    28    -0.000258
    29    -0.004018
    30     0.006025
    31     0.002837
    32    -0.011097
    33     0.000053
    34    -0.000034
    35    -0.000566
    36    -0.016172
    37    -0.009106
    38     0.007217
    39    -0.008433
    40     0.000037
    41    -0.041122
    42    -0.066110
    43    -0.000194
    44     0.004361
    45    -0.009833
    46     0.002253
    47     0.014273
    48    -0.000038
    49     0.000052
    50     0.226813
    51     1.119128
    52    -1.022312
    53     0.026330
    54    -0.779913
    55    -0.001534
    56    -0.103915
    57     0.714016
    58     0.001195
    59    -0.185429
    60     0.108416
    61    -0.185936
    62    -0.032444
    63     0.000033
    64     0.000727
Sym=    33a
Ene=   -0.965970E-03
Spin= Alpha
Occup= 0.000039
     1    -0.003705
     2    -0.016115
     3     0.014435
     4    -0.398409
     5    -0.042957
     6    -0.024345
     7    -0.001106
     8    -0.088673
     9    -0.049278
    10    -0.004075
    11     0.343203
    12     0.195926
    13     0.004817
    14     0.060912
    15    -0.003881
    16     0.053787
    17     0.063391
    18     0.000055
    19    -0.000300
    20    -0.000214
    21     0.016217
    22    -0.053243
    23    -0.003285
    24    -0.030112
    25    -0.000279
    26    -0.046568
    27     0.049609
    28    -0.000710
    29     0.002535
    30     0.022770
    31     0.013491
    32     0.001153
    33     0.000075
    34    -0.001331
    35    -0.000237
    36     0.015859
    37    -0.054133
    38    -0.027239
    39     0.011859
    40    -0.000095
    41     0.019048
    42    -0.064546
    43    -0.001078
    44     0.019328
    45     0.006602
    46     0.012584
    47    -0.009998
    48    -0.000787
    49     0.000421
    50     0.701590
    51     2.134982
    52     1.620447
    53     0.024704
    54     0.014216
    55     0.000042
    56     0.091352
    57     0.052937
    58    -0.001247
    59    -1.460503
    60    -1.423917
    61    -1.535026
    62    -0.037285
    63     0.000922
    64     0.001353
Sym=    34a
Ene=   -0.417574E-05
Spin= Alpha
Occup= 0.000000
     1     0.000846
     2     0.009947
     3    -0.021196
     4    -0.067671
     5     0.000438
     6    -0.001502
     7    -0.009065
     8    -0.000524
     9    -0.006191
    10     0.069187
    11    -0.016591
    12    -0.037596
    13    -0.767537
    14    -0.003958
    15     0.004492
    16     0.030647
    17     0.023591
    18    -0.540872
    19     0.296991
    20     0.000380
    21    -0.013285
    22     0.072133
    23    -0.000139
    24     0.003490
    25    -0.092375
    26    -0.004624
    27    -0.032918
    28     0.269108
    29    -0.006506
    30     0.002444
    31    -0.009714
    32     0.008624
    33    -0.010978
    34     0.066654
    35    -0.000222
    36    -0.004637
    37     0.028855
    38    -0.005625
    39     0.001645
    40    -0.483261
    41    -0.006345
    42     0.013787
    43     1.030978
    44     0.007474
    45     0.002380
    46    -0.005428
    47    -0.009424
    48    -0.613855
    49     0.357599
    50     0.000073
    51    -0.000844
    52    -0.001021
    53     0.000157
    54    -0.001295
    55    -0.082820
    56    -0.009514
    57     0.009894
    58     0.250366
    59    -0.010254
    60     0.008339
    61    -0.000520
    62     0.003216
    63    -0.080268
    64    -0.033953
Sym=    35a
Ene=   -0.965568E-03
Spin= Alpha
Occup= 0.000039
     1    -0.004727
     2    -0.028340
     3     0.046963
     4    -0.399481
     5     0.001463
     6     0.047500
     7    -0.001568
     8     0.006318
     9     0.093263
    10    -0.005775
    11    -0.004888
    12    -0.389266
    13     0.006775
    14    -0.052711
    15     0.077062
    16     0.039441
    17     0.000859
    18     0.000362
    19     0.000113
    20     0.701558
    21     2.133194
    22     1.624213
    23    -0.000127
    24    -0.027808
    25    -0.000051
    26     0.000692
    27    -0.111944
    28    -0.001605
    29    -1.406314
    30    -1.476403
    31    -1.537123
    32     0.000676
    33    -0.000641
    34    -0.002064
    35    -0.000116
    36     0.017508
    37    -0.051855
    38    -0.026375
    39     0.019231
    40    -0.000123
    41     0.067800
    42     0.014081
    43    -0.001508
    44     0.014164
    45     0.008979
    46     0.017037
    47    -0.008758
    48    -0.001044
    49     0.000650
    50    -0.000233
    51     0.015517
    52    -0.051161
    53     0.024640
    54     0.018467
    55    -0.000375
    56    -0.062919
    57     0.015993
    58    -0.001019
    59     0.016647
    60     0.009245
    61     0.013481
    62     0.011848
    63     0.001582
    64     0.000834
Sym=    36a
Ene=   -0.165989E-05
Spin= Alpha
Occup= 0.000000
     1    -0.000911
     2    -0.032951
     3     0.088660
     4    -1.302006
     5    -0.012116
     6    -0.049868
     7     0.000224
     8    -0.093560
     9    -0.362453
    10     0.001304
    11    -0.436792
    12    -1.956323
    13    -0.004914
    14     0.844344
    15    -1.459281
    16     0.205814
    17     0.380557
    18    -0.002824
    19    -0.014320
    20     0.002677
    21    -0.504862
    22     2.968762
    23    -0.006430
    24    -0.077853
    25    -0.006771
    26    -0.026647
    27    -1.575533
    28     0.014211
    29    -0.388640
    30     0.629242
    31    -0.426395
    32     0.104692
    33     0.031474
    34    -0.012206
    35     0.001632
    36    -0.041295
    37     0.106800
    38     0.000938
    39    -0.042562
    40     0.002308
    41    -0.043903
    42     0.039253
    43    -0.003150
    44     0.181454
    45    -0.254535
    46     0.013680
    47     0.210991
    48     0.015326
    49     0.018979
    50     0.002778
    51     0.100503
    52    -0.777757
    53    -0.053606
    54    -0.065620
    55     0.001266
    56    -0.390668
    57    -0.180813
    58    -0.003095
    59    -0.074854
    60    -0.142824
    61     0.157073
    62    -0.367979
    63     0.005427
    64    -0.017589
Sym=    37a
Ene=   -0.286099E-03
Spin= Alpha
Occup= 0.000030
     1    -0.084505
     2    -1.007840
     3     2.688505
     4     0.060862
     5    -0.166527
     6     0.122823
     7     0.118118
     8    -0.718523
     9     0.530035
    10     0.428898
    11     0.448005
    12    -0.338149
    13    -0.466804
    14    -1.268402
    15    -1.380460
    16    -1.188631
    17    -0.091797
    18    -0.013431
    19     0.009210
    20     0.008885
    21     0.108724
    22     0.036549
    23     0.019694
    24    -0.174362
    25     0.029598
    26    -0.058826
    27     0.155043
    28     0.063655
    29     0.085487
    30    -0.211832
    31     0.229047
    32    -0.066816
    33     0.001232
    34     0.117782
    35    -0.006863
    36    -0.183392
    37     0.307645
    38     0.064463
    39    -0.040874
    40     0.019451
    41    -0.512256
    42     0.308722
    43     0.084485
    44     0.224354
    45    -0.015151
    46    -0.230025
    47    -0.224904
    48     0.087389
    49    -0.050719
    50     0.006904
    51     0.074695
    52     0.060850
    53     0.137020
    54     0.053051
    55     0.028874
    56    -0.092458
    57     0.027104
    58     0.065310
    59    -0.037659
    60    -0.046941
    61     0.175114
    62    -0.140083
    63    -0.100275
    64    -0.059650
Sym=    38a
Ene=   -0.392327E-05
Spin= Alpha
Occup= 0.000001
     1     0.001789
     2     0.037850
     3    -0.195847
     4    -0.273836
     5    -0.046151
     6     0.004761
     7     0.005442
     8    -0.329660
     9     0.051421
    10     0.020006
    11    -1.267489
    12    -0.243603
    13    -0.022751
    14     0.060126
    15     0.563499
    16    -0.393664
    17     1.188809
    18    -0.001035
    19    -0.024804
    20     0.010182
    21    -0.069063
    22     0.337307
    23    -0.015732
    24     0.199209
    25    -0.009476
    26    -0.109574
    27    -0.164934
    28     0.024940
    29    -0.045630
    30    -0.257275
    31     0.003639
    32     0.335847
    33     0.008082
    34    -0.013247
    35     0.003236
    36    -0.246869
    37     1.449701
    38     0.008252
    39    -0.031557
    40     0.006261
    41    -0.709810
    42     0.531473
    43    -0.005834
    44     0.273222
    45    -0.139482
    46    -0.271359
    47    -0.340310
    48     0.019010
    49    -0.000879
    50     0.007254
    51     0.188054
    52    -1.214837
    53    -0.167692
    54    -0.105365
    55     0.006215
    56    -0.647606
    57    -0.125757
    58    -0.006094
    59    -0.562154
    60     0.205277
    61     0.205154
    62    -0.170965
    63    -0.010256
    64    -0.018456
Sym=    39a
Ene=   -0.264385E-05
Spin= Alpha
Occup= 0.000001
     1     0.000664
     2     0.061660
     3    -0.281977
     4     3.825011
     5    -0.004858
     6    -0.011495
     7    -0.004126
     8    -0.008068
     9    -0.090433
    10    -0.013116
    11     0.035426
    12     0.860529
    13     0.001204
    14     1.252316
    15     0.573688
    16    -0.872877
    17    -0.127215
    18    -0.011919
    19     0.000242
    20    -0.011027
    21     0.520492
    22    -2.816643
    23    -0.001886
    24    -0.064922
    25    -0.004590
    26     0.041790
    27     1.293301
    28     0.006412
    29     0.184525
    30     0.045900
    31     0.215928
    32    -0.053202
    33    -0.016689
    34    -0.008504
    35     0.000293
    36     0.360884
    37    -1.858328
    38     0.115946
    39    -0.023809
    40    -0.010648
    41     0.685090
    42    -0.769944
    43     0.017575
    44    -0.054260
    45    -0.095342
    46     0.232502
    47     0.365286
    48    -0.024342
    49    -0.007006
    50    -0.001475
    51     0.357961
    52    -1.790079
    53    -0.080762
    54    -0.001245
    55    -0.000111
    56    -0.633610
    57    -0.788593
    58    -0.002331
    59     0.038479
    60    -0.128592
    61     0.223889
    62    -0.344192
    63    -0.015761
    64     0.026839
Sym=    40a
Ene=    0.487940E-08
Spin= Alpha
Occup= 0.000000
     1     0.000434
     2    -0.051310
     3    -0.108049
     4     1.516448
     5     0.006135
     6    -0.004285
     7    -0.000506
     8     0.044149
     9    -0.027920
    10    -0.002194
    11     2.425113
    12    -1.245497
    13     0.004859
    14    -0.117593
    15    -0.233463
    16    -0.231224
    17    -0.126744
    18    -0.018574
    19     0.029457
    20     0.001376
    21    -0.075160
    22     0.540353
    23     0.090329
    24     0.019808
    25     0.000815
    26    -0.636635
    27    -0.313695
    28    -0.009227
    29    -0.056552
    30     0.120039
    31    -0.110151
    32     0.236730
    33    -0.127918
    34     0.013239
    35    -0.016660
    36     0.516762
    37    -3.130459
    38    -0.139671
    39     0.086709
    40     0.001459
    41     1.110012
    42    -0.682301
    43     0.003740
    44     0.213954
    45     0.213898
    46     0.171527
    47     0.024277
    48     0.081586
    49     0.168988
    50     0.002364
    51    -0.108196
    52     0.748875
    53     0.016998
    54    -0.088537
    55     0.000033
    56     0.047570
    57     0.721259
    58    -0.001589
    59    -0.104284
    60     0.146670
    61    -0.125842
    62     0.200694
    63     0.339456
    64    -0.586156
Sym=    41a
Ene=   -0.143488E-02
Spin= Alpha
Occup= 0.000915
     1     0.010660
     2     0.074627
     3    -0.456071
     4     0.241597
     5     0.049790
     6     0.030162
     7    -0.070937
     8     0.253237
     9     0.152234
    10    -0.235607
    11     0.097451
    12     0.047079
    13     0.116674
    14    -0.161235
    15     0.032641
    16     0.061170
    17    -0.200148
    18     0.247953
    19     0.143996
    20     0.005426
    21     0.066507
    22    -0.185103
    23    -0.015491
    24    -0.008735
    25    -0.002604
    26     0.089824
    27     0.081665
    28    -0.039375
    29     0.011536
    30    -0.008126
    31     0.004734
    32    -0.045649
    33    -0.006875
    34     0.014444
    35     0.005262
    36     0.065489
    37    -0.190939
    38    -0.013417
    39    -0.010411
    40    -0.003215
    41     0.114710
    42     0.038353
    43    -0.038230
    44    -0.034849
    45     0.040555
    46     0.001949
    47    -0.014459
    48     0.008181
    49    -0.012940
    50    -0.010584
    51    -0.226540
    52     0.653514
    53    -0.131943
    54    -0.076083
    55    -0.235842
    56     0.580111
    57     0.335286
    58     0.453387
    59    -0.315103
    60    -0.024807
    61     0.189182
    62    -0.289777
    63    -0.416460
    64    -0.240684
Sym=    42a
Ene=   -0.144257E-02
Spin= Alpha
Occup= 0.000925
     1    -0.011625
     2    -0.085498
     3     0.487976
     4    -0.244310
     5    -0.053361
     6    -0.028353
     7    -0.073825
     8    -0.268849
     9    -0.144986
    10    -0.246306
    11    -0.080098
    12    -0.063534
    13     0.129178
    14     0.157078
    15    -0.051186
    16    -0.074672
    17     0.194831
    18     0.248958
    19     0.143203
    20    -0.005221
    21    -0.066280
    22     0.196425
    23     0.016127
    24     0.005702
    25    -0.003322
    26    -0.092164
    27    -0.083187
    28    -0.041233
    29    -0.011073
    30     0.004846
    31    -0.001522
    32     0.044071
    33    -0.007037
    34     0.011628
    35    -0.005502
    36    -0.067659
    37     0.183800
    38     0.016456
    39     0.008675
    40    -0.002926
    41    -0.118759
    42    -0.036683
    43    -0.041986
    44     0.037971
    45    -0.041054
    46    -0.005497
    47     0.012460
    48     0.007100
    49    -0.011977
    50     0.011064
    51     0.230226
    52    -0.655281
    53     0.135140
    54     0.078210
    55    -0.236871
    56    -0.586975
    57    -0.338613
    58     0.451133
    59     0.313196
    60     0.026698
    61    -0.189196
    62     0.288390
    63    -0.408532
    64    -0.236292
Sym=    43a
Ene=   -0.144106E-02
Spin= Alpha
Occup= 0.000923
     1    -0.011527
     2    -0.084372
     3     0.485220
     4    -0.246564
     5     0.053071
     6    -0.028593
     7     0.074242
     8     0.267562
     9    -0.146072
    10     0.247883
    11     0.081165
    12    -0.060983
    13    -0.131259
    14     0.156703
    15    -0.049606
    16    -0.072038
    17    -0.194252
    18     0.249311
    19    -0.143456
    20    -0.005253
    21    -0.066496
    22     0.195891
    23    -0.016064
    24     0.005995
    25     0.003175
    26     0.091656
    27    -0.083306
    28     0.042010
    29    -0.011147
    30     0.005741
    31    -0.002402
    32    -0.043925
    33    -0.006835
    34    -0.011339
    35     0.011111
    36     0.230019
    37    -0.653269
    38    -0.135463
    39     0.078463
    40     0.237046
    41     0.586038
    42    -0.338595
    43    -0.450989
    44     0.312822
    45     0.027511
    46    -0.189932
    47    -0.289001
    48    -0.407703
    49     0.236847
    50    -0.005488
    51    -0.067709
    52     0.185514
    53    -0.016216
    54     0.008917
    55     0.002874
    56     0.118723
    57    -0.036762
    58     0.042654
    59     0.037274
    60    -0.040782
    61    -0.005111
    62    -0.012864
    63     0.006754
    64     0.011809
Sym=    44a
Ene=   -0.144217E-02
Spin= Alpha
Occup= 0.000924
     1     0.012364
     2     0.094211
     3    -0.511695
     4     0.246673
     5     0.000049
     6    -0.060038
     7     0.074318
     8     0.000192
     9    -0.303904
    10     0.248134
    11    -0.001323
    12    -0.104415
    13    -0.131343
    14     0.157259
    15    -0.240905
    16     0.084925
    17     0.000812
    18    -0.000139
    19     0.287719
    20    -0.011132
    21    -0.230214
    22     0.654782
    23     0.000052
    24     0.156646
    25     0.236875
    26    -0.000021
    27    -0.676729
    28    -0.450746
    29     0.117749
    30    -0.458191
    31     0.189945
    32     0.000673
    33     0.000713
    34    -0.470497
    35     0.005338
    36     0.067194
    37    -0.192529
    38     0.001689
    39     0.017348
    40     0.003147
    41     0.028061
    42    -0.121617
    43     0.042265
    44     0.031962
    45    -0.027044
    46     0.003090
    47     0.031417
    48    -0.013315
    49    -0.000165
    50     0.005339
    51     0.067444
    52    -0.194518
    53    -0.001914
    54     0.017278
    55     0.003277
    56    -0.028785
    57    -0.122153
    58     0.042042
    59     0.032082
    60    -0.026742
    61     0.002571
    62    -0.031182
    63     0.013277
    64    -0.000381
Sym=    45a
Ene=   -0.143335E-02
Spin= Alpha
Occup= 0.000913
     1     0.011703
     2     0.087157
     3    -0.489391
     4     0.245394
     5    -0.050006
     6     0.026378
     7     0.070965
     8    -0.253762
     9     0.136180
    10     0.235776
    11    -0.094952
    12     0.071981
    13    -0.117369
    14    -0.152598
    15     0.058560
    16     0.075335
    17     0.197452
    18     0.248978
    19    -0.143178
    20     0.005100
    21     0.065299
    22    -0.200184
    23     0.015450
    24    -0.003616
    25     0.003009
    26    -0.089200
    27     0.082074
    28     0.038856
    29     0.010435
    30    -0.003271
    31    -0.000264
    32     0.044952
    33    -0.007130
    34    -0.013739
    35    -0.010484
    36    -0.224828
    37     0.652110
    38     0.131107
    39    -0.075817
    40     0.235357
    41    -0.575894
    42     0.332302
    43    -0.452811
    44    -0.315606
    45    -0.026495
    46     0.191681
    47     0.292538
    48    -0.415668
    49     0.241512
    50     0.005398
    51     0.066857
    52    -0.187889
    53     0.014426
    54    -0.009147
    55     0.002658
    56    -0.116709
    57     0.034704
    58     0.039600
    59    -0.037228
    60     0.041692
    61     0.003285
    62     0.014413
    63     0.008805
    64     0.013265
Sym=    46a
Ene=   -0.143442E-02
Spin= Alpha
Occup= 0.000915
     1     0.011284
     2     0.082152
     3    -0.475813
     4     0.243756
     5    -0.002796
     6    -0.056824
     7    -0.070382
     8    -0.011719
     9    -0.289321
    10    -0.233534
    11     0.018437
    12    -0.115894
    13     0.114215
    14     0.146412
    15    -0.254394
    16     0.069957
    17    -0.008072
    18    -0.001086
    19    -0.287131
    20    -0.010479
    21    -0.225108
    22     0.652868
    23    -0.000183
    24     0.151145
    25    -0.235377
    26    -0.000324
    27    -0.665904
    28     0.453714
    29     0.120684
    30    -0.461464
    31     0.190368
    32     0.001682
    33    -0.000876
    34     0.482138
    35     0.005102
    36     0.064888
    37    -0.199003
    38     0.004620
    39     0.015328
    40    -0.003351
    41     0.024807
    42    -0.117943
    43    -0.037474
    44     0.033975
    45    -0.026622
    46    -0.000451
    47     0.028798
    48     0.015281
    49    -0.000636
    50     0.005475
    51     0.067084
    52    -0.184700
    53     0.000332
    54     0.017667
    55    -0.002455
    56    -0.027958
    57    -0.118337
    58    -0.039186
    59     0.031781
    60    -0.028464
    61     0.004762
    62    -0.033145
    63    -0.016382
    64    -0.001515
Sym=    47a
Ene=   -0.135418E-02
Spin= Alpha
Occup= 0.000735
     1     0.002194
     2     0.025130
     3    -0.127235
     4     0.112687
     5    -0.010305
     6     0.001033
     7    -0.000492
     8    -0.066189
     9     0.024054
    10    -0.001814
    11    -0.244233
    12    -0.530913
    13     0.002235
    14    -0.086375
    15     0.114048
    16     0.026303
    17    -0.073584
    18    -0.000039
    19     0.000295
    20    -0.003854
    21    -0.083307
    22     0.383943
    23    -0.020575
    24     0.049369
    25     0.000007
    26     0.122715
    27    -0.171865
    28    -0.000664
    29    -0.007758
    30    -0.035312
    31    -0.014664
    32    -0.053203
    33     0.000080
    34    -0.000242
    35     0.077164
    36     0.302804
    37    -0.110606
    38     0.025433
    39    -0.194937
    40     0.000223
    41     0.095660
    42     0.432156
    43    -0.000801
    44     0.274342
    45    -0.990777
    46     0.427302
    47    -0.097696
    48    -0.000615
    49     0.002433
    50     0.001268
    51     0.098579
    52    -0.467059
    53     0.067597
    54     0.015625
    55    -0.000005
    56    -0.264594
    57     0.003702
    58    -0.000445
    59     0.005508
    60     0.065912
    61     0.027219
    62     0.039839
    63     0.000325
    64     0.000257
Sym=    48a
Ene=   -0.135275E-02
Spin= Alpha
Occup= 0.000733
     1     0.002144
     2     0.024153
     3    -0.125797
     4     0.110662
     5     0.003358
     6    -0.009344
     7     0.000810
     8     0.008776
     9    -0.068883
    10     0.003134
    11     0.588670
    12     0.049684
    13    -0.004508
    14     0.007272
    15     0.015504
    16     0.025414
    17     0.133872
    18    -0.000042
    19     0.000063
    20     0.077257
    21     0.301654
    22    -0.103513
    23     0.156187
    24     0.120080
    25    -0.000504
    26    -0.422740
    27    -0.138302
    28     0.002153
    29    -0.742386
    30     0.024527
    31     0.427280
    32    -0.588809
    33     0.005763
    34     0.004713
    35     0.001249
    36     0.098592
    37    -0.470681
    38    -0.046736
    39     0.050621
    40    -0.000023
    41     0.128823
    42    -0.231044
    43     0.001261
    44     0.081186
    45    -0.009112
    46     0.026707
    47     0.009610
    48     0.000711
    49    -0.000292
    50    -0.003786
    51    -0.083219
    52     0.387337
    53    -0.031779
    54    -0.042301
    55    -0.000132
    56     0.088057
    57     0.193356
    58     0.001474
    59    -0.068180
    60     0.024821
    61    -0.014342
    62     0.012591
    63    -0.000769
    64    -0.000313
Sym=    49a
Ene=   -0.135267E-02
Spin= Alpha
Occup= 0.000732
     1     0.002227
     2     0.025454
     3    -0.128356
     4     0.111779
     5    -0.004119
     6    -0.009370
     7     0.000297
     8    -0.011869
     9    -0.069031
    10     0.001001
    11    -0.582615
    12     0.052473
    13    -0.000839
    14     0.009301
    15     0.018802
    16     0.026719
    17    -0.135967
    18    -0.000101
    19     0.000321
    20     0.077144
    21     0.302316
    22    -0.108526
    23    -0.156063
    24     0.119708
    25    -0.000060
    26     0.421833
    27    -0.134535
    28    -0.000028
    29    -0.746472
    30     0.029501
    31     0.427592
    32     0.585033
    33     0.001388
    34     0.000048
    35    -0.003854
    36    -0.083372
    37     0.384475
    38     0.032435
    39    -0.042522
    40     0.000072
    41    -0.087748
    42     0.192399
    43     0.000061
    44    -0.067960
    45     0.025193
    46    -0.015014
    47    -0.012940
    48    -0.000087
    49    -0.000045
    50     0.001262
    51     0.098550
    52    -0.467692
    53     0.047161
    54     0.050659
    55     0.000046
    56    -0.129253
    57    -0.230865
    58     0.000052
    59     0.080582
    60    -0.009209
    61     0.027211
    62    -0.010218
    63    -0.000019
    64    -0.000133
Sym=    50a
Ene=   -0.849388E-02
Spin= Alpha
Occup= 0.006950
     1    -0.005873
     2    -0.038654
     3     0.103853
     4     0.051685
     5     0.023453
     6    -0.021931
     7     0.000034
     8     0.101956
     9    -0.042785
    10     0.000219
    11     0.064387
    12    -0.015992
    13    -0.000405
    14    -0.070096
    15     0.110527
    16     0.033077
    17    -0.077307
    18    -0.000067
    19     0.000175
    20    -0.000556
    21    -0.016020
    22    -0.009133
    23     0.003672
    24     0.010345
    25    -0.000031
    26     0.077480
    27    -0.002201
    28     0.000164
    29     0.004532
    30    -0.010067
    31     0.002336
    32    -0.014119
    33     0.000013
    34     0.000093
    35     0.226787
    36     1.119003
    37    -1.022010
    38     0.663616
    39     0.410678
    40     0.000650
    41    -0.567442
    42    -0.445143
    43    -0.000404
    44     0.011478
    45    -0.088567
    46    -0.186140
    47     0.162836
    48     0.000326
    49     0.000084
    50     0.000794
    51     0.027665
    52    -0.025281
    53     0.010633
    54     0.011532
    55     0.000083
    56    -0.093566
    57     0.058832
    58     0.000131
    59    -0.004766
    60     0.006756
    61     0.002815
    62     0.010582
    63    -0.000038
    64    -0.000011
Sym=    51a
Ene=   -0.849401E-02
Spin= Alpha
Occup= 0.006948
     1     0.005823
     2     0.038224
     3    -0.103031
     4    -0.052127
     5     0.023221
     6     0.021932
     7     0.000112
     8     0.101512
     9     0.042983
    10     0.000347
    11     0.064423
    12     0.015811
    13    -0.000331
    14     0.070106
    15    -0.111132
    16    -0.033400
    17    -0.077255
    18    -0.000034
    19    -0.000029
    20     0.000565
    21     0.016127
    22     0.009215
    23     0.003682
    24    -0.010445
    25     0.000010
    26     0.077708
    27     0.002415
    28    -0.000005
    29    -0.004460
    30     0.009948
    31    -0.002274
    32    -0.014198
    33     0.000048
    34     0.000032
    35    -0.000781
    36    -0.027677
    37     0.025457
    38     0.010610
    39    -0.011549
    40     0.000056
    41    -0.093653
    42    -0.058726
    43    -0.000068
    44     0.004814
    45    -0.006841
    46    -0.002793
    47     0.010563
    48     0.000027
    49     0.000023
    50    -0.226813
    51    -1.119141
    52     1.022240
    53     0.662697
    54    -0.412029
    55    -0.000566
    56    -0.566712
    57     0.446346
    58     0.000565
    59    -0.010925
    60     0.087947
    61     0.186010
    62     0.163067
    63     0.000183
    64    -0.000230
Sym=    52a
Ene=   -0.135230E-02
Spin= Alpha
Occup= 0.000732
     1     0.002029
     2     0.022913
     3    -0.121979
     4     0.110919
     5     0.010265
     6     0.001581
     7     0.000697
     8     0.066018
     9     0.026286
    10     0.002726
    11     0.247131
    12    -0.534458
    13    -0.004049
    14    -0.088375
    15     0.108371
    16     0.024053
    17     0.072087
    18     0.000016
    19     0.000030
    20    -0.003779
    21    -0.083213
    22     0.387270
    23     0.020616
    24     0.048427
    25    -0.000132
    26    -0.122847
    27    -0.172935
    28     0.001374
    29    -0.007911
    30    -0.035759
    31    -0.013826
    32     0.053119
    33    -0.000142
    34     0.000812
    35     0.001232
    36     0.098403
    37    -0.468470
    38    -0.067327
    39     0.015372
    40    -0.000043
    41     0.264326
    42     0.004002
    43     0.001165
    44     0.005861
    45     0.066079
    46     0.026759
    47    -0.039944
    48     0.000570
    49    -0.000451
    50     0.077227
    51     0.302106
    52    -0.106808
    53    -0.025731
    54    -0.195166
    55    -0.000469
    56    -0.092721
    57     0.434128
    58     0.002035
    59     0.274637
    60    -0.991687
    61     0.427287
    62     0.093638
    63    -0.000958
    64    -0.007036
Sym=    53a
Ene=   -0.312667E-05
Spin= Alpha
Occup= 0.000000
     1    -0.000511
     2    -0.006254
     3     0.014022
     4     0.019141
     5     0.000472
     6     0.002304
     7    -0.001675
     8     0.000016
     9     0.009959
    10     0.091351
    11    -0.024093
    12     0.025642
    13    -0.759491
    14    -0.004316
    15    -0.005096
    16    -0.014174
    17     0.020270
    18     0.559617
    19     0.296667
    20    -0.000180
    21     0.007716
    22    -0.038943
    23    -0.000511
    24    -0.002996
    25    -0.080714
    26    -0.001211
    27     0.020324
    28     0.249849
    29     0.004677
    30    -0.002370
    31     0.005374
    32     0.006715
    33     0.013944
    34     0.083617
    35    -0.000017
    36    -0.004471
    37     0.027851
    38    -0.000110
    39     0.000698
    40    -0.063752
    41    -0.017620
    42     0.001736
    43     0.216826
    44     0.008030
    45    -0.006530
    46    -0.002512
    47    -0.001529
    48     0.108332
    49    -0.047949
    50     0.000189
    51     0.001089
    52    -0.012335
    53    -0.004516
    54    -0.000911
    55    -0.478477
    56     0.000743
    57    -0.007148
    58     1.024898
    59    -0.004120
    60    -0.002384
    61     0.002041
    62    -0.005311
    63     0.613795
    64     0.353508
Sym=    54a
Ene=   -0.964107E-03
Spin= Alpha
Occup= 0.000039
     1    -0.004441
     2    -0.024965
     3     0.038216
     4    -0.401000
     5     0.042384
     6    -0.022310
     7     0.001868
     8     0.086036
     9    -0.040504
    10     0.006886
    11    -0.342513
    12     0.188862
    13    -0.008088
    14     0.049630
    15    -0.017841
    16     0.044545
    17    -0.062708
    18    -0.000146
    19     0.000111
    20    -0.000122
    21     0.017390
    22    -0.050677
    23     0.003373
    24    -0.032577
    25     0.000329
    26     0.046158
    27     0.051723
    28     0.001466
    29     0.003693
    30     0.019669
    31     0.016786
    32    -0.001128
    33    -0.000008
    34     0.001871
    35     0.701525
    36     2.133176
    37     1.624990
    38    -0.024519
    39     0.013989
    40     0.000055
    41    -0.096020
    42     0.056287
    43     0.001924
    44    -1.457933
    45    -1.424648
    46    -1.536922
    47     0.035852
    48     0.001891
    49    -0.001072
    50    -0.000256
    51     0.015283
    52    -0.052524
    53     0.027755
    54     0.011797
    55     0.000332
    56    -0.017660
    57    -0.062449
    58     0.001481
    59     0.020282
    60     0.006150
    61     0.012575
    62     0.010083
    63    -0.001625
    64    -0.000947
Sym=    55a
Ene=   -0.207760E-05
Spin= Alpha
Occup= 0.000000
     1     0.000423
     2     0.005416
     3    -0.012151
     4     0.058308
     5    -0.000405
     6     0.000778
     7     0.000678
     8    -0.008636
     9     0.002463
    10    -0.087938
    11    -0.121974
    12     0.025912
    13     0.708200
    14     0.017668
    15     0.002034
    16     0.008642
    17     0.061872
    18    -0.010076
    19     0.654484
    20    -0.000537
    21     0.011649
    22    -0.061002
    23    -0.002665
    24    -0.007302
    25     0.472174
    26     0.009420
    27     0.031461
    28    -1.007100
    29     0.006173
    30     0.007977
    31     0.003101
    32     0.012817
    33     0.012794
    34     0.713820
    35    -0.000023
    36    -0.011690
    37     0.084256
    38    -0.004734
    39     0.002124
    40     0.049405
    41    -0.034930
    42     0.014947
    43    -0.182508
    44     0.020901
    45    -0.011025
    46    -0.011315
    47    -0.008050
    48    -0.099772
    49     0.084314
    50    -0.000274
    51     0.021175
    52    -0.130658
    53    -0.002513
    54     0.001427
    55     0.055798
    56    -0.050271
    57    -0.045575
    58    -0.195570
    59    -0.010272
    60     0.006175
    61     0.015579
    62    -0.018738
    63     0.096151
    64     0.063485
Sym=    56a
Ene=   -0.288091E-03
Spin= Alpha
Occup= 0.000031
     1     0.085084
     2     1.013632
     3    -2.699572
     4    -0.109309
     5    -0.037349
     6     0.232417
     7     0.032768
     8    -0.162720
     9     1.001696
    10     0.119005
    11     0.088307
    12    -0.644290
    13    -0.129893
    14     1.434273
    15     1.192882
    16     1.220663
    17    -0.003717
    18    -0.001177
    19    -0.002747
    20     0.008096
    21     0.200621
    22    -0.289478
    23     0.004501
    24    -0.101895
    25     0.005810
    26    -0.016679
    27     0.640837
    28     0.022312
    29     0.137936
    30    -0.369414
    31     0.263829
    32    -0.009337
    33     0.000501
    34     0.028255
    35    -0.010275
    36    -0.137915
    37     0.019315
    38     0.153588
    39    -0.114079
    40     0.006947
    41    -0.166891
    42     0.169777
    43     0.019782
    44     0.229577
    45    -0.071188
    46    -0.269586
    47    -0.143988
    48     0.025553
    49    -0.014308
    50    -0.006998
    51    -0.076423
    52    -0.060446
    53    -0.111955
    54    -0.094908
    55     0.008318
    56     0.017795
    57     0.102557
    58     0.017797
    59     0.161160
    60    -0.073906
    61    -0.177279
    62     0.058398
    63    -0.029104
    64    -0.016573
Sym=    57a
Ene=   -0.111316E-05
Spin= Alpha
Occup= 0.000000
     1     0.001697
     2     0.038214
     3    -0.203267
     4    -1.983290
     5     0.018137
     6    -0.004020
     7    -0.007666
     8     0.152196
     9    -0.038375
    10    -0.029805
    11     0.901648
    12    -1.815891
    13     0.044909
    14     0.394946
    15     0.100999
    16    -0.397508
    17    -0.677113
    18    -0.004231
    19     0.027376
    20     0.021972
    21    -0.501818
    22     2.846168
    23     0.015863
    24     0.311728
    25     0.012865
    26     0.013348
    27    -1.393372
    28    -0.036101
    29    -0.321368
    30    -0.154891
    31    -0.246898
    32    -0.173648
    33     0.028527
    34     0.014915
    35     0.011127
    36     0.042529
    37    -0.562120
    38     0.195037
    39    -0.169285
    40    -0.003051
    41     0.364238
    42     0.244344
    43    -0.002955
    44    -0.449381
    45     0.070100
    46     0.086090
    47     0.095192
    48    -0.005166
    49     0.028578
    50     0.010124
    51    -0.234600
    52     1.187656
    53    -0.105166
    54    -0.135773
    55    -0.003557
    56     0.446673
    57     0.697163
    58    -0.004240
    59    -0.017520
    60    -0.127550
    61    -0.178450
    62     0.188154
    63     0.038590
    64    -0.032133
Sym=    58a
Ene=   -0.142790E-03
Spin= Alpha
Occup= 0.000013
     1     0.055812
     2     0.665971
     3    -1.762368
     4    -0.135876
     5    -0.224535
     6    -0.150978
     7     0.049170
     8    -0.970016
     9    -0.653903
    10     0.179014
    11     0.615255
    12     0.401895
    13    -0.197107
    14     0.776432
    15     0.925141
    16     0.829125
    17    -0.150655
    18     0.004189
    19     0.004766
    20    -0.004031
    21    -0.127793
    22     0.099233
    23     0.026467
    24     0.164116
    25     0.012591
    26    -0.072897
    27    -0.282470
    28     0.027627
    29    -0.115808
    30     0.264337
    31    -0.278823
    32    -0.102488
    33    -0.000521
    34     0.054600
    35    -0.003361
    36    -0.099388
    37     0.051553
    38     0.137149
    39    -0.046153
    40     0.010534
    41    -0.212821
    42     0.028907
    43     0.030896
    44     0.049344
    45     0.063535
    46    -0.226532
    47    -0.199739
    48     0.042124
    49    -0.025313
    50     0.003758
    51     0.211988
    52    -0.280566
    53     0.142392
    54     0.084762
    55     0.007603
    56    -0.588120
    57    -0.349437
    58     0.036818
    59    -0.278527
    60     0.032038
    61     0.364009
    62    -0.302328
    63    -0.037543
    64    -0.022521
Sym=    59a
Ene=   -0.718346E-04
Spin= Alpha
Occup= 0.000008
     1    -0.015962
     2    -0.193222
     3     0.515711
     4    -0.012075
     5    -0.116347
     6     0.051413
     7    -0.263793
     8    -0.509969
     9     0.224878
    10    -0.961442
    11     0.246120
    12    -0.110829
    13     1.061422
    14    -0.265799
    15    -0.292892
    16    -0.199651
    17    -0.024199
    18     0.011200
    19    -0.007433
    20     0.000086
    21     0.039041
    22    -0.034783
    23     0.012640
    24    -0.060783
    25    -0.058021
    26    -0.039488
    27     0.098565
    28    -0.168209
    29     0.044508
    30    -0.086913
    31     0.098604
    32    -0.040294
    33    -0.000414
    34    -0.282621
    35    -0.000364
    36    -0.111463
    37     0.236029
    38     0.064178
    39    -0.035430
    40    -0.049345
    41    -0.315523
    42     0.175555
    43    -0.185348
    44     0.148999
    45    -0.014971
    46    -0.203856
    47    -0.170512
    48    -0.229657
    49     0.133024
    50     0.000058
    51     0.059306
    52    -0.076006
    53     0.072446
    54     0.029108
    55    -0.057468
    56    -0.157643
    57    -0.052333
    58    -0.169330
    59    -0.054305
    60    -0.012227
    61     0.139084
    62    -0.117283
    63     0.243261
    64     0.141384
Sym=    60a
Ene=    0.231431E-08
Spin= Alpha
Occup= 0.000000
     1     0.002684
     2    -0.195370
     3    -0.405919
     4     0.892838
     5    -0.001320
     6     0.002287
     7     0.000426
     8    -0.007719
     9     0.016387
    10     0.001727
    11    -0.660438
    12     0.482880
    13    -0.002807
    14    -1.076359
    15    -0.985008
    16    -0.659116
    17     0.007608
    18     0.006435
    19     0.005896
    20    -0.000215
    21    -0.042128
    22    -0.028693
    23    -0.025435
    24     0.061721
    25     0.000500
    26     0.184148
    27    -0.484332
    28    -0.001017
    29    -0.146188
    30     0.492434
    31    -0.308995
    32    -0.076238
    33     0.049688
    34     0.005072
    35     0.005573
    36    -0.236540
    37     1.176506
    38     0.104595
    39    -0.058067
    40    -0.001075
    41    -0.885816
    42     0.502015
    43     0.001388
    44     0.291162
    45    -0.058003
    46    -0.404012
    47    -0.363061
    48    -0.099029
    49    -0.170330
    50     0.000017
    51    -0.067627
    52     0.130946
    53    -0.064986
    54    -0.005745
    55     0.000261
    56     0.585122
    57     0.115667
    58     0.002625
    59     0.400984
    60    -0.046710
    61    -0.328725
    62     0.309149
    63    -0.054361
    64     0.098254
Sym=    61a
Ene=    0.000000E+00
Spin= Alpha
Occup= 0.000000
     1    -0.000412
     2    -0.004375
     3    -0.007552
     4     1.831627
     5     0.002652
     6    -0.008708
     7    -0.000235
     8     0.018725
     9    -0.059205
    10    -0.001090
    11     1.024545
    12    -2.827413
    13     0.002742
    14     0.249906
    15    -0.017988
    16    -0.096549
    17    -0.051895
    18    -0.005697
    19    -0.021535
    20     0.006121
    21    -0.224119
    22     1.598363
    23     0.038166
    24     0.048450
    25     0.000453
    26    -0.269561
    27    -0.633394
    28     0.003657
    29    -0.088542
    30    -0.027298
    31    -0.110343
    32     0.102511
    33     0.434427
    34    -0.009795
    35    -0.017187
    36     0.541198
    37    -3.147913
    38    -0.199217
    39     0.032275
    40     0.001952
    41     1.514543
    42    -0.290653
    43    -0.004928
    44    -0.018727
    45     0.369840
    46     0.257363
    47     0.013640
    48    -0.052599
    49    -0.098331
    50    -0.009138
    51     0.277420
    52    -1.510336
    53     0.147021
    54    -0.042320
    55    -0.000987
    56    -1.026479
    57     0.302968
    58    -0.002986
    59    -0.153333
    60     0.338053
    61     0.135389
    62     0.083208
    63    -0.238546
    64     0.402365
Sym=    62a
Ene=    0.000000E+00
Spin= Alpha
Occup= 0.000000
     1    -0.000049
     2    -0.020440
     3    -0.038221
     4     1.034486
     5    -0.004380
     6    -0.005082
     7     0.000570
     8    -0.031263
     9    -0.035735
    10     0.002120
    11    -1.679804
    12    -1.732594
    13    -0.002582
    14     0.055893
    15    -0.118541
    16    -0.111046
    17     0.089090
    18     0.038527
    19    -0.040839
    20     0.004433
    21    -0.165451
    22     1.109987
    23    -0.062378
    24     0.043692
    25     0.000667
    26     0.440091
    27    -0.497629
    28     0.009249
    29    -0.085224
    30     0.027035
    31    -0.102629
    32    -0.165870
    33    -0.634753
    34    -0.018369
    35    -0.000672
    36     0.005696
    37     0.048058
    38    -0.050028
    39    -0.071372
    40     0.000517
    41     0.281380
    42     0.542524
    43    -0.012649
    44    -0.138283
    45     0.182476
    46    -0.021780
    47    -0.132715
    48     0.259606
    49     0.394923
    50    -0.013819
    51     0.438868
    52    -2.640050
    53     0.135054
    54     0.049773
    55    -0.001093
    56    -1.084789
    57    -0.429539
    58     0.005262
    59     0.082319
    60     0.229097
    61     0.183378
    62    -0.024593
    63    -0.104146
    64     0.193330
Sym=    63a
Ene=    0.000000E+00
Spin= Alpha
Occup= 0.000000
     1     0.000087
     2    -0.006095
     3    -0.017520
     4     0.400007
     5    -0.005753
     6     0.001027
     7     0.000110
     8    -0.041318
     9     0.007727
    10     0.002200
    11    -2.308014
    12    -0.154960
    13    -0.014636
    14    -0.035203
    15     0.020539
    16    -0.040507
    17     0.116693
    18    -0.072143
    19    -0.025347
    20    -0.000318
    21     0.015361
    22    -0.062600
    23    -0.086231
    24    -0.000907
    25    -0.010329
    26     0.607768
    27     0.033041
    28     0.024446
    29     0.014968
    30    -0.003592
    31     0.001246
    32    -0.225548
    33     0.614344
    34    -0.018940
    35     0.007291
    36    -0.250225
    37     1.586410
    38     0.038595
    39    -0.078916
    40    -0.000932
    41    -0.431345
    42     0.656254
    43     0.016965
    44    -0.145603
    45     0.012097
    46    -0.129604
    47    -0.127313
    48     0.230655
    49     0.444160
    50    -0.010847
    51     0.344168
    52    -2.103098
    53     0.079483
    54     0.088890
    55    -0.000636
    56    -0.668544
    57    -0.680551
    58    -0.012598
    59     0.161372
    60     0.078278
    61     0.147791
    62    -0.088046
    63     0.130894
    64    -0.297963
Sym=    64a
Ene=    0.000000E+00
Spin= Alpha
Occup= 0.000000
     1    -0.000537
     2     0.024082
     3     0.052248
     4     0.670663
     5    -0.005829
     6    -0.004458
     7     0.000166
     8    -0.043379
     9    -0.032075
    10     0.000878
    11    -2.232256
    12    -1.526627
    13    -0.002700
    14     0.267532
    15     0.103070
    16     0.050247
    17     0.134634
    18     0.018745
    19     0.065710
    20     0.003604
    21    -0.126906
    22     0.917349
    23    -0.082699
    24     0.021338
    25    -0.000156
    26     0.578930
    27    -0.307363
    28    -0.014434
    29    -0.037050
    30    -0.078907
    31    -0.021891
    32    -0.211149
    33    -0.110889
    34     0.031309
    35     0.002009
    36    -0.073058
    37     0.584077
    38    -0.040382
    39    -0.080902
    40     0.000085
    41     0.178226
    42     0.626319
    43     0.004484
    44    -0.230472
    45     0.144744
    46     0.004981
    47    -0.079978
    48    -0.339950
    49    -0.571240
    50    -0.015224
    51     0.502908
    52    -2.993227
    53     0.149609
    54     0.077758
    55    -0.001198
    56    -1.253796
    57    -0.663388
    58     0.013870
    59     0.045577
    60     0.217401
    61     0.277074
    62    -0.132544
    63     0.218429
    64    -0.329969
