[Molden Format]
p30-5 set                                                                       
[Atoms] AU
 F        1     9        0.0000        0.0000        0.0000
[GTO]
    1 0
s    8 1.00
  132535.973449999990  0.779916548717E-04
   19758.112588000000  0.610110499165E-03
    4485.199694700000  0.320126497655E-02
    1273.815102000000  0.132609795189E-01
     418.938312360000  0.460714722615E-01
     152.557219850000  0.136167792948E+00
      59.821524823000  0.326765510155E+00
      24.819076932000  0.573746111915E+00
s    2 1.00
     100.744466730000  0.102589537845E+00
      30.103728290000  0.918646158514E+00
s    1 1.00
      10.814283272000  0.100000000000E+01
s    1 1.00
       4.817288677000  0.100000000000E+01
s    1 1.00
       1.655933421300  0.100000000000E+01
s    1 1.00
       0.648935195820  0.100000000000E+01
s    1 1.00
       0.247781045450  0.100000000000E+01
p    5 1.00
     240.966541140000  0.258016156158E-02
      57.020699781000  0.206801705959E-01
      18.126952120000  0.971525563433E-01
       6.645740462100  0.314685817921E+00
       2.637572289200  0.677445033362E+00
p    1 1.00
       1.063821720000  0.100000000000E+01
p    1 1.00
       0.419325627500  0.100000000000E+01
p    1 1.00
       0.157475882990  0.100000000000E+01
d    1 1.00
       5.014000000000  0.100000000000E+01
d    1 1.00
       1.725000000000  0.100000000000E+01
d    1 1.00
       0.586000000000  0.100000000000E+01
f    1 1.00
       3.562000000000  0.100000000000E+01
f    1 1.00
       1.148000000000  0.100000000000E+01
g    1 1.00
       2.376000000000  0.100000000000E+01
 
[MO]
Sym=     1a
Ene=   -0.263631E+02
Spin= Alpha
Occup= 1.999793
     1     0.601184
     2     0.004792
     3     0.358620
     4     0.131527
     5     0.000129
     6    -0.014508
     7    -0.008406
     8     0.000000
     9     0.000003
    10    -0.000000
    11     0.000000
    12     0.000002
    13     0.000000
    14    -0.000000
    15     0.000001
    16    -0.000000
    17     0.000001
    18     0.000001
    19     0.000000
    20    -0.000084
    21    -0.000081
    22     0.001083
    23    -0.000002
    24    -0.000029
    25     0.000081
    26    -0.006397
    27    -0.006409
    28    -0.011105
    29     0.000008
    30     0.000117
    31    -0.000328
    32    -0.000902
    33    -0.000901
    34    -0.000642
    35    -0.000000
    36    -0.000007
    37     0.000018
    38    -0.000006
    39     0.000006
    40    -0.000000
    41     0.000008
    42    -0.000008
    43     0.000000
    44     0.000000
    45     0.000000
    46    -0.000000
    47    -0.000001
    48     0.000003
    49    -0.000002
    50    -0.000000
    51    -0.000003
    52     0.000003
    53    -0.000000
    54     0.000000
    55     0.000000
    56     0.000000
    57     0.000000
    58     0.004663
    59     0.000123
    60     0.001941
    61     0.000123
    62     0.001967
    63    -0.000044
    64    -0.000001
    65    -0.000019
    66    -0.000003
    67     0.001939
    68     0.000055
    69     0.001150
    70    -0.000044
    71    -0.000003
    72     0.001960
Sym=     2a
Ene=   -0.103038E+01
Spin= Alpha
Occup= 1.992270
     1    -0.067202
     2    -0.014894
     3    -0.087723
     4    -0.008301
     5     0.176373
     6     0.286342
     7     0.133820
     8    -0.084139
     9    -0.306113
    10     0.016639
    11    -0.079386
    12    -0.288828
    13     0.015703
    14    -0.072044
    15    -0.262184
    16     0.014269
    17    -0.030265
    18    -0.110035
    19     0.005965
    20     0.001576
    21     0.002158
    22     0.000461
    23     0.000201
    24     0.000016
    25    -0.000114
    26     0.029707
    27     0.031484
    28     0.032915
    29     0.000607
    30    -0.000103
    31     0.000109
    32     0.005079
    33     0.007564
    34     0.002957
    35     0.000860
    36     0.000018
    37    -0.000306
    38     0.000223
    39     0.000423
    40     0.000103
    41    -0.000047
    42     0.000337
    43    -0.000005
    44    -0.000240
    45    -0.000853
    46    -0.000139
    47     0.000015
    48     0.000533
    49     0.001253
    50     0.000297
    51    -0.000027
    52     0.000833
    53    -0.000013
    54    -0.000694
    55    -0.002465
    56    -0.000402
    57     0.000028
    58    -0.010683
    59    -0.000058
    60    -0.005880
    61    -0.000063
    62    -0.009369
    63     0.000021
    64    -0.000022
    65     0.000014
    66    -0.000068
    67    -0.005818
    68    -0.000028
    69    -0.005407
    70     0.000025
    71    -0.000018
    72    -0.009174
Sym=     3a
Ene=   -0.103021E+01
Spin= Alpha
Occup= 1.992270
     1     0.067189
     2     0.014889
     3     0.087701
     4     0.008279
     5    -0.176305
     6    -0.286211
     7    -0.133762
     8     0.223369
     9    -0.225509
    10     0.018398
    11     0.210744
    12    -0.212789
    13     0.017357
    14     0.191249
    15    -0.193237
    16     0.015746
    17     0.080345
    18    -0.081004
    19     0.006625
    20    -0.001858
    21    -0.001878
    22    -0.000465
    23     0.000390
    24    -0.000055
    25     0.000107
    26    -0.030648
    27    -0.030605
    28    -0.032939
    29     0.001195
    30    -0.000018
    31    -0.000128
    32    -0.006319
    33    -0.006353
    34    -0.002976
    35     0.001668
    36    -0.000176
    37     0.000280
    38    -0.000452
    39     0.000457
    40     0.000117
    41    -0.000049
    42     0.000061
    43    -0.000046
    44     0.000627
    45    -0.000623
    46    -0.000112
    47     0.000065
    48    -0.001165
    49     0.001207
    50     0.000336
    51    -0.000237
    52     0.000279
    53    -0.000134
    54     0.001815
    55    -0.001796
    56    -0.000312
    57     0.000196
    58     0.010688
    59     0.000059
    60     0.005847
    61     0.000067
    62     0.009236
    63    -0.000015
    64    -0.000041
    65    -0.000005
    66    -0.000087
    67     0.005859
    68     0.000027
    69     0.005462
    70    -0.000013
    71    -0.000085
    72     0.009271
Sym=     4a
Ene=   -0.103019E+01
Spin= Alpha
Occup= 1.992268
     1    -0.067188
     2    -0.014889
     3    -0.087701
     4    -0.008234
     5     0.176263
     6     0.286125
     7     0.133701
     8     0.307533
     9     0.080684
    10     0.001755
    11     0.290155
    12     0.076116
    13     0.001652
    14     0.263339
    15     0.069037
    16     0.001481
    17     0.110603
    18     0.029050
    19     0.000652
    20     0.002179
    21     0.001572
    22     0.000460
    23     0.000195
    24     0.000033
    25    -0.000072
    26     0.031558
    27     0.029811
    28     0.033022
    29     0.000583
    30    -0.000086
    31     0.000245
    32     0.007644
    33     0.005096
    34     0.002996
    35     0.000823
    36     0.000058
    37    -0.000118
    38    -0.000427
    39    -0.000209
    40     0.000013
    41    -0.000336
    42     0.000047
    43    -0.000053
    44     0.000864
    45     0.000230
    46     0.000039
    47     0.000081
    48    -0.001251
    49    -0.000492
    50     0.000037
    51    -0.000823
    52     0.000031
    53    -0.000145
    54     0.002501
    55     0.000666
    56     0.000111
    57     0.000226
    58    -0.010720
    59    -0.000072
    60    -0.005841
    61    -0.000068
    62    -0.009207
    63     0.000031
    64    -0.000019
    65     0.000012
    66    -0.000017
    67    -0.005893
    68    -0.000033
    69    -0.005417
    70     0.000032
    71    -0.000065
    72    -0.009376
Sym=     5a
Ene=   -0.418911E+00
Spin= Alpha
Occup= 1.000000
     1     0.000000
     2    -0.000000
     3    -0.000000
     4     0.000015
     5    -0.000016
     6    -0.000023
     7    -0.000016
     8    -0.008549
     9     0.023949
    10     0.397343
    11    -0.008255
    12     0.023110
    13     0.383491
    14    -0.007101
    15     0.019774
    16     0.328485
    17    -0.002261
    18     0.006419
    19     0.106210
    20     0.000004
    21    -0.000002
    22    -0.000000
    23     0.000001
    24     0.000001
    25    -0.000001
    26     0.000009
    27     0.000031
    28     0.000028
    29    -0.000004
    30    -0.000005
    31     0.000003
    32     0.000009
    33     0.000005
    34     0.000010
    35    -0.000000
    36    -0.000001
    37    -0.000003
    38     0.000081
    39    -0.000220
    40     0.003569
    41     0.000036
    42    -0.000099
    43    -0.001652
    44    -0.000173
    45     0.000489
    46    -0.001621
    47    -0.000015
    48     0.000292
    49    -0.000771
    50     0.006936
    51     0.000128
    52    -0.000346
    53    -0.005808
    54    -0.000446
    55     0.001266
    56    -0.005724
    57    -0.000040
    58    -0.000011
    59    -0.000001
    60    -0.000010
    61     0.000040
    62    -0.000005
    63     0.000003
    64    -0.000009
    65     0.000058
    66     0.000008
    67     0.000001
    68    -0.000056
    69    -0.000011
    70    -0.000041
    71     0.000002
    72     0.000004
Sym=     6a
Ene=   -0.925794E-02
Spin= Alpha
Occup= 0.005623
     1    -0.083625
     2    -0.013321
     3    -0.136452
     4     0.107808
     5     0.521541
     6    -0.342795
     7    -0.536256
     8     0.475064
     9     0.124579
    10     0.002711
    11     0.244940
    12     0.064334
    13     0.001336
    14    -0.462800
    15    -0.121199
    16    -0.002533
    17    -0.242059
    18    -0.063657
    19    -0.001429
    20     0.066870
    21    -0.012221
    22    -0.019402
    23     0.025743
    24     0.000570
    25     0.000101
    26     0.464708
    27     0.139454
    28     0.119617
    29     0.105693
    30     0.002201
    31     0.000928
    32    -0.035939
    33     0.034131
    34     0.032372
    35    -0.022806
    36    -0.000562
    37    -0.000043
    38     0.064482
    39    -0.002732
    40    -0.000039
    41     0.000324
    42     0.026390
    43     0.000389
    44    -0.003243
    45    -0.000849
    46     0.000152
    47     0.000467
    48    -0.080913
    49    -0.026013
    50    -0.000476
    51    -0.043007
    52    -0.005027
    53    -0.000647
    54    -0.036679
    55    -0.009629
    56     0.000192
    57     0.000969
    58    -0.048786
    59    -0.000391
    60    -0.029620
    61    -0.000116
    62    -0.053839
    63    -0.000329
    64    -0.008623
    65    -0.000190
    66    -0.017310
    67    -0.056296
    68    -0.000041
    69    -0.054280
    70    -0.000185
    71    -0.012274
    72    -0.123480
Sym=     7a
Ene=   -0.151227E-03
Spin= Alpha
Occup= 0.000025
     1    -0.005222
     2    -0.034050
     3    -0.013004
     4     0.354412
     5    -0.510850
     6     0.225553
     7    -0.339817
     8     0.059511
     9    -0.059104
    10     0.005795
    11    -0.775679
    12     0.781853
    13    -0.074065
    14     0.219245
    15    -0.220779
    16     0.022100
    17    -0.039839
    18     0.040148
    19    -0.004112
    20    -0.065287
    21    -0.065402
    22    -0.015692
    23    -0.051398
    24    -0.019373
    25    -0.016170
    26    -0.019013
    27    -0.030942
    28     0.582958
    29     1.383308
    30     0.057218
    31     0.244470
    32     0.109094
    33     0.118004
    34    -0.153628
    35    -0.188447
    36    -0.007658
    37    -0.047555
    38     0.066707
    39    -0.061261
    40     0.002723
    41     0.463856
    42    -0.460225
    43    -0.069051
    44    -0.006821
    45    -0.011120
    46     0.120258
    47    -0.045904
    48     0.051172
    49    -0.048657
    50     0.040264
    51     0.112789
    52    -0.113616
    53    -0.013940
    54     0.208145
    55    -0.212676
    56    -0.007088
    57     0.014085
    58    -0.331123
    59    -0.122092
    60    -0.051990
    61    -0.047435
    62     0.688499
    63    -0.029480
    64    -0.270039
    65    -0.111482
    66    -0.554181
    67    -0.010566
    68    -0.062409
    69    -0.829697
    70     0.094800
    71    -0.567244
    72     0.659747
Sym=     8a
Ene=   -0.254772E-03
Spin= Alpha
Occup= 0.000060
     1    -0.010899
     2    -0.039149
     3     0.056879
     4     0.477330
     5    -0.996448
     6     0.484498
     7    -0.708924
     8     0.029737
     9     0.107508
    10    -0.006421
    11    -0.175833
    12    -0.651136
    13     0.039825
    14     0.066881
    15     0.270690
    16    -0.015707
    17     0.053630
    18     0.178558
    19    -0.007322
    20     0.042411
    21    -0.096307
    22    -0.000626
    23    -0.048174
    24     0.006071
    25     0.003947
    26     0.275812
    27    -0.454502
    28     1.268934
    29    -0.244564
    30     0.001226
    31     0.098413
    32     0.112066
    33     0.247774
    34    -0.113152
    35     0.044529
    36     0.008129
    37    -0.020949
    38     0.103524
    39     0.471347
    40     0.031849
    41     0.084668
    42     0.175520
    43    -0.002769
    44    -0.075733
    45    -0.261505
    46    -0.067011
    47     0.004732
    48     0.218371
    49    -0.022860
    50     0.052079
    51    -0.207955
    52     0.294474
    53     0.007582
    54    -0.130396
    55    -0.441751
    56    -0.077976
    57     0.054506
    58    -0.615304
    59    -0.092320
    60     0.338201
    61     0.049334
    62     0.325315
    63    -0.030466
    64     0.200448
    65    -0.023924
    66     0.215677
    67    -0.212213
    68    -0.031304
    69    -0.041831
    70     0.006639
    71    -0.056157
    72    -0.063969
Sym=     9a
Ene=   -0.123102E-02
Spin= Alpha
Occup= 0.000038
     1    -0.000026
     2     0.000020
     3    -0.000091
     4     0.000338
     5    -0.000237
     6    -0.000223
     7    -0.000133
     8     0.038151
     9    -0.106933
    10    -1.773857
    11    -0.006321
    12     0.014791
    13     0.254197
    14    -0.012187
    15     0.033637
    16     0.557910
    17     0.001429
    18    -0.004046
    19    -0.066450
    20    -0.000061
    21     0.000008
    22    -0.000070
    23     0.000072
    24    -0.000465
    25     0.000348
    26     0.000141
    27     0.000355
    28     0.000234
    29    -0.000491
    30     0.000348
    31     0.000020
    32    -0.000017
    33     0.000153
    34     0.000048
    35    -0.000020
    36    -0.000084
    37     0.000122
    38    -0.022928
    39     0.064403
    40     0.958519
    41    -0.009683
    42     0.029502
    43     0.478365
    44    -0.007097
    45     0.019721
    46     0.478353
    47     0.000199
    48     0.011552
    49    -0.030264
    50    -0.392296
    51     0.004872
    52    -0.013921
    53    -0.227621
    54     0.001765
    55    -0.004126
    56    -0.227303
    57    -0.000157
    58    -0.000055
    59    -0.000187
    60    -0.000175
    61    -0.003284
    62    -0.000524
    63     0.000011
    64     0.000755
    65    -0.004262
    66    -0.000204
    67     0.000161
    68     0.004120
    69     0.000547
    70     0.003153
    71     0.000180
    72    -0.000318
Sym=    10a
Ene=   -0.201348E-02
Spin= Alpha
Occup= 0.000829
     1     0.023789
     2    -0.003606
     3     0.091266
     4     0.025982
     5    -0.384757
     6     0.260164
     7    -0.212153
     8    -0.467908
     9    -0.122700
    10    -0.003043
    11     0.383335
    12     0.100670
    13     0.005691
    14     0.007747
    15     0.002465
    16    -0.002125
    17    -0.324587
    18    -0.085550
    19    -0.004810
    20     0.021127
    21    -0.006151
    22    -0.028277
    23     0.008941
    24     0.001363
    25    -0.001207
    26     0.437878
    27    -0.016101
    28    -0.173936
    29     0.147884
    30     0.011326
    31    -0.007125
    32     0.398287
    33    -0.083577
    34    -0.211508
    35     0.156948
    36     0.008569
    37    -0.006444
    38     0.110520
    39    -0.014487
    40    -0.001005
    41    -0.013750
    42     0.054812
    43     0.003839
    44    -0.062508
    45    -0.016454
    46    -0.001052
    47    -0.001203
    48     0.380588
    49    -0.048801
    50    -0.004528
    51    -0.045362
    52     0.187289
    53     0.011182
    54    -0.226407
    55    -0.059697
    56    -0.004037
    57    -0.005254
    58     0.000153
    59    -0.001024
    60     0.004445
    61    -0.001677
    62     0.018158
    63    -0.001833
    64    -0.023729
    65     0.000728
    66    -0.063330
    67    -0.068376
    68     0.002728
    69    -0.042274
    70     0.000760
    71     0.093023
    72     0.088031
Sym=    11a
Ene=   -0.925481E-02
Spin= Alpha
Occup= 0.005618
     1    -0.083625
     2    -0.013322
     3    -0.136445
     4     0.107591
     5     0.521757
     6    -0.342424
     7    -0.536020
     8    -0.345058
     9     0.348393
    10    -0.028420
    11    -0.177928
    12     0.179567
    13    -0.014668
    14     0.336424
    15    -0.339551
    16     0.027683
    17     0.175650
    18    -0.177305
    19     0.014466
    20     0.026757
    21     0.027602
    22    -0.019130
    23    -0.052282
    24     0.004262
    25    -0.004433
    26     0.299284
    27     0.303011
    28     0.120518
    29    -0.214793
    30     0.017392
    31    -0.017413
    32    -0.000473
    33    -0.001402
    34     0.032088
    35     0.046289
    36    -0.003970
    37     0.002991
    38    -0.019255
    39     0.020068
    40     0.000423
    41    -0.037000
    42     0.036542
    43    -0.002810
    44     0.002101
    45    -0.002128
    46    -0.002752
    47     0.003709
    48     0.065257
    49    -0.065862
    50     0.004911
    51     0.022408
    52    -0.022814
    53     0.002547
    54     0.026572
    55    -0.026811
    56     0.002161
    57     0.000377
    58    -0.049122
    59     0.003138
    60    -0.042989
    61     0.002228
    62    -0.091840
    63    -0.003073
    64     0.017460
    65    -0.000415
    66     0.030076
    67    -0.042749
    68     0.000609
    69    -0.048982
    70    -0.002492
    71     0.030164
    72    -0.090936
Sym=    12a
Ene=   -0.172920E-02
Spin= Alpha
Occup= 0.000724
     1    -0.000093
     2     0.000025
     3    -0.000400
     4     0.000309
     5     0.001272
     6    -0.001916
     7     0.000133
     8    -0.001130
     9     0.001124
    10     0.053404
    11     0.008747
    12    -0.023301
    13    -0.417348
    14    -0.007131
    15     0.018580
    16     0.309553
    17    -0.005632
    18     0.018171
    19     0.330095
    20    -0.000735
    21     0.008801
    22    -0.007937
    23    -0.000287
    24     0.023705
    25     0.085488
    26    -0.004652
    27     0.061483
    28    -0.055847
    29    -0.001761
    30     0.166193
    31     0.605255
    32    -0.002366
    33     0.023649
    34    -0.020521
    35    -0.003101
    36     0.064154
    37     0.229502
    38     0.000532
    39    -0.022455
    40     0.018142
    41    -0.002178
    42     0.001159
    43    -0.008635
    44     0.004517
    45     0.020027
    46    -0.170781
    47    -0.055764
    48     0.000112
    49    -0.035955
    50     0.210703
    51    -0.004152
    52     0.002743
    53    -0.001232
    54     0.003809
    55     0.046733
    56    -0.280985
    57    -0.097737
    58     0.014944
    59    -0.103467
    60    -0.019367
    61     0.042142
    62     0.006443
    63    -0.028122
    64    -0.005934
    65     0.052193
    66     0.005325
    67     0.005052
    68    -0.045877
    69    -0.006771
    70    -0.036027
    71    -0.000025
    72     0.001621
Sym=    13a
Ene=   -0.376742E-03
Spin= Alpha
Occup= 0.000003
     1     5.972561
     2    -6.796313
     3     0.208363
     4     1.558075
     5    -0.983374
     6     0.285304
     7     0.039290
     8     0.004435
     9     0.002630
    10    -0.000395
    11    -0.035833
    12    -0.014360
    13     0.001980
    14    -0.005156
    15    -0.015847
    16     0.002586
    17    -0.000480
    18     0.006316
    19    -0.000923
    20    -0.290621
    21    -0.302033
    22     0.030751
    23    -0.052249
    24     0.016115
    25     0.003312
    26     0.152586
    27     0.204302
    28    -0.530650
    29     0.208911
    30    -0.080778
    31     0.025987
    32    -0.040290
    33    -0.040524
    34    -0.003178
    35    -0.006895
    36     0.001663
    37    -0.000541
    38    -0.006329
    39     0.019405
    40    -0.000425
    41     0.027015
    42    -0.019576
    43     0.000538
    44     0.003976
    45     0.002133
    46    -0.001115
    47    -0.002688
    48     0.052323
    49    -0.019780
    50    -0.002201
    51    -0.038528
    52     0.050664
    53    -0.002479
    54     0.008420
    55     0.005372
    56     0.000825
    57     0.004725
    58     0.350821
    59    -0.009226
    60     0.067196
    61    -0.020095
    62    -0.026905
    63     0.033078
    64    -0.039685
    65     0.017688
    66    -0.085247
    67     0.075761
    68    -0.006804
    69    -0.003826
    70     0.035745
    71    -0.085503
    72     0.007967
Sym=    14a
Ene=   -0.172936E-02
Spin= Alpha
Occup= 0.000724
     1     0.000189
     2    -0.000043
     3     0.000797
     4     0.000171
     5    -0.003502
     6     0.002832
     7    -0.001438
     8    -0.005314
     9     0.002854
    10     0.053307
    11     0.012603
    12    -0.024998
    13    -0.416848
    14    -0.007231
    15     0.018310
    16     0.309275
    17    -0.010078
    18     0.021222
    19     0.329455
    20     0.003399
    21    -0.002470
    22    -0.001073
    23    -0.004830
    24    -0.086101
    25    -0.022566
    26     0.026790
    27    -0.017953
    28    -0.007471
    29    -0.034328
    30    -0.608946
    31    -0.160557
    32     0.010658
    33    -0.006571
    34    -0.004024
    35    -0.010165
    36    -0.231439
    37    -0.060287
    38     0.009533
    39    -0.000951
    40     0.019476
    41    -0.005954
    42    -0.008380
    43    -0.173179
    44    -0.002822
    45     0.000033
    46    -0.007760
    47    -0.054229
    48     0.018032
    49    -0.000080
    50     0.212889
    51    -0.010841
    52    -0.013400
    53    -0.287433
    54    -0.010572
    55     0.013172
    56     0.002344
    57    -0.093235
    58     0.001537
    59     0.028004
    60     0.000147
    61     0.035118
    62     0.006019
    63     0.106042
    64    -0.001882
    65     0.047653
    66     0.005513
    67    -0.002172
    68    -0.050117
    69    -0.007327
    70    -0.045711
    71     0.000895
    72     0.003488
Sym=    15a
Ene=   -0.201390E-02
Spin= Alpha
Occup= 0.000830
     1     0.023812
     2    -0.003588
     3     0.091215
     4     0.028020
     5    -0.386765
     6     0.256438
     7    -0.214646
     8     0.339813
     9    -0.343074
    10     0.027993
    11    -0.278232
    12     0.280804
    13    -0.022994
    14    -0.006841
    15     0.004701
    16    -0.000432
    17     0.236437
    18    -0.237820
    19     0.019457
    20     0.007439
    21     0.007588
    22    -0.028075
    23    -0.018025
    24     0.002013
    25    -0.002884
    26     0.210631
    27     0.215699
    28    -0.169067
    29    -0.299105
    30     0.027763
    31    -0.033066
    32     0.155344
    33     0.160531
    34    -0.208560
    35    -0.318156
    36     0.029058
    37    -0.031702
    38    -0.019248
    39     0.020776
    40     0.008325
    41    -0.071110
    42     0.070097
    43    -0.006705
    44     0.044686
    45    -0.044926
    46    -0.008759
    47     0.010979
    48    -0.067619
    49     0.073106
    50     0.030083
    51    -0.243940
    52     0.240992
    53    -0.022774
    54     0.162008
    55    -0.162469
    56    -0.031870
    57     0.038599
    58    -0.001381
    59     0.006657
    60    -0.032210
    61    -0.002964
    62    -0.039542
    63    -0.008771
    64     0.046996
    65     0.012019
    66    -0.031656
    67    -0.031028
    68    -0.013482
    69     0.117508
    70     0.001451
    71    -0.028085
    72    -0.040098
Sym=    16a
Ene=   -0.925627E-02
Spin= Alpha
Occup= 0.005620
     1     0.083640
     2     0.013319
     3     0.136490
     4    -0.107790
     5    -0.521750
     6     0.342929
     7     0.536312
     8     0.129986
     9     0.472918
    10    -0.025712
    11     0.066977
    12     0.243802
    13    -0.013300
    14    -0.126392
    15    -0.460908
    16     0.025159
    17    -0.066352
    18    -0.240698
    19     0.013025
    20     0.011727
    21    -0.066157
    22     0.019164
    23    -0.026758
    24     0.001379
    25     0.005391
    26    -0.141639
    27    -0.461529
    28    -0.120627
    29    -0.109910
    30     0.006029
    31     0.021464
    32    -0.033643
    33     0.035293
    34    -0.032258
    35     0.023663
    36    -0.002029
    37    -0.004036
    38    -0.002709
    39     0.063532
    40     0.000385
    41     0.027319
    42     0.000958
    43    -0.000074
    44    -0.000783
    45    -0.002934
    46    -0.004960
    47    -0.001812
    48    -0.027123
    49    -0.080706
    50     0.004409
    51    -0.005276
    52    -0.042671
    53     0.002452
    54    -0.010021
    55    -0.036435
    56     0.001804
    57    -0.000075
    58     0.049128
    59    -0.003883
    60     0.056002
    61    -0.002158
    62     0.122917
    63    -0.001017
    64     0.008922
    65    -0.000092
    66     0.012832
    67     0.029855
    68    -0.001631
    69     0.054063
    70    -0.000941
    71     0.018006
    72     0.054422
Sym=    17a
Ene=   -0.505850E-03
Spin= Alpha
Occup= 0.000015
     1     0.000026
     2    -0.000046
     3     0.000539
     4     0.000028
     5    -0.002044
     6     0.000361
     7    -0.000877
     8    -0.018400
     9     1.507832
    10    -0.091716
    11     0.002494
    12    -0.039094
    13     0.005479
    14     0.000327
    15    -0.426767
    16     0.026030
    17     0.003242
    18    -0.073863
    19     0.004569
    20    -0.065913
    21     0.067117
    22     0.000381
    23     0.080909
    24    -0.004950
    25    -0.002982
    26     0.050113
    27    -0.051353
    28     0.002205
    29    -0.057623
    30     0.017645
    31     0.001404
    32     0.091785
    33    -0.091453
    34     0.000421
    35    -0.114098
    36     0.014657
    37     0.003437
    38     0.014351
    39    -1.199464
    40     0.076951
    41     0.006108
    42    -0.536807
    43     0.028556
    44     0.006252
    45    -0.573784
    46     0.030996
    47    -0.003105
    48    -0.007171
    49     0.722782
    50    -0.016014
    51    -0.002593
    52     0.324083
    53    -0.019952
    54    -0.001754
    55     0.110758
    56    -0.046776
    57     0.006398
    58    -0.001266
    59    -0.001150
    60     0.020694
    61     0.004106
    62    -0.020424
    63    -0.015991
    64     0.028270
    65     0.007582
    66    -0.066434
    67    -0.021247
    68    -0.006160
    69     0.116321
    70    -0.017177
    71     0.133375
    72    -0.110036
Sym=    18a
Ene=   -0.963744E-03
Spin= Alpha
Occup= 0.000318
     1     0.000000
     2    -0.000011
     3    -0.000023
     4     0.001780
     5    -0.002266
     6    -0.001229
     7    -0.003027
     8     0.075816
     9    -0.290033
    10     0.019511
    11    -0.072915
    12     0.279538
    13    -0.020363
    14     0.010312
    15    -0.047203
    16     0.004515
    17     0.114554
    18    -0.435311
    19     0.028172
    20    -0.014566
    21     0.014584
    22     0.000026
    23     0.029721
    24    -0.002393
    25    -0.000420
    26    -0.252541
    27     0.256757
    28     0.002221
    29     0.523217
    30    -0.039864
    31    -0.007312
    32    -0.005395
    33     0.008379
    34     0.000584
    35     0.014092
    36     0.003440
    37     0.000469
    38    -0.127714
    39    -0.014036
    40     0.006709
    41     0.128000
    42     0.184896
    43    -0.015947
    44     0.010991
    45    -0.042816
    46    -0.001548
    47    -0.002638
    48    -0.324332
    49     0.021783
    50     0.028813
    51     0.305896
    52     0.474288
    53    -0.045911
    54     0.046973
    55    -0.180502
    56    -0.012554
    57    -0.005121
    58    -0.000710
    59     0.001649
    60    -0.026471
    61     0.005758
    62    -0.130856
    63     0.008268
    64    -0.054073
    65     0.009775
    66    -0.123482
    67     0.025553
    68    -0.008739
    69     0.213047
    70    -0.012688
    71     0.098733
    72    -0.113018
Sym=    19a
Ene=   -0.172938E-02
Spin= Alpha
Occup= 0.000724
     1    -0.000002
     2    -0.000003
     3     0.000008
     4    -0.000546
     5     0.000697
     6     0.000568
     7     0.000755
     8    -0.001486
     9     0.002931
    10     0.053228
    11     0.009512
    12    -0.024603
    13    -0.415932
    14    -0.007076
    15     0.018041
    16     0.308437
    17    -0.007918
    18     0.019262
    19     0.330646
    20    -0.002462
    21    -0.006483
    22     0.008876
    23     0.005113
    24     0.062366
    25    -0.062867
    26    -0.019174
    27    -0.045368
    28     0.062431
    29     0.036331
    30     0.441913
    31    -0.444165
    32    -0.004761
    33    -0.020204
    34     0.023976
    35     0.013785
    36     0.168455
    37    -0.170159
    38     0.004540
    39    -0.011965
    40     0.017673
    41     0.013069
    42    -0.009765
    43    -0.089004
    44    -0.015496
    45     0.016825
    46    -0.089930
    47     0.108425
    48     0.007578
    49    -0.019002
    50     0.209900
    51     0.022278
    52    -0.015693
    53    -0.139235
    54    -0.031741
    55     0.041928
    56    -0.142779
    57     0.187929
    58    -0.016431
    59     0.075574
    60     0.010126
    61     0.032223
    62     0.004709
    63    -0.075756
    64    -0.016944
    65     0.051638
    66     0.006450
    67     0.005897
    68    -0.050923
    69    -0.007127
    70    -0.033364
    71     0.000353
    72     0.002586
Sym=    20a
Ene=   -0.201274E-02
Spin= Alpha
Occup= 0.000829
     1     0.023791
     2    -0.003614
     3     0.091312
     4     0.026839
     5    -0.386001
     6     0.258913
     7    -0.212540
     8     0.128096
     9     0.465929
    10    -0.025134
    11    -0.104999
    12    -0.381867
    13     0.018904
    14    -0.000985
    15    -0.005754
    16     0.001365
    17     0.088228
    18     0.322540
    19    -0.016012
    20    -0.005889
    21     0.020881
    22    -0.028212
    23     0.009298
    24     0.000094
    25    -0.002904
    26    -0.011389
    27     0.434650
    28    -0.171602
    29     0.152875
    30    -0.005192
    31    -0.036406
    32    -0.079684
    33     0.393300
    34    -0.209729
    35     0.162878
    36    -0.007815
    37    -0.036910
    38     0.014694
    39    -0.108443
    40    -0.007406
    41    -0.056573
    42     0.012033
    43    -0.001090
    44     0.017085
    45     0.061453
    46     0.014482
    47     0.003646
    48     0.049210
    49    -0.373776
    50    -0.026325
    51    -0.194130
    52     0.039783
    53    -0.003903
    54     0.061786
    55     0.222155
    56     0.052502
    57     0.012208
    58    -0.000634
    59     0.008444
    60    -0.066490
    61    -0.016546
    62     0.083889
    63     0.004466
    64    -0.024067
    65    -0.009245
    66     0.095650
    67     0.003503
    68     0.001958
    69    -0.038395
    70     0.005079
    71    -0.064443
    72     0.015892
Sym=    21a
Ene=   -0.149450E-04
Spin= Alpha
Occup= 0.000000
     1     3.508986
     2    -6.105052
     3    15.948848
     4   -23.934786
     5     1.150811
     6    10.152313
     7     0.517295
     8     0.064321
     9     0.139192
    10    -0.011925
    11    -0.628486
    12    -1.359736
    13     0.109171
    14     0.108242
    15     0.242018
    16    -0.004917
    17    -0.099886
    18    -0.220603
    19     0.009570
    20     3.337909
    21     9.148601
    22     8.222127
    23     1.251408
    24    -0.289239
    25    -0.032498
    26     0.057593
    27   -23.641441
    28   -20.286919
    29    -5.100541
    30     1.251062
    31     0.063988
    32    -1.512457
    33    -0.804267
    34    -0.958871
    35     0.152963
    36    -0.014598
    37    -0.018492
    38     0.201067
    39     0.403178
    40    -0.028364
    41     0.072312
    42     0.197676
    43    -0.012194
    44     0.061687
    45     0.133621
    46    -0.020946
    47     0.002187
    48     0.195171
    49     0.479445
    50    -0.047066
    51     0.121614
    52     0.180553
    53    -0.022407
    54     0.122296
    55     0.264360
    56    -0.013312
    57    -0.004070
    58    10.368054
    59    -0.028751
    60     6.779144
    61    -0.004742
    62    12.460439
    63    -0.532099
    64     0.950845
    65    -0.246338
    66     2.167889
    67     2.375570
    68    -0.000863
    69     2.881865
    70    -0.525768
    71     2.045277
    72    -2.502832
Sym=    22a
Ene=   -0.220970E-03
Spin= Alpha
Occup= 0.000049
     1     0.000113
     2     0.000594
     3    -0.000486
     4    -0.006836
     5     0.012378
     6    -0.004692
     7     0.009267
     8     0.001754
     9    -0.001844
    10    -0.004239
    11    -0.018837
    12     0.021822
    13     0.200798
    14     0.008746
    15    -0.011364
    16    -0.090708
    17     0.002064
    18    -0.006434
    19    -0.192952
    20     0.005190
    21    -0.002580
    22    -0.001537
    23    -0.005455
    24    -0.139199
    25    -0.034526
    26     0.074636
    27    -0.058236
    28    -0.031131
    29    -0.097382
    30    -1.826439
    31    -0.493180
    32    -0.025167
    33     0.011986
    34     0.008653
    35     0.027191
    36     0.622186
    37     0.161809
    38     0.032403
    39    -0.011188
    40    -0.163691
    41    -0.013814
    42    -0.025957
    43    -0.554293
    44    -0.002748
    45    -0.011338
    46    -0.056724
    47    -0.174509
    48    -0.023283
    49     0.015432
    50     0.060215
    51     0.005572
    52     0.030591
    53     0.586407
    54     0.013039
    55    -0.010081
    56     0.154050
    57     0.114253
    58     0.016088
    59     0.184446
    60     0.012604
    61     0.225523
    62     0.040260
    63     0.671532
    64     0.015749
    65     0.349831
    66     0.038932
    67    -0.005224
    68     0.048692
    69    -0.013677
    70     0.754728
    71     0.043841
    72    -0.045769
Sym=    23a
Ene=   -0.204422E-03
Spin= Alpha
Occup= 0.000043
     1     0.002315
     2     0.008644
     3     0.001973
     4    -0.173982
     5     0.291388
     6    -0.082719
     7     0.235170
     8    -0.010359
     9     0.010122
    10    -0.001047
    11     0.134166
    12    -0.134665
    13     0.011110
    14    -0.046916
    15     0.043621
    16     0.000373
    17    -0.001361
    18     0.004364
    19    -0.002454
    20     0.006407
    21    -0.000158
    22     0.004759
    23    -0.000852
    24    -0.052329
    25    -0.049660
    26    -0.080123
    27    -0.018377
    28    -0.304008
    29    -0.173846
    30     0.388358
    31     0.318950
    32    -0.086610
    33    -0.094737
    34     0.024922
    35     0.046438
    36    -0.020414
    37     0.001763
    38    -0.030015
    39     0.089460
    40     0.002940
    41    -0.060445
    42     0.032835
    43    -0.304788
    44    -0.000221
    45    -0.048878
    46     0.290651
    47     0.007989
    48     0.052431
    49     0.028706
    50    -0.003040
    51    -0.076796
    52     0.041912
    53    -0.448116
    54    -0.032829
    55    -0.041050
    56     0.447018
    57     0.022181
    58     0.147511
    59    -0.154945
    60    -0.069437
    61     0.345412
    62    -0.027444
    63    -0.194571
    64     0.044913
    65    -0.388117
    66     0.007543
    67     0.084415
    68    -0.421837
    69     0.090799
    70     0.298484
    71     0.112377
    72    -0.092613
Sym=    24a
Ene=   -0.168927E-03
Spin= Alpha
Occup= 0.000030
     1     0.000019
     2    -0.000857
     3     0.001704
     4     0.000432
     5    -0.004478
     6     0.006268
     7    -0.003115
     8     0.048248
     9    -0.011319
    10     0.002833
    11    -0.754210
    12     0.197016
    13    -0.038547
    14     0.204849
    15    -0.055123
    16     0.012954
    17     0.130801
    18    -0.035654
    19     0.007834
    20    -0.038549
    21     0.035712
    22     0.002078
    23    -0.078697
    24     0.002758
    25    -0.005286
    26    -0.888840
    27     0.882824
    28     0.004051
    29    -1.708489
    30     0.072679
    31    -0.155463
    32     0.259634
    33    -0.257685
    34    -0.002873
    35     0.498969
    36    -0.021528
    37     0.035122
    38     0.130705
    39    -0.492710
    40     0.002017
    41     0.682891
    42     0.433479
    43    -0.005476
    44     0.007187
    45    -0.003380
    46     0.046380
    47    -0.047955
    48     0.190611
    49     0.300826
    50    -0.003853
    51    -0.387059
    52    -0.362725
    53     0.013286
    54     0.037081
    55    -0.009274
    56    -0.017454
    57     0.027594
    58    -0.006119
    59     0.075777
    60    -0.154691
    61     0.048989
    62    -0.417111
    63    -0.028466
    64     0.319417
    65     0.000951
    66     0.580094
    67     0.160359
    68     0.042572
    69    -0.222378
    70    -0.037791
    71     0.791845
    72     0.673799
Sym=    25a
Ene=   -0.142681E-04
Spin= Alpha
Occup= 0.000000
     1     1.788458
     2    -2.987193
     3     6.696224
     4    -9.885272
     5     0.844613
     6     3.839761
     7     0.537278
     8     0.000471
     9    -0.028100
    10    -0.007481
    11     0.002372
    12     0.296654
    13     0.064141
    14    -0.006256
    15    -0.079860
    16     0.003827
    17    -0.004002
    18     0.051374
    19     0.001189
    20     4.547109
    21     3.751271
    22    -0.100643
    23    -0.770386
    24    -3.084731
    25     1.949064
    26   -13.271818
    27   -10.165380
    28     5.002651
    29     3.080189
    30    11.965272
    31    -7.566138
    32    -0.260712
    33    -0.441717
    34    -0.956986
    35    -0.115577
    36    -0.565490
    37     0.349802
    38    -0.011420
    39    -0.095044
    40    -0.015381
    41     0.003710
    42    -0.052523
    43    -0.023721
    44     0.008132
    45    -0.013743
    46     0.001850
    47     0.014223
    48    -0.002315
    49    -0.094162
    50    -0.024577
    51     0.001364
    52    -0.040840
    53     0.000287
    54     0.013917
    55    -0.032553
    56    -0.029807
    57     0.011039
    58    -3.933660
    59     2.979958
    60     0.460974
    61     3.092058
    62     5.421321
    63    -4.728725
    64    -0.529121
    65    -2.202582
    66    -1.289529
    67     0.814522
    68     1.393593
    69     3.780546
    70    -4.862742
    71    -1.254091
    72     7.419851
Sym=    26a
Ene=   -0.168869E-03
Spin= Alpha
Occup= 0.000030
     1     0.000154
     2    -0.000319
     3     0.002503
     4    -0.006834
     5     0.005261
     6     0.002829
     7    -0.000800
     8     0.014209
     9    -0.047289
    10     0.001493
    11    -0.205425
    12     0.752042
    13    -0.035222
    14     0.057268
    15    -0.209319
    16     0.009035
    17     0.031488
    18    -0.129591
    19     0.006303
    20     0.040104
    21    -0.040660
    22     0.003173
    23    -0.080556
    24     0.005580
    25     0.000700
    26     0.837875
    27    -0.835845
    28    -0.012891
    29    -1.732343
    30     0.073719
    31     0.009185
    32    -0.242398
    33     0.244368
    34    -0.001023
    35     0.509302
    36    -0.029537
    37    -0.005451
    38     0.476198
    39    -0.118685
    40    -0.002042
    41    -0.411136
    42    -0.704917
    43     0.065619
    44     0.003038
    45    -0.001078
    46    -0.017954
    47     0.021873
    48    -0.282770
    49    -0.195318
    50     0.010793
    51     0.348439
    52     0.403588
    53    -0.051181
    54     0.010647
    55    -0.039699
    56     0.029232
    57    -0.020725
    58     0.007112
    59    -0.001692
    60     0.163401
    61    -0.015909
    62     0.632072
    63    -0.019199
    64     0.320023
    65    -0.034012
    66     0.812054
    67    -0.161632
    68     0.016568
    69    -0.215661
    70    -0.016847
    71     0.578770
    72    -0.392143
Sym=    27a
Ene=   -0.254329E-03
Spin= Alpha
Occup= 0.000060
     1     0.010949
     2     0.039015
     3    -0.055738
     4    -0.480480
     5     0.997986
     6    -0.480740
     7     0.708138
     8    -0.078280
     9     0.079107
    10    -0.006499
    11     0.475241
    12    -0.476082
    13     0.039447
    14    -0.202871
    15     0.196261
    16    -0.015995
    17    -0.127858
    18     0.133490
    19    -0.011605
    20     0.025917
    21     0.027406
    22     0.002433
    23    -0.092596
    24     0.008152
    25    -0.002366
    26     0.085219
    27     0.085665
    28    -1.268847
    29    -0.486794
    30     0.076899
    31    -0.102386
    32    -0.180684
    33    -0.178204
    34     0.111393
    35     0.088936
    36    -0.013828
    37     0.025152
    38    -0.310465
    39     0.308850
    40     0.034856
    41    -0.173189
    42     0.176163
    43    -0.025652
    44     0.190983
    45    -0.191030
    46    -0.056925
    47     0.035976
    48    -0.283924
    49     0.274271
    50     0.060326
    51     0.185625
    52    -0.173751
    53     0.020849
    54     0.330372
    55    -0.325452
    56    -0.088139
    57     0.012759
    58     0.614986
    59     0.080216
    60    -0.063729
    61    -0.028237
    62     0.021702
    63    -0.084629
    64     0.379451
    65     0.035572
    66     0.173353
    67    -0.062268
    68     0.008951
    69    -0.226778
    70    -0.028353
    71     0.158650
    72     0.027125
Sym=    28a
Ene=   -0.151533E-03
Spin= Alpha
Occup= 0.000025
     1     0.005144
     2     0.034557
     3     0.010244
     4    -0.350551
     5     0.511316
     6    -0.229415
     7     0.343184
     8    -0.021954
     9    -0.081460
    10     0.004814
    11     0.291881
    12     1.063833
    13    -0.060222
    14    -0.082186
    15    -0.298041
    16     0.015341
    17     0.016266
    18     0.052764
    19    -0.003637
    20     0.102496
    21     0.029194
    22     0.012168
    23    -0.024578
    24    -0.024179
    25     0.006167
    26    -1.003600
    27     1.045958
    28    -0.572196
    29     0.703021
    30     0.174464
    31    -0.159186
    32     0.024022
    33    -0.252595
    34     0.152859
    35    -0.100757
    36    -0.034131
    37     0.036571
    38     0.132314
    39    -0.651104
    40     0.001330
    41    -0.390448
    42     0.127640
    43    -0.056306
    44     0.006839
    45    -0.005511
    46     0.096077
    47    -0.073948
    48     0.015092
    49    -0.188684
    50     0.037091
    51    -0.086795
    52     0.005980
    53    -0.002689
    54    -0.081961
    55    -0.287637
    56    -0.013189
    57    -0.005684
    58     0.324733
    59     0.079067
    60    -0.165181
    61    -0.029122
    62    -0.542251
    63    -0.090514
    64    -0.140035
    65     0.014944
    66     0.417247
    67     0.227112
    68     0.132936
    69    -0.518120
    70    -0.046632
    71    -0.979619
    72     0.734997
Sym=    29a
Ene=   -0.176340E-06
Spin= Alpha
Occup= 0.000000
     1     0.005581
     2    -0.012583
     3     0.074883
     4    -0.129795
     5    -0.021104
     6     0.113733
     7     0.008836
     8    -1.489704
     9     1.014199
    10    -0.355115
    11    10.713378
    12    -7.293768
    13     2.557543
    14     4.162217
    15    -2.832157
    16     0.952425
    17    -1.119976
    18     0.763098
    19    -0.242248
    20     0.007169
    21     0.088447
    22     0.050440
    23    -0.303251
    24     0.013521
    25    -0.030592
    26     0.100431
    27    -0.342452
    28    -0.128762
    29     1.625115
    30    -0.073343
    31     0.160214
    32    -0.004268
    33    -0.029248
    34    -0.013202
    35     0.084481
    36    -0.012622
    37    -0.005847
    38    -2.968689
    39     2.024830
    40    -0.692160
    41    -1.328426
    42     0.903089
    43    -0.344534
    44    -1.358483
    45     0.921512
    46    -0.309552
    47     0.001913
    48    -6.494256
    49     4.418905
    50    -1.553796
    51    -2.903598
    52     1.978619
    53    -0.656456
    54    -2.873348
    55     1.954484
    56    -0.691211
    57    -0.001605
    58     0.057630
    59    -0.067148
    60     0.064578
    61    -0.066532
    62     0.229295
    63     0.029022
    64    -0.288622
    65     0.031108
    66    -0.769248
    67     0.004682
    68    -0.036391
    69     0.019216
    70     0.034232
    71    -0.767537
    72    -0.102215
Sym=    30a
Ene=   -0.255187E-03
Spin= Alpha
Occup= 0.000061
     1    -0.010891
     2    -0.038986
     3     0.056737
     4     0.479630
     5    -0.997645
     6     0.477683
     7    -0.712186
     8    -0.107635
     9    -0.028568
    10    -0.000014
    11     0.647246
    12     0.171717
    13    -0.001664
    14    -0.270583
    15    -0.068601
    16     0.000749
    17    -0.180786
    18    -0.049029
    19    -0.002735
    20    -0.096861
    21     0.042996
    22    -0.000310
    23    -0.045794
    24    -0.000005
    25    -0.001961
    26    -0.453992
    27     0.289478
    28     1.268308
    29    -0.245352
    30    -0.037555
    31     0.078205
    32     0.250224
    33     0.113593
    34    -0.110319
    35     0.045617
    36     0.004562
    37    -0.010058
    38    -0.473638
    39    -0.098140
    40     0.004096
    41    -0.174121
    42    -0.082908
    43    -0.018627
    44     0.265755
    45     0.069908
    46     0.011736
    47     0.023290
    48     0.022796
    49    -0.211083
    50     0.006941
    51    -0.303171
    52     0.209931
    53    -0.014869
    54     0.456767
    55     0.118819
    56     0.011376
    57     0.025174
    58    -0.615450
    59    -0.026309
    60    -0.220478
    61    -0.037466
    62    -0.064746
    63     0.020467
    64     0.188071
    65     0.022373
    66    -0.049833
    67     0.353802
    68     0.005150
    69    -0.052484
    70    -0.005491
    71     0.216936
    72     0.322491
Sym=    31a
Ene=   -0.963022E-03
Spin= Alpha
Occup= 0.000317
     1     0.000003
     2    -0.000013
     3     0.000042
     4     0.001145
     5    -0.001829
     6    -0.000832
     7    -0.001251
     8     0.213821
     9     0.210804
    10    -0.007744
    11    -0.206577
    12    -0.203434
    13     0.005715
    14     0.034158
    15     0.034513
    16    -0.000827
    17     0.320867
    18     0.315824
    19    -0.012459
    20     0.029664
    21    -0.029476
    22    -0.000025
    23    -0.000227
    24     0.000928
    25     0.001916
    26     0.521595
    27    -0.517511
    28     0.000325
    29    -0.007046
    30     0.013835
    31     0.035028
    32     0.014918
    33    -0.013464
    34    -0.000103
    35    -0.000698
    36    -0.003132
    37     0.004271
    38    -0.171718
    39    -0.173707
    40    -0.002132
    41     0.108177
    42     0.112983
    43    -0.013363
    44     0.031904
    45     0.030332
    46     0.019863
    47    -0.003268
    48    -0.458957
    49    -0.462294
    50    -0.009172
    51     0.245522
    52     0.256906
    53    -0.034623
    54     0.133361
    55     0.129405
    56     0.058319
    57     0.001921
    58     0.000091
    59    -0.008748
    60     0.052225
    61     0.011070
    62     0.016012
    63    -0.002468
    64     0.001866
    65    -0.017535
    66     0.214604
    67    -0.053423
    68    -0.011153
    69     0.004940
    70     0.015924
    71    -0.214253
    72    -0.022331
Sym=    32a
Ene=   -0.203472E-03
Spin= Alpha
Occup= 0.000042
     1    -0.002375
     2    -0.009069
     3    -0.002022
     4     0.178490
     5    -0.299067
     6     0.084660
     7    -0.234952
     8     0.003830
     9     0.014619
    10    -0.001109
    11    -0.049350
    12    -0.190590
    13     0.022582
    14     0.018165
    15     0.065982
    16    -0.012637
    17    -0.000742
    18     0.002391
    19    -0.008011
    20    -0.003591
    21    -0.001957
    22    -0.006867
    23    -0.004437
    24    -0.068298
    25     0.025923
    26     0.189730
    27    -0.096340
    28     0.316039
    29    -0.054871
    30     0.506773
    31    -0.039145
    32     0.051699
    33     0.126549
    34    -0.025580
    35     0.019299
    36    -0.026446
    37    -0.023201
    38     0.012589
    39     0.128886
    40     0.000991
    41    -0.002277
    42     0.016160
    43    -0.157816
    44     0.021167
    45    -0.045104
    46     0.115032
    47    -0.309574
    48    -0.032049
    49     0.098210
    50     0.010044
    51     0.017799
    52    -0.048394
    53    -0.222578
    54     0.040829
    55    -0.027491
    56     0.240554
    57    -0.435976
    58    -0.155835
    59     0.016027
    60     0.074195
    61    -0.350779
    62     0.002484
    63    -0.250096
    64    -0.043442
    65     0.415270
    66     0.000201
    67    -0.082738
    68     0.404658
    69     0.095819
    70    -0.289412
    71     0.092541
    72    -0.093485
Sym=    33a
Ene=   -0.124090E-04
Spin= Alpha
Occup= 0.000000
     1     0.264895
     2    -0.443091
     3     1.000440
     4    -1.480908
     5     0.127128
     6     0.578754
     7     0.082365
     8    -0.012600
     9     0.005995
    10    -0.002988
    11     0.119702
    12    -0.049247
    13     0.026521
    14    -0.007141
    15    -0.012623
    16     0.000354
    17     0.004168
    18     0.007862
    19     0.000810
    20     0.551230
    21     0.864706
    22    -0.187926
    23     0.234241
    24     2.956987
    25     3.833883
    26    -1.490717
    27    -2.697060
    28     1.424619
    29    -0.864885
    30   -11.411856
    31   -14.855478
    32    -0.062251
    33    -0.009100
    34    -0.179986
    35     0.076138
    36     0.538045
    37     0.713535
    38    -0.044697
    39     0.023133
    40    -0.004897
    41    -0.024517
    42     0.011219
    43    -0.017798
    44     0.005827
    45    -0.009783
    46     0.006842
    47    -0.023878
    48    -0.050792
    49     0.031113
    50    -0.009008
    51    -0.017402
    52     0.008114
    53    -0.021697
    54    -0.013972
    55     0.003661
    56     0.009319
    57     0.032091
    58    -0.995098
    59     5.847736
    60     0.137288
    61     6.059900
    62     1.549694
    63     4.503701
    64     0.031535
    65     2.066053
    66     0.366184
    67    -0.084746
    68     2.717710
    69     0.675336
    70     4.657930
    71     0.375239
    72     0.808858
Sym=    34a
Ene=   -0.281397E-04
Spin= Alpha
Occup= 0.000004
     1    -0.022066
     2     0.032840
     3     0.283776
     4    -1.051619
     5     1.183469
     6    -0.226400
     7     0.504461
     8     0.046487
     9     0.012437
    10     0.016714
    11    -0.367813
    12    -0.098484
    13    -0.165023
    14     0.096168
    15     0.023463
    16     0.029956
    17    -0.071579
    18    -0.016949
    19    -0.014153
    20     0.148279
    21    -0.012192
    22     0.168473
    23     0.062947
    24     0.091764
    25    -0.229125
    26    -0.871173
    27     0.321445
    28    -1.121722
    29    -0.428801
    30    -0.487766
    31     2.145361
    32    -0.116807
    33    -0.161218
    34     0.040551
    35     0.018566
    36     0.095246
    37    -0.182560
    38    -0.191662
    39     0.329710
    40     0.024246
    41     0.455742
    42    -0.388350
    43    -0.272118
    44     0.032020
    45     0.009098
    46     0.359266
    47     0.617197
    48     0.426481
    49    -0.288632
    50     0.031840
    51    -0.392794
    52     0.445125
    53     0.312160
    54     0.074061
    55     0.009913
    56    -0.249136
    57    -0.568842
    58     0.617685
    59    -1.030197
    60    -0.032013
    61    -0.850356
    62    -0.445161
    63     0.198784
    64     0.025790
    65     0.211306
    66     0.273413
    67     0.088083
    68    -0.445884
    69     0.031648
    70     0.070108
    71     0.143053
    72     0.424100
Sym=    35a
Ene=   -0.221795E-03
Spin= Alpha
Occup= 0.000050
     1     0.000082
     2     0.000552
     3    -0.000429
     4    -0.007494
     5     0.012569
     6    -0.001720
     7     0.009658
     8    -0.002625
     9    -0.001023
    10     0.002834
    11     0.019065
    12    -0.007288
    13    -0.179849
    14    -0.011971
    15     0.000379
    16     0.084390
    17     0.001942
    18     0.018086
    19     0.194594
    20     0.001449
    21     0.012874
    22    -0.013589
    23    -0.008142
    24    -0.099933
    25     0.099531
    26     0.034424
    27     0.148138
    28    -0.202278
    29    -0.114011
    30    -1.314556
    31     1.321725
    32    -0.006433
    33    -0.066437
    34     0.066256
    35     0.038677
    36     0.455828
    37    -0.459912
    38    -0.014430
    39     0.046469
    40     0.164016
    41    -0.048371
    42     0.025625
    43     0.295779
    44     0.046018
    45    -0.034242
    46     0.300721
    47    -0.330936
    48     0.010615
    49    -0.059427
    50    -0.067719
    51     0.035565
    52    -0.028268
    53    -0.372019
    54    -0.040689
    55     0.049700
    56    -0.369969
    57     0.267521
    58     0.111523
    59    -0.483229
    60     0.030939
    61    -0.561822
    62    -0.100776
    63     0.479438
    64     0.020813
    65     0.214153
    66     0.042810
    67     0.015812
    68    -0.218632
    69    -0.027552
    70     0.565667
    71     0.046239
    72    -0.025971
Sym=    36a
Ene=   -0.369129E-04
Spin= Alpha
Occup= 0.000006
     1     0.005870
     2     0.015311
     3    -0.184344
     4     1.073361
     5    -1.984539
     6     0.658450
     7    -0.760607
     8    -0.041046
     9    -0.147068
    10     0.006934
    11     0.296586
    12     1.069376
    13    -0.046920
    14     0.021352
    15     0.058871
    16    -0.008879
    17     0.050233
    18     0.188128
    19    -0.007751
    20    -0.247478
    21     0.471369
    22     0.026300
    23     0.265326
    24    -0.037500
    25    -0.017679
    26     2.385927
    27     0.837244
    28    -1.187953
    29    -0.606879
    30     0.206622
    31    -0.156459
    32    -0.171145
    33     0.342854
    34     0.254368
    35     0.173841
    36    -0.047824
    37     0.014247
    38    -0.256270
    39    -0.580607
    40    -0.081010
    41     0.012027
    42    -0.394051
    43    -0.011569
    44     0.183517
    45     0.637915
    46     0.140945
    47    -0.051997
    48    -0.016553
    49    -0.242534
    50     0.119607
    51    -0.073426
    52    -0.032904
    53     0.030015
    54    -0.281882
    55    -0.983443
    56    -0.120588
    57     0.048910
    58     0.979479
    59     0.033736
    60     0.329768
    61     0.112821
    62    -0.784007
    63    -0.065101
    64     0.098559
    65    -0.020804
    66    -0.025951
    67     0.107459
    68     0.045639
    69    -0.461030
    70    -0.091442
    71     0.311797
    72    -1.284737
Sym=    37a
Ene=   -0.661150E-02
Spin= Alpha
Occup= 0.000134
     1    -1.778971
     2     0.134104
     3     3.541085
     4    -3.076983
     5    -0.541613
     6     1.830472
     7     0.291036
     8     0.000207
     9     0.000192
    10    -0.000010
    11    -0.001594
    12    -0.001144
    13     0.000120
    14    -0.000490
    15    -0.000920
    16     0.000144
    17     0.000070
    18     0.000328
    19    -0.000032
    20     1.004416
    21     1.004044
    22     1.050615
    23    -0.002078
    24    -0.000448
    25     0.002684
    26    -2.552171
    27    -2.549606
    28    -2.499595
    29     0.007514
    30    -0.004234
    31     0.005524
    32    -0.162761
    33    -0.163032
    34    -0.266330
    35    -0.000170
    36     0.002530
    37    -0.007258
    38    -0.006939
    39     0.007353
    40    -0.000033
    41     0.010139
    42    -0.009327
    43     0.000343
    44     0.000173
    45     0.000135
    46    -0.000393
    47    -0.000967
    48     0.032152
    49    -0.029238
    50    -0.000142
    51    -0.041406
    52     0.040848
    53    -0.001570
    54     0.000340
    55     0.000426
    56     0.001482
    57     0.003891
    58     1.159376
    59    -0.002450
    60     0.689247
    61    -0.003792
    62     1.202328
    63     0.001816
    64    -0.001501
    65     0.001671
    66    -0.002899
    67     0.689347
    68    -0.000582
    69     0.704736
    70     0.001616
    71    -0.003033
    72     1.204320
Sym=    38a
Ene=   -0.370823E-04
Spin= Alpha
Occup= 0.000006
     1     0.005404
     2     0.016244
     3    -0.170513
     4     1.038782
     5    -1.979575
     6     0.695880
     7    -0.773994
     8     0.150256
     9     0.039821
    10     0.004325
    11    -1.114905
    12    -0.305257
    13    -0.037600
    14    -0.020094
    15     0.015662
    16     0.003994
    17    -0.207296
    18    -0.065516
    19    -0.003584
    20     0.475123
    21    -0.235072
    22     0.034525
    23     0.245228
    24     0.009336
    25     0.007566
    26     0.876799
    27     2.320325
    28    -1.207535
    29    -0.515555
    30     0.070153
    31    -0.163506
    32     0.355556
    33    -0.175200
    34     0.252974
    35     0.173471
    36     0.010782
    37     0.009839
    38     0.604309
    39     0.248772
    40    -0.003831
    41     0.396075
    42    -0.010735
    43     0.036574
    44    -0.641057
    45    -0.166126
    46    -0.006297
    47    -0.033792
    48     0.230905
    49     0.013053
    50     0.021000
    51     0.039309
    52     0.067182
    53    -0.018580
    54     0.995323
    55     0.260225
    56     0.020448
    57     0.024955
    58     0.977713
    59     0.040660
    60     0.118147
    61     0.115773
    62    -1.246194
    63    -0.031097
    64     0.085191
    65    -0.013249
    66     0.271362
    67     0.329736
    68     0.020515
    69    -0.457821
    70    -0.056182
    71    -0.066772
    72    -0.839073
Sym=    39a
Ene=   -0.485612E-04
Spin= Alpha
Occup= 0.000008
     1     0.032499
     2    -0.137975
     3    -0.397847
     4     1.274402
     5    -0.447118
     6    -0.419143
     7     0.114398
     8     0.252442
     9    -0.256201
    10     0.020358
    11    -2.208912
    12     2.235527
    13    -0.177344
    14     0.473089
    15    -0.463177
    16     0.035992
    17    -0.299028
    18     0.296156
    19    -0.023080
    20    -0.551633
    21    -0.544577
    22    -0.070135
    23     0.397317
    24    -0.031716
    25     0.042400
    26     0.865413
    27     0.807439
    28    -0.483626
    29     0.173530
    30    -0.008819
    31    -0.117625
    32    -0.380099
    33    -0.387898
    34     0.386269
    35     0.580776
    36    -0.051058
    37     0.065603
    38     0.478086
    39    -0.488757
    40     0.104663
    41     0.221251
    42    -0.222646
    43     0.015537
    44     0.573216
    45    -0.574089
    46    -0.041002
    47     0.034278
    48     0.821543
    49    -0.834683
    50     0.018729
    51     0.324452
    52    -0.333335
    53     0.032093
    54     0.105483
    55    -0.114126
    56     0.068054
    57    -0.022264
    58     0.542822
    59     0.087891
    60    -0.103187
    61    -0.023578
    62     0.003651
    63    -0.017039
    64     0.061886
    65     0.068212
    66    -0.513042
    67    -0.120731
    68    -0.014477
    69     0.082612
    70     0.040670
    71    -0.515034
    72    -0.039218
Sym=    40a
Ene=   -0.485160E-04
Spin= Alpha
Occup= 0.000008
     1     0.034228
     2    -0.142236
     3    -0.390220
     4     1.258035
     5    -0.424233
     6    -0.410936
     7     0.095889
     8     0.098679
     9     0.348727
    10    -0.018961
    11    -0.856434
    12    -3.033556
    13     0.162501
    14     0.169439
    15     0.608783
    16    -0.028278
    17    -0.110108
    18    -0.390675
    19     0.020184
    20    -0.258811
    21    -0.861521
    22    -0.051781
    23    -0.228597
    24     0.008799
    25     0.048415
    26     0.982566
    27     0.777519
    28    -0.590894
    29     0.017815
    30     0.064078
    31    -0.101972
    32     0.052288
    33    -0.810028
    34     0.396117
    35    -0.300898
    36     0.008755
    37     0.075009
    38     0.185202
    39     0.663916
    40    -0.097390
    41     0.083587
    42     0.290521
    43    -0.026338
    44     0.223701
    45     0.791005
    46     0.052332
    47    -0.015425
    48     0.337805
    49     1.094363
    50    -0.020848
    51     0.114060
    52     0.528761
    53    -0.020562
    54     0.041812
    55     0.145500
    56    -0.072520
    57     0.010114
    58     0.605881
    59     0.086513
    60    -0.153264
    61    -0.072276
    62     0.572102
    63    -0.029808
    64    -0.057650
    65    -0.016137
    66     0.273452
    67    -0.046966
    68     0.012814
    69    -0.035504
    70    -0.046728
    71     0.168782
    72    -0.561558
Sym=    41a
Ene=   -0.192715E-06
Spin= Alpha
Occup= 0.000000
     1    -0.005012
     2     0.011258
     3    -0.062950
     4     0.111529
     5    -0.000403
     6    -0.074175
     7    -0.009785
     8     0.085728
     9    -0.486850
    10    -1.787859
    11    -0.618314
    12     3.495774
    13    12.851100
    14    -0.230034
    15     1.357779
    16     4.742555
    17     0.059382
    18    -0.361599
    19    -1.172602
    20    -0.064962
    21    -0.012918
    22    -0.035252
    23     0.051609
    24     0.008900
    25    -0.012326
    26     0.242985
    27    -0.037562
    28     0.082353
    29    -0.275806
    30    -0.047415
    31     0.066534
    32     0.017692
    33     0.005094
    34     0.008821
    35    -0.013507
    36    -0.000456
    37     0.001574
    38     0.179942
    39    -0.982465
    40    -3.380203
    41     0.075204
    42    -0.437430
    43    -1.690519
    44     0.066720
    45    -0.415823
    46    -1.690452
    47     0.002879
    48     0.361942
    49    -2.102892
    50    -7.899166
    51     0.167638
    52    -0.943232
    53    -3.329304
    54     0.174901
    55    -0.970630
    56    -3.330323
    57    -0.002158
    58    -0.035034
    59    -0.029541
    60    -0.009101
    61    -0.009136
    62     0.058412
    63     0.023665
    64     0.041937
    65     0.041190
    66     0.133961
    67    -0.037390
    68    -0.042769
    69    -0.031308
    70    -0.004759
    71     0.131152
    72    -0.154232
Sym=    42a
Ene=   -0.262316E-04
Spin= Alpha
Occup= 0.000004
     1    -0.004555
     2     0.006957
     3     0.052543
     4    -0.194678
     5     0.217101
     6    -0.046603
     7     0.100836
     8     0.006348
     9     0.019007
    10    -0.058098
    11    -0.103074
    12     0.035799
    13     0.564870
    14     0.059689
    15    -0.138246
    16    -0.073437
    17    -0.057307
    18     0.146836
    19     0.023936
    20     0.004483
    21     0.027492
    22     0.028191
    23     0.085753
    24    -0.123884
    25    -0.030393
    26    -0.145874
    27     0.072081
    28    -0.238495
    29    -0.125397
    30    -0.129692
    31    -0.034984
    32    -0.127328
    33     0.068948
    34     0.010051
    35     0.206013
    36    -0.163557
    37    -0.039334
    38    -0.061462
    39     0.141065
    40    -0.040707
    41     0.103023
    42    -0.027836
    43    -0.124703
    44     0.044702
    45    -0.194382
    46    -0.237352
    47     0.036893
    48     0.088442
    49    -0.017715
    50    -0.092003
    51    -0.090857
    52     0.099153
    53    -0.130919
    54     0.039796
    55    -0.068100
    56    -0.119149
    57    -0.001015
    58     0.128756
    59     0.068373
    60    -0.368765
    61    -0.304163
    62    -0.008113
    63     0.290082
    64    -0.682572
    65    -0.398490
    66     0.181421
    67     0.401221
    68     0.449517
    69     0.038100
    70     0.399570
    71     0.178123
    72    -0.067779
Sym=    43a
Ene=   -0.369440E-04
Spin= Alpha
Occup= 0.000006
     1     0.007743
     2     0.009452
     3    -0.176371
     4     1.055069
     5    -1.951894
     6     0.673454
     7    -0.782030
     8    -0.104455
     9     0.104412
    10    -0.007940
    11     0.766274
    12    -0.765787
    13     0.058351
    14     0.021347
    15    -0.027557
    16     0.002671
    17     0.146827
    18    -0.146606
    19     0.011435
    20     0.096313
    21     0.092695
    22     0.043634
    23    -0.460176
    24     0.042556
    25    -0.007543
    26     1.645692
    27     1.641269
    28    -1.279293
    29     0.971223
    30    -0.056410
    31    -0.218943
    32     0.087080
    33     0.087887
    34     0.269614
    35    -0.334689
    36     0.031642
    37     0.022162
    38    -0.555720
    39     0.542542
    40     0.087017
    41    -0.114703
    42     0.122387
    43    -0.012060
    44     0.478930
    45    -0.470328
    46    -0.133835
    47     0.054445
    48    -0.084594
    49     0.097497
    50    -0.130061
    51    -0.110697
    52     0.104671
    53    -0.009409
    54    -0.721322
    55     0.719740
    56     0.110173
    57    -0.056382
    58     1.032102
    59     0.061262
    60     0.227682
    61     0.121537
    62    -0.866299
    63     0.023444
    64    -0.126689
    65    -0.015240
    66    -0.197946
    67     0.215179
    68     0.076831
    69    -0.805958
    70    -0.003161
    71    -0.203740
    72    -0.865223
Sym=    44a
Ene=   -0.284671E-04
Spin= Alpha
Occup= 0.000004
     1    -0.020769
     2     0.030364
     3     0.279748
     4    -1.041126
     5     1.184730
     6    -0.228465
     7     0.501529
     8    -0.014013
     9    -0.045450
    10     0.016883
    11     0.116441
    12     0.361337
    13    -0.167263
    14    -0.035126
    15    -0.096059
    16     0.026899
    17     0.025271
    18     0.071137
    19    -0.011533
    20     0.024503
    21     0.143730
    22     0.120736
    23     0.032343
    24    -0.266568
    25     0.033012
    26    -0.016394
    27    -0.935377
    28    -0.702367
    29    -0.185638
    30     2.284247
    31    -0.648909
    32    -0.127742
    33    -0.112868
    34     0.003962
    35    -0.003968
    36    -0.216250
    37     0.027068
    38    -0.274689
    39     0.238136
    40     0.042098
    41     0.271037
    42    -0.370024
    43    -0.260618
    44     0.024172
    45    -0.175873
    46     0.328849
    47    -0.695645
    48     0.235220
    49    -0.460798
    50     0.017103
    51    -0.339307
    52     0.312896
    53     0.317203
    54    -0.052757
    55     0.057473
    56    -0.233800
    57     0.640564
    58     0.303477
    59     0.368201
    60     0.043681
    61     0.290812
    62     0.466536
    63    -1.090592
    64    -0.034276
    65    -0.253622
    66     0.064653
    67    -0.015304
    68     0.089924
    69     0.104425
    70    -1.042217
    71     0.151246
    72    -0.233723
Sym=    45a
Ene=   -0.933846E-05
Spin= Alpha
Occup= 0.000000
     1    -2.205838
     2     3.924428
     3   -10.971144
     4    16.478596
     5    -0.407506
     6    -7.132404
     7    -0.245862
     8     0.076395
     9     0.348339
    10    -0.056938
    11    -0.370866
    12    -2.908763
    13     0.434664
    14    -0.540134
    15    -0.276779
    16     0.108546
    17     0.224423
    18    -0.098671
    19    -0.014940
    20    -5.218969
    21    -2.559504
    22    -6.868262
    23     3.755361
    24    -0.555215
    25    -0.062042
    26    11.364211
    27     0.530129
    28    18.309027
    29   -15.331075
    30     2.234811
    31     0.295750
    32     0.673223
    33     0.999302
    34     0.488349
    35     0.454405
    36    -0.076401
    37     0.002276
    38     0.077822
    39     0.854593
    40    -0.106879
    41     0.048885
    42     0.369029
    43    -0.061305
    44     0.066146
    45     0.325785
    46    -0.065014
    47     0.002347
    48     0.424315
    49     1.344648
    50    -0.252366
    51     0.164494
    52     0.625447
    53    -0.099942
    54     0.154156
    55     0.672939
    56    -0.094945
    57    -0.000211
    58    -9.835998
    59    -0.119388
    60    -2.561839
    61    -0.142103
    62     1.407959
    63    -0.921249
    64     2.853620
    65    -0.416063
    66     6.367623
    67    -4.604400
    68    -0.056021
    69    -1.278238
    70    -0.910810
    71     6.308756
    72    -5.414531
Sym=    46a
Ene=   -0.488146E-04
Spin= Alpha
Occup= 0.000008
     1    -0.031950
     2     0.139571
     3     0.379784
     4    -1.269046
     5     0.500033
     6     0.387554
     7    -0.082448
     8     0.339319
     9     0.088603
    10     0.004357
    11    -2.967430
    12    -0.778839
    13    -0.031565
    14     0.655419
    15     0.186335
    16     0.013022
    17    -0.405134
    18    -0.111458
    19     0.012748
    20     0.829115
    21     0.258003
    22     0.048162
    23     0.198589
    24    -0.016226
    25    -0.013142
    26    -0.737858
    27    -1.068986
    28     0.579823
    29     0.060406
    30     0.032985
    31     0.097662
    32     0.811479
    33    -0.049450
    34    -0.402142
    35     0.281931
    36     0.000656
    37    -0.020113
    38     0.635588
    39     0.161681
    40    -0.019266
    41     0.275444
    42     0.083074
    43     0.012031
    44     0.803661
    45     0.206233
    46     0.023461
    47     0.028093
    48     1.048947
    49     0.299358
    50    -0.011151
    51     0.511983
    52     0.091964
    53     0.022640
    54     0.109410
    55     0.024002
    56    -0.001219
    57    -0.022253
    58    -0.608287
    59    -0.067840
    60     0.052492
    61    -0.029200
    62     0.614075
    63    -0.071592
    64     0.033752
    65     0.015254
    66    -0.194735
    67     0.156859
    68     0.004724
    69     0.044183
    70     0.026977
    71    -0.283182
    72    -0.611091
Sym=    47a
Ene=   -0.288630E-04
Spin= Alpha
Occup= 0.000004
     1     0.019693
     2    -0.030236
     3    -0.254023
     4     0.959487
     5    -1.095738
     6     0.214363
     7    -0.471031
     8     0.031573
     9    -0.033519
    10    -0.015500
    11    -0.269757
    12     0.253985
    13     0.167596
    14     0.081069
    15    -0.056558
    16    -0.026477
    17    -0.064003
    18     0.036725
    19     0.006618
    20    -0.056032
    21    -0.105456
    22    -0.106245
    23     0.072414
    24    -0.154946
    25    -0.214997
    26     0.284609
    27     0.550655
    28     0.693732
    29    -0.503729
    30     1.700969
    31     1.623132
    32     0.147515
    33     0.074271
    34     0.002068
    35     0.011792
    36    -0.115594
    37    -0.193982
    38     0.327822
    39    -0.216638
    40    -0.003888
    41    -0.331925
    42     0.260693
    43    -0.732385
    44     0.062670
    45    -0.130571
    46     0.607820
    47     0.019633
    48    -0.205369
    49     0.080279
    50    -0.029238
    51     0.423073
    52    -0.366828
    53     0.582920
    54     0.036067
    55     0.085128
    56    -0.643565
    57    -0.038601
    58    -0.318777
    59    -0.790308
    60     0.035813
    61    -0.659313
    62    -0.260480
    63    -0.837368
    64     0.052314
    65    -0.535883
    66     0.218424
    67    -0.073418
    68    -0.200843
    69     0.029631
    70    -0.561618
    71     0.259345
    72    -0.043818
Sym=    48a
Ene=   -0.612773E-04
Spin= Alpha
Occup= 0.000010
     1     0.000104
     2    -0.000396
     3    -0.001020
     4     0.005526
     5    -0.007545
     6     0.002601
     7    -0.001424
     8     0.005518
     9    -0.002124
    10    -0.021926
    11    -0.038847
    12     0.011612
    13     0.127611
    14     0.007562
    15    -0.007669
    16    -0.145693
    17     0.004672
    18    -0.014177
    19    -0.216880
    20     0.000986
    21    -0.028697
    22     0.025785
    23    -0.001318
    24    -0.073241
    25    -0.279504
    26    -0.017376
    27     0.090125
    28    -0.064412
    29    -0.030321
    30     0.155824
    31     0.684532
    32    -0.003530
    33    -0.014958
    34     0.017333
    35    -0.006170
    36    -0.046570
    37    -0.173406
    38     0.019548
    39    -0.054262
    40     0.394258
    41     0.011036
    42    -0.001672
    43    -0.121988
    44    -0.014677
    45     0.075503
    46    -0.348024
    47    -0.068778
    48     0.018660
    49    -0.008604
    50     0.251295
    51     0.002893
    52    -0.010113
    53    -0.083104
    54    -0.008192
    55     0.028656
    56    -0.078780
    57    -0.009406
    58     0.163609
    59    -1.111958
    60    -0.245670
    61     0.514456
    62     0.073047
    63    -0.296568
    64     0.022170
    65     0.188780
    66     0.024835
    67     0.028194
    68     0.068645
    69     0.007139
    70     0.039597
    71     0.003099
    72    -0.000105
Sym=    49a
Ene=   -0.118897E-04
Spin= Alpha
Occup= 0.000000
     1     1.034430
     2    -1.680719
     3     3.290363
     4    -4.752755
     5     0.508764
     6     1.742135
     7     0.486662
     8     0.084556
     9    -0.004798
    10     0.007489
    11    -0.819537
    12     0.077984
    13    -0.079358
    14     0.124245
    15    -0.074264
    16     0.012982
    17    -0.117060
    18     0.046834
    19    -0.007362
    20     2.096145
    21     3.973317
    22    -2.188819
    23    -1.430382
    24     2.200372
    25    -2.189191
    26    -6.365184
    27   -13.964267
    28    10.766839
    29     5.851476
    30    -8.620560
    31     8.517794
    32    -0.272488
    33     0.001195
    34    -0.807769
    35    -0.168216
    36     0.375741
    37    -0.380853
    38     0.257167
    39    -0.023332
    40     0.026734
    41     0.109068
    42    -0.003590
    43     0.018779
    44     0.073538
    45    -0.014272
    46     0.002145
    47    -0.008523
    48     0.282118
    49     0.012309
    50     0.018211
    51     0.138472
    52    -0.008533
    53     0.008318
    54     0.152663
    55    -0.019082
    56     0.022163
    57    -0.009884
    58    -7.081030
    59    -3.350301
    60     0.216215
    61    -3.495896
    62     8.399028
    63     3.428480
    64    -1.105518
    65     1.594257
    66    -2.392596
    67    -1.051054
    68    -1.574178
    69     3.545726
    70     3.522213
    71    -2.441346
    72     3.565214
Sym=    50a
Ene=   -0.605600E-04
Spin= Alpha
Occup= 0.000010
     1     0.001475
     2    -0.009472
     3    -0.021742
     4     0.085356
     5    -0.048697
     6    -0.015789
     7     0.006598
     8    -0.023084
     9    -0.009540
    10     0.022126
    11     0.202924
    12     0.080323
    13    -0.126357
    14    -0.058458
    15    -0.011693
    16     0.145003
    17     0.028061
    18     0.021742
    19     0.212774
    20    -0.042905
    21    -0.024475
    22    -0.003058
    23    -0.031300
    24    -0.282981
    25    -0.075615
    26     0.031823
    27     0.086298
    28    -0.037031
    29     0.002917
    30     0.685234
    31     0.184369
    32    -0.050975
    33    -0.008806
    34     0.027612
    35    -0.035890
    36    -0.171875
    37    -0.049082
    38    -0.055436
    39    -0.005065
    40    -0.399765
    41    -0.013874
    42    -0.000397
    43     0.349754
    44    -0.040193
    45    -0.054016
    46     0.125863
    47     0.078758
    48    -0.071737
    49    -0.024490
    50    -0.243442
    51    -0.032633
    52     0.000178
    53     0.078584
    54     0.006116
    55    -0.031758
    56     0.077039
    57    -0.004568
    58     0.026884
    59    -0.299277
    60    -0.028366
    61     0.024328
    62    -0.042300
    63    -1.139733
    64    -0.053120
    65     0.072437
    66     0.029538
    67     0.035353
    68     0.175787
    69     0.021870
    70     0.539296
    71     0.056743
    72     0.009626
Sym=    51a
Ene=   -0.259162E-04
Spin= Alpha
Occup= 0.000004
     1     0.007582
     2    -0.008309
     3    -0.143699
     4     0.467922
     5    -0.414083
     6    -0.042787
     7    -0.208493
     8     0.036817
     9     0.015605
    10     0.103451
    11    -0.201696
    12    -0.055725
    13    -0.962640
    14    -0.015106
    15    -0.019051
    16     0.083601
    17     0.044527
    18     0.058871
    19    -0.050359
    20    -0.120127
    21     0.025269
    22    -0.088103
    23     0.025321
    24    -0.122234
    25     0.079381
    26     0.167273
    27     0.336858
    28     0.351398
    29    -0.244178
    30    -0.151502
    31     0.507254
    32    -0.133577
    33     0.300374
    34    -0.004785
    35    -0.009116
    36    -0.226330
    37     0.147021
    38     0.228155
    39     0.030379
    40     0.190902
    41    -0.089403
    42     0.159911
    43     0.129721
    44    -0.096467
    45    -0.166682
    46     0.297060
    47     0.049079
    48    -0.019478
    49     0.119491
    50     0.255401
    51     0.201396
    52    -0.114295
    53     0.290242
    54    -0.027492
    55    -0.037362
    56     0.094743
    57    -0.008375
    58    -0.131425
    59    -0.283892
    60    -0.733578
    61    -0.129525
    62     0.043066
    63     0.262891
    64    -0.034072
    65     0.491252
    66     0.195651
    67     0.705678
    68    -0.504380
    69    -0.086134
    70    -0.157521
    71     0.102718
    72    -0.181271
Sym=    52a
Ene=   -0.221150E-03
Spin= Alpha
Occup= 0.000049
     1    -0.000023
     2     0.000005
     3     0.000280
     4    -0.003153
     5     0.004588
     6     0.000509
     7     0.005702
     8    -0.001585
     9     0.001057
    10    -0.004681
    11     0.007029
    12     0.006365
    13     0.202330
    14    -0.005529
    15    -0.002005
    16    -0.092103
    17     0.010385
    18    -0.013221
    19    -0.191255
    20    -0.002103
    21     0.014041
    22    -0.012706
    23    -0.002828
    24     0.039656
    25     0.137033
    26    -0.025478
    27     0.187389
    28    -0.172210
    29    -0.011944
    30     0.487725
    31     1.816900
    32     0.008905
    33    -0.072715
    34     0.057012
    35     0.009534
    36    -0.173675
    37    -0.616777
    38    -0.001016
    39    -0.074764
    40    -0.167395
    41    -0.004056
    42     0.006736
    43    -0.051341
    44     0.020768
    45     0.045728
    46    -0.555270
    47    -0.160935
    48    -0.008628
    49     0.076548
    50     0.062212
    51    -0.003275
    52     0.007785
    53     0.177054
    54    -0.012093
    55    -0.058931
    56     0.559762
    57     0.158880
    58     0.096008
    59    -0.670280
    60     0.011125
    61    -0.722995
    62    -0.114392
    63    -0.175473
    64    -0.005854
    65    -0.086295
    66     0.010236
    67     0.033161
    68    -0.374514
    69    -0.035838
    70    -0.216364
    71     0.001279
    72     0.015485
Sym=    53a
Ene=   -0.286344E-06
Spin= Alpha
Occup= 0.000000
     1    -0.286360
     2     0.562023
     3    -2.245463
     4     3.289406
     5     0.733719
     6    -1.812133
     7    -0.076731
     8    -1.053269
     9    -1.403663
    10     0.337696
    11     7.526194
    12    10.014313
    13    -2.396324
    14     3.076873
    15     4.094220
    16    -0.948292
    17    -0.858418
    18    -1.143749
    19     0.243350
    20    -1.472835
    21    -0.748001
    22    -1.501942
    23     0.607480
    24    -0.076295
    25    -0.030134
    26     3.484460
    27     0.023613
    28     3.313194
    29    -2.602311
    30     0.328248
    31     0.138546
    32     0.261672
    33     0.191410
    34     0.169316
    35     0.037098
    36     0.006634
    37    -0.003741
    38    -2.091242
    39    -2.769480
    40     0.622571
    41    -0.932638
    42    -1.238522
    43     0.324747
    44    -0.950226
    45    -1.279145
    46     0.308913
    47     0.014562
    48    -4.624688
    49    -6.164726
    50     1.508862
    51    -2.071215
    52    -2.756661
    53     0.624816
    54    -2.049090
    55    -2.711774
    56     0.641295
    57    -0.013672
    58    -1.772446
    59    -0.054791
    60    -0.444925
    61    -0.067601
    62     0.394115
    63    -0.138713
    64     0.480397
    65    -0.068653
    66     1.105394
    67    -1.063489
    68    -0.019266
    69    -0.473396
    70    -0.144104
    71     1.105989
    72    -1.985574
Sym=    54a
Ene=   -0.199906E-03
Spin= Alpha
Occup= 0.000041
     1    -0.002349
     2    -0.009247
     3    -0.002423
     4     0.177140
     5    -0.296626
     6     0.089424
     7    -0.232972
     8    -0.015153
     9    -0.004311
    10    -0.001390
    11     0.198129
    12     0.052911
    13     0.025131
    14    -0.063889
    15    -0.018139
    16    -0.012581
    17    -0.003480
    18    -0.000374
    19    -0.004894
    20    -0.005132
    21    -0.014931
    22     0.006087
    23     0.002866
    24     0.011498
    25    -0.074151
    26    -0.092220
    27     0.259048
    28     0.231631
    29    -0.115039
    30    -0.199898
    31     0.482554
    32     0.126658
    33     0.047384
    34    -0.025782
    35     0.022392
    36     0.029056
    37    -0.023478
    38    -0.107404
    39     0.014911
    40    -0.008220
    41     0.014905
    42    -0.057935
    43    -0.182076
    44    -0.020802
    45    -0.001999
    46     0.148385
    47     0.299632
    48    -0.061652
    49     0.067912
    50     0.002563
    51     0.094781
    52    -0.094240
    53    -0.178786
    54    -0.075960
    55    -0.012653
    56     0.203003
    57     0.434819
    58    -0.091678
    59    -0.255766
    60    -0.015060
    61    -0.283241
    62    -0.163209
    63     0.093683
    64     0.000103
    65     0.407747
    66     0.195861
    67    -0.061520
    68     0.440283
    69     0.109490
    70    -0.272045
    71    -0.102800
    72     0.076089
Sym=    55a
Ene=   -0.614243E-04
Spin= Alpha
Occup= 0.000010
     1    -0.000065
     2     0.000142
     3    -0.000729
     4     0.003742
     5    -0.007330
     6     0.003263
     7    -0.001529
     8    -0.002440
     9    -0.004211
    10    -0.022443
    11     0.017858
    12     0.027856
    13     0.132943
    14    -0.000905
    15    -0.010695
    16    -0.146390
    17     0.004985
    18    -0.014308
    19    -0.217038
    20     0.009664
    21     0.019325
    22    -0.028103
    23    -0.016950
    24    -0.205324
    25     0.204209
    26     0.009208
    27    -0.070164
    28     0.065955
    29     0.040653
    30     0.506577
    31    -0.485146
    32     0.009972
    33     0.005998
    34    -0.016332
    35    -0.010818
    36    -0.128898
    37     0.126714
    38    -0.001389
    39    -0.042440
    40     0.394209
    41     0.019795
    42    -0.021377
    43    -0.243267
    44    -0.032866
    45     0.067982
    46    -0.230096
    47     0.146900
    48     0.000540
    49    -0.017418
    50     0.251124
    51    -0.004589
    52    -0.011225
    53    -0.077692
    54    -0.011268
    55     0.033071
    56    -0.087693
    57     0.001864
    58    -0.175412
    59     0.803885
    60     0.191120
    61    -0.225394
    62    -0.030072
    63    -0.817951
    64    -0.133064
    65     0.255476
    66     0.033392
    67     0.047518
    68    -0.264071
    69    -0.039299
    70     0.223392
    71     0.034050
    72    -0.023610
Sym=    56a
Ene=   -0.963289E-03
Spin= Alpha
Occup= 0.000317
     1    -0.000008
     2     0.000024
     3    -0.000106
     4     0.000789
     5     0.000173
     6    -0.002972
     7    -0.000949
     8     0.289725
     9    -0.079172
    10     0.010629
    11    -0.279508
    12     0.076649
    13    -0.008769
    14     0.044014
    15    -0.014150
    16    -0.000075
    17     0.435937
    18    -0.118285
    19     0.017700
    20     0.015147
    21    -0.015068
    22    -0.000088
    23     0.029442
    24    -0.001418
    25     0.001505
    26     0.267450
    27    -0.262575
    28    -0.000373
    29     0.516054
    30    -0.025183
    31     0.027951
    32     0.007987
    33    -0.006041
    34     0.000479
    35     0.013585
    36    -0.000109
    37     0.004695
    38     0.010649
    39     0.131567
    40     0.003242
    41    -0.179586
    42    -0.132493
    43     0.006651
    44     0.042601
    45    -0.010567
    46    -0.015454
    47     0.012555
    48    -0.027809
    49     0.336059
    50     0.013375
    51    -0.461457
    52    -0.315444
    53     0.006190
    54     0.179735
    55    -0.046285
    56    -0.037538
    57     0.041931
    58     0.000389
    59    -0.007086
    60     0.025649
    61     0.015108
    62    -0.114642
    63     0.005610
    64    -0.052004
    65    -0.009804
    66     0.090673
    67    -0.026912
    68    -0.017923
    69     0.218271
    70     0.004691
    71    -0.115234
    72    -0.135168
Sym=    57a
Ene=   -0.133117E-04
Spin= Alpha
Occup= 0.000000
     1    -2.585431
     2     4.438776
     3   -11.056303
     4    16.495473
     5    -0.949696
     6    -6.829148
     7    -0.480030
     8     0.158280
     9     0.004778
    10     0.000846
    11    -1.601547
    12    -0.075441
    13    -0.005337
    14     0.374176
    15     0.064365
    16    -0.002431
    17    -0.304210
    18    -0.039046
    19    -0.000411
    20    -7.765371
    21    -2.008570
    22    -4.336896
    23    -2.725156
    24    -0.828881
    25     0.875637
    26    22.478236
    27    -1.026393
    28     8.889504
    29    11.096281
    30     3.229147
    31    -3.405935
    32     0.414977
    33     1.091544
    34     0.865191
    35    -0.337404
    36    -0.146128
    37     0.149023
    38     0.477141
    39     0.032540
    40     0.000923
    41     0.231901
    42    -0.003286
    43    -0.001142
    44     0.157861
    45     0.008536
    46     0.001891
    47    -0.002113
    48     0.517807
    49    -0.017699
    50     0.008222
    51     0.199711
    52     0.023279
    53    -0.000824
    54     0.303035
    55     0.014673
    56    -0.000336
    57     0.012319
    58    -4.011423
    59     1.344584
    60    -0.465086
    61     1.399209
    62     2.282017
    63    -1.280362
    64    -2.054767
    65    -0.605701
    66    -4.529628
    67    -4.910879
    68     0.624306
    69    -2.924170
    70    -1.308165
    71    -4.639763
    72   -12.538707
Sym=    58a
Ene=   -0.151564E-03
Spin= Alpha
Occup= 0.000025
     1     0.005134
     2     0.034143
     3     0.010572
     4    -0.349215
     5     0.507003
     6    -0.223421
     7     0.342273
     8     0.080204
     9     0.021616
    10     0.000351
    11    -1.060259
    12    -0.276088
    13    -0.005184
    14     0.301963
    15     0.075495
    16     0.002388
    17    -0.054269
    18    -0.012235
    19    -0.000574
    20     0.025675
    21     0.099168
    22     0.018264
    23    -0.022818
    24     0.008619
    25    -0.034840
    26     1.077321
    27    -0.985445
    28    -0.624558
    29     0.657074
    30    -0.052563
    31     0.272034
    32    -0.263818
    33     0.024113
    34     0.161212
    35    -0.086809
    36     0.004033
    37    -0.028482
    38     0.672112
    39    -0.116812
    40    -0.000390
    41    -0.129208
    42     0.357272
    43    -0.054411
    44    -0.022195
    45    -0.007218
    46     0.058446
    47     0.124099
    48     0.184081
    49    -0.012279
    50     0.003664
    51    -0.005599
    52     0.084132
    53    -0.018747
    54     0.285832
    55     0.073466
    56     0.015557
    57     0.036636
    58     0.362537
    59    -0.126033
    60     0.241265
    61    -0.173894
    62     0.738182
    63     0.024039
    64    -0.148685
    65     0.137726
    66    -0.918279
    67    -0.191126
    68     0.125428
    69    -0.556521
    70    -0.092268
    71     0.395532
    72    -0.522775
Sym=    59a
Ene=   -0.168729E-03
Spin= Alpha
Occup= 0.000030
     1     0.000026
     2     0.000294
     3    -0.000441
     4    -0.001272
     5     0.001836
     6     0.001410
     7    -0.000564
     8     0.034251
     9     0.035586
    10    -0.003866
    11    -0.550356
    12    -0.549234
    13     0.045829
    14     0.146876
    15     0.150399
    16    -0.014440
    17     0.099592
    18     0.094039
    19    -0.006302
    20    -0.076871
    21     0.077127
    22     0.000269
    23     0.001675
    24     0.000249
    25    -0.007387
    26    -1.733139
    27     1.716827
    28     0.013848
    29     0.028252
    30     0.007773
    31    -0.176522
    32     0.504694
    33    -0.500566
    34    -0.003273
    35    -0.011454
    36     0.007892
    37     0.041035
    38     0.704356
    39     0.711941
    40    -0.006610
    41    -0.311626
    42    -0.333353
    43     0.033218
    44     0.002401
    45     0.007207
    46    -0.074570
    47    -0.002376
    48    -0.321649
    49    -0.328337
    50     0.001523
    51     0.333146
    52     0.345752
    53    -0.031868
    54     0.026478
    55     0.026090
    56     0.035579
    57     0.001121
    58    -0.010547
    59     0.083782
    60    -0.322316
    61     0.056496
    62    -1.048976
    63    -0.013621
    64     0.001916
    65     0.010633
    66    -0.231837
    67     0.319691
    68     0.048688
    69    -0.005549
    70    -0.013242
    71     0.207184
    72     1.067339
Sym=    60a
Ene=   -0.261173E-04
Spin= Alpha
Occup= 0.000004
     1    -0.005672
     2     0.008175
     3     0.075469
     4    -0.253303
     5     0.261082
     6    -0.045919
     7     0.089898
     8     0.018544
     9    -0.024118
    10    -0.058073
    11     0.028071
    12     0.147027
    13     0.585431
    14    -0.150875
    15     0.000400
    16    -0.086305
    17     0.155069
    18    -0.012885
    19     0.038840
    20    -0.027147
    21     0.084121
    22     0.032821
    23    -0.058341
    24     0.034025
    25     0.117653
    26     0.031677
    27    -0.166284
    28    -0.228483
    29    -0.080770
    30     0.042128
    31     0.141451
    32    -0.131929
    33     0.109988
    34    -0.002871
    35    -0.205365
    36     0.047509
    37     0.141908
    38     0.044629
    39    -0.015054
    40    -0.090653
    41     0.145449
    42    -0.108864
    43    -0.196717
    44    -0.227079
    45     0.036888
    46    -0.113058
    47     0.003078
    48     0.129429
    49    -0.133785
    50    -0.117489
    51    -0.076215
    52     0.053334
    53    -0.105596
    54    -0.076692
    55     0.015406
    56    -0.125890
    57    -0.009029
    58     0.141407
    59    -0.070263
    60    -0.387839
    61    -0.524219
    62     0.126795
    63    -0.130904
    64     0.806406
    65    -0.284137
    66    -0.129963
    67     0.393399
    68     0.293821
    69     0.075303
    70     0.223873
    71    -0.104535
    72    -0.224790
Sym=    61a
Ene=   -0.505770E-03
Spin= Alpha
Occup= 0.000015
     1    -0.000208
     2     0.000190
     3    -0.000059
     4     0.000162
     5    -0.002241
     6     0.003902
     7     0.001129
     8     1.509729
     9     0.020757
    10     0.030616
    11    -0.034538
    12    -0.003710
    13     0.003430
    14    -0.426417
    15    -0.007033
    16    -0.007832
    17    -0.074077
    18    -0.000322
    19    -0.001619
    20    -0.070031
    21     0.070281
    22     0.000187
    23    -0.075810
    24     0.002678
    25    -0.008249
    26     0.048506
    27    -0.053198
    28     0.000501
    29     0.055281
    30     0.000292
    31    -0.007941
    32     0.097065
    33    -0.099746
    34    -0.000520
    35     0.106637
    36    -0.002974
    37     0.003704
    38    -1.202766
    39    -0.015522
    40    -0.027687
    41    -0.538506
    42    -0.006122
    43    -0.006395
    44    -0.575096
    45    -0.007431
    46    -0.015332
    47    -0.006755
    48     0.722814
    49     0.011540
    50     0.002967
    51     0.322771
    52     0.005535
    53     0.013735
    54     0.108830
    55     0.001660
    56     0.006186
    57    -0.014013
    58    -0.001607
    59     0.005758
    60     0.024935
    61    -0.002441
    62     0.111959
    63     0.000172
    64    -0.025328
    65     0.003129
    66    -0.132277
    67    -0.024281
    68     0.013059
    69    -0.115210
    70    -0.002990
    71     0.067716
    72     0.022867
Sym=    62a
Ene=    0.000000E+00
Spin= Alpha
Occup= 0.000000
     1    -0.324111
     2     0.802749
     3    -5.606855
     4    12.874708
     5    -3.203495
     6   -12.686469
     7    -0.340659
     8    -0.141126
     9    -0.020775
    10     0.196175
    11     1.704172
    12     0.104875
    13    -2.430888
    14    -1.235682
    15     0.164945
    16     1.852104
    17     0.700441
    18    -0.072742
    19    -1.028137
    20    -4.350249
    21    -3.334247
    22    -2.967457
    23    -0.495478
    24     0.522680
    25    -0.512996
    26    18.105742
    27    12.761164
    28    10.769633
    29     2.570610
    30    -2.768115
    31     2.714648
    32     1.615563
    33     1.332527
    34     1.239982
    35     0.115201
    36    -0.145286
    37     0.107442
    38    -0.484770
    39    -0.026418
    40     0.624148
    41    -0.222097
    42    -0.014040
    43     0.303411
    44    -0.180613
    45    -0.016742
    46     0.374956
    47    -0.011317
    48    -0.204809
    49    -0.127627
    50     0.320724
    51    -0.081175
    52    -0.060249
    53     0.097670
    54    -0.116746
    55    -0.026202
    56     0.026531
    57     0.018936
    58    -3.509069
    59    -1.284442
    60    -2.476760
    61    -1.271992
    62    -4.955841
    63     1.307030
    64    -0.486065
    65     0.500324
    66    -1.249502
    67    -3.681822
    68    -0.475335
    69    -4.044731
    70     1.317146
    71    -1.141998
    72    -8.687809
Sym=    63a
Ene=    0.000000E+00
Spin= Alpha
Occup= 0.000000
     1    -0.310662
     2     0.779103
     3    -5.643933
     4     8.092862
     5     4.263755
     6    -6.043049
     7     0.125977
     8     0.100934
     9     0.069052
    10     0.256822
    11    -1.143544
    12    -0.564143
    13    -2.899196
    14     0.718351
    15    -0.082582
    16     0.910080
    17    -0.417880
    18     0.008444
    19    -0.427075
    20    -3.477999
    21    -4.107591
    22    -4.181599
    23     0.315089
    24     0.015002
    25     0.957175
    26     4.457005
    27     7.747738
    28     8.255297
    29    -1.697161
    30    -0.066155
    31    -5.088488
    32     0.421616
    33     0.591266
    34     0.815891
    35    -0.102440
    36     0.006705
    37    -0.240496
    38     0.330235
    39     0.145865
    40     1.271183
    41     0.166373
    42     0.040937
    43     0.182620
    44     0.093414
    45     0.131681
    46     0.204253
    47     0.029616
    48     0.179985
    49     0.296386
    50     0.322169
    51     0.073158
    52     0.145325
    53     0.557380
    54     0.112207
    55     0.061474
    56     0.520801
    57    -0.041471
    58    -5.128150
    59     2.324845
    60    -2.254034
    61     2.332602
    62    -4.306637
    63     0.055117
    64     0.412624
    65    -0.021187
    66     0.806617
    67    -1.514206
    68     1.106871
    69    -1.789703
    70     0.025093
    71     0.741537
    72    -2.012574
Sym=    64a
Ene=    0.000000E+00
Spin= Alpha
Occup= 0.000000
     1     0.137404
     2    -0.345267
     3     2.581138
     4    -4.448641
     5    -1.303912
     6     4.415279
     7     0.577299
     8    -0.082583
     9    -0.136160
    10     0.036240
    11     0.896034
    12     1.527856
    13    -0.560606
    14    -0.495631
    15    -0.914771
    16     0.844368
    17     0.312119
    18     0.561834
    19    -0.488811
    20     1.422169
    21     2.358513
    22     1.675845
    23     0.066689
    24    -1.552120
    25     0.535139
    26    -2.488015
    27    -7.386612
    28    -3.783336
    29    -0.346661
    30     8.256307
    31    -2.847608
    32    -0.646226
    33    -0.814555
    34    -0.711103
    35    -0.002194
    36     0.468938
    37    -0.157285
    38    -0.233305
    39    -0.427259
    40    -0.032995
    41    -0.119359
    42    -0.154694
    43     0.224285
    44    -0.116478
    45    -0.214441
    46     0.087833
    47     0.133015
    48    -0.178329
    49    -0.233909
    50     0.077364
    51    -0.065227
    52    -0.142895
    53    -0.201034
    54    -0.112535
    55    -0.179697
    56    -0.059087
    57    -0.154161
    58     1.632106
    59     1.400119
    60     1.426235
    61     1.278387
    62     4.228864
    63    -3.913332
    64    -0.038608
    65    -1.655408
    66     0.150631
    67     0.883175
    68     0.558216
    69     1.417962
    70    -3.827363
    71     0.231726
    72     0.580275
Sym=    65a
Ene=    0.000000E+00
Spin= Alpha
Occup= 0.000000
     1    -0.420557
     2     1.058780
     3    -7.811715
     4    17.733681
     5    -3.653534
     6   -17.367835
     7    -1.749800
     8    -0.056149
     9    -0.031055
    10     0.054426
    11     0.681815
    12     0.450605
    13    -0.242311
    14    -0.484745
    15    -0.505714
    16    -1.431751
    17     0.279221
    18     0.286639
    19     0.861764
    20    -5.900215
    21    -5.247503
    22    -4.457149
    23    -0.095361
    24    -0.050710
    25     0.527790
    26    23.614761
    27    20.179028
    28    15.880184
    29     0.459892
    30     0.292218
    31    -2.827226
    32     2.636381
    33     2.486836
    34     2.140084
    35     0.010639
    36     0.039065
    37    -0.178948
    38    -0.148534
    39    -0.175969
    40     0.645780
    41    -0.106863
    42    -0.044043
    43    -0.222461
    44    -0.119640
    45     0.021720
    46    -0.180986
    47     0.061710
    48    -0.122582
    49     0.081009
    50     0.045411
    51    -0.009519
    52    -0.002516
    53     0.582765
    54    -0.024917
    55    -0.091566
    56     0.530316
    57    -0.069721
    58    -5.283958
    59     1.438860
    60    -4.546719
    61     1.274465
    62    -8.624108
    63    -0.173253
    64    -0.086276
    65    -0.016759
    66    -0.233075
    67    -5.103345
    68     0.518219
    69    -5.791321
    70    -0.156812
    71    -0.180576
    72   -11.115478
Sym=    66a
Ene=    0.000000E+00
Spin= Alpha
Occup= 0.000000
     1     0.124901
     2    -0.314700
     3     2.376748
     4    -4.689109
     5     0.128733
     6     4.136610
     7     0.299454
     8     0.068964
     9    -0.113481
    10     0.173555
    11    -0.962798
    12     1.492163
    13    -1.872110
    14     0.933307
    15    -1.321811
    16     0.295922
    17    -0.527877
    18     0.738871
    19    -0.109104
    20     1.447758
    21     1.721054
    22     1.846808
    23     0.896380
    24    -0.102657
    25    -1.210527
    26    -3.959464
    27    -5.425917
    28    -6.060968
    29    -4.714776
    30     0.533974
    31     6.442847
    32    -0.442543
    33    -0.551397
    34    -0.601697
    35    -0.215073
    36     0.043364
    37     0.371144
    38     0.261516
    39    -0.453638
    40     0.922100
    41     0.114418
    42    -0.194709
    43     0.168959
    44     0.118552
    45    -0.102607
    46    -0.008377
    47    -0.071415
    48     0.003219
    49    -0.043256
    50     0.232271
    51     0.000932
    52    -0.026042
    53     0.339023
    54     0.066496
    55    -0.124968
    56     0.541622
    57     0.088673
    58     3.139053
    59    -3.077931
    60     1.664423
    61    -2.967452
    62     2.509481
    63    -0.245303
    64     0.843592
    65    -0.170454
    66     2.187302
    67     1.159766
    68    -1.290947
    69     1.304796
    70    -0.216357
    71     2.242299
    72     1.551353
Sym=    67a
Ene=    0.000000E+00
Spin= Alpha
Occup= 0.000000
     1     0.305360
     2    -0.744209
     3     4.819896
     4    -4.248425
     5    -7.787806
     6     2.384303
     7    -0.663607
     8     0.032336
     9     0.104678
    10     0.213896
    11    -0.484890
    12    -1.400072
    13    -2.423189
    14     0.519200
    15     1.201471
    16     0.961289
    17    -0.280524
    18    -0.657417
    19    -0.492653
    20     3.680132
    21     2.523595
    22     3.208222
    23    -0.224351
    24    -0.298959
    25     0.286872
    26    -3.426301
    27     2.673378
    28    -1.063065
    29     1.239130
    30     1.574452
    31    -1.517461
    32    -0.165923
    33     0.137534
    34    -0.286209
    35     0.074804
    36     0.062509
    37    -0.072081
    38     0.156731
    39     0.371069
    40     0.950089
    41     0.043091
    42     0.189227
    43     0.206238
    44     0.041340
    45     0.188568
    46     0.206046
    47    -0.023012
    48    -0.025469
    49     0.098855
    50     0.316331
    51     0.000684
    52     0.034175
    53     0.364504
    54     0.013225
    55     0.028880
    56     0.367838
    57     0.020885
    58     1.775818
    59     0.831834
    60    -0.486444
    61     0.592327
    62    -1.414754
    63    -0.792041
    64    -0.248400
    65    -0.363861
    66    -0.532044
    67     0.729980
    68     0.300903
    69     0.414346
    70    -0.628736
    71    -0.639327
    72     2.916607
Sym=    68a
Ene=    0.000000E+00
Spin= Alpha
Occup= 0.000000
     1    -0.078992
     2     0.201730
     3    -1.526552
     4     5.057526
     5    -3.362251
     6    -5.141355
     7    -0.426579
     8     0.108298
     9    -0.060717
    10    -0.116307
    11    -1.263402
    12     0.938180
    13     1.011695
    14     0.822430
    15    -0.960350
    16     0.744522
    17    -0.470975
    18     0.500834
    19    -0.467443
    20    -1.206580
    21    -1.121981
    22    -0.512029
    23     0.823135
    24     0.833188
    25     0.907379
    26     7.729513
    27     7.255434
    28     3.990342
    29    -4.353545
    30    -4.421935
    31    -4.829297
    32     0.742030
    33     0.706996
    34     0.443142
    35    -0.227355
    36    -0.198236
    37    -0.252920
    38     0.363103
    39    -0.255484
    40    -0.792403
    41     0.148189
    42    -0.097245
    43     0.049510
    44     0.152318
    45    -0.156602
    46     0.102811
    47     0.020365
    48     0.189361
    49    -0.008585
    50    -0.172944
    51     0.097276
    52    -0.017128
    53    -0.494291
    54     0.079831
    55     0.066659
    56    -0.570785
    57    -0.022860
    58    -0.520095
    59     2.362428
    60    -1.371811
    61     2.170865
    62    -3.168817
    63     2.073107
    64     0.956383
    65     0.900768
    66     1.997382
    67    -1.519051
    68     0.947791
    69    -1.838986
    70     2.016408
    71     2.001551
    72    -3.489016
Sym=    69a
Ene=    0.000000E+00
Spin= Alpha
Occup= 0.000000
     1    -0.586889
     2     1.469805
     3   -10.636848
     4    21.102885
     5    -1.444415
     6   -18.184116
     7    -0.527537
     8     0.155538
     9     0.153731
    10    -0.133437
    11    -1.597982
    12    -1.424825
    13     1.304440
    14     0.691068
    15     0.361377
    16     0.119734
    17    -0.446638
    18    -0.279768
    19    -0.093167
    20    -6.823150
    21    -8.066918
    22    -6.500274
    23    -0.076367
    24    -0.907647
    25    -0.535638
    26    20.365359
    27    26.929303
    28    18.446324
    29     0.328706
    30     4.908983
    31     2.768378
    32     1.910024
    33     2.239428
    34     1.771531
    35     0.004401
    36     0.256887
    37     0.164402
    38     0.444875
    39     0.402786
    40    -0.688572
    41     0.179763
    42     0.211171
    43     0.033675
    44     0.214176
    45     0.120535
    46    -0.110684
    47    -0.050242
    48     0.383243
    49     0.475964
    50    -0.237112
    51     0.201598
    52     0.169380
    53    -0.479554
    54     0.184639
    55     0.249399
    56    -0.310921
    57     0.051570
    58    -7.346100
    59    -1.320175
    60    -6.076008
    61    -1.254847
    62   -13.410102
    63    -2.339757
    64    -0.157252
    65    -1.006975
    66    -0.056710
    67    -4.751238
    68    -0.571656
    69    -6.488770
    70    -2.242642
    71    -0.165318
    72    -8.755953
Sym=    70a
Ene=    0.000000E+00
Spin= Alpha
Occup= 0.000000
     1    -0.327225
     2     0.973665
     3   -11.153618
     4    44.626064
     5   -34.148110
     6   -48.206974
     7    -4.966590
     8    -0.008322
     9    -0.025127
    10    -0.012232
    11     0.105225
    12     0.310935
    13     0.096170
    14    -0.087719
    15    -0.230771
    16     0.136101
    17     0.048088
    18     0.130313
    19    -0.084786
    20    -8.584174
    21    -8.362109
    22    -9.358242
    23     0.041377
    24     0.022472
    25    -0.196657
    26    64.700298
    27    63.522070
    28    68.808393
    29    -0.236797
    30    -0.122431
    31     1.049936
    32     6.341588
    33     6.279566
    34     6.596595
    35    -0.014675
    36    -0.004191
    37     0.058021
    38    -0.037432
    39    -0.081678
    40    -0.102007
    41    -0.008708
    42    -0.042185
    43     0.025440
    44    -0.005201
    45    -0.042254
    46     0.010614
    47    -0.000352
    48    -0.001105
    49    -0.040155
    50    -0.012965
    51    -0.009486
    52    -0.011491
    53    -0.082692
    54    -0.007329
    55    -0.014506
    56    -0.065777
    57     0.002031
    58   -29.831168
    59    -0.494160
    60   -16.390671
    61    -0.481357
    62   -26.081824
    63     0.059505
    64     0.035237
    65     0.018276
    66     0.103776
    67   -16.636918
    68    -0.220968
    69   -15.508790
    70     0.058344
    71     0.129744
    72   -26.915727
Sym=    71a
Ene=    0.000000E+00
Spin= Alpha
Occup= 0.000000
     1     0.115041
     2    -0.233888
     3     0.270418
     4    29.655267
     5   -48.960686
     6   -35.939299
     7     1.929408
     8    -0.009198
     9    -0.010057
    10    -0.000175
    11     0.049726
    12     0.039348
    13     0.081263
    14     0.067044
    15     0.098649
    16    -0.306511
    17    -0.026934
    18    -0.042721
    19     0.175260
    20     0.746545
    21     0.705941
    22     1.105914
    23     0.026938
    24     0.069415
    25     0.098677
    26    48.683383
    27    48.904663
    28    46.893225
    29    -0.113291
    30    -0.378298
    31    -0.514565
    32     2.204274
    33     2.217070
    34     2.112276
    35     0.000476
    36    -0.022585
    37    -0.027993
    38    -0.013097
    39    -0.010997
    40     0.056574
    41    -0.002402
    42    -0.010928
    43    -0.051436
    44    -0.011799
    45     0.002735
    46    -0.035135
    47    -0.000057
    48    -0.050846
    49    -0.061035
    50     0.005790
    51    -0.025469
    52    -0.021665
    53     0.086176
    54    -0.019595
    55    -0.031378
    56     0.067213
    57    -0.000380
    58   -16.483312
    59     0.217500
    60    -9.900233
    61     0.249542
    62   -17.804780
    63     0.189220
    64     0.035660
    65     0.089882
    66     0.048349
    67    -9.855096
    68     0.116667
    69   -10.380609
    70     0.158261
    71     0.038624
    72   -17.645977
Sym=    72a
Ene=    0.000000E+00
Spin= Alpha
Occup= 0.000000
     1     0.166257
     2    -0.414411
     3     3.227851
     4    34.215940
     5   -49.910939
     6   -71.006482
     7    -9.752587
     8     0.005599
     9     0.001914
    10    -0.003418
    11    -0.077667
    12    -0.029043
    13     0.028467
    14     0.073187
    15     0.031795
    16     0.031713
    17    -0.039891
    18    -0.017048
    19    -0.019933
    20     4.783602
    21     4.710392
    22     4.642407
    23     0.025160
    24    -0.065195
    25     0.008850
    26    55.032147
    27    55.423055
    28    55.782794
    29    -0.117615
    30     0.341589
    31    -0.043289
    32    11.789750
    33    11.811347
    34    11.836780
    35    -0.001391
    36     0.015849
    37     0.001862
    38     0.018811
    39     0.011709
    40    -0.027098
    41     0.013283
    42     0.001443
    43     0.008341
    44     0.009397
    45     0.000333
    46    -0.000247
    47    -0.000671
    48     0.005911
    49    -0.004957
    50    -0.003780
    51    -0.003924
    52     0.003094
    53    -0.023896
    54     0.001402
    55     0.001715
    56    -0.014208
    57     0.000394
    58   -15.577889
    59     0.012360
    60    -9.002959
    61     0.023115
    62   -15.294133
    63    -0.158601
    64     0.019669
    65    -0.071930
    66     0.056442
    67    -8.918486
    68     0.009017
    69    -8.873039
    70    -0.155099
    71     0.049359
    72   -15.018017
