[Molden Format]
p30-5 set                                                                       
[Atoms] AU
 AL       1    13        0.0000        0.0000        0.0000
[GTO]
    1 0
s    5 1.00
    5887.572703000000  0.565197896170E-02
     885.612259960000  0.422182534268E-01
     201.136048990000  0.189187196726E+00
      56.284974674000  0.480435911881E+00
      17.229551243000  0.425872684294E+00
s    3 1.00
      29.340249922000  0.885686032394E-01
       3.043963042000 -0.543157066723E+00
       1.128553951800 -0.529385510294E+00
s    1 1.00
       0.142341751600  0.100000000000E+01
s    1 1.00
       0.054400192313  0.100000000000E+01
p    5 1.00
     145.119188090000  0.107263778593E-01
      33.717894833000  0.741036235460E-01
      10.369863083000  0.261296213060E+00
       3.513561603600  0.480201235327E+00
       1.198005027300  0.384382240624E+00
p    1 1.00
       0.265830059130  0.100000000000E+01
p    1 1.00
       0.071003361994  0.100000000000E+01
d    1 1.00
       0.300000000000  0.100000000000E+01
 
[MO]
Sym=     1a
Ene=   -0.584985E+02
Spin= Alpha
Occup= 2.000000
     1     0.995741
     2    -0.022520
     3    -0.039198
     4     0.007188
     5    -0.000000
     6     0.000002
     7     0.000003
     8     0.000002
     9    -0.000002
    10    -0.000001
    11    -0.000003
    12    -0.000000
    13     0.000003
    14     0.012561
    15     0.012560
    16     0.012557
    17    -0.000002
    18     0.000003
    19     0.000001
Sym=     2a
Ene=   -0.491278E+01
Spin= Alpha
Occup= 1.999912
     1    -0.283354
     2    -1.030906
     3     0.014711
     4    -0.010128
     5    -0.000011
     6    -0.000096
     7    -0.000022
     8     0.000002
     9    -0.000005
    10    -0.000002
    11    -0.000000
    12     0.000003
    13     0.000002
    14     0.003914
    15     0.003905
    16     0.003292
    17     0.000004
    18     0.000015
    19    -0.000052
Sym=     3a
Ene=   -0.322358E+01
Spin= Alpha
Occup= 1.999685
     1    -0.000029
     2    -0.000097
     3     0.000018
     4    -0.000001
     5    -0.006028
     6     0.971737
     7     0.165772
     8    -0.000197
     9     0.044866
    10     0.005773
    11    -0.000002
    12    -0.005197
    13    -0.001166
    14    -0.000005
    15    -0.000004
    16    -0.000007
    17     0.000004
    18    -0.000001
    19    -0.000001
Sym=     4a
Ene=   -0.322187E+01
Spin= Alpha
Occup= 1.999254
     1     0.000005
     2     0.000007
     3    -0.000016
     4    -0.000000
     5    -0.773424
     6     0.097570
     7    -0.604626
     8    -0.036017
     9     0.004840
    10    -0.023405
    11     0.004085
    12    -0.000444
    13     0.003855
    14     0.000004
    15     0.000003
    16     0.000007
    17    -0.000004
    18     0.000002
    19     0.000000
Sym=     5a
Ene=   -0.321743E+01
Spin= Alpha
Occup= 1.997424
     1     0.000001
     2     0.000001
     3     0.000012
     4    -0.000003
     5     0.610855
     6     0.133073
     7    -0.764026
     8     0.028299
     9     0.006664
    10    -0.029415
    11    -0.003276
    12    -0.000681
    13     0.004808
    14    -0.000001
    15    -0.000003
    16    -0.000000
    17     0.000001
    18     0.000001
    19     0.000000
Sym=     6a
Ene=   -0.401701E+00
Spin= Alpha
Occup= 1.953889
     1     0.061015
     2     0.377937
     3     0.638363
     4     0.336085
     5    -0.000005
     6    -0.000002
     7     0.000000
     8    -0.000001
     9    -0.000001
    10     0.000002
    11    -0.000009
    12    -0.000006
    13    -0.000001
    14     0.061138
    15     0.061124
    16     0.050719
    17     0.000091
    18     0.000374
    19    -0.000866
Sym=     7a
Ene=   -0.108940E+00
Spin= Alpha
Occup= 1.000000
     1    -0.000001
     2     0.000005
     3     0.000011
     4     0.000002
     5     0.006259
     6    -0.013668
     7    -0.195032
     8    -0.011695
     9     0.026318
    10     0.373399
    11    -0.022970
    12     0.052480
    13     0.742027
    14    -0.000006
    15    -0.000005
    16    -0.000006
    17     0.000002
    18     0.000000
    19     0.000000
Sym=     8a
Ene=   -0.157354E-01
Spin= Alpha
Occup= 0.023123
     1    -0.000009
     2    -0.000064
     3    -0.000269
     4     0.000164
     5     0.226130
     6     0.268867
     7    -0.013457
     8    -0.643560
     9    -0.764486
    10     0.039296
    11    -0.046255
    12    -0.058748
    13    -0.001590
    14     0.000106
    15    -0.000032
    16     0.000048
    17     0.000255
    18    -0.000014
    19     0.000014
Sym=     9a
Ene=   -0.784662E-03
Spin= Alpha
Occup= 0.000205
     1    -0.001935
     2    -0.017477
     3    -0.071329
     4     0.032678
     5     0.000008
     6     0.000005
     7    -0.000004
     8    -0.000036
     9    -0.000028
    10     0.000008
    11     0.000040
    12     0.000037
    13    -0.000008
    14     0.492237
    15     0.512134
    16    -0.964858
    17     0.005806
    18     0.199033
    19     0.057800
Sym=    10a
Ene=   -0.656548E-03
Spin= Alpha
Occup= 0.000174
     1     0.000302
     2     0.003591
     3     0.014193
     4    -0.001769
     5     0.000015
     6     0.000017
     7     0.000002
     8    -0.000074
     9    -0.000075
    10     0.000003
    11     0.000114
    12     0.000099
    13    -0.000003
    14     0.134464
    15    -0.284983
    16     0.135040
    17    -0.019889
    18     0.838976
    19    -0.466280
Sym=    11a
Ene=   -0.408505E-03
Spin= Alpha
Occup= 0.000113
     1     0.000046
     2    -0.000139
     3     0.000384
     4    -0.004407
     5     0.003578
     6     0.003488
     7    -0.000127
     8    -0.017762
     9    -0.017289
    10     0.000644
    11     0.025641
    12     0.024903
    13    -0.000943
    14    -0.271242
    15     0.270804
    16     0.005673
    17    -0.947325
    18     0.042155
    19    -0.045091
Sym=    12a
Ene=   -0.325327E-03
Spin= Alpha
Occup= 0.000067
     1     0.000135
     2     0.001481
     3     0.006120
     4    -0.001651
     5     0.000036
     6     0.000022
     7    -0.000003
     8    -0.000174
     9    -0.000125
    10     0.000006
    11     0.000240
    12     0.000202
    13    -0.000010
    14    -0.812140
    15     0.772795
    16     0.033661
    17     0.318410
    18     0.165210
    19    -0.180873
Sym=    13a
Ene=   -0.699448E-05
Spin= Alpha
Occup= 0.000000
     1     0.013589
     2     0.408637
     3     1.288750
     4     1.366377
     5    -0.001654
     6     0.001876
     7    -0.000189
     8     0.008325
     9    -0.009473
    10     0.000938
    11    -0.012227
    12     0.013966
    13    -0.001377
    14    -1.137557
    15    -1.135539
    16    -1.119121
    17    -0.002447
    18    -0.001928
    19     0.001323
Sym=    14a
Ene=   -0.156698E-01
Spin= Alpha
Occup= 0.022988
     1    -0.000002
     2    -0.000001
     3    -0.000013
     4     0.000010
     5    -0.270442
     6     0.225339
     7    -0.023779
     8     0.771683
     9    -0.642489
    10     0.067458
    11     0.048690
    12    -0.043269
    13     0.006123
    14    -0.000028
    15     0.000037
    16    -0.000003
    17    -0.000060
    18    -0.000001
    19    -0.000004
Sym=    15a
Ene=   -0.101763E-01
Spin= Alpha
Occup= 0.002371
     1    -0.143355
     2    -1.609158
     3    -6.570359
     4     1.522670
     5    -0.000013
     6    -0.000019
     7     0.000001
     8     0.000050
     9     0.000075
    10    -0.000004
    11    -0.000025
    12    -0.000044
    13     0.000004
    14     2.137065
    15     2.138465
    16     2.157642
    17    -0.000313
    18     0.001688
    19     0.002389
Sym=    16a
Ene=   -0.209596E-02
Spin= Alpha
Occup= 0.000572
     1     0.000001
     2    -0.000003
     3    -0.000004
     4    -0.000004
     5     0.009095
     6    -0.024088
     7    -0.330343
     8    -0.036077
     9     0.091520
    10     1.264493
    11     0.032829
    12    -0.071686
    13    -1.017975
    14    -0.000005
    15    -0.000001
    16     0.000015
    17    -0.000006
    18     0.000019
    19     0.000036
Sym=    17a
Ene=   -0.725778E-03
Spin= Alpha
Occup= 0.000202
     1     0.000743
     2     0.007560
     3     0.030610
     4    -0.009695
     5    -0.000005
     6    -0.000002
     7     0.000016
     8     0.000025
     9     0.000018
    10    -0.000055
    11    -0.000031
    12    -0.000028
    13     0.000045
    14    -0.148856
    15    -0.016269
    16     0.140755
    17     0.006065
    18     0.476891
    19     0.862835
Sym=    18a
Ene=   -0.101200E-03
Spin= Alpha
Occup= 0.000021
     1    -0.000055
     2    -0.001546
     3    -0.004970
     4    -0.004773
     5     0.097953
     6     0.142237
     7    -0.006845
     8    -0.490669
     9    -0.711316
    10     0.034400
    11     0.716508
    12     1.036148
    13    -0.050533
    14     0.011928
    15    -0.003496
    16     0.004023
    17     0.026305
    18    -0.001296
    19     0.001375
Sym=    19a
Ene=   -0.115649E-04
Spin= Alpha
Occup= 0.000000
     1     0.000196
     2     0.005849
     3     0.018450
     4     0.019556
     5     0.139652
     6    -0.096399
     7     0.011348
     8    -0.704268
     9     0.485383
    10    -0.056928
    11     1.037353
    12    -0.713284
    13     0.083198
    14    -0.014734
    15    -0.017782
    16    -0.016037
    17     0.005160
    18    -0.000295
    19     0.000297
