[Molden Format]
p30-5 set                                                                       
[Atoms] AU
 B        1     5        0.0000        0.0000        0.0000
[GTO]
    1 0
s    5 1.00
     839.318300860000 -0.562888359825E-02
     126.264648430000 -0.418327946095E-01
      28.620600763000 -0.184174881258E+00
       7.879372271000 -0.468396550281E+00
       2.408885717200 -0.444579308833E+00
s    1 1.00
       0.251051090360  0.100000000000E+01
s    1 1.00
       0.083648866069  0.100000000000E+01
p    3 1.00
       6.033222361900 -0.540325003228E-01
       1.249915786600 -0.301940343932E+00
       0.338716763500 -0.771707916582E+00
p    1 1.00
       0.096415632351  0.100000000000E+01
d    1 1.00
       0.500000000000  0.100000000000E+01
 
[MO]
Sym=     1a
Ene=   -0.768386E+01
Spin= Alpha
Occup= 1.999436
     1     0.996943
     2    -0.017396
     3     0.015141
     4    -0.000005
     5     0.000004
     6     0.000000
     7    -0.000002
     8     0.000006
     9    -0.000007
    10     0.000963
    11     0.000551
    12     0.000861
    13     0.000033
    14    -0.000017
    15     0.000228
Sym=     2a
Ene=   -0.493805E+00
Spin= Alpha
Occup= 1.842934
     1     0.257954
     2     0.629137
     3     0.373125
     4    -0.000019
     5     0.000055
     6    -0.000021
     7    -0.000010
     8    -0.000049
     9     0.000015
    10     0.039334
    11     0.033341
    12     0.037957
    13     0.000527
    14    -0.000263
    15     0.003393
Sym=     3a
Ene=   -0.168647E+00
Spin= Alpha
Occup= 1.000000
     1    -0.000035
     2    -0.000138
     3     0.000034
     4    -0.045553
     5     0.598938
     6    -0.290955
     7     0.031750
     8    -0.417448
     9     0.202786
    10    -0.000002
    11     0.000005
    12    -0.000001
    13    -0.000001
    14     0.000006
    15     0.000010
Sym=     4a
Ene=   -0.267186E-01
Spin= Alpha
Occup= 0.074241
     1     0.000014
     2     0.000037
     3     0.000013
     4     0.789609
     5     0.007496
     6    -0.108242
     7    -0.306812
     8    -0.002888
     9     0.042038
    10    -0.000013
    11    -0.000015
    12    -0.000029
    13     0.000006
    14    -0.000008
    15    -0.000002
Sym=     5a
Ene=   -0.977171E-04
Spin= Alpha
Occup= 0.000011
     1     0.000023
     2     0.000054
     3     0.000136
     4     0.788061
     5     0.224577
     6     0.338908
     7     1.023233
     8     0.291591
     9     0.440040
    10    -0.000135
    11    -0.000013
    12    -0.000079
    13     0.000082
    14    -0.000068
    15     0.000001
Sym=     6a
Ene=   -0.267202E-01
Spin= Alpha
Occup= 0.074245
     1     0.000002
     2    -0.000016
     3     0.000001
     4    -0.093864
     5    -0.351593
     6    -0.709085
     7     0.036469
     8     0.136634
     9     0.275541
    10     0.000006
    11     0.000014
    12     0.000014
    13     0.000003
    14    -0.000015
    15     0.000002
Sym=     7a
Ene=   -0.484322E-04
Spin= Alpha
Occup= 0.000006
     1     0.154853
     2     0.377396
     3     1.379684
     4    -0.000244
     5     0.001674
     6    -0.000793
     7    -0.000280
     8     0.001898
     9    -0.000891
    10    -0.928037
    11    -0.513406
    12    -0.832082
    13    -0.036579
    14     0.017914
    15    -0.233831
Sym=     8a
Ene=   -0.182065E-02
Spin= Alpha
Occup= 0.002100
     1    -0.059528
     2    -0.410859
     3     0.601255
     4    -0.000687
     5     0.009028
     6    -0.004380
     7    -0.000763
     8     0.010052
     9    -0.004875
    10     0.379336
    11    -0.739237
    12     0.120362
    13     0.098822
    14    -0.047996
    15     0.631044
Sym=     9a
Ene=   -0.144769E-03
Spin= Alpha
Occup= 0.000016
     1    -0.000002
     2     0.000008
     3    -0.000004
     4     0.000010
     5     0.000009
     6     0.000032
     7     0.000025
     8     0.000012
     9     0.000049
    10     0.853145
    11    -0.153774
    12    -0.699362
    13     0.122912
    14     0.098752
    15    -0.384796
Sym=    10a
Ene=   -0.255897E-02
Spin= Alpha
Occup= 0.004242
     1    -0.001357
     2    -0.008464
     3     0.009600
     4     0.067440
     5    -0.886555
     6     0.430683
     7     0.074911
     8    -0.985097
     9     0.478568
    10     0.003859
    11    -0.006582
    12     0.001447
    13     0.000910
    14    -0.000437
    15     0.005907
Sym=    11a
Ene=   -0.144768E-03
Spin= Alpha
Occup= 0.000016
     1     0.000014
     2     0.000025
     3     0.000194
     4    -0.000009
     5    -0.000009
     6    -0.000014
     7    -0.000006
     8    -0.000024
     9    -0.000028
    10     0.123033
    11    -0.069209
    12    -0.054113
    13    -0.422736
    14    -0.892421
    15    -0.098197
Sym=    12a
Ene=   -0.101381E-02
Spin= Alpha
Occup= 0.001119
     1    -0.000012
     2    -0.000088
     3     0.000104
     4    -0.000059
     5     0.000033
     6     0.000091
     7    -0.000078
     8     0.000032
     9     0.000121
    10    -0.045168
    11    -0.590938
    12     0.636094
    13     0.368471
    14    -0.108902
    15    -0.590305
Sym=    13a
Ene=   -0.975512E-04
Spin= Alpha
Occup= 0.000011
     1     0.000008
     2     0.000013
     3     0.000112
     4     0.402024
     5    -0.320433
     6    -0.722523
     7     0.522006
     8    -0.416044
     9    -0.938126
    10    -0.000051
    11    -0.000106
    12    -0.000002
    13     0.000078
    14    -0.000001
    15    -0.000093
Sym=    14a
Ene=   -0.101372E-02
Spin= Alpha
Occup= 0.001119
     1    -0.000009
     2    -0.000036
     3     0.000024
     4     0.000107
     5     0.000025
     6     0.000007
     7     0.000128
     8     0.000037
     9     0.000023
    10     0.108977
    11    -0.347995
    12     0.239035
    13    -0.811888
    14     0.423454
    15    -0.186500
Sym=    15a
Ene=   -0.453843E-02
Spin= Alpha
Occup= 0.000503
     1     0.929947
     2     4.419715
     3    -0.742826
     4     0.000070
     5    -0.000994
     6     0.000476
     7     0.000088
     8    -0.001122
     9     0.000542
    10    -1.567686
    11    -1.706254
    12    -1.599744
    13     0.012240
    14    -0.005949
    15     0.078146
