p30-5 set                                                                       
ENERGY    PNOF8    /home/ion/p30-5/inps/def2-svp/gnof/def2-svp.bas                                 
Number of atoms                            I                4
Charge                                     I                0
Multiplicity                               I                2
Number of electrons                        I               23
Number of alpha electrons                  I               12
Number of beta electrons                   I               11
Number of basis functions                  I               50
Number of independent functions            I               45
Number of contracted shells                I               21
Highest angular momentum                   I                2
Largest degree of contraction              I                5
Number of primitive shells                 I               41
Virial Ratio                               R      0.000000000000000E+00
Atomic numbers                             I   N=           4
           1           8           7           7
Nuclear charges                            R   N=           4
  1.00000000E+00  8.00000000E+00  7.00000000E+00  7.00000000E+00
Current cartesian coordinates              R   N=          12
 -5.08422009E-01 -2.90864275E+00  0.00000000E+00 -1.56236600E+00 -4.34632744E-01
  0.00000000E+00  6.47039911E-02  1.22558825E+00  0.00000000E+00  2.00608399E+00
  2.11768724E+00  0.00000000E+00
Total Energy                               R     -1.845403928497233E+02
Shell types                                I   N=          21
           0           0           1           0           0           0
           1           1           2           0           0           0
           1           1           2           0           0           0
           1           1           2
Number of primitives per shell             I   N=          21
           3           1           1           5           1           1
           3           1           1           5           1           1
           3           1           1           5           1           1
           3           1           1
Shell to atom map                          I   N=          21
           1           1           1           2           2           2
           2           2           2           3           3           3
           3           3           3           4           4           4
           4           4           4
Coordinates of each shell                  R   N=          63
 -5.08422009E-01 -2.90864275E+00  0.00000000E+00 -5.08422009E-01 -2.90864275E+00
  0.00000000E+00 -5.08422009E-01 -2.90864275E+00  0.00000000E+00 -1.56236600E+00
 -4.34632744E-01  0.00000000E+00 -1.56236600E+00 -4.34632744E-01  0.00000000E+00
 -1.56236600E+00 -4.34632744E-01  0.00000000E+00 -1.56236600E+00 -4.34632744E-01
  0.00000000E+00 -1.56236600E+00 -4.34632744E-01  0.00000000E+00 -1.56236600E+00
 -4.34632744E-01  0.00000000E+00  6.47039911E-02  1.22558825E+00  0.00000000E+00
  6.47039911E-02  1.22558825E+00  0.00000000E+00  6.47039911E-02  1.22558825E+00
  0.00000000E+00  6.47039911E-02  1.22558825E+00  0.00000000E+00  6.47039911E-02
  1.22558825E+00  0.00000000E+00  6.47039911E-02  1.22558825E+00  0.00000000E+00
  2.00608399E+00  2.11768724E+00  0.00000000E+00  2.00608399E+00  2.11768724E+00
  0.00000000E+00  2.00608399E+00  2.11768724E+00  0.00000000E+00  2.00608399E+00
  2.11768724E+00  0.00000000E+00  2.00608399E+00  2.11768724E+00  0.00000000E+00
  2.00608399E+00  2.11768724E+00  0.00000000E+00
Primitive exponents                        R   N=          41
  1.30107010E+01  1.96225720E+00  4.44537960E-01  1.21949620E-01  8.00000000E-01
  2.26617678E+03  3.40870102E+02  7.73631352E+01  2.14796449E+01  6.65894331E+00
  8.09759757E-01  2.55307722E-01  1.77215043E+01  3.86355054E+00  1.04809209E+00
  2.76415444E-01  1.20000000E+00  1.71284159E+03  2.57648127E+02  5.84582459E+01
  1.61983679E+01  5.00526008E+00  5.87318566E-01  1.87645923E-01  1.35714702E+01
  2.92573729E+00  7.99277508E-01  2.19543480E-01  1.00000000E+00  1.71284159E+03
  2.57648127E+02  5.84582459E+01  1.61983679E+01  5.00526008E+00  5.87318566E-01
  1.87645923E-01  1.35714702E+01  2.92573729E+00  7.99277508E-01  2.19543480E-01
  1.00000000E+00
Contraction coefficients                   R   N=          41
  3.34854848E-02  2.34721871E-01  8.13770285E-01  1.00000000E+00  1.00000000E+00
 -5.38935039E-03 -4.02347214E-02 -1.80081842E-01 -4.68288577E-01 -4.46926172E-01
  1.00000000E+00  1.00000000E+00  6.26302488E-02  3.33311385E-01  7.41486383E-01
  1.00000000E+00  1.00000000E+00 -5.44779958E-03 -4.06271746E-02 -1.81119623E-01
 -4.68439756E-01 -4.46168463E-01  1.00000000E+00  1.00000000E+00 -5.88481170E-02
 -3.20246248E-01 -7.53282265E-01  1.00000000E+00  1.00000000E+00 -5.44779958E-03
 -4.06271746E-02 -1.81119623E-01 -4.68439756E-01 -4.46168463E-01  1.00000000E+00
  1.00000000E+00 -5.88481170E-02 -3.20246248E-01 -7.53282265E-01  1.00000000E+00
  1.00000000E+00
Alpha Orbital Energies                     R   N=          45
 -2.06963949E+01 -1.57800000E+01 -1.57825508E+01 -1.48921811E+00 -1.27647409E+00
 -6.85816206E-01 -7.42634210E-01 -9.45601898E-01 -9.23927493E-01 -6.38112119E-01
 -6.24591745E-01 -1.80732031E-01 -5.74753140E-02 -5.62242832E-02 -3.72408211E-03
 -3.28415565E-02 -1.47414178E-02 -1.37072399E-02 -1.67119653E-02 -9.95197537E-03
 -7.80471543E-04 -6.60777682E-04 -2.27605603E-04 -4.49987185E-03 -3.76842419E-03
 -5.05099635E-02 -5.67063199E-03 -1.27742307E-02 -1.34056952E-02 -6.18614786E-03
 -7.30966475E-03 -9.50875719E-04 -8.11568213E-04 -1.72339438E-04 -2.05166604E-03
 -2.17910835E-03 -2.71274801E-03 -5.11403736E-03 -8.70309466E-03 -8.27105211E-03
 -5.90183294E-03 -7.70069385E-03 -5.96946233E-04 -3.19803256E-04 -1.46714828E-04
Alpha MO coefficients                      R   N=        2250
 -8.18108709E-04 -1.12557077E-03 -7.62712874E-05 -3.13502732E-04 -1.61581445E-06
  9.88502077E-01 -4.16107159E-02  2.06191013E-02 -1.77437642E-03 -1.36448175E-03
  2.16527497E-05  4.31186555E-03  2.98408871E-03 -1.81526588E-05  4.39755027E-03
  4.46168448E-03  4.35834671E-03 -2.01661594E-04  1.14065945E-05  1.59683351E-05
  6.07464983E-03 -1.51197525E-04 -6.33361947E-03  1.04826666E-03  1.24227211E-03
 -4.95576582E-06  5.02343370E-03  5.26938039E-03  1.31643469E-05  1.44996664E-03
  9.79513566E-04  1.02058292E-04  1.30642044E-03 -1.76307730E-05 -1.87096622E-05
 -2.16431991E-03 -7.57198963E-04 -1.61332782E-03 -7.45986837E-04 -3.81260466E-04
 -6.06540490E-07  9.42251259E-04 -4.41913905E-04  2.11302836E-06 -9.12421806E-04
 -3.12266137E-05 -1.43264070E-04  4.17830374E-06  1.09445807E-05  4.59489086E-06
 -1.11121506E-04  1.27867078E-04  2.17763727E-04  2.62450179E-04 -1.39121493E-06
  5.58499773E-03 -5.31038285E-04  3.01146585E-03 -1.21424172E-03 -1.47994386E-03
  1.20445125E-05 -5.96530107E-04 -3.39808063E-04 -2.17567962E-05 -9.74608462E-04
 -1.21251763E-03 -4.18224759E-05 -1.09958322E-03  8.50279622E-06  3.80138081E-06
 -6.97184119E-01  3.07804866E-02 -1.36127316E-02 -2.80674244E-03 -2.93332888E-04
  7.34931788E-06  6.49343618E-04  1.06108793E-03 -2.62006260E-06  4.56095862E-04
 -1.52724737E-03 -2.81120138E-03  2.26005912E-03 -1.61133206E-05 -9.83075373E-06
  7.00927111E-01 -3.10164378E-02  1.22694081E-02 -4.89432991E-03 -1.91008799E-03
  8.49490133E-06 -9.31810992E-04 -9.15381043E-04  4.79459616E-07  1.02576698E-04
  2.29004740E-03  2.69769350E-03 -1.15507189E-03  5.60250954E-06  7.90598261E-07
  1.98003014E-04 -1.44431175E-04 -3.42835197E-04 -2.35989008E-04  1.70932374E-07
 -2.50056086E-03 -7.02029373E-04  1.09259759E-02  9.77812035E-04  9.03180144E-04
  1.46009571E-06  3.73057771E-03  5.35598066E-03  1.79384676E-05  3.65576546E-04
  8.18068622E-04 -4.97067741E-04  1.18617858E-03 -6.17078408E-06 -1.18134636E-06
  7.01116407E-01 -2.77056577E-02  8.72737812E-03 -1.22433022E-03 -1.29169034E-03
  8.28881801E-06  1.19483040E-02  8.17585762E-03 -6.91160587E-06  1.80360593E-03
  1.75489113E-03  2.94068801E-03 -1.37126085E-03 -2.59110142E-07  3.92426893E-06
  6.97514748E-01 -2.72392748E-02 -4.16092331E-03 -3.11306069E-04 -3.30177250E-04
  1.30666970E-05  4.13088201E-03  1.03057111E-03 -1.38435763E-05  1.92995269E-03
  2.41088272E-03  2.59046075E-03 -4.44861582E-04  8.22001454E-06  5.73344341E-06
  4.21929504E-02  4.37900620E-03 -4.40881994E-03  9.35282182E-03 -2.19179019E-05
  2.80093981E-01  5.74946550E-01  3.57879584E-01  9.25747902E-03  5.14595055E-03
  1.47273041E-03 -1.93133180E-02 -1.32659800E-02  8.06112569E-04  1.47484894E-02
  1.61391396E-02  7.62245106E-03  6.02720247E-03  8.19074106E-05  8.91261811E-05
  8.49759554E-02  1.64323183E-01 -2.49594303E-03  8.42550077E-02  1.03076706E-01
 -4.21778863E-04 -1.74153712E-02 -2.10969044E-02  3.28515343E-04  1.18711396E-02
  1.09718384E-02 -5.42141596E-03  1.83458254E-02 -1.64423232E-04 -1.39404523E-04
  1.92779217E-03  2.31687308E-03  1.35831843E-02  2.05719579E-03  1.16468972E-02
  1.98672379E-04 -7.47335186E-03 -6.06612766E-03 -2.64709734E-04 -2.24575719E-03
  1.73826554E-03  4.23513231E-04  1.14631144E-03  2.99555706E-05  9.46134825E-07
 -4.24172406E-03 -8.19261126E-04  6.89075791E-04 -6.18307752E-04 -4.17237888E-08
 -1.67708384E-02 -3.30345648E-02 -4.70318511E-02  3.06747302E-03  4.67241078E-03
 -6.36530363E-05 -4.37803866E-03 -6.11321649E-03 -3.44067715E-05 -3.92444143E-04
 -2.08322055E-03 -4.69170778E-05 -1.18545377E-03  6.53035288E-06  1.64130246E-06
  9.99911509E-02  1.82883452E-01 -8.04209957E-03 -1.34389727E-01 -7.08417309E-02
  2.13264668E-04 -1.87582902E-02 -1.12981936E-02 -1.08148673E-04  1.78733574E-02
  2.41822473E-03 -2.38572277E-03  1.16773243E-02 -4.61129180E-05  1.45901701E-05
  2.78444341E-01  5.63789426E-01  3.81263440E-01 -3.31289614E-02 -2.73536234E-02
  1.83274790E-04  4.26176889E-02  3.04670942E-02 -1.87295690E-04  2.28622010E-02
  1.41423657E-02  1.27149817E-02  5.29840333E-03  5.26600761E-06  3.91931897E-05
 -5.65367131E-03 -1.32571992E-03 -3.00644808E-05 -5.11703968E-04 -5.57879513E-03
  1.96159784E-03  4.13615337E-03  2.73603700E-03 -2.52080418E-02  1.59877567E-02
 -5.92864794E-01 -1.78471964E-02  1.02320796E-02 -4.14494257E-01 -1.45478934E-03
  1.05188628E-03  3.57604227E-04 -1.15196966E-04 -2.32734992E-02 -1.88634560E-02
 -3.63155198E-04 -6.33736122E-04 -1.36302092E-03  6.02284462E-03 -1.24035312E-02
  2.33633035E-01 -7.11918661E-03  3.66111411E-03 -1.23433439E-01  1.51914556E-03
 -1.52430487E-03  1.18627763E-04  1.37163794E-05  2.59578359E-02  2.72307755E-02
  2.67556107E-04  7.80522598E-04  4.61591938E-03  1.11782777E-04  2.95052746E-04
 -3.81330878E-02 -7.84243265E-04 -3.08273203E-03  7.48556391E-02  2.88517712E-04
 -3.30305349E-04  8.82758876E-05 -4.59446705E-04  6.98540366E-03  3.34580487E-03
 -1.23881427E-01 -2.52102989E-02  1.50892960E-03 -1.32095925E-02  3.05067255E-04
  6.34266123E-04  5.71973712E-03 -5.29280075E-02 -3.76698667E-01  3.83035950E-01
  2.98242897E-02 -2.78221126E-01  2.33619707E-01  2.08011890E-02 -2.54550482E-02
  2.05070680E-02  2.60331660E-03  4.59676837E-03  1.18363745E-03  9.50425336E-04
  3.98027429E-02  9.16898479E-02  2.06815670E-02  1.93315452E-01 -1.90411267E-01
 -1.29591802E-02 -1.58680109E-01  6.33603686E-02  6.84506635E-03  3.34914672E-02
 -2.10216128E-02  4.66103760E-03  6.36442184E-03 -1.18754468E-03 -1.31689555E-03
 -5.37497792E-03 -1.11162380E-02  7.96790738E-02 -7.61730429E-03 -1.27711830E-02
  8.63257312E-04 -1.57789773E-02 -4.99122778E-02 -3.19008050E-03  2.49182199E-03
 -7.23298518E-03  1.37181258E-03 -1.02828459E-02 -4.78621679E-04 -2.19248568E-04
  2.00368308E-03  1.62795850E-03 -2.90023594E-04  4.54752293E-04 -2.43850172E-06
  3.07344742E-02  6.83960165E-02  3.63675032E-02  3.05808844E-02  2.85230127E-02
  8.24887777E-04  2.76884659E-02  1.48693183E-02  4.15768744E-04  1.85139303E-03
  5.40684409E-03  7.84076155E-04  3.02407365E-03  8.30271187E-05  5.53626495E-05
 -1.77634059E-01 -3.87550104E-01 -1.89621139E-01  2.76179556E-01  1.28541117E-01
 -4.87915461E-04 -9.55628371E-02 -3.94787792E-02  2.67467291E-04 -2.49934819E-02
 -5.09973759E-03 -5.06376246E-03 -5.85973930E-03 -7.31771307E-05 -5.91072817E-05
  5.61857661E-02  1.34910514E-01  3.77616927E-01 -4.25297539E-01 -2.37198871E-01
 -5.21006549E-05  1.28663854E-01  8.60206231E-02 -1.88939026E-05 -1.76577056E-02
  1.21255978E-02  2.22251881E-02 -2.35456236E-02 -8.11848690E-06  3.45251206E-06
  4.31727989E-02  9.90088164E-03 -5.40269308E-03  9.00119430E-03  4.83827330E-05
  8.18660572E-02  1.72511162E-01  2.82851294E-01 -3.76419679E-01 -2.62934277E-01
  9.41800534E-03 -1.97919820E-01 -1.02403643E-01  6.05247217E-03 -9.70245321E-03
  7.14162373E-04  1.52038757E-02 -2.37613135E-02  3.95120254E-04  3.41362687E-04
 -1.47145787E-01 -3.34708081E-01 -1.08947441E-01 -2.60486854E-01 -2.42832913E-01
 -3.81052713E-03  7.85303391E-02  7.29419852E-02  2.15619572E-03 -1.71507492E-02
 -2.78322406E-02 -4.95996298E-03 -1.98296332E-02 -4.61444084E-04 -5.00167673E-04
  3.20163988E-02  7.93272842E-02 -2.44214013E-02  8.59225246E-02  2.80175570E-02
  4.10811486E-04 -1.67017831E-02 -1.29389120E-02 -1.06869384E-03  1.47232871E-02
 -1.59616530E-03 -1.05225733E-03  3.29361352E-03 -7.18376004E-05 -4.31311029E-05
  8.23080383E-04  4.60685853E-04 -8.13006755E-06  4.87061252E-05  2.16172644E-03
  2.89221904E-05  3.97060262E-05  1.27263171E-03  1.24511264E-03 -1.66772977E-03
  1.68462495E-01  2.07061759E-03 -9.46459587E-04  1.77253090E-01 -1.16194827E-04
  8.14902414E-05 -3.92691113E-05 -5.83961735E-05 -2.53485260E-03 -3.99265456E-03
  4.12666510E-04  8.74014947E-04  1.08506521E-03  3.76229068E-03 -5.85472546E-03
  4.24143237E-01 -7.50822780E-04  4.23988899E-03 -2.32206769E-01 -4.05775013E-04
  4.25330739E-04  9.83480021E-05  3.55046614E-04 -3.94822002E-02 -1.92882681E-02
 -4.19177695E-04 -9.76073177E-04 -1.48672229E-03  2.48321648E-03 -6.37865334E-03
  4.59551397E-01 -1.10065907E-03  3.68777755E-03 -2.73881049E-01  3.47621453E-04
 -4.92107991E-04 -1.53364232E-05 -4.33227786E-04  3.97636619E-02  1.77706663E-02
 -7.41325239E-02 -2.91685098E-02  1.19941368E-03 -5.46923902E-03  4.87710435E-05
  2.76704854E-04  1.11986596E-02 -1.07022281E-01 -1.48043579E-01  1.55691660E-01
  3.68752281E-03 -1.77296142E-01  1.02377905E-01  3.46948514E-03  4.89256625E-03
 -1.03435218E-03  3.38427085E-03  4.04203924E-03  8.55705805E-06 -1.97908659E-05
 -3.44213241E-02 -7.37494946E-02 -8.29370107E-02 -2.14574695E-01  3.41585148E-01
  5.97552830E-03  1.32298823E-02 -2.67095790E-01 -3.28644560E-03  2.90058796E-02
 -3.29332648E-02 -4.87603504E-03 -2.18982774E-02 -6.33221649E-04 -3.42746644E-04
  1.81641228E-02  5.14269729E-02  1.17660889E-01 -1.70662977E-01  4.13256812E-01
  7.17942412E-03  6.23884001E-02 -2.56113985E-01 -4.42238513E-03 -2.33607934E-02
  2.89746198E-02  2.59332366E-03  2.67993420E-02  5.94351893E-04  2.51120948E-04
  5.15156589E-01  6.42871554E-01  4.95296362E-03 -7.02231488E-03  6.72097989E-05
 -7.72110836E-02 -1.59765120E-01 -4.05288694E-01 -1.03465116E-01  9.25955762E-02
 -1.14414740E-04 -1.15805228E-01  1.08825496E-01  1.42225751E-04 -1.26401787E-02
  2.04096608E-02 -3.53482835E-03 -4.88429289E-03 -2.59756456E-05 -4.32042556E-05
  2.70817526E-02  5.61384747E-02  7.83830064E-02  1.34434260E-01 -9.46735309E-02
 -5.72375780E-05 -1.92739729E-01  3.57290424E-02  1.54193773E-05  1.68598804E-02
 -1.52024774E-02  7.40038505E-03 -1.76063023E-02  1.12350605E-04  9.50202127E-05
 -1.25906599E-02 -3.69532524E-02  1.08934102E-01 -1.17319914E-01  1.39305983E-01
  6.06131898E-05  5.06522303E-02 -1.74346452E-01 -1.05542577E-04 -5.43636081E-03
  1.17159503E-03 -7.46301469E-04 -1.22555564E-03 -6.22886031E-05 -2.42246911E-05
 -1.92128385E-01 -1.31619418E-01 -6.65804345E-03  1.65305585E-02 -2.21584348E-04
  3.82030240E-02  1.17082208E-01  6.86142445E-02  2.54961941E-01 -3.22520125E-01
 -5.23424613E-03  5.02690345E-02 -5.83919647E-02 -1.42059930E-03 -3.20875957E-02
 -3.26144616E-03 -6.55611697E-03 -4.62053687E-03  6.68611408E-04  9.07016467E-04
  3.02868981E-02  9.76626244E-02  6.62194542E-03  3.22663933E-01 -5.38564786E-01
 -1.01073906E-02 -2.68681279E-02  7.58018891E-02  2.18141261E-03 -2.67540671E-02
 -4.05201935E-04 -1.39282118E-02 -1.80000003E-02 -8.63818912E-04 -5.67165199E-04
 -1.47917177E-04  6.29181012E-03 -5.89036978E-03 -3.02518049E-01  5.53388386E-01
  1.00919916E-02  4.99274299E-02 -9.68110358E-02 -1.70019750E-03  1.25491192E-02
 -1.11869500E-02 -7.92525290E-04 -1.70031055E-02  3.87736033E-05  3.64312893E-04
  2.65966340E-03  1.74068064E-03  9.83839786E-05 -2.00468209E-04 -4.51450553E-03
 -7.21838556E-04 -1.88226129E-03 -2.06602077E-03 -5.55277699E-03  3.10211665E-03
 -3.37837637E-01 -1.09635516E-03  3.54407291E-04 -5.86869143E-02  3.84282148E-04
 -1.18324256E-05 -5.47338116E-05  2.62602717E-05  2.08385931E-02  2.39537671E-02
  8.24906990E-04  3.15821825E-03 -7.70819362E-04 -5.08155196E-03  9.00808090E-03
 -6.76611898E-01 -2.83567431E-04 -1.70261328E-03  1.04597377E-01 -1.93537919E-04
 -5.24415862E-04 -3.40556338E-04 -3.60260951E-04 -5.51259802E-04  1.95624665E-03
 -7.92289173E-04 -3.17933045E-03  1.96952821E-03  3.14157829E-03 -9.60335620E-03
  6.64840525E-01 -1.09789715E-03  1.38242496E-03 -1.24770191E-01  4.15655786E-04
  1.21954601E-03 -3.23573263E-04  6.53279102E-05 -2.18696531E-02 -8.32552060E-03
  1.16671191E-01 -1.05849685E-01  9.61240254E-04  1.79205225E-02  4.08361072E-03
  1.17285327E-03  5.74074788E-02 -2.20308629E-01  1.05274876E-01  7.96811896E-02
 -8.62781686E-03 -1.85197302E-01 -9.91162868E-02  2.17906494E-02  4.74575953E-01
 -1.34774674E-01 -2.56012419E-01  5.61971733E-02  1.68970717E-01  5.85564980E-02
 -5.87786424E-02 -2.57901399E-01  4.22880341E-01  1.31546626E-01 -1.78113947E-01
  5.11366830E-02  1.64509596E-01 -2.18437973E-01  2.91204538E-02 -7.19379001E-02
 -3.86686406E-01  6.88215500E-01  1.62769114E-01 -6.24363029E-02  1.78180727E-01
  1.28225451E-03  4.42270264E-02 -2.58631718E-01 -1.01091462E-02  1.22811577E-01
 -7.56636881E-02  1.90432153E-02  2.77770211E-01 -1.14478469E-01 -1.45134705E-01
 -7.90150176E-02  2.62871245E-01  3.71178958E-01 -1.71581574E-01  7.34757016E-02
  2.02454981E-02 -1.21419870E-03 -4.48952229E-03  4.58856779E-03  4.52195074E-05
 -4.27716168E-02 -1.27829029E-01 -7.16117695E-02 -1.48482935E-02 -1.00540222E-01
  1.11660667E-03 -4.84447930E-02 -3.50566995E-02 -1.45431278E-03  1.23548653E-02
  6.31268389E-02  9.96058890E-03  2.81901422E-02 -4.72718747E-04 -8.00000464E-04
 -2.47985436E-01 -9.70785974E-01  1.56714882E-02  7.57879697E-01  3.70012982E-01
 -2.31733175E-03 -1.50572154E-02 -8.51644979E-04 -6.96766901E-04  1.41182358E-01
  1.47838648E-01  1.55212353E-01  1.28455997E-03  5.74391964E-04  1.47275474E-03
  2.21011900E-01  8.27725400E-01  6.43277747E-02  7.50724751E-01  3.53315972E-01
  1.28162939E-03 -1.19808927E-01 -4.12354177E-02 -5.07029908E-04 -1.63260601E-01
 -9.70924791E-02 -8.39387522E-02 -3.42841335E-02 -1.44943724E-03  5.33029065E-04
  4.30614225E-02 -1.55801493E-01  9.58637605E-03 -4.67603377E-03 -4.63607282E-04
  3.12828606E-01  1.28625712E+00 -4.71795987E-01 -4.83176640E-01  4.13155577E-01
 -4.59253587E-03  4.07476009E-01 -5.70883718E-01  2.03358003E-03 -2.96363675E-01
 -3.62227240E-01 -3.94239621E-01  1.47350427E-01  2.86979219E-03  1.24780548E-03
  1.87919045E-01  8.94411661E-01 -2.80139300E-01  2.77755516E-01 -1.11552131E-01
 -1.48207648E-03  5.69998851E-02 -1.13647426E-01 -1.96243636E-03 -2.97629823E-01
 -6.75352200E-02 -3.07262214E-01  1.77995344E-01 -8.37845752E-03 -9.59470445E-03
 -6.37410908E-03 -3.86545204E-02  9.33823832E-02  3.31101858E-02  1.94256677E-01
 -7.75241989E-04  1.06057218E-02  1.28174459E-01  4.71301629E-03  9.44940250E-02
 -5.78645476E-03 -1.75464312E-02  1.09253720E-03  1.01547383E-02  7.12879253E-04
 -1.15820070E-02 -1.47327362E-01 -3.24525405E-02  2.54725174E-02 -1.55269711E-02
 -4.14016084E-01 -1.62643295E+00  3.82862601E-01  2.44315233E-01  2.41340634E-01
  4.04768473E-02 -3.20479042E-01 -3.70878965E-01 -1.25855500E-01  5.45368184E-01
  5.76909071E-01  4.82598301E-01  2.13205813E-01  1.81777267E-01  1.81909804E-01
  2.41170167E-01  1.15748156E+00 -4.72967203E-01  3.22412503E-02 -3.20745259E-02
  4.02252488E-02 -1.35939833E-01 -1.22867925E-01  6.50066860E-02 -3.39265713E-01
 -2.96625217E-01 -4.46157836E-01  1.58888260E-01 -1.33434666E-01 -1.22063508E-01
 -8.43216686E-02 -3.63826676E-01  3.38155396E-01  1.20338112E-01  1.47641072E-01
 -3.13721161E-02  7.64897234E-02  9.30245881E-02  2.89602786E-04  2.74391453E-01
  7.87557067E-02  5.89971190E-02  3.14349386E-02  5.54139393E-02  1.20355725E-02
 -2.11859040E-02  7.40877113E-03 -2.79713512E-03 -2.08679936E-03 -1.25455953E-03
  3.88443310E-02  1.41723351E-01  1.85988027E-01  2.66341565E-02  3.53382821E-02
  7.28910964E-03  1.78106862E-02  7.82242137E-02 -1.48014006E-02 -3.48282151E-02
 -3.36228407E-02 -4.43995150E-02  2.14630470E-02  1.60577646E-02  1.32612477E-02
 -1.14278308E-01 -5.13875602E-01 -1.79515938E-02  9.04386531E-02  8.15495971E-02
 -2.59018604E-03  2.44532474E-01  1.93481364E-01  2.27678245E-03 -2.93564807E-02
  1.52666318E-01  1.95603341E-01 -9.01483925E-02 -1.96980440E-02 -3.66351090E-03
 -6.74968564E-01 -2.93170640E+00  8.41063826E-01  2.78915116E-01  1.60447245E-01
 -9.49122486E-03  1.39230024E-01  5.72884639E-02 -5.84048651E-03  8.26622298E-01
  8.81214226E-01  9.39371968E-01 -9.77808127E-02  5.50877408E-03  5.72161090E-03
 -2.51711189E-02  1.50879339E-01  2.03880909E-02 -7.08490670E-02 -3.03382377E-02
  2.27645410E-01  8.57133217E-01 -5.61488159E-02 -1.18429870E-02 -1.55401519E-01
  1.51944586E-01  3.09785042E-02  2.00315974E-01 -3.49185272E-01 -4.52844863E-01
 -5.01873537E-01 -4.89845143E-02  6.73253779E-02  4.84107967E-01  4.17455365E-01
 -6.71609051E-02 -3.20766509E-01  1.49868778E-01 -1.06176087E-02  7.21852434E-02
  9.79361993E-02  8.48068577E-02  1.23658878E-01  1.54308022E-01  8.40050919E-02
  9.26057599E-02  1.67012951E-01 -2.60723923E-02 -2.68150654E-01 -2.65102586E-01
  6.67712213E-02  2.83145525E-01 -2.00771726E-01 -2.00022008E-02 -6.81362986E-02
 -7.06841481E-02  3.90274578E-02 -5.31436033E-02 -1.72207473E-02 -1.24321784E-01
 -9.17222910E-02 -9.58070727E-02 -1.74871004E-02  7.18077894E-02  1.24093559E-02
 -3.27821888E-03 -3.29838667E-03  4.09636635E-03  6.88164003E-04  1.98697043E-02
 -1.74624411E-02 -3.83574644E-02 -8.09234319E-02  1.25918929E-02  3.12458332E-02
 -6.74412834E-02  2.11996670E-02 -4.57431112E-02  3.97467345E-01  9.68037265E-02
  2.03398590E-02  5.09370156E-02  2.07328135E-02  3.77126872E-01  4.49044276E-01
  9.51207119E-03  3.69943824E-02  4.49291518E-02 -2.51129988E-03  2.17295782E-02
 -1.63755433E-01 -1.27001890E-02  1.71844313E-02 -2.55433422E-01  4.08720072E-02
 -1.21526547E-01 -1.31255521E-02 -8.51557953E-02  7.97898853E-01  5.96950935E-01
 -1.13305704E-02 -3.58743039E-02 -3.53875840E-02  1.73358021E-02 -1.86591655E-02
  1.62352432E-01 -4.56667590E-03 -2.88163832E-03  4.11549281E-03  1.12794688E-01
 -1.95801732E-02  6.21798176E-04 -6.87495626E-02  6.84001642E-01  1.57253497E-01
  1.40405133E-01  1.73498793E-01  8.10371069E-02 -9.97258179E-02  2.33596469E-03
 -3.16486637E-01 -6.31114743E-01 -2.02080003E+00  1.67713223E-01  1.20338831E-01
  1.10005017E-02 -2.70220760E-01 -6.59071899E-02 -3.14612698E-02  9.42601505E-01
  1.12258972E+00  8.78368959E-01  1.44336054E-01  6.03809269E-03 -1.38628536E-03
  9.87989835E-02  2.88200187E-01  8.89560049E-01  3.27705626E-01  1.69487871E-01
  8.62707938E-03 -1.52910731E-01 -2.31008452E-01  1.92334507E-03 -8.05465146E-01
 -4.51189591E-01 -4.92041602E-02 -5.95400685E-01 -7.17889829E-02 -2.55204325E-02
 -2.66993977E-01 -6.96758918E-01 -8.88710598E-01  2.73663421E-01  6.80252800E-02
 -1.26563367E-02 -2.48195664E-01 -6.75831380E-02  9.42811851E-03  1.25947970E+00
  6.39748737E-01  5.75727439E-01  1.84979642E-01 -3.89266475E-02 -2.15004894E-02
  1.08300026E+00 -6.07961637E-01 -4.02781491E-03  5.90240068E-01 -4.38830980E-03
  4.07562569E-03  5.77673765E-02  8.50886431E-01  1.91195480E-01 -1.86705305E-01
 -3.26954228E-03 -2.59795084E-01  1.31421170E+00  9.04216183E-03 -5.89889021E-02
 -1.56455007E-02  1.54259327E-01  3.81780233E-01  5.24180990E-03 -2.64395152E-03
  7.03314223E-02 -7.76211274E-02  1.15182306E+00  2.55129566E-01 -4.04854866E-02
 -1.27792560E-03  2.17649919E+00  4.85425921E-01 -1.05001885E-02 -3.08171237E-01
 -2.17041997E-01 -3.44514890E-01 -1.90187377E-01 -6.14540562E-03  1.02043414E-02
  6.79033378E-02  4.92066908E-02 -1.46418955E+00 -6.19617581E-02  9.35464921E-03
 -1.02852674E-03  3.26295352E-01  4.16412673E-01  4.14419938E-03  1.16154829E-01
 -3.66653967E-01 -3.24169948E-01  1.26722356E-01 -6.00249392E-03 -5.00581771E-03
 -7.43889638E-02  8.48719162E-02  1.20465574E-02  1.25780451E-02  9.24663874E-04
 -1.62697725E-02 -7.46217728E-02 -1.59383750E-01 -5.74011551E-02 -2.02928377E-01
  1.13458700E-03 -6.41943869E-02  2.53279572E-01 -2.21314996E-03 -6.63053436E-02
  1.30941398E-01 -4.52549220E-02 -8.06239438E-02  1.20911135E-02  2.95406839E-03
  6.36067707E-03 -1.25769194E-03 -1.84987395E-01  1.43142163E-01 -3.16338321E-01
  5.27440158E-03  1.90116088E-02 -5.09000730E-01  8.66257180E-03 -2.59828365E-02
 -2.94550672E-02  9.91853529E-02  2.58292406E-01 -2.00468638E-02  3.23529702E-02
 -2.86076112E-02 -1.41910232E-01  2.45097337E-01  2.39344691E-01 -5.89809323E-01
 -6.19372759E-03  1.82636327E-01 -6.52538081E-01 -1.03872333E-02  2.42224953E-01
 -2.82348864E-01  1.61733971E-01 -1.83256684E-01 -2.10313760E-02  3.26407269E-02
 -3.65342176E-02  3.50355395E-02  3.12887987E-03 -9.03767393E-03  8.82397090E-03
 -7.67465660E-03 -5.08554417E-02  4.19871885E-02 -5.02447455E-02 -3.38636745E-02
 -6.78211648E-02  8.19775492E-02  3.12327434E-02  1.57982577E-01 -6.63866284E-02
  8.18228136E-03  5.96666169E-02 -9.75864627E-03  2.47611932E-01  1.17821597E-01
  1.40239785E-02  5.95214035E-02 -1.68686579E-01 -3.24136488E-02  3.26387221E-02
 -7.84319005E-02 -1.30932355E-01  1.45502472E-02 -1.24447072E-01  3.24460841E-02
  1.23438060E-01 -2.18443022E-01 -5.57939955E-02 -1.63504810E-01  4.19538155E-01
  7.36147996E-04  1.21115223E-03  1.48286544E-01  3.14607971E-02  2.63240129E-04
 -4.17501014E-01 -2.04361364E-03 -4.39819085E-02 -4.98597699E-01  6.51317918E-02
  1.18822232E-01 -1.93640382E-01 -9.86417138E-02 -4.93810917E-01  3.31567031E-01
 -7.63664315E-02 -5.46309097E-02 -4.82348042E-03  4.11749694E-03 -7.21701452E-05
 -1.27298024E-01 -3.81798276E-01 -8.70771907E-02 -5.21160404E-01 -5.72004344E-01
  4.81660849E-03 -7.29564607E-02 -1.18015959E-01 -3.07289630E-03  6.04885995E-02
  6.09930312E-02  9.95418258E-03  5.85586018E-02 -1.64240231E-03 -1.01580301E-03
  2.59661972E-01  8.89970186E-01  1.28886592E-01  3.67645810E-01  4.15468011E-01
  7.76076796E-04  6.89930548E-02 -4.27307845E-03 -1.39045086E-03 -1.43728177E-01
 -1.17113294E-01 -1.07994677E-01 -3.36539334E-02  1.78085284E-03  1.17596672E-03
 -4.15160336E-02 -1.34160401E-01 -5.05344299E-02 -1.11593176E-01 -1.07595683E-01
 -1.09619820E-03  1.68558648E-02  2.45124502E-02  1.23269192E-03  1.57207095E-03
  4.08744634E-02  2.86295059E-02  6.88781736E-03 -4.26843938E-06 -5.25992642E-04
  8.33162360E-02 -1.65592636E-03 -2.20765672E-02  3.17737189E-02  1.37356658E-03
 -7.05627032E-03 -4.69401578E-02  2.18044649E-01 -1.56775334E-01 -1.43696372E-01
 -5.29234372E-03  2.09975284E-01  1.61069637E-01  1.21387757E-02 -2.14037406E-01
  1.41334693E-01 -1.10165220E-02 -1.76394642E-01  8.03718497E-03 -6.11275163E-03
 -5.60651953E-02 -2.34575080E-01 -2.15556113E-01 -3.17688728E-01  4.72531282E-01
 -2.61379529E-02 -1.58677931E-01  4.83539523E-01 -2.34465745E-02 -5.20755994E-02
  1.70410001E-01  2.71980417E-01  3.79627808E-01 -2.14624886E-02  2.56919903E-02
  6.08215060E-02  2.08689231E-01  4.71903181E-02 -2.67097005E-01  2.86848192E-01
 -3.55174358E-02 -1.17530781E-01  1.17133512E-01 -3.39580190E-02  1.22311825E-01
 -6.24194523E-01  1.18607471E-01 -3.03324934E-01 -1.60577701E-02  4.69606904E-02
 -1.56412005E-01 -2.53302698E-01  2.33485924E-02  2.49879909E-02 -6.88282230E-03
 -2.97227673E-01 -1.31921217E+00  9.84224776E-01 -4.04011586E-01  3.46401867E-01
  4.05527314E-02  6.30084004E-01 -1.91252856E-01 -6.84334907E-02  4.84036511E-01
  1.05897539E-01  4.40980491E-01 -1.27630106E-01  3.88819881E-02  5.81008565E-02
 -2.02438050E-01 -9.85499373E-01  3.22024565E-01  1.05905814E-01 -2.31933794E-01
  3.92540736E-03  4.73829451E-01  1.52534957E-01  1.91358591E-02 -3.79062831E-02
  4.54053317E-01  3.20500092E-01 -1.25530387E-01 -3.57677488E-02 -3.14282412E-02
  8.05715415E-02  3.69295172E-01 -5.22536303E-01 -1.17386894E-01  7.52200548E-02
 -2.20609588E-03 -3.11389151E-02  7.00060872E-02  4.63635983E-03 -1.39001192E-01
 -9.12838820E-02 -9.25832358E-02 -8.22063018E-02  1.44728218E-02  2.56990807E-03
 -7.09893695E-03  4.33517785E-03  1.92746257E-03 -2.46721790E-03  2.59764692E-02
  1.10429503E-03  2.57635447E-03  1.06482521E-02 -1.46332969E-02 -5.70640274E-03
 -8.84728691E-01  2.03547070E-02  1.11201636E-02  9.26478544E-01 -2.08485837E-04
 -1.01178335E-02  5.90697662E-03 -3.70548262E-03  4.46987634E-02  3.89933604E-02
 -1.39417648E-02 -6.83714855E-02  3.24704075E-02  9.47747790E-04  3.70540478E-04
  3.28153564E-01  1.76136807E-02  1.36104079E-02  1.44273749E-01  1.04617607E-02
  2.30287324E-02  2.17397966E-02 -9.26103141E-03 -1.61414430E-01 -1.25145929E-01
  3.75096947E-03  1.67036608E-02 -2.87572491E-02 -5.70168958E-03 -5.35257403E-03
 -1.39865960E-01 -9.22836301E-04 -4.78708811E-03 -9.31676780E-02 -9.33700576E-03
 -2.06579150E-03 -4.71657670E-03 -5.65699595E-03  5.13659975E-02  1.60854518E-02
  1.34156338E-02 -6.29235013E-02 -2.35834895E-02  3.23480854E-02  1.47206675E-03
  3.58383248E-02  1.37072527E-01  7.27503901E-02  2.75846842E-01  2.67594730E-01
 -1.38111997E-03 -2.44147644E-01 -1.90910797E-01  2.29715121E-03 -1.34741076E-01
  1.41224916E-01 -4.66867330E-02  5.77821962E-02  3.82909516E-02  4.62625284E-03
  3.93462920E-01  1.77201692E+00 -5.15405507E-01 -2.57853644E-01 -1.22914694E-01
  2.26281146E-02 -3.34470534E-02 -2.10152701E-02  1.83494770E-02 -6.96685731E-01
 -7.37554570E-01 -5.09099058E-01 -1.14652262E-01 -6.21723363E-03  3.62555452E-02
  1.11086101E-01  3.84248997E-01  4.06657060E-01 -2.24169715E-01 -1.83218021E-01
 -9.06470582E-03 -4.76876044E-01 -2.88770374E-01 -2.25985456E-02 -7.65748300E-01
 -9.78604280E-02  1.79935503E-01 -4.81810660E-01 -5.30699612E-02  2.02185473E-02
  6.87654938E-02  5.38148508E-02  4.04697616E-02  1.08813151E-02 -1.45474396E-03
  3.79976269E-02  7.45880201E-02  2.89621039E-01  6.77797786E-03 -9.99974406E-02
 -3.38472704E-03  1.15750068E-01  3.50084831E-01  2.44905692E-03  7.82933558E-02
 -4.33487161E-01  1.50012132E-01 -5.41190233E-01 -3.63030959E-02  3.00929144E-04
  4.92843230E-01  1.96853808E+00 -3.20890805E-01  3.64000957E-01  1.87865370E-01
 -1.12850261E-02  8.74475950E-02  5.38555233E-02 -6.59856057E-03 -1.05560171E+00
 -8.32154114E-01 -7.67752775E-01 -1.15946972E-01 -1.12417101E-02 -6.73713022E-03
  8.96239508E-05  6.81050669E-02  3.90528290E-02  4.79148072E-01  2.72569071E-01
  1.77819002E-03  2.06315380E-01  1.82558948E-01  9.47375608E-03  2.53072907E-01
 -7.20355070E-04 -8.15531425E-03  1.63067521E-01  2.32234150E-02  1.19660052E-03
 -2.13775959E-02  1.96695581E-01  3.00386778E-02 -8.70237725E-02  1.50829763E-03
 -1.72979372E-01 -5.54568743E-01 -6.78889648E-01 -3.76304838E-02 -4.36443551E-02
  3.27586082E-03  3.45339494E-01  4.09161045E-01 -2.00807758E-03  5.06967263E-01
  8.31653996E-01  1.87979592E-01  4.86982653E-01  2.05235947E-03  2.22596974E-02
  1.41016685E-01  5.23953574E-01 -4.79781568E-01 -3.69988971E-01 -3.05660074E-01
 -2.85972911E-03 -7.83660294E-01 -4.27841477E-01 -2.53715731E-03 -9.43625615E-01
 -2.72899977E-01 -1.35949381E-01 -4.25788239E-01  3.60208597E-02 -2.55265135E-02
  3.07616888E-01  1.29914312E+00  1.22285666E+00  5.26698467E-01  2.64646336E-01
  1.34466204E-02  1.12318859E-01  1.01356585E-01  1.18865897E-02 -6.70554739E-01
 -6.29131795E-01 -6.56841040E-01  1.03747963E-01  1.81560673E-02  2.54656060E-02
 -5.70136419E-02 -7.91446257E-02  3.82893705E-03  3.53071511E-02 -2.26210763E-03
 -1.38774534E-02 -8.84565724E-02  2.30295488E-01  3.26055465E-02  1.67049908E-01
  1.02794685E-02  4.20388540E-01 -1.91297343E-01 -5.25617169E-02  5.63407035E-01
 -2.86123995E-01 -4.12600907E-02  2.87892268E-01 -5.45206864E-02 -5.86275346E-02
  3.12294896E-02  1.53962230E-01 -2.45233871E-01 -2.69960911E-01 -1.88717582E-03
  1.77176793E-02 -2.04258029E-01  1.86282090E-01  3.62036171E-02  5.77680093E-01
 -9.18714425E-01  2.64700005E-02 -4.99394266E-01 -9.03911942E-02 -7.77645648E-02
  5.91513724E-02  1.84346004E-01  2.95159991E-01  8.79381274E-02 -1.38954223E-01
 -1.41161115E-02  4.90176310E-02  2.14259129E-02  2.94236733E-03  2.60002313E-01
 -4.93530985E-01 -2.57161415E-01 -5.89530734E-01 -6.12389381E-02 -2.86977683E-02
  8.61871852E-02  6.27425511E-02 -3.23755094E-01  4.79490422E-01 -1.99870022E-03
 -4.38001843E-02  7.00319668E-02 -9.71988086E-01 -1.03890977E-01  6.41821484E-02
  4.38498234E-03  1.74553352E-01 -3.19211101E-01 -1.28678548E-02  3.51245330E-01
 -1.57978881E-01  2.81364758E-01  7.89030008E-02 -5.08276219E-04 -1.30384545E-03
  6.41880512E-02  1.99505756E-01 -3.36590148E-01 -1.39599789E-01  2.51184616E-01
  3.87973378E-03 -1.37497977E+00  5.67236242E-01  2.18542147E-02 -3.60566010E-01
 -1.10489563E-01 -1.40766574E-01  2.27018320E-01  1.93431383E-03 -5.76902366E-04
 -4.87479658E-03 -1.91811332E-02  1.00671876E+00  1.44038730E-01 -2.48855747E-01
 -3.39351422E-03 -8.52828033E-02 -1.13564436E+00 -1.53875791E-02 -1.48601625E-01
  2.77469922E-01 -6.13445396E-02  3.00727772E-01  1.25621772E-02 -2.12065158E-03
  4.83070743E-02 -3.25552532E-02 -5.31436100E-03  1.49659617E-02 -1.54419096E-02
  7.34741479E-03  3.28822225E-02  3.82113922E-02  2.64999172E-02 -3.82795018E-03
 -3.31563313E-02 -5.89643557E-02  4.02218045E-02  8.45703441E-02 -1.35565802E-02
  5.30813373E-03 -3.74128848E-02 -3.33612131E-02 -1.08033131E-01  1.07444551E-01
 -5.73442511E-03 -3.72007616E-02  1.24523529E-01  5.60854049E-02  4.02530190E-03
 -8.23169366E-02  1.64711197E-01  1.10003245E-02 -1.60521132E-01 -8.78431730E-02
 -9.91137406E-02  2.15628720E-01  1.07048297E-01  4.70147810E-01 -5.34649007E-01
 -1.04376248E-02 -3.73949437E-02 -1.73530968E-01 -1.15310023E-02  2.13258451E-02
  8.18556146E-02  2.57578100E-02  4.82428819E-02  1.13385766E-01  7.69980189E-02
  2.40074985E-01 -2.32227308E-01 -7.14523552E-02 -1.72426760E-01  6.44090390E-01
  1.02749444E-01 -1.84007276E-02 -3.00526734E-04  1.09394455E-02  3.99925247E-03
 -8.30845613E-03 -3.05645770E-02 -3.16920319E-02 -3.33692369E-02 -1.30963259E-01
  1.78744065E-02 -4.20339333E-02  2.11798339E-01 -4.41432369E-02 -1.68378270E-02
  6.47950260E-02 -4.26663014E-02 -7.15329151E-02  8.86884408E-03 -5.42079137E-02
 -7.81984449E-05 -1.21028174E-02  5.80311901E-02 -3.97060908E-02 -6.90163776E-02
  2.29240360E-02  1.29685766E-01 -1.33179442E-01  6.30700982E-02 -1.44902107E-01
 -1.74824636E-01  3.89840155E-01  4.09828367E-01 -1.61958662E-01  1.59494009E-01
  1.10517295E-02  1.58711072E-02 -5.41668659E-02 -1.12849196E-01  6.39756312E-02
 -7.16543156E-03 -2.93853104E-02  1.31166254E-01 -1.19669730E-02 -4.09410675E-02
  5.97600434E-01 -6.86052332E-01 -3.13913456E-01  1.18087038E-01 -2.59143959E-01
 -1.18106227E-01 -1.11413311E-01 -7.28581051E-02  4.67596527E-02  1.08170304E-03
  1.53094979E-01  5.86816201E-01  1.33926003E-01  3.47518391E-01  4.60427373E-01
 -3.39725253E-03 -4.59306759E-01 -5.40006951E-01  4.09893811E-03 -4.96323530E-01
  2.85486857E-02 -3.22510088E-01  2.19456560E-03  1.22667931E-03 -3.87300322E-02
 -2.17093097E-02 -1.56419507E-01  8.73377756E-01  4.59194058E-01  3.29597596E-01
  3.00713510E-03  3.29944845E-01  2.04320873E-01  1.13577872E-02 -6.80919597E-01
  3.10229726E-03  4.60030567E-01 -6.71265065E-01 -3.37655707E-02  5.16975990E-02
  1.10293722E-01  6.59251339E-01 -6.70695443E-01  5.82657416E-01  1.14899395E-01
 -9.77320050E-03  4.67720169E-01  2.61630935E-02 -1.59592270E-02  5.24249407E-01
 -2.85839454E-01 -4.76734787E-01  2.68542003E-01  2.35410389E-03 -3.62153805E-02
  6.17364697E-03 -4.62591898E-03  7.18687684E-04 -2.01187311E-03  6.93690463E-03
  5.69234954E-03  3.25523886E-02 -4.76627728E-02  2.72822919E-02  1.35041029E-02
 -6.95240264E-02 -4.26150906E-02 -1.75799528E-02  1.60347170E-01  2.92330863E-02
 -1.29876084E-02 -1.77763452E-02  2.37218501E-02 -1.61316033E-01 -1.88690334E-01
 -5.75257133E-03 -1.99796624E-02  4.94493481E-02  5.73742640E-03 -4.26723543E-02
 -6.75774817E-01  2.62577295E-02 -4.12149876E-02 -6.13161394E-01  6.00102034E-03
 -4.17292620E-02  6.48341516E-02  2.67829030E-04 -2.07935931E-01 -1.63489217E-01
  1.17320954E-02  4.84188718E-02 -2.75862350E-02 -1.66541060E-02 -2.34642128E-02
 -5.20426934E-01 -1.78729391E-02 -1.58102694E-04 -3.34216483E-01 -7.52664121E-02
 -2.15772864E-02  3.63685646E-02  3.45577039E-02  4.44272713E-01  1.32855857E-01
 -6.25296030E-02  3.02864602E-01  5.32763895E-02 -1.53994677E-01  8.79965419E-03
  6.05656005E-02  2.63752612E-01 -2.96074749E-02  2.77602707E-01 -9.00325710E-02
 -3.21756190E-02 -4.58357804E-01  1.83444311E-01  8.36028034E-02  2.69608990E-01
 -6.18182928E-01  9.74087315E-02  3.40138876E-01 -1.14659598E-01 -1.06203230E-01
 -1.00988947E-02 -2.63894447E-02  4.88339505E-01  4.04152615E-02  6.51416498E-02
 -2.45949232E-02  4.12231167E-01  2.50357462E-01 -4.20635735E-02 -2.96896731E-01
  3.10426710E-01 -4.42168199E-03  6.01872878E-02  8.36518004E-02  5.88151471E-02
  6.67937201E-02  2.96447612E-01 -6.11986390E-01 -1.24096870E-02  6.72819038E-03
  2.41104624E-02  2.17498378E-01 -1.43675596E-02  9.60201057E-03 -1.49033221E-02
 -1.25995379E-01 -1.30837460E-01 -9.52135965E-02 -1.66818484E-02 -1.61917136E-02
  9.43034649E-02  1.12680750E-02 -3.41965603E-03  8.79961676E-02 -1.97162474E-02
  7.64512966E-02  3.50246389E-01 -1.72689058E-01  9.95638513E-02 -6.52984539E-02
  3.85111749E-02 -2.47881248E-01  1.51302236E-01 -9.16296734E-02  4.66532296E-01
  8.99436147E-02 -8.48457047E-01 -2.79994545E-01  3.66165997E-02  1.89136856E-01
 -4.57588901E-02 -1.83643319E-01  2.17208666E-01 -3.99275460E-02  3.78483865E-02
  1.94191791E-02  1.39403918E-01  7.60538001E-02  3.46123418E-02  5.17686059E-02
  3.51313897E-01 -1.53714093E-01 -7.93297740E-02 -8.27800028E-02 -8.32663537E-02
  3.32114819E-02  1.27464309E-01 -2.03853339E-01 -7.07955879E-02 -4.75018289E-02
 -1.92860136E-02  2.29660507E-02 -4.98519752E-02  3.71937318E-03 -3.70507521E-02
 -3.16341780E-02 -1.07390320E-01 -1.17941754E-01  4.03386833E-02 -1.18072023E-02
 -1.68504867E-03  1.08545024E-02  1.67442175E-03 -5.14433583E-03  1.43495927E-02
  9.07675098E-03  3.74238918E-02 -1.38695604E-02  4.10760564E-03 -7.31603979E-03
  8.78935220E-02 -4.21280350E-03  5.31275368E-03 -1.57707075E-01 -4.59157896E-03
 -2.05216947E-02 -8.28136771E-03  1.22906778E-02 -7.84934343E-02 -1.94111486E-01
 -1.02345145E-02 -4.10160542E-02  5.78190326E-03 -1.24622370E-02  9.33169272E-04
  4.81743486E-02 -4.27636519E-03  1.10004947E-02  1.48405363E-01  3.55797405E-02
  3.03709872E-02 -9.79276512E-03 -1.41483871E-02 -3.27743700E-01  2.93981813E-01
  6.76009767E-03  2.58668401E-02 -7.38953243E-03 -1.74246024E-02 -2.66431434E-03
  3.79964805E-01 -1.14963435E-02  2.87355748E-03  4.90596258E-01 -2.87843582E-02
  1.35685819E-02 -2.14263653E-02  1.04924140E-03  2.75421565E-01  6.02021604E-01
 -5.15906100E-03 -2.17900960E-03 -1.71034419E-03 -9.05246656E-03 -7.66415391E-02
  1.13410607E-02  4.23571650E-02 -7.97188614E-03  7.42934970E-03  1.27309799E-02
  9.47388167E-04 -3.69468920E-03 -2.95445289E-02 -3.56732587E-03 -7.80615833E-02
 -3.16593238E-02  5.86459363E-02  5.11781768E-02 -6.81325747E-01  6.75618986E-01
 -4.67838236E-03 -1.92091178E-02  2.47692714E-02  1.92928274E-03 -4.91304175E-03
  1.64812652E-02  3.43804764E-04 -8.80770988E-03  3.32968344E-02  4.82417055E-03
 -4.59030013E-02  6.40613481E-02  9.55134186E-03 -1.33552096E-01  1.08399066E-01
  1.53301489E-03  8.29906640E-03 -9.86979677E-03 -3.62041425E-03 -2.41409256E-03
 -4.48688551E-02 -4.10913998E-03  7.58421216E-03 -4.52208025E-02 -1.74492556E-02
 -1.09759365E-02  2.10179316E-02  2.18763588E-02 -2.46932943E-02 -1.88396368E-02
  1.95312356E-01  2.05795575E-02 -6.42818264E-03 -2.89168306E-03 -1.20446026E-05
 -2.11670702E-01 -2.05609649E-01 -1.84912435E+00  8.51115588E-02 -1.44664609E-02
  7.81701689E-04 -8.04507669E-01 -5.20607568E-01 -1.93825008E-03  4.93590763E-01
  3.51462751E-01  9.38886418E-01 -5.55759287E-01  5.95300774E-03  6.24038665E-03
 -2.30660246E-01 -5.58686973E-01  6.58251293E-01  2.66467416E-02  1.11899094E-01
  4.04240048E-03  3.07501129E-01 -9.32112222E-02 -2.77547873E-03  1.10925252E+00
  6.82514426E-01  5.22169170E-01  3.13267635E-01 -1.20713368E-02 -1.21811890E-03
  2.43107576E-01  6.70459606E-01  2.03322217E-01 -3.16461438E-01 -2.21134944E-01
 -2.30579979E-03  3.04858886E-01  9.56261276E-02  2.95131736E-03 -9.65901008E-01
 -6.71863867E-01 -6.01502362E-01 -1.97287832E-01 -1.48085321E-02 -1.93714052E-03
 -5.89702601E-01  3.84250885E-01  1.67288599E-01 -1.96159940E-01  2.57638104E-03
 -6.60254632E-03 -2.51747580E-01  1.70513890E+00 -1.34636367E-02  7.32314017E-02
  2.42505521E-03  5.72502122E-01  3.09807823E-01 -2.68422668E-03 -1.00532824E-02
  1.34159601E-01 -1.66466090E-01 -6.93958112E-03  7.31385346E-03  4.78290076E-03
  2.02862958E-01  3.05908847E-01  1.11176039E+00  2.75615730E-01  1.67975352E-01
 -7.36122959E-04  2.00922393E+00  1.55507947E+00 -8.33651338E-03 -3.52039781E-01
 -8.01878600E-01 -7.40435810E-01  2.05284629E-01 -1.04193719E-02 -2.29574815E-03
  1.20998268E-01  3.22812468E-02 -1.18215566E+00 -2.39103775E-01 -8.62514521E-02
 -1.32255183E-03  2.22132616E-01 -6.42673909E-02  5.99806364E-03 -8.67012394E-02
 -4.48805921E-01 -6.04470148E-01  3.34072620E-01 -9.39576353E-03 -1.61045600E-03
  2.61841082E-04  2.76400443E-03  7.77233315E-03 -9.71019490E-03 -7.28934986E-01
 -3.46928423E-03 -8.15769136E-03 -7.41274373E-03  2.91245324E-03 -1.17579225E-03
  5.49329516E-02 -3.05176564E-03  5.86555281E-03 -3.10339488E-01  1.09993679E-02
  1.53304296E-02  8.95995425E-03 -3.09612305E-04 -4.15923963E-02 -1.91978824E-01
  4.17889111E-04 -1.11777780E-03  1.95898816E-02  7.29231993E-03  2.15300552E-05
  2.51664092E-01  2.92034069E-02  4.29646000E-03  1.04711277E+00 -2.17771961E-03
 -4.09172736E-03 -3.00017864E-03 -4.40035949E-03  2.06780935E-01  3.01859087E-02
 -1.23913045E-03 -5.86169519E-03 -2.75803434E-02 -3.48194435E-03  1.55911525E-03
 -2.34257718E-01 -1.54918410E-03  9.34572075E-03 -8.79581748E-01  7.71622321E-03
 -1.49530132E-03  5.14921324E-03  5.41194564E-03  2.91823852E-01  1.57657679E-01
Total SCF Density                          R   N=        1275
  3.15767022E-01  3.43985966E-01  4.18491045E-01  1.19496017E-03  3.01791033E-03
  1.70181553E-04  1.92907866E-03 -3.68869603E-03 -3.23592315E-04  9.80856806E-04
  2.28233706E-05  6.37880053E-05  3.96523030E-06 -9.19034289E-06  1.07275687E-04
 -1.04778310E-02 -4.70848184E-02 -3.80454465E-03  6.43424554E-03 -1.64196004E-05
  2.13530008E+00 -2.00974624E-02 -9.21348029E-02 -7.37515846E-03  1.39844630E-02
  1.75372510E-05  2.96233510E-01  8.06728738E-01 -1.27194017E-01 -2.44643506E-01
 -8.64158514E-03  1.73987677E-02 -1.42380460E-04  3.17374862E-01  5.58261645E-01
  6.23595697E-01  2.91771199E-02 -4.55140219E-02  1.82318127E-03  5.67363633E-03
 -4.58799232E-06 -4.87169844E-02 -1.01180245E-01 -8.74134383E-02  6.31119543E-01
 -8.77725902E-02  2.72367827E-02  4.82738194E-03 -1.70014846E-02  2.29819289E-05
 -4.59652998E-02 -8.34457253E-02 -2.49646106E-01 -1.41355222E-01  5.01270765E-01
 -6.06039338E-05  5.33565323E-05  2.78023426E-06  1.64890236E-05  7.11691422E-03
  1.17309179E-04  2.74665357E-04 -5.02683159E-05 -1.97978211E-04 -3.70496597E-04
  7.65210146E-01  1.56494015E-02 -5.61906465E-02  5.56809402E-04  6.41779920E-03
 -3.17691452E-06 -2.32062681E-02 -7.24226586E-02 -5.67179499E-03  4.16851526E-01
 -1.69935791E-01  2.13012629E-04  3.15093078E-01 -2.52344250E-02  5.27168878E-02
  2.82998889E-03 -1.02859287E-02  5.68794601E-05 -2.45169016E-02 -5.89967324E-02
 -1.54287917E-01 -1.36079844E-01  2.71537022E-01  1.92127238E-04 -1.37664872E-01
  1.67870111E-01 -1.10584874E-05  3.90365091E-04  4.42676183E-05 -6.28133685E-05
  5.63246057E-03 -2.19272733E-05  6.03822411E-04 -1.30818388E-03  1.31354599E-04
 -6.68272708E-05  5.40096702E-01  3.39918809E-04  5.60366017E-04  4.11408614E-01
 -8.03295823E-04 -7.90806698E-03 -1.33095713E-04  1.02805253E-03 -2.56005893E-05
  1.28326958E-02  1.18651084E-03  1.67208802E-02  2.65293748E-02 -1.35253183E-02
  1.07951726E-04  1.59608359E-02 -1.08672238E-02 -2.57478098E-05  9.06136256E-03
  6.90956436E-03  1.08582441E-02 -3.70579990E-04  3.76812804E-04 -2.02681063E-05
  1.33046948E-02  2.65176011E-03  5.35704938E-03 -1.67463571E-02  1.67039779E-02
  1.32309194E-04 -1.49376396E-02  1.00612702E-02 -1.00003385E-04  2.49466597E-03
  8.62347126E-03 -1.90344996E-03 -2.71989568E-03 -2.21915406E-04  1.21299833E-04
 -3.76168331E-06  1.22442640E-02  2.33509956E-04  2.04166497E-02 -1.31556151E-02
 -4.77767918E-03  8.31684882E-05 -8.00264772E-03 -1.77669628E-03 -9.24966559E-05
  2.58657562E-03  2.93567527E-03  7.71179566E-03 -5.94780807E-03 -3.83398018E-03
  1.80841976E-04 -7.97230996E-04  2.88199367E-06 -3.93870187E-04  2.83207424E-04
 -9.28752898E-03  1.34670551E-02  1.65974178E-02  6.36235044E-06  4.59497128E-03
  5.57062229E-03  6.61597532E-06  3.95049749E-04 -6.53785953E-05  1.14502389E-04
  3.63458217E-03 -5.44578151E-05 -1.10038762E-04 -1.86676889E-05  1.20441761E-05
  3.24595023E-04 -7.69174647E-05 -5.44908731E-04  5.82905488E-04  7.07360031E-06
  8.99272838E-05  2.63249588E-02  8.76240918E-05 -1.23238924E-04  1.77702746E-02
 -2.74808780E-05  1.16746445E-04  2.10912100E-04  5.77948404E-05  3.92900419E-03
 -3.95286082E-05 -1.71878485E-04 -2.29414169E-05  4.33514287E-05 -5.26193381E-05
 -7.11168471E-05 -5.77092528E-04  6.66143505E-04  3.05689106E-05  1.17512555E-04
  2.06285005E-02  1.36977115E-05 -1.77859629E-04  1.36183485E-02  1.15587640E-04
  1.38181995E-04  7.73486021E-05  2.04197015E-05  8.36597113E-04  3.45420108E-03
  2.16714428E-03  1.34467877E-02  3.87990068E-04 -2.80376369E-03  7.04837714E-06
  7.72123788E-03  1.03225583E-02 -4.15234818E-02  7.82117800E-02  9.02920501E-02
 -7.46595495E-05  3.55997751E-02  4.17018424E-02  3.61593958E-05  3.91037506E-03
  5.44970240E-03 -4.20481806E-03  1.02024086E-02  1.92631907E-05  1.39348667E-05
  2.10559822E+00 -1.97060935E-03  2.65926198E-02  2.73224064E-03 -5.16225592E-03
 -5.90546759E-06  2.73200287E-03 -1.16248403E-03 -1.38211147E-01  1.66537443E-01
  1.97092854E-01 -1.84705695E-04  6.54845452E-02  7.53540859E-02 -4.20184909E-04
  3.51075923E-03  5.29349545E-03 -9.08904374E-03  1.68616548E-02  2.61015992E-04
  1.53981173E-04  2.48565765E-01  7.49412156E-01  3.63871905E-02  5.19931279E-02
  1.70492495E-03 -2.66350869E-03  3.65231708E-05 -4.92180763E-02 -7.92060178E-02
 -9.11048714E-02  6.85327095E-02  4.03264194E-02  4.91507741E-05  4.01539541E-02
  1.95304006E-02  6.88580397E-04 -3.36444266E-04 -1.58961365E-03 -4.84127196E-03
  3.19314740E-03 -4.66091296E-04 -2.36665616E-04  1.35058075E-01  2.23783768E-01
  1.22240994E-01  3.71439002E-02  8.31846825E-02  2.32201258E-03 -6.08371238E-03
  1.58105439E-05  1.71620812E-02  2.78738303E-02 -8.36349054E-02  1.11051304E-01
  2.34379771E-01 -3.29465111E-05  6.71818779E-02  1.17637569E-01  7.33658082E-05
 -4.63670617E-03  1.70513207E-02 -7.19463909E-03  1.55005394E-02 -2.86864402E-05
 -6.25436607E-06  1.73145900E-03  1.14392496E-02  9.16676828E-03  5.36447353E-01
 -5.90061729E-02 -7.14801542E-02  1.27864682E-03 -5.02717650E-04  1.66102830E-06
  3.60759748E-02  7.19826543E-02 -6.27482058E-02  2.32691383E-01  8.24930092E-02
 -9.44671869E-05  9.28682505E-02  2.14981057E-02 -3.61185964E-06  2.27763855E-02
 -4.98281223E-03 -4.02717468E-03  1.55999807E-02 -2.05779330E-05 -3.26290931E-05
 -1.26579626E-02 -1.77420804E-02 -6.46680711E-02  3.69566788E-03  5.09315759E-01
 -3.84301827E-05 -4.32916123E-05 -2.65914297E-06  9.28003798E-07 -6.38645751E-04
  1.98882673E-06 -5.54100486E-05  1.50830108E-04  1.09338696E-04 -2.05079509E-05
 -1.29063292E-01  6.80985288E-05 -7.86048635E-05 -4.14034362E-02 -2.59823085E-05
  7.92167653E-06  4.53940588E-05  1.62000418E-06 -1.28581395E-02 -1.20457211E-02
 -2.11036273E-05 -3.77388397E-05 -2.44848606E-04 -2.77774450E-05 -1.43906436E-04
  4.80233503E-01 -5.77023917E-02 -1.15747599E-01 -1.85443215E-03  6.16254735E-03
 -3.73070063E-05  2.19850943E-02  2.24034625E-02  1.21104497E-01  6.83245762E-02
 -1.80608016E-01  1.09201080E-04  7.15268902E-02 -1.09886693E-01 -7.28770733E-05
  9.90407033E-03 -1.34785904E-02  2.20131220E-03 -4.71010753E-03 -7.48323744E-05
  9.47952904E-05  1.01983064E-03 -3.58393024E-02 -1.19092029E-03 -1.81578746E-01
  2.50045379E-02 -1.45441581E-04  1.22791976E-01  4.53008409E-02  3.61692355E-02
 -8.11244363E-04  1.72217896E-03 -2.98751942E-06  5.71661359E-03 -1.49594901E-02
  6.12748182E-02 -2.97248592E-02 -7.14429205E-02  1.11793718E-04  2.44585822E-02
 -3.46069282E-02  8.43139220E-05 -8.30428364E-03  1.95086943E-03  5.31135889E-04
 -5.85688780E-03  2.08650872E-05  5.21203917E-05  2.02258388E-02  1.94615451E-02
  4.98694467E-02  8.23100141E-02 -2.54265968E-01  2.65987978E-05 -1.24714181E-02
  1.66513314E-01 -7.93601090E-06 -3.00353614E-05 -9.24621091E-06  1.28655031E-05
  3.52411139E-04  3.04418306E-05 -1.61760041E-04  4.50978656E-04 -1.33416876E-04
 -8.65123453E-06  6.65975780E-02  9.72804500E-06 -3.33857739E-05  2.12397495E-02
 -9.68482413E-06  6.85685185E-05  1.08225258E-04 -6.53144136E-06  7.49995640E-03
  7.18072853E-03 -1.58880545E-05 -2.67358105E-05 -1.81831894E-05 -7.11087366E-05
  1.04683244E-05 -2.51561162E-01  1.23348618E-04  6.80875284E-05  1.37774701E-01
 -4.03686963E-03  7.90415046E-03  3.33941399E-04 -1.41259043E-03  1.70132965E-05
  3.66741883E-03  2.34701355E-03 -2.16230773E-02 -2.22137107E-02  4.40189942E-02
 -1.11736370E-04 -2.52579692E-02  2.74832320E-02  8.43917312E-05 -1.88840899E-03
  2.65964968E-03 -6.00483939E-04  1.03107184E-03 -5.72235860E-05 -7.32344996E-05
  1.80220099E-02  2.59499695E-02  1.22732259E-02 -6.15727390E-03  6.62736324E-03
  4.27966637E-06 -1.31336051E-02 -1.18197573E-02 -2.23472938E-05  1.39180993E-02
  3.01786267E-04 -6.97233390E-03  1.34375873E-04  5.45632248E-04 -2.41198337E-06
  4.44677889E-03  3.76747274E-03  8.96488380E-03  4.76526353E-02 -1.18494201E-02
 -9.35740993E-05  3.66950433E-02 -1.18421287E-02  4.54335112E-05  2.72632938E-03
 -1.64689466E-03 -1.45347797E-03  1.04039645E-03 -3.76613968E-05  1.70326475E-05
  1.25584923E-02  8.29478093E-03  1.48502938E-02  1.69523863E-02  8.15170856E-04
  4.80208061E-05  6.98232770E-03  1.16669837E-02  1.24443486E-05  2.41246900E-03
  1.20466855E-02  2.40545808E-03  5.04752738E-03  1.74181037E-04 -4.16899337E-04
  1.37332892E-05 -4.39095528E-03 -9.93085271E-03 -7.42828817E-03  1.24287979E-03
  5.50736278E-03 -7.47845264E-05  1.35278297E-03  4.95506614E-03  1.96612133E-04
 -8.47984639E-04 -9.98952398E-05  1.03593883E-04 -1.49903563E-04 -1.58713281E-04
 -9.47911610E-05  6.19819743E-03 -1.32359100E-02  8.74234821E-03  4.53784801E-03
 -5.35404246E-03 -2.84864994E-05 -1.08197490E-03  4.51721740E-03 -7.05056166E-05
  4.99722473E-03  4.86430003E-03  7.38427065E-03 -7.23506872E-03 -1.05385150E-02
 -4.10243203E-05  9.71844670E-05 -1.75132813E-06  1.04611892E-02  1.59314527E-02
  1.03992281E-02  1.79480638E-02  7.42135318E-03  3.27074560E-05  1.28431669E-02
 -4.94879456E-04 -3.22254038E-05  3.78786217E-04  4.08601495E-04 -4.73818631E-04
  1.54745647E-03  4.73589811E-05  2.38920425E-05  9.87387122E-03  3.28298741E-02
  6.89191777E-03  1.55160347E-02 -5.34568503E-03  1.95659357E-05 -2.98656631E-03
  7.61490747E-03 -2.93643444E-05  7.85307153E-04  2.68082483E-03 -2.70944082E-04
  4.95911883E-03  6.94120133E-05  1.67190771E-04  1.60306592E-05 -2.76940060E-05
 -4.30998084E-04 -6.73976808E-06  3.17985909E-04 -5.17953637E-04 -7.52587294E-06
 -4.74916881E-05 -4.26460899E-02 -9.98996586E-05  1.80902505E-04 -3.57746555E-02
 -7.51996704E-05 -1.40148327E-04 -1.13571068E-04 -2.06000220E-05 -1.48055378E-03
 -1.39142373E-03  8.65944999E-06 -1.26202741E-04  2.99526310E-04  2.11259846E-05
  7.16955263E-05 -2.11294566E-02 -7.17218352E-06 -2.04258684E-06  1.12730744E-02
  8.66810275E-05  1.08144467E-05  9.46877047E-05 -3.06927504E-05  5.81117811E-03
  4.29913558E-05  1.47641524E-04  9.96889919E-06 -2.44811306E-05 -3.59669531E-04
 -1.10755837E-05  2.67810531E-04 -5.02815138E-04  7.99332512E-06 -5.01949459E-05
 -3.76690964E-02 -2.40126227E-05  1.45237730E-04 -2.97234266E-02 -1.08341270E-04
 -7.67444039E-05 -8.97559742E-05 -2.33357457E-06 -1.84840601E-03 -1.39650418E-03
  1.13081331E-05 -1.12757203E-04  1.11302146E-04 -2.43893095E-05  3.90340550E-05
 -3.65386164E-03 -1.90585587E-04 -8.99408804E-05  2.07954192E-03  7.28159241E-05
 -2.00458872E-05  1.11053121E-04 -1.84027687E-05  2.95419653E-03  3.69226365E-03
 -6.74885709E-03 -8.43437383E-03 -1.84320273E-04  3.70660389E-04 -2.03478766E-06
  1.36540951E-03  3.03261664E-03  1.78198451E-02 -1.86493362E-02 -1.11642305E-02
  2.02120197E-05 -9.40512962E-03 -1.65510667E-03 -1.09794969E-05 -7.99349685E-04
 -1.68321099E-03  5.08020295E-04 -1.67589731E-03 -2.25486224E-05 -1.43933952E-05
  2.44307992E-02  3.45003181E-02 -4.28892663E-02 -7.47921813E-02 -2.60615045E-02
 -1.05352581E-05  5.29110696E-03 -4.34728713E-03  1.84550369E-05  1.04034852E-02
 -9.60528765E-04 -2.11285672E-03  5.49080934E-03 -9.28551860E-07  1.46345023E-05
  2.12288573E+00 -2.05369598E-02 -2.48319904E-02 -1.10411989E-04  7.97270288E-04
  7.52638384E-06  4.36006515E-03  1.67151768E-02  4.89274278E-03 -4.93718823E-02
 -2.41771812E-02  2.44791163E-05 -3.59287919E-02 -1.89640899E-02  1.45966948E-04
  4.79366999E-04 -2.77615115E-03  3.52722457E-03 -4.42150059E-03 -1.66641950E-04
 -1.13294402E-04  3.86039784E-02  2.65104222E-02 -8.51337346E-02 -1.39881830E-01
 -3.80534960E-02  3.00765306E-05 -2.60344325E-02 -4.40423151E-02  1.27327616E-05
  1.46022374E-02 -3.81492604E-03 -4.93649721E-03  7.51593227E-03  1.65604060E-04
  9.00989409E-05  2.70076730E-01  7.62260528E-01  1.74470686E-02  5.92882114E-02
  1.22173272E-03 -4.05620415E-03  3.08431574E-06  2.84361298E-03  2.07064218E-02
 -9.12654068E-02 -6.02235304E-02  1.44992422E-01 -1.07244456E-04 -7.20215304E-02
  8.29963197E-02 -4.00604656E-04 -4.14155497E-03  1.06457862E-02  4.62908116E-04
  3.97374742E-03  3.40170879E-04  8.27265449E-05 -6.85303165E-02 -1.21987867E-01
 -1.55833485E-01  1.14933599E-01  9.54624966E-02  1.26068601E-04 -1.35385626E-01
 -9.08471771E-02 -5.92918826E-05  9.65638694E-03 -1.57410125E-02 -7.02450590E-03
  7.30186763E-04 -2.69572225E-04  1.19175674E-04  2.60936915E-01  5.12057232E-01
  6.35023386E-01 -2.50604689E-02 -6.31512878E-02 -1.71613140E-03  3.91942336E-03
 -1.11066052E-05 -2.79735483E-03 -1.01662459E-02  1.04396396E-01 -2.33230637E-02
 -1.33366646E-01 -2.20722995E-05  1.88963511E-02 -7.94424850E-02 -9.64907293E-05
 -2.72786971E-03 -6.18166537E-03  1.45538873E-03 -7.20268065E-03  1.45411158E-05
  6.20083940E-06  1.28538481E-01  2.60090857E-01  1.59207733E-01 -2.07596264E-01
 -2.34495952E-01  8.23877994E-05  1.15548907E-01  1.29175637E-01 -8.35155307E-06
  5.86605293E-03  1.38059750E-02  5.97959871E-03  1.00032868E-02 -2.64960552E-05
 -5.28931493E-06 -7.03455126E-02 -1.44168459E-01 -3.97230953E-01  4.61119297E-01
  1.40384124E-02  6.33217978E-02  1.15717504E-03 -4.15319248E-03  2.30713168E-06
 -1.29391748E-02 -1.81114307E-02 -1.30372285E-01 -1.53979866E-01  9.68131774E-02
 -2.03419890E-05 -1.74858574E-01  7.72014686E-02 -8.49058695E-05  1.38363576E-03
 -7.12603114E-04  2.97585887E-03 -7.85171651E-05  3.47629292E-05  5.17289267E-05
  4.75559991E-02  9.80875236E-02  2.59122328E-02 -2.83716412E-01  1.91481079E-01
 -9.25485564E-06  3.71983635E-02 -1.87748460E-01  2.48165836E-05  3.44602117E-02
 -2.62412053E-02 -5.16279703E-04 -1.90319158E-02 -3.31908678E-05 -3.84032790E-05
 -2.89565952E-02 -4.99524340E-02 -8.94622983E-02  5.08186403E-02  4.84948890E-01
 -5.18206801E-07  1.24419143E-04  1.42104721E-05 -1.11828148E-05  2.25348696E-03
  6.41195093E-05  3.27592866E-04 -4.13616567E-04 -2.82384481E-05 -1.17650289E-04
  1.89706789E-01  4.19108267E-05  1.42211039E-04  1.88255434E-01  3.17544901E-05
 -2.01095699E-05 -1.75384538E-05 -7.29884165E-06 -2.39245755E-04 -1.94541183E-03
 -2.81179069E-05 -1.09991860E-04 -5.01334532E-05  1.88478834E-05 -4.37105130E-05
  3.48588733E-01 -1.45284697E-04 -4.39681032E-05 -1.96663547E-01  3.93492272E-06
  4.76155196E-06 -1.47288182E-05 -1.04115199E-05 -3.71630692E-02 -1.89807590E-02
  8.09488854E-06  6.42345107E-05  1.07835142E-04 -1.25075960E-04  4.99223275E-05
  4.34853273E-01  1.84499225E-02  2.98433713E-02  6.29936220E-04 -1.12321000E-03
 -5.41947216E-06 -2.36110513E-03 -6.03091758E-03 -4.09227117E-02  9.37314654E-03
  2.71239720E-02 -3.45673040E-05 -5.79004779E-03  1.78296623E-02 -1.12430645E-04
  1.60825492E-03  2.83520184E-04 -2.43972622E-04  1.60405044E-03  3.29252649E-05
  6.21360414E-05 -2.95572526E-02 -8.19132743E-02 -5.10655130E-02  4.08035031E-02
  7.47603718E-02 -9.30649678E-05 -3.05050762E-02 -4.55811639E-02  8.39501447E-05
 -1.99941663E-03 -4.25383701E-03 -1.76992228E-03 -4.07570737E-03 -1.62924395E-05
 -6.97797735E-05  4.18496461E-02  7.95150622E-02  1.45965044E-01 -1.41462706E-01
 -5.29233052E-03 -8.85953926E-05  4.93898852E-02 -4.10481807E-02 -9.50972088E-02
 -1.40522376E-03  4.92507990E-03 -2.52530353E-05  1.08310018E-02  1.90627697E-02
  1.21736558E-01  1.42731381E-01 -1.18767496E-01 -1.99613440E-05  1.47202733E-01
 -8.94378825E-02 -1.60978895E-04  3.29451927E-03 -4.83721887E-03 -1.40852640E-03
 -5.56601746E-04  2.85841188E-06  3.78742158E-05 -9.72794407E-03 -2.87381099E-02
 -3.81667635E-03  1.08576799E-01 -1.11126321E-01 -5.52200550E-05  2.39929049E-02
  1.13027644E-01  1.16313948E-05 -2.43608553E-02  2.09063995E-02 -3.33740708E-04
  1.34980913E-02 -5.31758422E-05 -6.31057420E-05  1.88674964E-02  3.48993673E-02
  1.49565814E-03  3.08620957E-02 -2.74007000E-01 -1.45808213E-04 -1.35038115E-02
  1.82864957E-01 -1.38001432E-05 -1.31154286E-04 -3.40521722E-06  4.70235368E-06
 -1.96972178E-03 -3.77304494E-05 -1.87577528E-04  2.66628710E-04  4.66618034E-05
  4.81159818E-05 -1.76170866E-01 -4.35216058E-05 -1.48250002E-04 -1.57761915E-01
  3.39896427E-05 -4.00142020E-05 -2.03211041E-05  4.11692821E-07 -2.39399452E-03
 -1.12468299E-03 -7.10486552E-06  9.92964413E-05  1.07911488E-04  8.76069821E-05
  3.49889068E-05 -1.89621640E-01  2.01747153E-04  7.07239323E-05  1.06525568E-01
  6.89943943E-06  4.82740469E-05 -5.91925016E-05 -1.02457090E-05  2.51485419E-02
  1.46081407E-02 -4.01018548E-05 -6.59291043E-05 -3.12825365E-04  5.17088542E-05
 -7.56206889E-05 -2.54155228E-01  8.04421838E-05  1.67569641E-04  1.60271340E-01
  5.97065659E-04 -2.20687493E-03 -2.22923209E-04  4.16722861E-04 -1.43344314E-05
 -2.06827030E-03 -8.79991660E-04  1.08652545E-02 -6.16956950E-03 -1.38341390E-02
  3.46409429E-05  4.23261681E-04 -7.83910658E-03 -1.30444052E-04 -6.95676629E-04
 -1.24745747E-04  2.77667322E-04 -9.29829187E-04  9.84814211E-05  9.54605177E-05
  1.07863908E-02  1.66942213E-02  5.91166257E-03 -1.41531620E-02 -3.16413995E-02
  1.06890760E-05  5.36360426E-03  1.60879757E-02  5.08352330E-05 -1.27088352E-03
  1.08873880E-03  9.85730179E-06  1.24166998E-03 -8.52363948E-05 -9.87612169E-05
  8.99280626E-03  1.25060916E-03  2.50319895E-03  2.47724802E-02 -1.12248578E-02
 -1.71904585E-05 -3.78394340E-03  1.12774006E-02  7.90341576E-06  1.08582218E-02
 -1.93911197E-03 -6.54715975E-04  3.51902459E-05 -1.23788203E-04 -3.25090212E-06
  7.93591411E-04  2.44590251E-03 -5.35136601E-03 -1.27246778E-03  5.09426130E-03
  8.48898726E-06 -5.39492993E-03  3.12538581E-03 -5.12724542E-05  9.73608719E-04
  1.97087371E-05  8.20009699E-05  6.67803852E-04  5.51763874E-05  2.23225222E-05
 -2.68224568E-03 -7.01662008E-03 -9.78533390E-03 -1.11249336E-02  2.42398042E-02
 -3.94909454E-05  8.17964104E-04 -1.73251488E-02  4.79206836E-05  9.62101617E-04
 -1.78429098E-03 -5.78579945E-04 -1.81192381E-03 -5.05082283E-05 -7.24496221E-06
  1.21823127E-02  2.11660882E-03  3.09165108E-02 -2.05805263E-02  1.72882095E-02
 -5.49452140E-06  9.07953861E-03 -1.02698290E-02  4.13772825E-06  3.84702218E-03
  9.58123195E-03 -1.25652264E-03 -7.61102385E-04 -4.32031160E-05  1.86567375E-06
 -8.44365085E-07  7.73969889E-04  2.48524980E-03  5.83802853E-04  4.48313931E-04
  3.50026086E-03  3.35447313E-05 -6.99881195E-05  2.14286535E-03 -1.66961019E-05
 -1.08806658E-04  7.29148937E-04  4.35978858E-05  3.67252509E-04 -2.63145499E-05
 -1.52733162E-05 -4.90101849E-03 -1.10757084E-02 -1.00791791E-02  8.03037261E-03
  5.87851729E-03 -3.35657927E-05 -4.32011144E-03 -2.69154755E-03 -5.50695875E-05
 -7.46429035E-04 -7.13982498E-04  7.31484392E-05 -1.86070704E-04 -2.89209366E-05
 -1.78327365E-05  1.22935327E-02 -6.17381490E-06  3.33962683E-02 -2.01519216E-02
 -9.10303900E-03 -1.99117697E-05  7.58664499E-03  3.39906048E-03 -1.90971639E-05
  4.77916415E-03  6.17984140E-03  8.44911157E-03 -1.59559079E-03 -1.80427485E-03
  4.60533576E-06  9.59296753E-06  2.50781535E-07 -3.60905690E-04 -4.01788699E-04
 -4.23661487E-03 -3.94053706E-03 -2.59036181E-03  2.31354001E-05 -6.28908360E-03
 -1.24385529E-03  9.54503930E-06  7.51517543E-04 -9.58129612E-04  3.81932895E-04
 -1.43767516E-04 -7.69897489E-05 -4.05949839E-05  7.10660759E-03  1.30641504E-02
  3.72137736E-03 -3.10650018E-02  1.40721536E-02 -3.19488223E-05  8.56974495E-03
 -1.37864147E-02 -4.37497276E-05  2.25874216E-03 -1.76652797E-03 -2.45958101E-04
 -1.26385466E-03  3.91387265E-05 -2.76601005E-05 -5.81519580E-04  3.79283599E-03
 -1.00228154E-02  1.17008021E-02  3.25018057E-02  3.67107611E-05 -1.53651018E-03
 -1.52582440E-02  3.71145846E-05  3.67130579E-04  1.29826034E-03 -1.26816778E-03
  4.28773591E-03 -1.39860224E-05 -8.86973240E-05 -1.58161438E-06  8.98119047E-06
  1.04924259E-04  1.00820090E-05 -1.13682050E-04  1.77801862E-04  7.52136386E-06
  2.22752904E-05  4.90390728E-03 -3.25393087E-05 -1.19027853E-04  8.27170845E-03
  1.39324290E-04  3.52420043E-05  1.72113513E-05  1.65161784E-05 -6.97008865E-04
 -8.60997950E-04  6.48251762E-08  4.34916777E-05  1.13906517E-05  2.81397800E-05
 -5.55231985E-05  3.64424402E-02  1.41757046E-04  3.24074341E-06 -2.01892147E-02
 -4.57832586E-05  8.96574006E-06 -1.91464792E-05  2.67883338E-05 -3.29664737E-03
 -1.55433061E-03 -9.41011877E-06 -1.04412472E-04 -8.82645591E-05 -3.41171577E-06
  4.22326324E-05  3.47723276E-02  4.61400142E-05  8.24015793E-05 -1.98297705E-02
  3.09178152E-05  1.15163065E-05  5.66781284E-05  7.85028593E-05  4.46740025E-03
 -1.44999894E-05 -2.41310384E-05 -2.78679947E-06  4.42420034E-06  6.68436831E-05
  3.63672752E-06 -4.60678827E-05  7.81497876E-05 -5.68593929E-06 -1.85375249E-05
  1.98368603E-03  5.60891911E-05 -1.54441176E-05  3.47178142E-03 -2.61773341E-05
  2.94535091E-05  4.74023892E-05  3.26984160E-06 -2.41522965E-04 -5.10082478E-04
  4.84045763E-07 -1.23302448E-05 -1.48018494E-04 -3.01497992E-05 -1.55547391E-05
  1.63776830E-02 -5.29682342E-05  2.92566506E-05 -9.02322545E-03  3.34104247E-05
  3.09423338E-06 -2.72461478E-05  1.14260629E-05 -1.66906960E-03 -1.56101669E-04
  1.21897324E-05 -3.73217859E-05  1.45077960E-04 -1.80854948E-05 -1.38066511E-05
  1.58080132E-02 -4.56284299E-05 -2.50140368E-05 -8.54277742E-03  2.44049470E-05
  1.60432037E-05  2.13561318E-05 -4.50471157E-05  1.65314404E-03  2.26831901E-03
Natural orbital occupancies                R   N=          45
  9.99986008E-01  9.99944694E-01  9.99929447E-01  9.95396606E-01  9.94289926E-01
  9.90727022E-01  9.90577771E-01  9.88799051E-01  9.85453627E-01  9.80427215E-01
  9.79775995E-01  5.00000000E-01  1.86786858E-02  1.83398739E-02  6.56581946E-04
  8.80085502E-03  3.98150804E-03  3.01605721E-03  3.23153229E-03  1.97345843E-03
  2.37857004E-05  1.99281199E-05  5.81863763E-06  1.15113224E-03  8.14406727E-04
  1.34624100E-02  1.21793154E-03  3.20069943E-03  4.33197201E-03  1.10598678E-03
  1.15631712E-03  2.89369807E-05  2.51333380E-05  4.38594823E-06  3.94186770E-04
  4.18504255E-04  4.27380800E-04  1.18216288E-03  2.24002183E-03  1.92494902E-03
  1.37255475E-03  1.47361856E-03  1.78300825E-05  1.02446096E-05  3.78771510E-06
Dipole Moment                              R   N=           3
  1.47470760E-01  5.02315801E-01  9.65200641E-04
