[Molden Format]
p30-5 set                                                                       
[Atoms] AU
 F        1     9        0.0000        0.0000        0.8649
 H        2     1        0.0000        0.0000       -0.8649
[GTO]
    1 0
s    5 1.00
    2894.832599000000 -0.534932117607E-02
     435.419391200000 -0.399677343716E-01
      98.843328866000 -0.179412617888E+00
      27.485198001000 -0.468324686869E+00
       8.540549817100 -0.447241605328E+00
s    1 1.00
       1.065457803800  0.100000000000E+01
s    1 1.00
       0.332473467480  0.100000000000E+01
p    3 1.00
      22.696633924000 -0.647821482412E-01
       4.987233925700 -0.340357853553E+00
       1.349161395400 -0.734858153660E+00
p    1 1.00
       0.348298819770  0.100000000000E+01
d    1 1.00
       1.400000000000  0.100000000000E+01
 
    2 0
s    3 1.00
      13.010701000000  0.334854848130E-01
       1.962257200000  0.234721870881E+00
       0.444537960000  0.813770285260E+00
s    1 1.00
       0.121949620000  0.100000000000E+01
p    1 1.00
       0.800000000000  0.100000000000E+01
 
[MO]
Sym=     1a
Ene=   -0.263261E+02
Spin= Alpha
Occup= 1.999987
     1     0.987144
     2    -0.041383
     3     0.005480
     4    -0.000008
     5     0.000001
     6    -0.001061
     7     0.000008
     8    -0.000002
     9    -0.000298
    10     0.006191
    11     0.006199
    12     0.005959
    13     0.000000
    14    -0.000001
    15    -0.000001
    16     0.001313
    17    -0.000904
    18     0.000002
    19    -0.000001
    20     0.001038
Sym=     2a
Ene=   -0.150741E+01
Spin= Alpha
Occup= 1.987374
     1     0.306235
     2     0.611322
     3     0.439684
     4     0.002594
     5    -0.000396
     6    -0.121905
     7    -0.001838
     8     0.000278
     9     0.103069
    10     0.006193
    11     0.006215
    12     0.005931
    13     0.000003
    14     0.000055
    15    -0.000009
    16     0.041356
    17    -0.015049
    18    -0.000120
    19     0.000018
    20     0.019639
Sym=     3a
Ene=   -0.677798E+00
Spin= Alpha
Occup= 1.981828
     1    -0.001151
     2    -0.002306
     3    -0.001940
     4     0.656410
     5    -0.100634
     6     0.001166
     7    -0.471601
     8     0.072301
     9    -0.000764
    10    -0.000022
    11    -0.000018
    12     0.000020
    13     0.000002
    14     0.014189
    15    -0.002175
    16     0.000378
    17     0.000094
    18    -0.030928
    19     0.004742
    20    -0.000006
Sym=     4a
Ene=   -0.677593E+00
Spin= Alpha
Occup= 1.979974
     1     0.000002
     2     0.000003
     3    -0.000000
     4    -0.100683
     5    -0.656733
     6     0.000002
     7     0.072246
     8     0.471240
     9     0.000001
    10     0.000000
    11    -0.000001
    12     0.000004
    13     0.000001
    14    -0.002167
    15    -0.014136
    16    -0.000000
    17     0.000001
    18     0.004747
    19     0.030963
    20    -0.000000
Sym=     5a
Ene=   -0.883079E+00
Spin= Alpha
Occup= 1.974244
     1     0.025917
     2     0.052463
     3    -0.140301
     4    -0.000831
     5     0.000131
     6     0.547684
     7     0.000586
     8    -0.000089
     9    -0.271593
    10    -0.004111
    11    -0.004121
    12     0.023227
    13    -0.000002
    14    -0.000020
    15     0.000002
    16     0.431871
    17     0.050386
    18     0.000037
    19    -0.000006
    20     0.059465
Sym=     6a
Ene=   -0.987325E-08
Spin= Alpha
Occup= 0.000000
     1     0.000077
     2     0.000329
     3    -0.000926
     4     0.080153
     5    -0.011273
     6     0.000058
     7     0.533725
     8    -0.074772
     9     0.001424
    10    -0.000214
    11     0.000313
    12    -0.000786
    13     0.000093
    14    -0.485648
    15     0.067568
    16     0.001750
    17    -0.000156
    18    -1.120248
    19     0.156790
    20     0.000811
Sym=     7a
Ene=   -0.187794E-01
Spin= Alpha
Occup= 0.011943
     1     0.000011
     2     0.000034
     3     0.000007
     4     0.140912
     5     0.918988
     6    -0.000005
     7     0.150420
     8     0.980972
     9    -0.000015
    10    -0.000012
    11    -0.000017
    12    -0.000004
    13     0.000002
    14    -0.010086
    15    -0.065792
    16    -0.000010
    17    -0.000010
    18     0.013406
    19     0.087479
    20    -0.000007
Sym=     8a
Ene=   -0.193836E-01
Spin= Alpha
Occup= 0.012815
     1    -0.003355
     2    -0.013760
     3     0.007776
     4     0.918775
     5    -0.140878
     6     0.003099
     7     0.979286
     8    -0.150152
     9     0.002183
    10     0.002921
    11     0.003074
    12     0.002899
    13     0.000025
    14    -0.068091
    15     0.010441
    16    -0.001725
    17    -0.000016
    18     0.089847
    19    -0.013787
    20    -0.000676
Sym=     9a
Ene=   -0.879639E-02
Spin= Alpha
Occup= 0.002715
     1    -0.000004
     2    -0.000001
     3    -0.000029
     4    -0.000023
     5     0.000268
     6     0.000021
     7    -0.000046
     8     0.000621
     9     0.000038
    10    -0.259553
    11     0.259510
    12     0.000067
    13    -0.954034
    14    -0.000220
    15     0.002871
    16     0.000012
    17     0.000000
    18     0.000033
    19    -0.000585
    20     0.000006
Sym=    10a
Ene=   -0.171320E-03
Spin= Alpha
Occup= 0.000007
     1     0.087392
     2     0.146567
     3    -0.731084
     4    -0.000130
     5     0.000285
     6    -0.368120
     7    -0.000161
     8     0.001854
     9     1.178441
    10    -0.001478
    11    -0.004789
    12    -1.137012
    13    -0.000603
    14     0.000116
    15    -0.001826
    16     1.773208
    17    -0.259568
    18     0.000057
    19    -0.003882
    20     1.619376
Sym=    11a
Ene=   -0.399511E-01
Spin= Alpha
Occup= 0.025350
     1     0.182317
     2     0.630647
     3     0.137204
     4    -0.000075
     5     0.000009
     6     0.787823
     7    -0.000046
     8     0.000005
     9     0.010033
    10    -0.046434
    11    -0.046746
    12    -0.167197
    13    -0.000055
    14    -0.000022
    15     0.000004
    16    -0.884103
    17    -0.056110
    18    -0.000043
    19     0.000005
    20    -0.130401
Sym=    12a
Ene=   -0.923513E-02
Spin= Alpha
Occup= 0.004106
     1     0.052435
     2     0.255687
     3    -0.283506
     4     0.000351
     5    -0.000056
     6     0.256597
     7     0.000680
     8    -0.000109
     9     0.561150
    10     0.236088
    11    -0.900581
    12     0.490437
    13    -0.206094
    14     0.002474
    15    -0.000382
    16     0.356913
    17    -0.067268
    18    -0.000536
    19     0.000082
    20     0.038690
Sym=    13a
Ene=   -0.946717E-02
Spin= Alpha
Occup= 0.004275
     1     0.059469
     2     0.278702
     3    -0.281844
     4    -0.000557
     5     0.000087
     6     0.231599
     7    -0.001491
     8     0.000229
     9     0.521239
    10    -0.925973
    11     0.273106
    12     0.454928
    13     0.217515
    14    -0.006664
    15     0.001027
    16     0.339724
    17    -0.066032
    18     0.001675
    19    -0.000259
    20     0.043745
Sym=    14a
Ene=   -0.216872E-01
Spin= Alpha
Occup= 0.007108
     1    -0.524190
     2    -2.042957
     3     0.867289
     4    -0.006516
     5     0.001015
     6     0.431127
     7    -0.007006
     8     0.001090
     9     0.316231
    10     0.540161
    11     0.563734
    12     0.577574
    13     0.004282
    14     0.000433
    15    -0.000068
    16    -0.211939
    17    -0.006549
    18    -0.000564
    19     0.000088
    20    -0.112173
Sym=    15a
Ene=   -0.151429E-03
Spin= Alpha
Occup= 0.000006
     1     0.000300
     2     0.000499
     3    -0.002467
     4    -0.010464
     5    -0.075252
     6    -0.001253
     7    -0.073228
     8    -0.524254
     9     0.004015
    10     0.000007
    11    -0.000038
    12    -0.003881
    13     0.000069
    14     0.073376
    15     0.521777
    16     0.006054
    17    -0.000912
    18     0.155591
    19     1.112762
    20     0.005515
Sym=    16a
Ene=   -0.127132E-02
Spin= Alpha
Occup= 0.000406
     1    -0.303697
     2    -0.326823
     3    -2.446028
     4     0.000549
     5    -0.000082
     6     0.185545
     7     0.000495
     8    -0.000075
     9     0.982345
    10     1.173569
    11     1.176649
    12     0.467535
    13     0.000556
    14     0.000218
    15    -0.000035
    16     1.242118
    17     0.052018
    18     0.000340
    19    -0.000049
    20     0.005134
Sym=    17a
Ene=   -0.915428E-02
Spin= Alpha
Occup= 0.003978
     1    -0.000003
     2    -0.000007
     3    -0.000016
     4     0.013218
     5     0.086474
     6    -0.000000
     7     0.031997
     8     0.209523
     9    -0.000007
    10     0.000803
    11    -0.000784
    12     0.000014
    13     0.002890
    14     0.138047
    15     0.901693
    16    -0.000013
    17     0.000014
    18    -0.032611
    19    -0.213924
    20    -0.000006
Sym=    18a
Ene=   -0.287639E-02
Spin= Alpha
Occup= 0.001081
     1     0.334573
     2     1.022258
     3     0.454197
     4    -0.000458
     5     0.000071
     6     0.389434
     7    -0.000633
     8     0.000099
     9     0.905056
    10    -0.543665
    11    -0.537823
    12    -1.192452
    13     0.001043
    14     0.000664
    15    -0.000096
    16     0.832528
    17     0.004239
    18     0.000297
    19    -0.000043
    20    -0.233949
Sym=    19a
Ene=   -0.864118E-02
Spin= Alpha
Occup= 0.002803
     1     0.000130
     2     0.000749
     3    -0.001076
     4     0.086493
     5    -0.013249
     6     0.000884
     7     0.191807
     8    -0.029413
     9     0.001684
    10    -0.007549
    11     0.004814
    12     0.002696
    13     0.001508
    14     0.921467
    15    -0.140962
    16     0.000778
    17    -0.000270
    18    -0.169233
    19     0.026011
    20     0.000174
Sym=    20a
Ene=   -0.167969E-10
Spin= Alpha
Occup= 0.000000
     1     0.036565
     2    -0.292354
     3     2.167187
     4     0.000033
     5    -0.000009
     6     0.036681
     7     0.000053
     8    -0.000004
     9    -0.901443
    10    -0.288868
    11    -0.289895
    12     0.004590
    13    -0.000190
    14     0.000010
    15    -0.000003
    16    -0.218537
    17    -1.765522
    18     0.000007
    19    -0.000020
    20    -0.812576
