[Molden Format]
p30-5 set                                                                       
[Atoms] AU
 CL       1    17        0.0000        0.0000        0.0000
[GTO]
    1 0
s    5 1.00
   10449.827566000000  0.542659537894E-02
    1571.736522100000  0.406263781288E-01
     357.120655230000  0.183597478529E+00
     100.251859350000  0.474389487682E+00
      30.812727554000  0.437351811041E+00
s    3 1.00
      51.923789434000 -0.927541548481E-01
       5.704576097500  0.563808255442E+00
       2.350837680900  0.503670446297E+00
s    1 1.00
       0.446051246720  0.100000000000E+01
s    1 1.00
       0.168488561900  0.100000000000E+01
p    5 1.00
     307.667905690000 -0.887970255889E-02
      72.102015515000 -0.642840717212E-01
      22.532680262000 -0.242887397360E+00
       7.899176544400 -0.483408363699E+00
       2.876726832100 -0.389525638755E+00
p    1 1.00
       0.774593639550  0.100000000000E+01
p    1 1.00
       0.210376996980  0.100000000000E+01
d    1 1.00
       0.650000000000  0.100000000000E+01
 
[MO]
Sym=     1a
Ene=   -0.104857E+03
Spin= Alpha
Occup= 1.999998
     1     0.993645
     2     0.028733
     3    -0.025792
     4    -0.001590
     5     0.000006
     6    -0.000020
     7     0.000028
     8     0.000000
     9     0.000001
    10    -0.000001
    11    -0.000000
    12    -0.000000
    13     0.000000
    14     0.009222
    15     0.009221
    16     0.009224
    17     0.000000
    18    -0.000001
    19     0.000002
Sym=     2a
Ene=   -0.105981E+02
Spin= Alpha
Occup= 1.999775
     1    -0.311472
     2     1.022234
     3     0.045473
     4    -0.009825
     5    -0.002760
     6     0.007725
     7    -0.009770
     8     0.000108
     9    -0.000315
    10     0.000430
    11    -0.000030
    12     0.000072
    13    -0.000062
    14    -0.002988
    15    -0.003143
    16    -0.003243
    17     0.000131
    18     0.000032
    19    -0.000017
Sym=     3a
Ene=   -0.806957E+01
Spin= Alpha
Occup= 1.999654
     1    -0.002794
     2     0.009091
     3     0.000380
     4    -0.000084
     5    -0.374983
     6    -0.103838
     7     0.904453
     8     0.016704
     9     0.004865
    10    -0.037638
    11    -0.002210
    12    -0.000473
    13     0.006936
    14    -0.000003
    15    -0.000077
    16     0.000009
    17    -0.000021
    18     0.000034
    19     0.000037
Sym=     4a
Ene=   -0.806965E+01
Spin= Alpha
Occup= 1.999546
     1    -0.002795
     2     0.009086
     3     0.000430
     4    -0.000061
     5     0.819786
     6    -0.462626
     7     0.287338
     8    -0.035991
     9     0.018570
    10    -0.012139
    11     0.005079
    12    -0.003805
    13     0.002049
    14    -0.000070
    15     0.000034
    16    -0.000036
    17     0.000044
    18    -0.000072
    19    -0.000032
Sym=     5a
Ene=   -0.807061E+01
Spin= Alpha
Occup= 1.999538
     1     0.000970
     2    -0.003148
     3    -0.000168
     4     0.000014
     5     0.393098
     6     0.862607
     7     0.262966
     8    -0.018787
     9    -0.037372
    10    -0.011150
    11     0.001609
    12     0.005616
    13     0.001878
    14    -0.000063
    15     0.000075
    16     0.000014
    17     0.000071
    18    -0.000108
    19    -0.000040
Sym=     6a
Ene=   -0.107055E+01
Spin= Alpha
Occup= 1.988358
     1    -0.085962
     2     0.536683
     3    -0.711068
     4    -0.411329
     5     0.000152
     6    -0.000193
     7    -0.000866
     8     0.000189
     9    -0.000180
    10    -0.001581
    11     0.000386
    12    -0.000518
    13    -0.001886
    14    -0.014104
    15    -0.018218
    16    -0.019422
    17     0.003375
    18     0.000446
    19     0.000101
Sym=     7a
Ene=   -0.495827E+00
Spin= Alpha
Occup= 1.981253
     1    -0.000004
     2    -0.000004
     3     0.000458
     4    -0.000810
     5     0.114837
     6    -0.233304
     7     0.093009
     8     0.203257
     9    -0.413097
    10     0.165037
    11     0.273133
    12    -0.555055
    13     0.221336
    14     0.000082
    15     0.000056
    16    -0.000031
    17     0.000029
    18     0.000051
    19    -0.000080
Sym=     8a
Ene=   -0.497673E+00
Spin= Alpha
Occup= 1.981094
     1    -0.000249
     2     0.001584
     3    -0.002035
     4    -0.001456
     5    -0.055738
     6     0.076123
     7     0.259323
     8    -0.098968
     9     0.134797
    10     0.460324
    11    -0.132793
    12     0.180989
    13     0.616874
    14    -0.000038
    15    -0.000153
    16     0.000053
    17     0.000093
    18    -0.000000
    19    -0.000008
Sym=     9a
Ene=   -0.285604E+00
Spin= Alpha
Occup= 1.000000
     1    -0.000000
     2     0.000000
     3     0.000004
     4    -0.000007
     5     0.253326
     6     0.131070
     7     0.016091
     8     0.448784
     9     0.232197
    10     0.028493
    11     0.569490
    12     0.294650
    13     0.036139
    14    -0.000448
    15     0.000517
    16    -0.000070
    17     0.000441
    18    -0.000703
    19    -0.000318
Sym=    10a
Ene=   -0.187848E-01
Spin= Alpha
Occup= 0.018906
     1    -0.004350
     2     0.045369
     3    -0.120200
     4     0.007760
     5     0.001088
     6    -0.001732
     7    -0.003871
     8     0.003520
     9    -0.005600
    10    -0.012570
    11    -0.002950
    12     0.004678
    13     0.010685
    14    -0.169318
    15    -0.564880
    16     0.864068
    17     0.280742
    18    -0.253477
    19     0.360681
Sym=    11a
Ene=   -0.186956E-01
Spin= Alpha
Occup= 0.018747
     1    -0.003641
     2     0.034501
     3    -0.100475
     4     0.034189
     5    -0.000028
     6     0.000102
     7    -0.000283
     8    -0.000097
     9     0.000347
    10    -0.000950
    11     0.000101
    12    -0.000344
    13     0.000912
    14     0.155388
    15     0.283966
    16    -0.365521
    17    -0.191450
    18    -0.388277
    19     0.808710
Sym=    12a
Ene=   -0.240494E-01
Spin= Alpha
Occup= 0.011642
     1    -0.137280
     2     1.380683
     3    -3.815585
     4     0.704868
     5     0.000159
     6    -0.000284
     7    -0.000139
     8     0.000488
     9    -0.000861
    10    -0.000505
    11    -0.000317
    12     0.000528
    13     0.000597
    14     1.172503
    15     1.202607
    16     1.183318
    17    -0.021156
    18     0.016639
    19    -0.035389
Sym=    13a
Ene=   -0.409482E-02
Spin= Alpha
Occup= 0.000462
     1    -0.000194
     2     0.002205
     3    -0.005493
     4    -0.000839
     5    -0.133936
     6     0.225687
     7     0.287886
     8    -0.440253
     9     0.741839
    10     0.946437
    11     0.377044
    12    -0.635360
    13    -0.811034
    14     0.001631
    15    -0.004771
    16     0.010627
    17     0.003525
    18    -0.001707
    19     0.004711
Sym=    14a
Ene=   -0.405908E-02
Spin= Alpha
Occup= 0.000454
     1    -0.000021
     2     0.000364
     3    -0.000810
     4    -0.000641
     5    -0.119972
     6     0.262686
     7    -0.261540
     8    -0.394343
     9     0.863441
    10    -0.859801
    11     0.337702
    12    -0.739412
    13     0.736694
    14     0.002083
    15     0.001441
    16    -0.001575
    17    -0.001020
    18    -0.000037
    19    -0.002215
Sym=    15a
Ene=   -0.307593E-02
Spin= Alpha
Occup= 0.000346
     1     0.000043
     2    -0.000535
     3     0.001197
     4     0.000594
     5    -0.006629
     6    -0.003839
     7     0.000099
     8    -0.021786
     9    -0.012616
    10     0.000327
    11     0.018852
    12     0.010906
    13    -0.000269
    14     0.547730
    15    -0.477977
    16    -0.071875
    17    -0.364702
    18    -0.616193
    19    -0.362150
Sym=    16a
Ene=   -0.247170E-02
Spin= Alpha
Occup= 0.000225
     1     0.000004
     2     0.000007
     3     0.000119
     4    -0.000408
     5    -0.164230
     6    -0.084544
     7    -0.009516
     8    -0.540146
     9    -0.278062
    10    -0.031296
    11     0.467861
    12     0.240863
    13     0.027135
    14    -0.406791
    15     0.463856
    16    -0.056707
    17     0.392682
    18    -0.549943
    19    -0.244616
Sym=    17a
Ene=   -0.256278E-03
Spin= Alpha
Occup= 0.000002
     1    -0.000004
     2    -0.000010
     3    -0.000126
     4     0.000437
     5     0.301185
     6     0.155760
     7     0.018327
     8     0.992663
     9     0.513364
    10     0.060404
    11    -0.861925
    12    -0.445754
    13    -0.052477
    14    -0.204618
    15     0.239330
    16    -0.035089
    17     0.209875
    18    -0.311972
    19    -0.140517
Sym=    18a
Ene=    0.000000E+00
Spin= Alpha
Occup= 0.000000
     1     0.043842
     2    -0.723748
     3     1.289037
     4     1.903595
     5     0.000698
     6     0.000829
     7     0.000365
     8     0.002270
     9     0.002796
    10     0.001150
    11    -0.001894
    12    -0.002596
    13    -0.000831
    14    -1.634414
    15    -1.185213
    16    -1.096870
    17    -0.368428
    18    -0.035152
    19    -0.033608
Sym=    19a
Ene=    0.000000E+00
Spin= Alpha
Occup= 0.000000
     1     0.021862
     2    -0.380485
     3     0.637238
     4     1.118441
     5    -0.001582
     6    -0.001108
     7    -0.000361
     8    -0.005230
     9    -0.003621
    10    -0.001203
    11     0.004586
    12     0.003065
    13     0.001051
    14    -0.151111
    15    -0.936643
    16    -1.065640
    17     0.645805
    18     0.063383
    19     0.052477
