[Molden Format]
p30-5 set                                                                       
[Atoms] AU
 BE       1     4        1.3755       -1.3755        1.3755
 BE       2     4       -1.3755        1.3755        1.3755
 BE       3     4       -1.3755       -1.3755       -1.3755
 BE       4     4        1.3755        1.3755       -1.3755
[GTO]
    1 0
s    5 1.00
     515.186161250000  0.583763544133E-02
      77.511037595000  0.432349671107E-01
      17.552481693000  0.188026956444E+00
       4.802894059600  0.469576904234E+00
       1.451621431600  0.440951660947E+00
s    1 1.00
       0.132816336200  0.100000000000E+01
s    1 1.00
       0.045837372213  0.100000000000E+01
p    3 1.00
       3.631691714500 -0.454619686657E-01
       0.716956943660 -0.264276543343E+00
       0.195419328600 -0.804884200890E+00
p    1 1.00
       0.060515465890  0.100000000000E+01
 
    2 0
s    5 1.00
     515.186161250000  0.583763544133E-02
      77.511037595000  0.432349671107E-01
      17.552481693000  0.188026956444E+00
       4.802894059600  0.469576904234E+00
       1.451621431600  0.440951660947E+00
s    1 1.00
       0.132816336200  0.100000000000E+01
s    1 1.00
       0.045837372213  0.100000000000E+01
p    3 1.00
       3.631691714500 -0.454619686657E-01
       0.716956943660 -0.264276543343E+00
       0.195419328600 -0.804884200890E+00
p    1 1.00
       0.060515465890  0.100000000000E+01
 
    3 0
s    5 1.00
     515.186161250000  0.583763544133E-02
      77.511037595000  0.432349671107E-01
      17.552481693000  0.188026956444E+00
       4.802894059600  0.469576904234E+00
       1.451621431600  0.440951660947E+00
s    1 1.00
       0.132816336200  0.100000000000E+01
s    1 1.00
       0.045837372213  0.100000000000E+01
p    3 1.00
       3.631691714500 -0.454619686657E-01
       0.716956943660 -0.264276543343E+00
       0.195419328600 -0.804884200890E+00
p    1 1.00
       0.060515465890  0.100000000000E+01
 
    4 0
s    5 1.00
     515.186161250000  0.583763544133E-02
      77.511037595000  0.432349671107E-01
      17.552481693000  0.188026956444E+00
       4.802894059600  0.469576904234E+00
       1.451621431600  0.440951660947E+00
s    1 1.00
       0.132816336200  0.100000000000E+01
s    1 1.00
       0.045837372213  0.100000000000E+01
p    3 1.00
       3.631691714500 -0.454619686657E-01
       0.716956943660 -0.264276543343E+00
       0.195419328600 -0.804884200890E+00
p    1 1.00
       0.060515465890  0.100000000000E+01
 
[MO]
Sym=     1a
Ene=   -0.469266E+01
Spin= Alpha
Occup= 1.999965
     1     0.497159
     2     0.012961
     3    -0.004039
     4    -0.000500
     5     0.000493
     6    -0.000470
     7     0.000840
     8    -0.000825
     9     0.000767
    10     0.496306
    11     0.012780
    12    -0.004229
    13     0.000469
    14    -0.000546
    15    -0.000505
    16    -0.000842
    17     0.000889
    18     0.000856
    19     0.496721
    20     0.012836
    21    -0.004523
    22     0.000446
    23     0.000530
    24     0.000506
    25    -0.000903
    26    -0.000918
    27    -0.000956
    28     0.496539
    29     0.012927
    30    -0.004488
    31    -0.000481
    32    -0.000493
    33     0.000436
    34     0.000902
    35     0.000950
    36    -0.000961
Sym=     2a
Ene=   -0.469161E+01
Spin= Alpha
Occup= 1.999940
     1     0.496358
     2     0.017500
     3     0.013325
     4     0.002584
     5     0.000254
     6    -0.000477
     7    -0.008696
     8     0.004195
     9    -0.004202
    10    -0.496756
    11    -0.017548
    12    -0.013304
    13     0.002601
    14     0.000221
    15     0.000445
    16    -0.008658
    17     0.004203
    18     0.004167
    19    -0.496826
    20    -0.017531
    21    -0.013381
    22     0.002593
    23    -0.000264
    24    -0.000471
    25    -0.008720
    26    -0.004229
    27    -0.004184
    28     0.496510
    29     0.017504
    30     0.013330
    31     0.002590
    32    -0.000261
    33     0.000471
    34    -0.008698
    35    -0.004213
    36     0.004175
Sym=     3a
Ene=   -0.469158E+01
Spin= Alpha
Occup= 1.999922
     1     0.495902
     2     0.017693
     3     0.013058
     4    -0.000284
     5    -0.002731
     6    -0.000322
     7    -0.004140
     8     0.008526
     9    -0.004150
    10    -0.497325
    11    -0.017829
    12    -0.013186
    13    -0.000259
    14    -0.002735
    15     0.000242
    16    -0.004162
    17     0.008581
    18     0.004238
    19     0.496694
    20     0.017813
    21     0.013094
    22     0.000286
    23    -0.002711
    24     0.000235
    25     0.004134
    26     0.008614
    27     0.004196
    28    -0.496314
    29    -0.017690
    30    -0.012979
    31     0.000290
    32    -0.002715
    33    -0.000308
    34     0.004103
    35     0.008520
    36    -0.004117
Sym=     4a
Ene=   -0.469148E+01
Spin= Alpha
Occup= 1.999890
     1     0.496920
     2     0.018212
     3     0.013478
     4    -0.000254
     5     0.000274
     6     0.002990
     7    -0.004330
     8     0.004263
     9    -0.008848
    10     0.495948
    11     0.018288
    12     0.013251
    13     0.000248
    14    -0.000237
    15     0.002957
    16     0.004232
    17    -0.004280
    18    -0.008817
    19    -0.496097
    20    -0.018302
    21    -0.013465
    22    -0.000245
    23    -0.000214
    24     0.002959
    25    -0.004314
    26    -0.004278
    27    -0.008857
    28    -0.496973
    29    -0.018258
    30    -0.013227
    31     0.000259
    32     0.000282
    33     0.003009
    34     0.004242
    35     0.004228
    36    -0.008760
Sym=     5a
Ene=   -0.563574E+00
Spin= Alpha
Occup= 1.978302
     1    -0.143268
     2     0.282449
     3     0.012374
     4     0.074334
     5    -0.067561
     6     0.068094
     7     0.011692
     8    -0.013583
     9     0.013332
    10    -0.148529
    11     0.296234
    12     0.023576
    13    -0.066450
    14     0.072391
    15     0.072795
    16    -0.012791
    17     0.011376
    18     0.011068
    19    -0.148504
    20     0.296198
    21     0.023266
    22    -0.066439
    23    -0.072391
    24    -0.072827
    25    -0.012822
    26    -0.011477
    27    -0.011178
    28    -0.143267
    29     0.282455
    30     0.012325
    31     0.074346
    32     0.067555
    33    -0.068094
    34     0.011688
    35     0.013589
    36    -0.013338
Sym=     6a
Ene=   -0.284174E+00
Spin= Alpha
Occup= 1.960353
     1     0.099698
     2    -0.260893
     3    -0.223397
     4    -0.089159
     5    -0.155885
     6    -0.089042
     7     0.043235
     8     0.020522
     9     0.043146
    10    -0.098882
    11     0.258862
    12     0.222223
    13    -0.088309
    14    -0.156803
    15     0.090329
    16     0.042967
    17     0.020893
    18    -0.043506
    19     0.098900
    20    -0.258924
    21    -0.222039
    22     0.088322
    23    -0.156770
    24     0.090350
    25    -0.042873
    26     0.020929
    27    -0.043448
    28    -0.099722
    29     0.260909
    30     0.223220
    31     0.089148
    32    -0.155881
    33    -0.089084
    34    -0.043155
    35     0.020533
    36     0.043092
Sym=     7a
Ene=   -0.283993E+00
Spin= Alpha
Occup= 1.955917
     1    -0.103201
     2     0.268444
     3     0.220064
     4    -0.154234
     5    -0.091664
     6     0.090380
     7     0.022331
     8     0.042497
     9    -0.041924
    10     0.095394
    11    -0.253048
    12    -0.218977
    13    -0.157140
    14    -0.088193
    15    -0.086936
    16     0.021392
    17     0.043224
    18     0.042628
    19     0.095367
    20    -0.252965
    21    -0.218589
    22    -0.157155
    23     0.088206
    24     0.086958
    25     0.021472
    26    -0.043078
    27    -0.042552
    28    -0.103210
    29     0.268425
    30     0.219678
    31    -0.154223
    32     0.091684
    33    -0.090363
    34     0.022401
    35    -0.042366
    36     0.041847
Sym=     8a
Ene=   -0.283797E+00
Spin= Alpha
Occup= 1.955900
     1     0.098630
     2    -0.257581
     3    -0.217244
     4    -0.089267
     5     0.089639
     6     0.156603
     7     0.042579
     8    -0.041940
     9    -0.023155
    10     0.099422
    11    -0.259668
    12    -0.219217
    13     0.090004
    14    -0.088381
    15     0.155923
    16    -0.042903
    17     0.041716
    18    -0.022945
    19    -0.099446
    20     0.259708
    21     0.219129
    22    -0.089993
    23    -0.088395
    24     0.155925
    25     0.042852
    26     0.041724
    27    -0.022969
    28    -0.098647
    29     0.257564
    30     0.217351
    31     0.089282
    32     0.089644
    33     0.156616
    34    -0.042622
    35    -0.041940
    36    -0.023112
Sym=     9a
Ene=   -0.144426E-01
Spin= Alpha
Occup= 0.023708
     1     0.017919
     2     0.068144
     3    -0.107052
     4     0.016099
     5     0.059263
     6     0.434245
     7     0.088679
     8    -0.090457
     9     0.053776
    10     0.018323
    11     0.066573
    12    -0.109468
    13    -0.014971
    14    -0.057879
    15     0.434309
    16    -0.089087
    17     0.090536
    18     0.054795
    19     0.018336
    20     0.066468
    21    -0.110579
    22    -0.015006
    23     0.057922
    24    -0.434283
    25    -0.089222
    26    -0.090916
    27    -0.055177
    28     0.017917
    29     0.068052
    30    -0.107249
    31     0.016126
    32    -0.059274
    33    -0.434158
    34     0.088689
    35     0.090503
    36    -0.053943
Sym=    10a
Ene=   -0.146175E-01
Spin= Alpha
Occup= 0.023903
     1    -0.015130
     2    -0.069030
     3     0.103322
     4    -0.438623
     5    -0.030516
     6     0.057968
     7    -0.048560
     8     0.085181
     9    -0.083392
    10    -0.017054
    11    -0.060054
    12     0.095736
    13     0.437566
    14     0.025994
    15     0.056175
    16     0.046965
    17    -0.084065
    18    -0.082358
    19    -0.017051
    20    -0.060077
    21     0.095605
    22     0.437596
    23    -0.026007
    24    -0.056195
    25     0.046965
    26     0.083990
    27     0.082365
    28    -0.015113
    29    -0.069009
    30     0.103626
    31    -0.438599
    32     0.030534
    33    -0.057924
    34    -0.048661
    35    -0.085307
    36     0.083499
Sym=    11a
Ene=   -0.163773E-01
Spin= Alpha
Occup= 0.029172
     1     0.021096
     2     0.055809
     3    -0.113994
     4    -0.011822
     5    -0.428936
     6     0.012590
     7     0.094106
     8    -0.052171
     9     0.093225
    10     0.020453
    11     0.060641
    12    -0.113105
    13     0.009214
    14     0.431630
    15     0.013372
    16    -0.092159
    17     0.051830
    18     0.093104
    19     0.020444
    20     0.060622
    21    -0.113001
    22     0.009211
    23    -0.431688
    24    -0.013379
    25    -0.092128
    26    -0.051930
    27    -0.093002
    28     0.021099
    29     0.055773
    30    -0.112993
    31    -0.011805
    32     0.428953
    33    -0.012617
    34     0.093999
    35     0.051924
    36    -0.092947
Sym=    12a
Ene=   -0.627416E-02
Spin= Alpha
Occup= 0.006953
     1    -0.118443
     2     0.834485
     3    -0.602214
     4     0.421895
     5    -0.501696
     6     0.257800
     7     0.120272
     8    -0.013859
     9     0.054071
    10     0.101244
    11    -0.732695
    12     0.615564
    13     0.416016
    14    -0.498087
    15    -0.206230
    16     0.128707
    17    -0.022227
    18    -0.077911
    19    -0.101202
    20     0.732458
    21    -0.615796
    22    -0.415877
    23    -0.498172
    24    -0.206159
    25    -0.128823
    26    -0.022330
    27    -0.077929
    28     0.118389
    29    -0.834243
    30     0.602452
    31    -0.421793
    32    -0.501767
    33     0.257729
    34    -0.120408
    35    -0.013955
    36     0.054074
Sym=    13a
Ene=   -0.257936E-03
Spin= Alpha
Occup= 0.000056
     1    -0.021982
     2     0.181920
     3     2.621402
     4    -0.683243
     5     0.174108
     6    -0.090057
     7    -1.443261
     8     0.447726
     9    -0.372614
    10     0.020550
    11    -0.165189
    12    -2.621509
    13    -0.678211
    14     0.173611
    15     0.088135
    16    -1.440739
    17     0.451190
    18     0.372345
    19     0.020754
    20    -0.166819
    21    -2.641409
    22    -0.679062
    23    -0.176781
    24    -0.090991
    25    -1.443847
    26    -0.458546
    27    -0.379303
    28    -0.022013
    29     0.182097
    30     2.622229
    31    -0.682974
    32    -0.176194
    33     0.088087
    34    -1.442984
    35    -0.451986
    36     0.369076
Sym=    14a
Ene=   -0.258355E-03
Spin= Alpha
Occup= 0.000057
     1     0.026343
     2    -0.202925
     3    -2.657258
     4     0.139216
     5    -0.144383
     6     0.668967
     7     0.429905
     8    -0.429712
     9     1.464070
    10     0.027619
    11    -0.211027
    12    -2.693128
    13    -0.144206
    14     0.146508
    15     0.674050
    16    -0.442801
    17     0.445839
    18     1.475328
    19    -0.027470
    20     0.209472
    21     2.685681
    22     0.141743
    23     0.145810
    24     0.673556
    25     0.438344
    26     0.444565
    27     1.474115
    28    -0.026348
    29     0.202800
    30     2.665673
    31    -0.141617
    32    -0.144969
    33     0.669359
    34    -0.434820
    35    -0.431375
    36     1.465622
Sym=    15a
Ene=   -0.213376E-03
Spin= Alpha
Occup= 0.000049
     1     0.104135
     2    -1.351947
     3     0.808306
     4     0.067889
     5    -0.067714
     6     0.070401
     7    -0.324273
     8     0.315181
     9    -0.315720
    10     0.104884
    11    -1.357934
    12     0.776142
    13    -0.074267
    14     0.065341
    15     0.070564
    16     0.305127
    17    -0.312212
    18    -0.310877
    19     0.104920
    20    -1.358069
    21     0.774337
    22    -0.074333
    23    -0.065440
    24    -0.070972
    25     0.304924
    26     0.311901
    27     0.309950
    28     0.104158
    29    -1.352126
    30     0.806480
    31     0.067991
    32     0.067820
    33    -0.070829
    34    -0.323958
    35    -0.314817
    36     0.314685
Sym=    16a
Ene=   -0.699318E-04
Spin= Alpha
Occup= 0.000016
     1    -0.000112
     2     0.001690
     3    -0.009702
     4    -0.149984
     5     0.156727
     6     0.306345
     7    -0.307252
     8     0.312891
     9     0.628562
    10    -0.000308
    11     0.003088
    12     0.009135
    13     0.151539
    14    -0.156005
    15     0.305810
    16     0.315919
    17    -0.315665
    18     0.626368
    19    -0.000340
    20     0.003217
    21     0.007600
    22     0.151528
    23     0.155997
    24    -0.305728
    25     0.315596
    26     0.315415
    27    -0.626541
    28    -0.000083
    29     0.001464
    30    -0.010589
    31    -0.149829
    32    -0.156622
    33    -0.306486
    34    -0.306901
    35    -0.312601
    36    -0.629391
Sym=    17a
Ene=   -0.878157E-02
Spin= Alpha
Occup= 0.012580
     1     0.152351
     2    -0.827795
     3    -0.514155
     4    -0.361643
     5     0.040936
     6     0.242763
     7     0.309032
     8    -0.103473
     9     0.154041
    10    -0.152022
    11     0.826611
    12     0.513885
    13    -0.367311
    14     0.039674
    15    -0.242760
    16     0.308610
    17    -0.103015
    18    -0.154480
    19    -0.152074
    20     0.826876
    21     0.513907
    22    -0.367355
    23    -0.039708
    24     0.242876
    25     0.308513
    26     0.102853
    27     0.154438
    28     0.152348
    29    -0.827895
    30    -0.514046
    31    -0.362008
    32    -0.041174
    33    -0.242978
    34     0.309079
    35     0.103626
    36    -0.154149
Sym=    18a
Ene=   -0.480593E-02
Spin= Alpha
Occup= 0.006798
     1    -0.059294
     2     0.521664
     3    -0.495609
     4     0.288860
     5    -0.490140
     6     0.216911
     7    -0.043554
     8    -0.129448
     9     0.079037
    10     0.058675
    11    -0.511197
    12     0.490218
    13     0.288196
    14    -0.487625
    15    -0.216343
    16    -0.042759
    17    -0.125012
    18    -0.075856
    19     0.058666
    20    -0.511163
    21     0.490556
    22     0.288317
    23     0.487399
    24     0.216214
    25    -0.042682
    26     0.125399
    27     0.075467
    28    -0.059234
    29     0.521433
    30    -0.499951
    31     0.289135
    32     0.490090
    33    -0.216731
    34    -0.042646
    35     0.130762
    36    -0.080195
Sym=    19a
Ene=   -0.406917E-02
Spin= Alpha
Occup= 0.005664
     1     0.064685
     2    -0.407763
     3     0.146580
     4    -0.260356
     5    -0.373418
     6    -0.533085
     7     0.016140
     8    -0.105468
     9    -0.108346
    10    -0.064646
    11     0.409583
    12    -0.148347
    13    -0.262351
    14    -0.374142
    15     0.533712
    16     0.015430
    17    -0.104714
    18     0.110069
    19    -0.064746
    20     0.410585
    21    -0.149193
    22    -0.258723
    23     0.373474
    24    -0.538998
    25     0.016177
    26     0.104878
    27    -0.111175
    28     0.064743
    29    -0.408389
    30     0.148038
    31    -0.256948
    32     0.373048
    33     0.538090
    34     0.016810
    35     0.105328
    36     0.109722
Sym=    20a
Ene=   -0.977137E-02
Spin= Alpha
Occup= 0.010752
     1     0.153449
     2    -0.898641
     3    -0.166664
     4    -0.029714
     5    -0.034666
     6    -0.520403
     7     0.075858
     8    -0.057962
     9     0.241561
    10     0.195020
    11    -1.131287
    12    -0.265689
    13     0.024088
    14    -0.076769
    15    -0.496417
    16    -0.105899
    17     0.129799
    18     0.276042
    19    -0.194954
    20     1.130878
    21     0.265665
    22    -0.023893
    23    -0.076749
    24    -0.496523
    25     0.105824
    26     0.129790
    27     0.275919
    28    -0.153520
    29     0.898958
    30     0.166717
    31     0.029886
    32    -0.034650
    33    -0.520373
    34    -0.075946
    35    -0.058018
    36     0.241713
Sym=    21a
Ene=   -0.235521E-03
Spin= Alpha
Occup= 0.000052
     1    -0.027148
     2     0.224135
     3     2.504851
     4    -0.078050
     5     0.646337
     6    -0.104486
     7    -0.367026
     8     1.411740
     9    -0.393317
    10     0.027406
    11    -0.224901
    12    -2.499383
    13    -0.081427
    14     0.646836
    15     0.101099
    16    -0.368810
    17     1.413340
    18     0.389256
    19    -0.027329
    20     0.224136
    21     2.487668
    22     0.078707
    23     0.646121
    24     0.100799
    25     0.362481
    26     1.411245
    27     0.387518
    28     0.027052
    29    -0.223297
    30    -2.493180
    31     0.075326
    32     0.645677
    33    -0.104113
    34     0.360758
    35     1.409732
    36    -0.391477
Sym=    22a
Ene=   -0.668350E-04
Spin= Alpha
Occup= 0.000015
     1     0.000512
     2     0.013744
     3    -0.011055
     4    -0.261960
     5    -0.269028
     6     0.004811
     7    -0.526565
     8    -0.553560
     9     0.014946
    10     0.000261
    11     0.015760
    12     0.007626
    13     0.264249
    14     0.271423
    15     0.006114
    16     0.535994
    17     0.555127
    18     0.013306
    19     0.000260
    20     0.015748
    21     0.006840
    22     0.264214
    23    -0.271548
    24    -0.006019
    25     0.535725
    26    -0.555342
    27    -0.013510
    28     0.000532
    29     0.013434
    30    -0.012304
    31    -0.261738
    32     0.269134
    33    -0.004912
    34    -0.525722
    35     0.554158
    36    -0.015755
Sym=    23a
Ene=   -0.398566E-04
Spin= Alpha
Occup= 0.000009
     1    -0.044078
     2     0.377883
     3     2.194741
     4    -0.232227
     5    -0.029026
     6    -0.217910
     7    -0.976309
     8     1.080831
     9    -0.951762
    10     0.042692
    11    -0.371410
    12    -2.227674
    13    -0.233243
    14    -0.029138
    15     0.216945
    16    -0.987848
    17     1.086874
    18     0.960174
    19    -0.044083
    20     0.382373
    21     2.293876
    22     0.232173
    23    -0.022372
    24     0.224600
    25     1.021038
    26     1.117233
    27     0.992175
    28     0.045390
    29    -0.390427
    30    -2.261015
    31     0.230965
    32    -0.022780
    33    -0.224919
    34     1.008469
    35     1.109469
    36    -0.981710
Sym=    24a
Ene=   -0.419670E-04
Spin= Alpha
Occup= 0.000010
     1    -0.055951
     2     0.496748
     3     2.862664
     4    -0.068444
     5     0.278781
     6    -0.195643
     7    -1.380459
     8     1.260585
     9    -1.369153
    10     0.022099
    11    -0.183866
    12    -0.994399
    13     0.125924
    14     0.087367
    15     0.235102
    16    -0.516937
    17     0.417454
    18     0.463763
    19     0.054460
    20    -0.479334
    21    -2.786423
    22    -0.062545
    23    -0.279468
    24    -0.189474
    25    -1.352684
    26    -1.225765
    27    -1.344287
    28    -0.020091
    29     0.173541
    30     0.919810
    31     0.137607
    32    -0.087386
    33     0.226708
    34    -0.475383
    35    -0.377961
    36     0.430709
Sym=    25a
Ene=   -0.524085E-02
Spin= Alpha
Occup= 0.007812
     1    -0.022125
     2     0.309775
     3    -0.579381
     4     0.370926
     5    -0.376483
     6     0.176890
     7     0.122751
     8    -0.125006
     9     0.026159
    10    -0.013454
    11     0.267832
    12    -0.633866
    13    -0.387290
    14     0.357590
    15     0.193272
    16    -0.135962
    17     0.145771
    18     0.039247
    19     0.013544
    20    -0.268393
    21     0.633209
    22     0.387510
    23     0.357636
    24     0.193051
    25     0.135610
    26     0.145605
    27     0.038893
    28     0.022047
    29    -0.309261
    30     0.580057
    31    -0.370790
    32    -0.376403
    33     0.177092
    34    -0.123197
    35    -0.125230
    36     0.026468
Sym=    26a
Ene=   -0.889003E-02
Spin= Alpha
Occup= 0.013382
     1    -0.153092
     2     0.782788
     3     0.703047
     4    -0.253011
     5    -0.262831
     6    -0.084731
     7    -0.176865
     8     0.315851
     9    -0.174657
    10     0.114707
    11    -0.572860
    12    -0.575719
    13    -0.231114
    14    -0.282540
    15     0.182764
    16    -0.143596
    17     0.285067
    18     0.098922
    19    -0.114722
    20     0.572962
    21     0.576163
    22     0.231052
    23    -0.282589
    24     0.182682
    25     0.143801
    26     0.285134
    27     0.099035
    28     0.153089
    29    -0.782914
    30    -0.703466
    31     0.252975
    32    -0.262893
    33    -0.084660
    34     0.177089
    35     0.315946
    36    -0.174743
Sym=    27a
Ene=   -0.343551E-02
Spin= Alpha
Occup= 0.004810
     1     0.004289
     2    -0.065236
     3     0.139465
     4     0.390180
     5     0.038878
     6    -0.566606
     7     0.086086
     8     0.005744
     9    -0.158577
    10    -0.008726
    11     0.089716
    12    -0.121130
    13     0.416357
    14     0.059199
    15     0.576254
    16     0.096519
    17     0.006731
    18     0.147424
    19     0.008200
    20    -0.086498
    21     0.119875
    22    -0.418470
    23     0.062740
    24     0.571384
    25    -0.096499
    26     0.007749
    27     0.146324
    28    -0.003784
    29     0.062055
    30    -0.138203
    31    -0.392310
    32     0.042409
    33    -0.561781
    34    -0.086034
    35     0.006774
    36    -0.157505
Sym=    28a
Ene=   -0.365283E-02
Spin= Alpha
Occup= 0.003994
     1     0.001363
     2    -0.011347
     3     0.007518
     4     0.509188
     5     0.511097
     6    -0.016108
     7     0.175147
     8     0.177280
     9    -0.000650
    10     0.001120
    11    -0.007318
    12    -0.006778
    13    -0.491100
    14    -0.510235
    15     0.011123
    16    -0.170547
    17    -0.175456
    18     0.009580
    19    -0.001092
    20     0.007258
    21     0.007019
    22     0.491127
    23    -0.510243
    24     0.011118
    25     0.170618
    26    -0.175468
    27     0.009643
    28    -0.001378
    29     0.011446
    30    -0.007782
    31    -0.509143
    32     0.511045
    33    -0.016184
    34    -0.175055
    35     0.177273
    36    -0.000753
Sym=    29a
Ene=   -0.135018E-04
Spin= Alpha
Occup= 0.000003
     1     0.000413
     2    -0.000657
     3     0.007045
     4     0.011985
     5     0.212756
     6     0.202398
     7     0.000249
     8     1.430399
     9     1.389745
    10    -0.000332
    11    -0.000699
    12    -0.017108
    13     0.016351
    14     0.216892
    15    -0.202169
    16     0.034000
    17     1.465194
    18    -1.386546
    19    -0.000300
    20    -0.000972
    21     0.020570
    22     0.007485
    23    -0.212216
    24     0.206964
    25    -0.024745
    26    -1.418744
    27     1.425119
    28     0.000421
    29    -0.000933
    30    -0.009357
    31     0.012772
    32    -0.217196
    33    -0.206967
    34     0.009031
    35    -1.456450
    36    -1.420675
Sym=    30a
Ene=   -0.282089E-04
Spin= Alpha
Occup= 0.000006
     1     0.012628
     2     0.660904
     3    -0.039574
     4     0.153038
     5    -0.147393
     6     0.148551
     7     0.595283
     8    -0.573857
     9     0.586499
    10     0.012414
    11     0.662159
    12    -0.047146
    13    -0.154207
    14     0.146266
    15     0.146958
    16    -0.598181
    17     0.573856
    18     0.583066
    19     0.012085
    20     0.665144
    21    -0.030073
    22    -0.152192
    23    -0.144824
    24    -0.147045
    25    -0.589137
    26    -0.566437
    27    -0.574981
    28     0.012390
    29     0.662938
    30    -0.027299
    31     0.151706
    32     0.145872
    33    -0.149090
    34     0.589247
    35     0.568898
    36    -0.580198
Sym=    31a
Ene=   -0.130424E-04
Spin= Alpha
Occup= 0.000003
     1    -0.000499
     2     0.002645
     3    -0.066681
     4    -0.195381
     5     0.011742
     6     0.211758
     7    -1.350824
     8     0.047245
     9     1.455170
    10     0.000442
    11    -0.002658
    12     0.070845
    13    -0.211179
    14    -0.003278
    15    -0.211198
    16    -1.461556
    17    -0.063565
    18    -1.456417
    19    -0.000491
    20     0.002829
    21    -0.071784
    22     0.211477
    23    -0.007741
    24    -0.206576
    25     1.461701
    26    -0.094725
    27    -1.425176
    28     0.000561
    29    -0.003161
    30     0.067656
    31     0.195573
    32     0.007159
    33     0.207147
    34     1.350609
    35     0.015731
    36     1.424068
Sym=    32a
Ene=   -0.380665E-04
Spin= Alpha
Occup= 0.000009
     1    -0.015119
     2     0.143791
     3     0.919401
     4    -0.213766
     5     0.099609
     6     0.144907
     7    -0.399490
     8     0.431157
     9    -0.453976
    10    -0.052893
    11     0.476667
    12     2.822343
    13     0.179795
    14    -0.282157
    15    -0.067436
    16     1.338217
    17    -1.256425
    18    -1.364100
    19     0.014671
    20    -0.139206
    21    -0.919832
    22    -0.212801
    23    -0.099154
    24     0.143837
    25    -0.403420
    26    -0.434426
    27    -0.463081
    28     0.053264
    29    -0.474121
    30    -2.823288
    31     0.180645
    32     0.284371
    33    -0.067481
    34     1.337684
    35     1.259510
    36    -1.360027
Sym=    33a
Ene=    0.000000E+00
Spin= Alpha
Occup= 0.000000
     1     0.000660
     2    -0.005936
     3     0.416212
     4    -0.198613
     5    -0.189485
     6     0.001842
     7    -1.647619
     8    -1.408544
     9    -0.040114
    10     0.000216
    11    -0.002532
    12    -0.294842
    13     0.178800
    14     0.188693
    15    -0.004406
    16     1.193642
    17     1.415418
    18     0.000517
    19    -0.000782
    20     0.007511
    21    -0.782769
    22    -0.185282
    23     0.187756
    24    -0.015356
    25    -1.596959
    26     1.271473
    27    -0.210861
    28    -0.000080
    29     0.001457
    30     0.661337
    31     0.192290
    32    -0.190322
    33     0.012646
    34     1.244679
    35    -1.552051
    36     0.170805
Sym=    34a
Ene=    0.000000E+00
Spin= Alpha
Occup= 0.000000
     1    -0.000968
     2     0.007912
     3    -2.379547
     4     0.005590
     5    -0.019482
     6     0.014865
     7     1.643952
     8     1.300921
     9     1.340325
    10    -0.003246
    11     0.027544
    12    -6.596832
    13    -0.028521
    14     0.046354
    15     0.036092
    16     0.275943
    17     2.897641
    18     2.018934
    19     0.009993
    20    -0.081579
    21    19.174119
    22     0.100346
    23     0.117284
    24     0.106802
    25     4.428143
    26     4.980845
    27     4.091718
    28    -0.005725
    29     0.046228
    30   -10.197123
    31     0.066019
    32     0.051432
    33    -0.056140
    34     3.061822
    35     3.384144
    36    -0.732432
Sym=    35a
Ene=    0.000000E+00
Spin= Alpha
Occup= 0.000000
     1     0.010303
     2    -0.084055
     3    19.621547
     4    -0.107042
     5     0.114980
     6    -0.110812
     7    -4.503449
     8     4.874030
     9    -4.440755
    10    -0.004670
    11     0.036727
    12    -8.084263
    13    -0.048889
    14     0.043694
    15     0.045032
    16    -2.649930
    17     2.918668
    18     0.124360
    19    -0.001933
    20     0.016200
    21    -4.230188
    22    -0.021514
    23    -0.025308
    24    -0.025140
    25    -1.955859
    26     0.883564
    27    -1.910244
    28    -0.003749
    29     0.031066
    30    -7.307692
    31     0.036761
    32     0.046058
    33    -0.040521
    34    -0.104112
    35     2.838968
    36    -2.406460
Sym=    36a
Ene=    0.000000E+00
Spin= Alpha
Occup= 0.000000
     1     0.000070
     2    -0.001266
     3     0.753327
     4    -0.007839
     5    -0.000262
     6    -0.004517
     7     1.360317
     8    -0.070064
     9    -1.959411
    10     0.008523
    11    -0.070382
    12    16.802398
    13     0.099056
    14    -0.089432
    15    -0.095537
    16     4.322697
    17    -2.898878
    18    -4.608957
    19    -0.000731
    20     0.007732
    21    -2.273607
    22    -0.016061
    23    -0.008416
    24    -0.013088
    25     1.111134
    26    -0.498217
    27    -2.209390
    28    -0.007833
    29     0.063947
    30   -15.281426
    31     0.090638
    32     0.080783
    33    -0.087066
    34     4.075521
    35     2.330576
    36    -4.358601
