[Molden Format]
p30-5 set                                                                       
[Atoms] AU
 F        1     9        0.0000        0.0000        0.0000
[GTO]
    1 0
s    5 1.00
    2894.832599000000 -0.534932117607E-02
     435.419391200000 -0.399677343716E-01
      98.843328866000 -0.179412617888E+00
      27.485198001000 -0.468324686869E+00
       8.540549817100 -0.447241605328E+00
s    1 1.00
       1.065457803800  0.100000000000E+01
s    1 1.00
       0.332473467480  0.100000000000E+01
p    3 1.00
      22.696633924000 -0.647821482412E-01
       4.987233925700 -0.340357853553E+00
       1.349161395400 -0.734858153660E+00
p    1 1.00
       0.348298819770  0.100000000000E+01
d    1 1.00
       1.400000000000  0.100000000000E+01
 
[MO]
Sym=     1a
Ene=   -0.264179E+02
Spin= Alpha
Occup= 1.999892
     1     0.988387
     2    -0.038629
     3     0.007317
     4    -0.000288
     5     0.000160
     6     0.000478
     7     0.000271
     8    -0.000151
     9    -0.000457
    10     0.006450
    11     0.006110
    12     0.006254
    13    -0.000101
    14     0.000286
    15    -0.000068
Sym=     2a
Ene=   -0.144344E+01
Spin= Alpha
Occup= 1.988425
     1     0.287677
     2     0.588893
     3     0.417500
     4     0.128229
     5    -0.073801
     6    -0.216147
     7    -0.086522
     8     0.049772
     9     0.145831
    10     0.004707
    11     0.006498
    12     0.005412
    13     0.000529
    14    -0.001052
    15     0.000269
Sym=     3a
Ene=   -0.794639E+00
Spin= Alpha
Occup= 1.983285
     1     0.083493
     2     0.171560
     3     0.124535
     4    -0.067523
     5     0.578811
     6     0.308549
     7     0.045860
     8    -0.393754
     9    -0.209785
    10     0.000975
    11     0.001611
    12     0.001211
    13     0.000118
    14    -0.000293
    15     0.000175
Sym=     4a
Ene=   -0.792271E+00
Spin= Alpha
Occup= 1.983194
     1    -0.082424
     2    -0.169378
     3    -0.122970
     4     0.372917
     5     0.332219
     6    -0.431386
     7    -0.253732
     8    -0.226146
     9     0.293480
    10    -0.001016
    11    -0.001517
    12    -0.001216
    13    -0.000207
    14     0.000345
    15    -0.000003
Sym=     5a
Ene=   -0.432153E+00
Spin= Alpha
Occup= 1.000000
     1    -0.000003
     2    -0.000005
     3     0.000000
     4    -0.585136
     5     0.142769
     6    -0.395879
     7     0.344515
     8    -0.084059
     9     0.233083
    10     0.000175
    11     0.000036
    12    -0.000201
    13    -0.000099
    14    -0.000104
    15    -0.000009
Sym=     6a
Ene=   -0.203878E-01
Spin= Alpha
Occup= 0.012742
     1    -0.247941
     2    -0.975736
     3     0.392723
     4     0.454944
     5     0.473943
     6    -0.501516
     7     0.517903
     8     0.539782
     9    -0.570832
    10     0.249970
    11     0.244191
    12     0.243540
    13    -0.008620
    14     0.014590
    15     0.006014
Sym=     7a
Ene=   -0.203958E-01
Spin= Alpha
Occup= 0.012669
     1     0.251378
     2     0.988661
     3    -0.396243
     4    -0.043971
     5     0.751124
     6     0.335872
     7    -0.049933
     8     0.855332
     9     0.382268
    10    -0.258164
    11    -0.242228
    12    -0.249292
    13     0.001460
    14    -0.010046
    15     0.007059
Sym=     8a
Ene=   -0.705647E-02
Spin= Alpha
Occup= 0.002566
     1    -0.000001
     2     0.000001
     3     0.000010
     4    -0.003070
     5     0.000748
     6    -0.002077
     7    -0.003594
     8     0.000878
     9    -0.002433
    10     0.315792
    11    -0.334256
    12     0.018448
    13     0.746449
    14     0.139103
    15     0.531275
Sym=     9a
Ene=   -0.139241E-02
Spin= Alpha
Occup= 0.000051
     1     0.068293
     2     0.167846
     3     0.215417
     4    -0.003697
     5     0.002176
     6     0.006243
     7    -0.004246
     8     0.002493
     9     0.007166
    10     0.328388
    11    -0.630633
    12    -0.192054
    13    -0.278791
    14     0.748850
    15    -0.194560
Sym=    10a
Ene=   -0.979124E-02
Spin= Alpha
Occup= 0.004064
     1     0.016925
     2     0.054102
     3     0.013369
     4     0.000750
     5    -0.010887
     6    -0.005042
     7     0.000896
     8    -0.012246
     9    -0.005752
    10    -0.309610
    11     0.660327
    12    -0.437888
    13    -0.166055
    14     0.469419
    15     0.520194
Sym=    11a
Ene=   -0.977938E-02
Spin= Alpha
Occup= 0.004046
     1     0.007858
     2     0.025872
     3     0.003944
     4     0.005790
     5     0.003305
     6    -0.007358
     7     0.006560
     8     0.003665
     9    -0.008368
    10    -0.004611
    11     0.425713
    12    -0.459785
    13     0.546348
    14     0.205760
    15    -0.630468
Sym=    12a
Ene=   -0.217256E-01
Spin= Alpha
Occup= 0.009008
     1     0.467356
     2     1.781034
     3    -0.552325
     4     0.282572
     5    -0.162014
     6    -0.476095
     7     0.322446
     8    -0.184921
     9    -0.543292
    10    -0.526074
    11    -0.530763
    12    -0.506483
    13     0.002242
    14    -0.028097
    15     0.001788
Sym=    13a
Ene=   -0.156392E-02
Spin= Alpha
Occup= 0.000057
     1    -0.000047
     2    -0.000115
     3    -0.000135
     4    -0.002891
     5     0.000704
     6    -0.001963
     7    -0.003187
     8     0.000777
     9    -0.002163
    10    -0.758067
    11    -0.036510
    12     0.794896
    13     0.194283
    14     0.381720
    15    -0.106262
Sym=    14a
Ene=    0.000000E+00
Spin= Alpha
Occup= 0.000000
     1     0.030776
     2     0.060616
     3     0.143718
     4     0.721757
     5    -0.175630
     6     0.491932
     7     0.861661
     8    -0.209683
     9     0.587195
    10    -0.094449
    11    -0.086556
    12    -0.084539
    13     0.006439
    14    -0.005690
    15     0.003363
Sym=    15a
Ene=    0.000000E+00
Spin= Alpha
Occup= 0.000000
     1     0.404899
     2     0.797492
     3     1.891051
     4    -0.075224
     5     0.024590
     6    -0.003225
     7    -0.089281
     8     0.029081
     9    -0.004714
    10    -1.222277
    11    -1.118630
    12    -1.153043
    13     0.033926
    14    -0.101662
    15     0.020216
