[Molden Format]
p30-5 set                                                                       
[Atoms] AU
 O        1     8        0.0000        0.0000       -0.7381
 H        2     1       -1.4401        0.0000        0.3691
 H        3     1        1.4401        0.0000        0.3691
[GTO]
    1 0
s    5 1.00
    2266.176778500000 -0.538935039217E-02
     340.870101910000 -0.402347213890E-01
      77.363135167000 -0.180081842055E+00
      21.479644940000 -0.468288576577E+00
       6.658943312400 -0.446926171602E+00
s    1 1.00
       0.809759756680  0.100000000000E+01
s    1 1.00
       0.255307722340  0.100000000000E+01
p    3 1.00
      17.721504317000  0.626302487632E-01
       3.863550544000  0.333311384824E+00
       1.048092088300  0.741486383081E+00
p    1 1.00
       0.276415444110  0.100000000000E+01
d    1 1.00
       1.200000000000  0.100000000000E+01
 
    2 0
s    3 1.00
      13.010701000000  0.334854848130E-01
       1.962257200000  0.234721870881E+00
       0.444537960000  0.813770285260E+00
s    1 1.00
       0.121949620000  0.100000000000E+01
p    1 1.00
       0.800000000000  0.100000000000E+01
 
    3 0
s    3 1.00
      13.010701000000  0.334854848130E-01
       1.962257200000  0.234721870881E+00
       0.444537960000  0.813770285260E+00
s    1 1.00
       0.121949620000  0.100000000000E+01
p    1 1.00
       0.800000000000  0.100000000000E+01
 
[MO]
Sym=     1a
Ene=   -0.205835E+02
Spin= Alpha
Occup= 1.999980
     1     0.987651
     2    -0.042804
     3     0.009287
     4     0.000003
     5    -0.000004
     6    -0.002044
     7     0.000007
     8    -0.000001
     9     0.000206
    10     0.004143
    11     0.005216
    12     0.004563
    13     0.000001
    14     0.000002
    15     0.000000
    16     0.002208
    17    -0.001280
    18     0.001474
    19    -0.000005
    20    -0.001110
    21     0.002207
    22    -0.001286
    23    -0.001472
    24    -0.000003
    25    -0.001110
Sym=     2a
Ene=   -0.122595E+01
Spin= Alpha
Occup= 1.987689
     1    -0.289356
     2    -0.577591
     3    -0.383006
     4     0.000574
     5    -0.000751
     6     0.144000
     7     0.000257
     8    -0.000569
     9     0.152727
    10    -0.017025
    11    -0.010923
    12    -0.004972
    13     0.000005
    14     0.000034
    15    -0.000027
    16    -0.091971
    17     0.013016
    18    -0.014099
    19    -0.000068
    20     0.016167
    21    -0.091157
    22     0.013193
    23     0.014071
    24    -0.000044
    25     0.016083
Sym=     3a
Ene=   -0.532309E+00
Spin= Alpha
Occup= 1.977167
     1     0.000334
     2     0.000671
     3     0.000555
     4    -0.000326
     5    -0.632095
     6    -0.000231
     7    -0.000059
     8    -0.497496
     9    -0.000217
    10     0.000011
    11     0.000010
    12     0.000000
    13    -0.000005
    14    -0.000009
    15    -0.018820
    16     0.000308
    17    -0.000006
    18     0.000024
    19    -0.029340
    20    -0.000030
    21    -0.000221
    22    -0.000077
    23     0.000021
    24    -0.029328
    25    -0.000002
Sym=     4a
Ene=   -0.732196E+00
Spin= Alpha
Occup= 1.972813
     1     0.015836
     2     0.027275
     3    -0.138570
     4    -0.347624
     5     0.000187
     6     0.380141
     7    -0.153247
     8     0.000216
     9     0.227617
    10    -0.000270
    11    -0.006342
    12     0.014929
    13    -0.000008
    14    -0.017833
    15     0.000020
    16     0.426701
    17     0.098055
    18     0.040886
    19    -0.000025
    20    -0.018645
    21    -0.043111
    22    -0.020634
    23    -0.012937
    24    -0.000030
    25     0.021334
Sym=     5a
Ene=   -0.732837E+00
Spin= Alpha
Occup= 1.972657
     1     0.016230
     2     0.028136
     3    -0.137137
     4     0.349775
     5    -0.000340
     6     0.377624
     7     0.154250
     8    -0.000272
     9     0.226004
    10    -0.000250
    11    -0.006278
    12     0.014847
    13     0.000007
    14     0.017947
    15    -0.000013
    16    -0.045539
    17    -0.021251
    18     0.012714
    19    -0.000024
    20     0.021392
    21     0.426952
    22     0.098260
    23    -0.040834
    24    -0.000030
    25    -0.018818
Sym=     6a
Ene=   -0.326278E-01
Spin= Alpha
Occup= 0.022905
     1     0.188473
     2     0.685071
     3     0.097278
     4     0.630571
     5     0.000643
     6     0.520999
     7     0.054150
     8    -0.001615
     9    -0.036723
    10    -0.131455
    11    -0.044821
    12    -0.099080
    13     0.000393
    14    -0.059858
    15     0.000027
    16     0.018551
    17     0.025942
    18     0.008217
    19     0.001552
    20     0.004072
    21    -0.868998
    22    -0.115462
    23     0.088504
    24     0.000867
    25     0.042255
Sym=     7a
Ene=   -0.325865E-01
Spin= Alpha
Occup= 0.022769
     1    -0.189375
     2    -0.689009
     3    -0.095255
     4     0.630572
     5    -0.000780
     6    -0.520897
     7     0.052883
     8     0.001767
     9     0.036033
    10     0.132261
    11     0.045835
    12     0.100041
    13     0.000349
    14    -0.060241
    15     0.000278
    16     0.868466
    17     0.114608
    18     0.089041
    19    -0.001313
    20    -0.041727
    21    -0.016992
    22    -0.026993
    23     0.007495
    24    -0.001116
    25    -0.004103
Sym=     8a
Ene=   -0.844737E-02
Spin= Alpha
Occup= 0.004418
     1     0.001504
     2     0.006551
     3    -0.005286
     4    -0.006706
     5    -0.000332
     6     0.002582
     7     0.009853
     8     0.002119
     9    -0.007002
    10     0.001212
    11    -0.013669
    12     0.005719
    13     0.827077
    14    -0.009065
    15    -0.003938
    16     0.005507
    17    -0.001433
    18     0.000969
    19    -0.247315
    20     0.001443
    21     0.000088
    22     0.001814
    23    -0.002254
    24     0.243186
    25    -0.000204
Sym=     9a
Ene=   -0.182783E-01
Spin= Alpha
Occup= 0.007713
     1    -0.495426
     2    -2.024657
     3     0.921163
     4    -0.002715
     5    -0.001852
     6     0.624459
     7     0.004151
     8    -0.001929
     9    -0.531504
    10     0.633224
    11     0.537978
    12     0.498055
    13    -0.000020
    14    -0.002571
    15     0.000240
    16    -0.085856
    17    -0.074482
    18    -0.088218
    19     0.004914
    20    -0.002889
    21    -0.087974
    22    -0.073170
    23     0.086868
    24     0.005036
    25    -0.001783
Sym=    10a
Ene=   -0.472753E-05
Spin= Alpha
Occup= 0.000000
     1     0.027999
     2    -0.328005
     3     2.933328
     4    -0.010021
     5    -0.001127
     6     0.080076
     7    -0.128384
     8     0.013671
     9     1.062962
    10     0.057421
    11    -0.367039
    12    -0.017114
    13    -0.001993
    14    -0.031680
    15     0.009223
    16    -0.401787
    17    -1.361637
    18    -0.623603
    19    -0.018894
    20     0.358220
    21    -0.372661
    22    -1.042361
    23     0.524309
    24    -0.013620
    25     0.271903
Sym=    11a
Ene=   -0.755618E-02
Spin= Alpha
Occup= 0.003753
     1     0.061840
     2     0.239376
     3     0.020882
     4    -0.302208
     5     0.000249
     6     0.000508
     7     0.586042
     8    -0.006555
     9     0.161493
    10     0.178162
    11     0.193573
    12    -0.641164
    13    -0.003373
    14    -0.441884
    15    -0.002783
    16     0.195883
    17    -0.083104
    18    -0.044317
    19     0.008182
    20    -0.069346
    21    -0.275270
    22     0.123184
    23     0.233262
    24     0.008165
    25    -0.147487
Sym=    12a
Ene=   -0.117192E-02
Spin= Alpha
Occup= 0.000461
     1     0.143687
     2     0.139830
     3     2.080074
     4     0.181822
     5     0.002743
     6     0.078055
     7     0.273221
     8    -0.040518
     9     0.956647
    10     0.167168
    11    -0.966207
    12    -0.284763
    13    -0.259418
    14     0.389144
    15    -0.032574
    16    -0.720186
    17    -0.178473
    18    -0.048752
    19    -0.228848
    20     0.052889
    21    -1.587438
    22     0.256052
    23     0.555008
    24     0.327475
    25     0.361097
Sym=    13a
Ene=   -0.167278E-01
Spin= Alpha
Occup= 0.012170
     1    -0.001234
     2    -0.005608
     3     0.004545
     4    -0.000024
     5     0.963421
     6     0.000854
     7     0.000675
     8    -0.963569
     9    -0.000323
    10     0.001388
    11     0.000645
    12     0.000477
    13     0.000303
    14     0.000088
    15    -0.056966
    16    -0.000055
    17    -0.000491
    18    -0.000073
    19    -0.079343
    20     0.000018
    21    -0.001483
    22     0.000350
    23     0.000474
    24    -0.080364
    25     0.000139
Sym=    14a
Ene=   -0.799000E-02
Spin= Alpha
Occup= 0.003168
     1    -0.001416
     2    -0.000907
     3    -0.009497
     4    -0.001736
     5    -0.077660
     6     0.006376
     7    -0.012726
     8     0.233627
     9    -0.009008
    10     0.004917
    11     0.003020
    12     0.005015
    13    -0.005874
    14    -0.009189
    15    -0.921242
    16    -0.008438
    17     0.004696
    18     0.001667
    19    -0.150209
    20     0.012970
    21     0.013696
    22    -0.002193
    23     0.005981
    24    -0.149356
    25    -0.004905
Sym=    15a
Ene=   -0.167501E-03
Spin= Alpha
Occup= 0.000009
     1     0.036684
     2    -0.102710
     3     0.517154
     4    -0.002728
     5     0.026311
     6    -0.176180
     7    -0.854012
     8    -0.308897
     9     0.522024
    10    -0.546452
    11    -0.219804
    12     0.216872
    13    -0.017122
    14    -0.256318
    15    -0.216717
    16    -0.723780
    17    -0.007408
    18     0.013774
    19     0.346669
    20    -0.077949
    21     0.389999
    22    -0.065800
    23     0.225274
    24     0.387345
    25    -0.978730
Sym=    16a
Ene=   -0.967175E-03
Spin= Alpha
Occup= 0.000409
     1    -0.100815
     2    -0.116830
     3    -1.147509
     4     0.033548
     5    -0.000243
     6    -0.005681
     7     0.096013
     8     0.014211
     9    -0.417286
    10    -0.035980
    11     0.549914
    12     0.313730
    13    -0.598185
    14     0.090746
    15     0.013383
    16     0.641955
    17    -0.039924
    18     0.092634
    19    -0.663928
    20    -0.173919
    21     0.405930
    22     0.071744
    23    -0.013647
    24     0.627243
    25    -0.071926
Sym=    17a
Ene=   -0.706900E-03
Spin= Alpha
Occup= 0.000274
     1    -0.191924
     2    -0.280531
     3    -0.375763
     4     0.067049
     5    -0.027645
     6     0.341110
     7    -0.479630
     8     0.336225
     9     0.376846
    10     0.778131
    11     0.367662
    12     0.885850
    13     0.040004
    14    -0.027212
    15     0.251155
    16    -0.807132
    17     0.215426
    18    -0.440366
    19    -0.358544
    20     0.564158
    21    -0.321114
    22     0.198228
    23     0.887997
    24    -0.444527
    25     0.011506
Sym=    18a
Ene=   -0.182277E-02
Spin= Alpha
Occup= 0.000951
     1     0.002223
     2     0.008088
     3     0.007379
     4    -0.609367
     5     0.000617
     6     0.002868
     7     0.918435
     8    -0.009132
     9     0.005389
    10    -0.007784
    11    -0.004307
    12     0.000768
    13     0.002874
    14     0.424034
    15    -0.007820
    16     0.379032
    17     0.297183
    18    -0.247550
    19     0.014594
    20     0.414065
    21    -0.386990
    22    -0.295431
    23    -0.231636
    24     0.007756
    25    -0.419819
Sym=    19a
Ene=   -0.331496E-02
Spin= Alpha
Occup= 0.001035
     1     0.452757
     2     1.585326
     3     0.389465
     4     0.000049
     5    -0.001076
     6     0.327605
     7    -0.016210
     8     0.013280
     9    -0.613453
    10    -1.379441
    11    -0.703421
    12    -0.804574
    13     0.000740
    14    -0.012793
    15     0.012330
    16     0.395081
    17     0.012862
    18    -0.181526
    19    -0.014885
    20     0.044697
    21     0.427018
    22     0.001843
    23     0.172995
    24    -0.017084
    25     0.039094
Sym=    20a
Ene=   -0.702972E-05
Spin= Alpha
Occup= 0.000000
     1    -0.003879
     2     0.034762
     3    -0.310126
     4    -0.140924
     5    -0.001992
     6    -0.004858
     7    -1.480129
     8     0.021529
     9    -0.130515
    10     0.003318
    11     0.048711
    12    -0.007446
    13     0.009563
    14    -0.426587
    15     0.014127
    16    -0.200899
    17    -1.581371
    18    -0.526652
    19    -0.014322
    20     0.496508
    21     0.320621
    22     1.801542
    23    -0.657203
    24    -0.036306
    25    -0.529173
Sym=    21a
Ene=   -0.684057E-03
Spin= Alpha
Occup= 0.000276
     1     0.141494
     2     0.281395
     3     0.097256
     4     0.095007
     5    -0.018577
     6    -0.185977
     7    -0.632385
     8     0.225340
     9    -0.571680
    10    -0.313572
    11    -0.210005
    12    -0.891564
    13    -0.064485
    14    -0.016700
    15     0.169457
    16     0.208031
    17    -0.138616
    18     0.930372
    19    -0.339039
    20     0.434310
    21     0.825536
    22    -0.152095
    23    -0.293229
    24    -0.199147
    25    -0.311078
Sym=    22a
Ene=   -0.754511E-02
Spin= Alpha
Occup= 0.003683
     1    -0.063753
     2    -0.249375
     3    -0.011968
     4    -0.286964
     5     0.000674
     6    -0.005744
     7     0.530348
     8    -0.006046
     9    -0.154320
    10    -0.202327
    11    -0.208316
    12     0.688352
    13    -0.010999
    14    -0.421159
    15     0.001002
    16     0.234920
    17    -0.106032
    18     0.234184
    19     0.011336
    20     0.161674
    21    -0.171008
    22     0.068047
    23    -0.050344
    24     0.002215
    25     0.059345
Sym=    23a
Ene=   -0.945669E-02
Spin= Alpha
Occup= 0.005294
     1    -0.158380
     2    -0.777755
     3     0.878794
     4     0.001126
     5    -0.000495
     6    -0.217791
     7    -0.005778
     8     0.000368
     9     0.642898
    10    -0.332179
    11     0.844719
    12     0.072907
    13     0.007001
    14     0.001464
    15    -0.002442
    16    -0.490617
    17     0.023020
    18    -0.025983
    19    -0.003896
    20     0.123438
    21    -0.483858
    22     0.021814
    23     0.022892
    24     0.004545
    25     0.121859
Sym=    24a
Ene=   -0.111957E-02
Spin= Alpha
Occup= 0.000395
     1    -0.049230
     2    -0.055220
     3    -0.729799
     4     0.448269
     5     0.007511
     6    -0.041055
     7     0.577411
     8    -0.094069
     9    -0.289737
    10    -0.137979
    11     0.334527
    12     0.157871
    13     0.166548
    14     0.919050
    15    -0.071427
    16     1.366397
    17    -0.450420
    18     0.754756
    19     0.289268
    20    -0.457007
    21    -0.564172
    22     0.436920
    23     0.591806
    24    -0.063826
    25     0.169617
Sym=    25a
Ene=   -0.182776E-03
Spin= Alpha
Occup= 0.000010
     1    -0.085471
     2     0.048738
     3    -0.579974
     4     0.003365
     5     0.039067
     6     0.285115
     7    -0.342016
     8    -0.458782
     9    -0.387591
    10     0.756444
    11     0.317991
    12     0.043983
    13    -0.019843
    14    -0.098399
    15    -0.322511
    16    -0.223003
    17     0.088069
    18    -0.067014
    19     0.522269
    20     0.795288
    21     0.219343
    22     0.060435
    23     0.177418
    24     0.568002
    25     0.436957
