[Molden Format]
p30-5 set                                                                       
[Atoms] AU
 SI       1    14        0.0000        0.0000        0.0000
 F        2     9        1.7200       -1.7200        1.7200
 F        3     9       -1.7200        1.7200        1.7200
 F        4     9       -1.7200       -1.7200       -1.7200
 F        5     9        1.7200        1.7200       -1.7200
[GTO]
    1 0
s    5 1.00
    6903.711868600000  0.558446588743E-02
    1038.434641900000  0.417422844355E-01
     235.875814800000  0.187528023742E+00
      66.069385169000  0.478678596587E+00
      20.247945761000  0.429256952162E+00
s    3 1.00
      34.353481730000  0.898348994648E-01
       3.637078819200 -0.545685958777E+00
       1.400204859900 -0.524810829267E+00
s    1 1.00
       0.204844148050  0.100000000000E+01
s    1 1.00
       0.077994095468  0.100000000000E+01
p    5 1.00
     179.839073730000  0.101334983789E-01
      41.907258846000  0.710290410957E-01
      12.955294367000  0.255839142169E+00
       4.438326739300  0.481498047149E+00
       1.546224790400  0.385211960064E+00
p    1 1.00
       0.356076123020  0.100000000000E+01
p    1 1.00
       0.100085137620  0.100000000000E+01
d    1 1.00
       0.350000000000  0.100000000000E+01

    2 0
s    5 1.00
    2894.832599000000 -0.534932117607E-02
     435.419391200000 -0.399677343716E-01
      98.843328866000 -0.179412617888E+00
      27.485198001000 -0.468324686869E+00
       8.540549817100 -0.447241605328E+00
s    1 1.00
       1.065457803800  0.100000000000E+01
s    1 1.00
       0.332473467480  0.100000000000E+01
p    3 1.00
      22.696633924000 -0.647821482412E-01
       4.987233925700 -0.340357853553E+00
       1.349161395400 -0.734858153660E+00
p    1 1.00
       0.348298819770  0.100000000000E+01
d    1 1.00
       1.400000000000  0.100000000000E+01

    3 0
s    5 1.00
    2894.832599000000 -0.534932117607E-02
     435.419391200000 -0.399677343716E-01
      98.843328866000 -0.179412617888E+00
      27.485198001000 -0.468324686869E+00
       8.540549817100 -0.447241605328E+00
s    1 1.00
       1.065457803800  0.100000000000E+01
s    1 1.00
       0.332473467480  0.100000000000E+01
p    3 1.00
      22.696633924000 -0.647821482412E-01
       4.987233925700 -0.340357853553E+00
       1.349161395400 -0.734858153660E+00
p    1 1.00
       0.348298819770  0.100000000000E+01
d    1 1.00
       1.400000000000  0.100000000000E+01

    4 0
s    5 1.00
    2894.832599000000 -0.534932117607E-02
     435.419391200000 -0.399677343716E-01
      98.843328866000 -0.179412617888E+00
      27.485198001000 -0.468324686869E+00
       8.540549817100 -0.447241605328E+00
s    1 1.00
       1.065457803800  0.100000000000E+01
s    1 1.00
       0.332473467480  0.100000000000E+01
p    3 1.00
      22.696633924000 -0.647821482412E-01
       4.987233925700 -0.340357853553E+00
       1.349161395400 -0.734858153660E+00
p    1 1.00
       0.348298819770  0.100000000000E+01
d    1 1.00
       1.400000000000  0.100000000000E+01

    5 0
s    5 1.00
    2894.832599000000 -0.534932117607E-02
     435.419391200000 -0.399677343716E-01
      98.843328866000 -0.179412617888E+00
      27.485198001000 -0.468324686869E+00
       8.540549817100 -0.447241605328E+00
s    1 1.00
       1.065457803800  0.100000000000E+01
s    1 1.00
       0.332473467480  0.100000000000E+01
p    3 1.00
      22.696633924000 -0.647821482412E-01
       4.987233925700 -0.340357853553E+00
       1.349161395400 -0.734858153660E+00
p    1 1.00
       0.348298819770  0.100000000000E+01
d    1 1.00
       1.400000000000  0.100000000000E+01

[MO]
Sym=     1a
Ene=   -0.689713E+02
Spin= Alpha
Occup= 1.999998
     1     0.994656
     2    -0.025531
     3    -0.029310
     4     0.000982
     5     0.000001
     6    -0.000003
     7    -0.000001
     8    -0.000001
     9     0.000001
    10     0.000004
    11    -0.000000
    12    -0.000001
    13    -0.000000
    14     0.010619
    15     0.010617
    16     0.010617
    17     0.000000
    18    -0.000003
    19     0.000001
    20     0.000021
    21    -0.000118
    22    -0.000135
    23     0.000001
    24     0.000002
    25    -0.000002
    26     0.000168
    27    -0.000165
    28     0.000166
    29    -0.000004
    30    -0.000008
    31    -0.000006
    32    -0.000056
    33     0.000062
    34    -0.000061
    35     0.000019
    36    -0.000135
    37    -0.000119
    38     0.000001
    39     0.000003
    40     0.000001
    41    -0.000167
    42     0.000173
    43     0.000168
    44    -0.000008
    45     0.000003
    46    -0.000009
    47    -0.000061
    48    -0.000059
    49     0.000058
    50     0.000020
    51    -0.000129
    52    -0.000121
    53     0.000002
    54    -0.000000
    55    -0.000003
    56    -0.000165
    57    -0.000166
    58    -0.000170
    59    -0.000008
    60    -0.000009
    61    -0.000000
    62     0.000059
    63     0.000058
    64     0.000060
    65     0.000021
    66    -0.000118
    67    -0.000136
    68    -0.000001
    69    -0.000003
    70     0.000000
    71     0.000165
    72     0.000166
    73    -0.000167
    74    -0.000006
    75    -0.000008
    76    -0.000004
    77     0.000062
    78    -0.000058
    79    -0.000061
Sym=     2a
Ene=   -0.263908E+02
Spin= Alpha
Occup= 1.999969
     1     0.000001
     2     0.000006
     3     0.000039
     4     0.000026
     5     0.000016
     6     0.000387
     7     0.000022
     8    -0.000005
     9     0.000509
    10    -0.000075
    11     0.000028
    12     0.001722
    13    -0.000176
    14     0.000002
    15     0.000011
    16     0.000013
    17     0.000077
    18    -0.000361
    19    -0.000002
    20     0.521375
    21    -0.022236
    22     0.004417
    23    -0.000198
    24     0.000076
    25    -0.000223
    26    -0.000687
    27     0.000402
    28    -0.000620
    29     0.003130
    30     0.003104
    31     0.003122
    32    -0.000063
    33     0.000089
    34    -0.000063
    35    -0.446380
    36     0.018423
    37    -0.004393
    38    -0.000241
    39    -0.000001
    40     0.000262
    41    -0.000522
    42     0.000309
    43     0.000542
    44    -0.002655
    45    -0.002635
    46    -0.002656
    47     0.000053
    48     0.000077
    49    -0.000055
    50     0.449371
    51    -0.018417
    52     0.004356
    53     0.000213
    54     0.000071
    55     0.000219
    56     0.000552
    57     0.000276
    58     0.000591
    59     0.002678
    60     0.002658
    61     0.002682
    62     0.000047
    63     0.000083
    64     0.000056
    65    -0.549458
    66     0.023429
    67    -0.004686
    68     0.000214
    69     0.000118
    70    -0.000203
    71     0.000707
    72     0.000422
    73    -0.000689
    74    -0.003292
    75    -0.003264
    76    -0.003295
    77    -0.000070
    78     0.000089
    79     0.000068
Sym=     3a
Ene=   -0.263900E+02
Spin= Alpha
Occup= 1.999966
     1     0.000003
     2     0.000022
     3     0.000043
     4    -0.000013
     5     0.000014
     6     0.000086
     7     0.000395
     8    -0.000008
     9     0.000026
    10     0.000514
    11     0.000033
    12     0.000140
    13     0.001720
    14     0.000000
    15     0.000008
    16    -0.000019
    17    -0.000356
    18     0.000019
    19    -0.000001
    20    -0.455619
    21     0.019438
    22    -0.003870
    23     0.000170
    24    -0.000197
    25     0.000076
    26     0.000599
    27    -0.000611
    28     0.000307
    29    -0.002733
    30    -0.002737
    31    -0.002706
    32     0.000078
    33    -0.000056
    34     0.000056
    35    -0.526556
    36     0.021734
    37    -0.005169
    38    -0.000271
    39     0.000186
    40     0.000122
    41    -0.000621
    42     0.000672
    43     0.000337
    44    -0.003136
    45    -0.003141
    46    -0.003108
    47     0.000095
    48     0.000067
    49    -0.000065
    50     0.544926
    51    -0.022349
    52     0.005306
    53     0.000253
    54     0.000256
    55     0.000113
    56     0.000669
    57     0.000649
    58     0.000427
    59     0.003247
    60     0.003248
    61     0.003221
    62     0.000087
    63     0.000075
    64     0.000070
    65     0.439759
    66    -0.018758
    67     0.003741
    68    -0.000185
    69    -0.000209
    70     0.000044
    71    -0.000574
    72    -0.000578
    73     0.000301
    74     0.002640
    75     0.002637
    76     0.002613
    77     0.000081
    78    -0.000052
    79    -0.000055
Sym=     4a
Ene=   -0.263906E+02
Spin= Alpha
Occup= 1.999965
     1     0.000102
     2     0.000655
     3    -0.000935
     4    -0.002652
     5     0.000042
     6     0.000016
     7     0.000003
     8    -0.000044
     9    -0.000016
    10    -0.000016
    11    -0.000112
    12     0.000022
    13     0.000008
    14    -0.000650
    15    -0.000643
    16    -0.000643
    17     0.000013
    18     0.000002
    19     0.000048
    20     0.522407
    21    -0.022531
    22     0.005554
    23    -0.000232
    24     0.000255
    25    -0.000285
    26    -0.000809
    27     0.000799
    28    -0.000781
    29     0.002958
    30     0.002961
    31     0.002957
    32    -0.000092
    33     0.000094
    34    -0.000094
    35     0.465584
    36    -0.019467
    37     0.005690
    38     0.000298
    39    -0.000200
    40    -0.000291
    41     0.000683
    42    -0.000751
    43    -0.000669
    44     0.002598
    45     0.002597
    46     0.002597
    47    -0.000088
    48    -0.000086
    49     0.000088
    50     0.477152
    51    -0.019811
    52     0.005756
    53     0.000279
    54     0.000270
    55     0.000262
    56     0.000735
    57     0.000717
    58     0.000741
    59     0.002671
    60     0.002673
    61     0.002664
    62     0.000082
    63     0.000093
    64     0.000088
    65     0.507625
    66    -0.021890
    67     0.005444
    68    -0.000236
    69    -0.000280
    70     0.000243
    71    -0.000778
    72    -0.000770
    73     0.000794
    74     0.002870
    75     0.002868
    76     0.002874
    77     0.000091
    78    -0.000091
    79    -0.000092
Sym=     5a
Ene=   -0.263900E+02
Spin= Alpha
Occup= 1.999959
     1    -0.000019
     2    -0.000102
     3     0.000082
     4     0.000080
     5    -0.000400
     6    -0.000012
     7    -0.000002
     8    -0.000508
     9     0.000037
    10     0.000030
    11    -0.001723
    12     0.000037
    13     0.000027
    14     0.000002
    15     0.000036
    16     0.000022
    17    -0.000007
    18    -0.000003
    19     0.000356
    20     0.471143
    21    -0.020089
    22     0.003933
    23    -0.000038
    24     0.000190
    25    -0.000213
    26    -0.000339
    27     0.000580
    28    -0.000572
    29     0.002811
    30     0.002833
    31     0.002829
    32    -0.000050
    33     0.000056
    34    -0.000080
    35    -0.531448
    36     0.021959
    37    -0.005274
    38    -0.000125
    39     0.000193
    40     0.000272
    41    -0.000358
    42     0.000710
    43     0.000628
    44    -0.003128
    45    -0.003159
    46    -0.003154
    47     0.000069
    48     0.000067
    49    -0.000094
    50    -0.499341
    51     0.020500
    52    -0.004908
    53    -0.000093
    54    -0.000248
    55    -0.000231
    56    -0.000359
    57    -0.000641
    58    -0.000651
    59    -0.002942
    60    -0.002969
    61    -0.002965
    62    -0.000057
    63    -0.000066
    64    -0.000090
    65     0.470473
    66    -0.020055
    67     0.003925
    68    -0.000054
    69    -0.000207
    70     0.000188
    71    -0.000320
    72    -0.000575
    73     0.000585
    74     0.002805
    75     0.002826
    76     0.002834
    77     0.000056
    78    -0.000051
    79    -0.000081
Sym=     6a
Ene=   -0.630154E+01
Spin= Alpha
Occup= 1.999369
     1     0.292871
     2     1.023512
     3    -0.039973
     4     0.010386
     5    -0.000070
     6     0.000256
     7     0.000185
     8    -0.000047
     9     0.000029
    10     0.000044
    11     0.000011
    12     0.000002
    13    -0.000028
    14     0.000728
    15     0.000708
    16     0.000702
    17    -0.000010
    18    -0.000053
    19     0.000050
    20    -0.000219
    21     0.000105
    22     0.002049
    23    -0.000057
    24     0.000027
    25     0.000020
    26    -0.000742
    27     0.000824
    28    -0.000851
    29    -0.000183
    30    -0.000219
    31    -0.000203
    32     0.000630
    33    -0.000570
    34     0.000587
    35    -0.000242
    36    -0.000057
    37     0.002229
    38    -0.000080
    39    -0.000007
    40     0.000080
    41     0.000871
    42    -0.000683
    43    -0.000829
    44    -0.000242
    45    -0.000141
    46    -0.000249
    47     0.000585
    48     0.000596
    49    -0.000605
    50    -0.000234
    51    -0.000003
    52     0.002192
    53    -0.000029
    54    -0.000024
    55    -0.000002
    56     0.000848
    57     0.000825
    58     0.000733
    59    -0.000230
    60    -0.000240
    61    -0.000162
    62    -0.000598
    63    -0.000609
    64    -0.000598
    65    -0.000220
    66     0.000124
    67     0.001985
    68    -0.000073
    69     0.000044
    70     0.000061
    71    -0.000762
    72    -0.000872
    73     0.000749
    74    -0.000200
    75    -0.000213
    76    -0.000188
    77    -0.000575
    78     0.000619
    79     0.000580
Sym=     7a
Ene=   -0.441384E+01
Spin= Alpha
Occup= 1.998629
     1     0.000011
     2     0.000087
     3     0.000197
     4     0.000031
     5     0.918964
     6     0.353821
     7     0.019900
     8     0.044851
     9     0.017325
    10     0.001030
    11    -0.003248
    12    -0.001188
    13    -0.000065
    14    -0.000098
    15     0.000067
    16    -0.000036
    17    -0.000116
    18    -0.002124
    19    -0.005532
    20     0.000441
    21     0.000540
    22    -0.002197
    23     0.000369
    24    -0.000340
    25     0.000303
    26     0.000081
    27    -0.001099
    28     0.000851
    29     0.000037
    30     0.000318
    31     0.000253
    32    -0.000335
    33     0.000288
    34    -0.000381
    35    -0.000467
    36    -0.000656
    37     0.002024
    38     0.000209
    39    -0.000186
    40    -0.000194
    41     0.000124
    42    -0.000958
    43    -0.000823
    44    -0.000034
    45    -0.000303
    46    -0.000246
    47     0.000292
    48     0.000276
    49    -0.000357
    50    -0.001099
    51    -0.001509
    52     0.004852
    53     0.000587
    54     0.000563
    55     0.000601
    56     0.001251
    57     0.001626
    58     0.001835
    59    -0.000370
    60    -0.000502
    61    -0.000516
    62    -0.000708
    63    -0.000737
    64    -0.000773
    65     0.000930
    66     0.001133
    67    -0.004777
    68     0.000708
    69     0.000545
    70    -0.000688
    71     0.001035
    72     0.001614
    73    -0.001778
    74     0.000337
    75     0.000452
    76     0.000519
    77     0.000674
    78    -0.000725
    79    -0.000729
Sym=     8a
Ene=   -0.441246E+01
Spin= Alpha
Occup= 1.998217
     1    -0.000103
     2    -0.000400
     3    -0.000122
     4    -0.000022
     5    -0.330738
     6     0.836349
     7     0.401142
     8    -0.016192
     9     0.041036
    10     0.019745
    11     0.001179
    12    -0.002983
    13    -0.001503
    14     0.000055
    15    -0.000007
    16    -0.000004
    17    -0.002446
    18    -0.005089
    19     0.001978
    20    -0.000638
    21    -0.000836
    22     0.002826
    23    -0.000497
    24     0.000429
    25    -0.000465
    26    -0.000734
    27     0.000423
    28    -0.001363
    29    -0.000239
    30    -0.000147
    31    -0.000441
    32     0.000424
    33    -0.000469
    34     0.000434
    35     0.001687
    36     0.002602
    37    -0.005441
    38    -0.000872
    39     0.000687
    40     0.000871
    41    -0.001983
    42     0.001548
    43     0.001878
    44     0.000635
    45     0.000441
    46     0.000626
    47    -0.000882
    48    -0.000918
    49     0.000898
    50    -0.000932
    51    -0.001377
    52     0.003162
    53     0.000539
    54     0.000477
    55     0.000485
    56     0.001518
    57     0.000732
    58     0.000939
    59    -0.000478
    60    -0.000217
    61    -0.000283
    62    -0.000520
    63    -0.000566
    64    -0.000477
    65     0.000074
    66     0.000073
    67    -0.000388
    68     0.000023
    69    -0.000024
    70    -0.000042
    71     0.000378
    72    -0.000469
    73    -0.000423
    74     0.000129
    75    -0.000152
    76     0.000142
    77     0.000046
    78    -0.000109
    79    -0.000034
Sym=     9a
Ene=   -0.441251E+01
Spin= Alpha
Occup= 1.998206
     1     0.000026
     2     0.000110
     3     0.000112
     4     0.000002
     5    -0.127190
     6     0.380962
     7    -0.899099
     8    -0.006288
     9     0.018750
    10    -0.044382
    11     0.000431
    12    -0.001232
    13     0.003147
    14    -0.000015
    15     0.000046
    16    -0.000106
    17     0.005516
    18    -0.002302
    19     0.000781
    20    -0.001157
    21    -0.001534
    22     0.005327
    23    -0.000944
    24     0.000885
    25    -0.000764
    26    -0.001853
    27     0.001746
    28    -0.001381
    29    -0.000553
    30    -0.000524
    31    -0.000395
    32     0.000839
    33    -0.000773
    34     0.000760
    35    -0.000407
    36    -0.000629
    37     0.001402
    38     0.000211
    39    -0.000266
    40    -0.000095
    41     0.000718
    42    -0.000765
    43     0.000024
    44    -0.000190
    45    -0.000235
    46     0.000024
    47     0.000248
    48     0.000184
    49    -0.000198
    50     0.000669
    51     0.001000
    52    -0.002268
    53    -0.000409
    54    -0.000417
    55    -0.000309
    56    -0.000918
    57    -0.001230
    58    -0.000286
    59     0.000245
    60     0.000369
    61     0.000059
    62     0.000394
    63     0.000333
    64     0.000364
    65     0.000946
    66     0.001247
    67    -0.004355
    68     0.000806
    69     0.000623
    70    -0.000686
    71     0.001714
    72     0.001441
    73    -0.000946
    74     0.000506
    75     0.000395
    76     0.000293
    77     0.000658
    78    -0.000668
    79    -0.000603
Sym=    10a
Ene=   -0.161861E+01
Spin= Alpha
Occup= 1.993427
     1    -0.007267
     2    -0.040294
     3    -0.036103
     4    -0.004617
     5    -0.022688
     6     0.027034
     7     0.023052
     8     0.020894
     9    -0.026916
    10    -0.020879
    11     0.006477
    12    -0.011856
    13    -0.006373
    14     0.007971
    15     0.001806
    16     0.008164
    17     0.018795
    18     0.014724
    19    -0.018559
    20    -0.000351
    21     0.000494
    22    -0.007749
    23    -0.001189
    24     0.000924
    25    -0.000147
    26     0.003093
    27    -0.002373
    28     0.003649
    29    -0.000076
    30    -0.000174
    31     0.000347
    32     0.000582
    33    -0.000554
    34     0.000570
    35    -0.303560
    36    -0.609687
    37    -0.429635
    38    -0.011968
    39     0.069319
    40     0.010104
    41     0.011705
    42    -0.051832
    43    -0.010393
    44    -0.009100
    45    -0.007004
    46    -0.009211
    47     0.002673
    48     0.003896
    49    -0.002720
    50     0.000495
    51     0.002204
    52    -0.006503
    53     0.000267
    54     0.000885
    55     0.001221
    56    -0.003770
    57    -0.002397
    58    -0.003150
    59     0.000360
    60    -0.000160
    61    -0.000052
    62    -0.000563
    63    -0.000555
    64    -0.000567
    65    -0.000070
    66     0.000831
    67    -0.004952
    68    -0.000536
    69    -0.000217
    70     0.000512
    71     0.002011
    72     0.004564
    73    -0.001995
    74    -0.000281
    75     0.000124
    76    -0.000278
    77    -0.000566
    78     0.000642
    79     0.000564
Sym=    11a
Ene=   -0.161617E+01
Spin= Alpha
Occup= 1.993326
     1     0.006645
     2     0.036422
     3     0.030291
     4     0.005206
     5     0.021464
     6     0.022298
     7     0.023514
     8    -0.019671
     9    -0.020200
    10    -0.021744
    11    -0.007298
    12    -0.007692
    13    -0.008975
    14    -0.006562
    15    -0.006211
    16    -0.004630
    17     0.015416
    18     0.016468
    19     0.016567
    20     0.000318
    21    -0.000334
    22     0.006716
    23     0.001101
    24    -0.000239
    25     0.001050
    26    -0.002638
    27     0.003887
    28    -0.002410
    29     0.000152
    30    -0.000234
    31     0.000187
    32    -0.000543
    33     0.000536
    34    -0.000543
    35    -0.000538
    36    -0.002102
    37     0.005684
    38    -0.000210
    39     0.001133
    40     0.001130
    41     0.003812
    42    -0.002725
    43    -0.002550
    44    -0.000278
    45     0.000118
    46     0.000155
    47    -0.000528
    48    -0.000527
    49     0.000521
    50     0.304432
    51     0.612958
    52     0.430881
    53     0.031712
    54     0.035231
    55     0.049448
    56    -0.024686
    57    -0.027146
    58    -0.036927
    59     0.008829
    60     0.008691
    61     0.007947
    62     0.003058
    63     0.002732
    64     0.002642
    65     0.000232
    66    -0.000481
    67     0.006039
    68     0.000990
    69     0.000971
    70    -0.000165
    71    -0.002374
    72    -0.002331
    73     0.004036
    74     0.000198
    75     0.000209
    76    -0.000194
    77     0.000546
    78    -0.000541
    79    -0.000536
Sym=    12a
Ene=   -0.159054E+01
Spin= Alpha
Occup= 1.989918
     1    -0.004805
     2    -0.025076
     3    -0.013150
     4    -0.007658
     5     0.018357
     6    -0.017752
     7     0.017379
     8    -0.014497
     9     0.013295
    10    -0.012881
    11    -0.008339
    12     0.007381
    13    -0.006881
    14     0.004483
    15     0.005611
    16     0.006097
    17     0.013568
    18    -0.013225
    19     0.012567
    20    -0.306596
    21    -0.613486
    22    -0.432991
    23     0.069431
    24    -0.058079
    25     0.053120
    26    -0.049351
    27     0.041497
    28    -0.037899
    29    -0.008118
    30    -0.008322
    31    -0.008615
    32     0.001909
    33    -0.001990
    34     0.002150
    35     0.000906
    36     0.002429
    37    -0.004379
    38     0.001059
    39    -0.001168
    40    -0.000818
    41    -0.002192
    42     0.002376
    43     0.004110
    44    -0.000115
    45    -0.000094
    46     0.000143
    47     0.000321
    48     0.000443
    49    -0.000445
    50     0.000974
    51     0.002542
    52    -0.004072
    53     0.000819
    54     0.000987
    55     0.001066
    56    -0.002029
    57    -0.004322
    58    -0.002317
    59    -0.000133
    60     0.000116
    61    -0.000098
    62    -0.000448
    63    -0.000331
    64    -0.000451
    65     0.000237
    66     0.001055
    67    -0.004695
    68    -0.000985
    69    -0.000592
    70     0.000667
    71     0.004503
    72     0.001792
    73    -0.001897
    74     0.000054
    75    -0.000163
    76    -0.000154
    77    -0.000456
    78     0.000460
    79     0.000340
Sym=    13a
Ene=   -0.159073E+01
Spin= Alpha
Occup= 1.989912
     1     0.004756
     2     0.024785
     3     0.012750
     4     0.007673
     5    -0.017788
     6    -0.017021
     7     0.018085
     8     0.013827
     9     0.012459
    10    -0.013943
    11     0.007774
    12     0.006668
    13    -0.007921
    14    -0.005102
    15    -0.006298
    16    -0.004819
    17     0.012760
    18    -0.013602
    19    -0.013018
    20    -0.000207
    21    -0.001003
    22     0.004918
    23     0.000953
    24    -0.000823
    25     0.000669
    26    -0.004375
    27     0.002076
    28    -0.001847
    29    -0.000076
    30     0.000138
    31     0.000156
    32    -0.000457
    33     0.000456
    34    -0.000332
    35    -0.001217
    36    -0.003046
    37     0.004038
    38    -0.000581
    39     0.001653
    40     0.000362
    41     0.001972
    42    -0.004671
    43    -0.001804
    44     0.000079
    45    -0.000129
    46     0.000074
    47    -0.000444
    48    -0.000296
    49     0.000440
    50    -0.001123
    51    -0.002813
    52     0.003571
    53    -0.000803
    54    -0.000897
    55    -0.001050
    56     0.001938
    57     0.002113
    58     0.004479
    59     0.000136
    60     0.000118
    61    -0.000090
    62     0.000324
    63     0.000448
    64     0.000443
    65     0.306611
    66     0.613646
    67     0.433028
    68    -0.063440
    69    -0.052612
    70     0.065383
    71     0.045160
    72     0.037560
    73    -0.046472
    74     0.008304
    75     0.008697
    76     0.008050
    77     0.002147
    78    -0.001768
    79    -0.002008
Sym=    14a
Ene=   -0.757574E+00
Spin= Alpha
Occup= 1.985480
     1    -0.005966
     2    -0.037558
     3    -0.062426
     4     0.012586
     5    -0.004548
     6     0.044541
     7    -0.002858
     8     0.009571
     9    -0.073544
    10     0.002109
    11    -0.017464
    12    -0.044188
    13     0.028718
    14     0.020734
    15    -0.050834
    16     0.033760
    17     0.032874
    18    -0.022237
    19    -0.024442
    20    -0.002008
    21    -0.001528
    22    -0.017694
    23    -0.008569
    24    -0.000722
    25     0.002771
    26     0.011834
    27     0.000805
    28    -0.006650
    29     0.001098
    30     0.000248
    31     0.001727
    32     0.000423
    33    -0.000183
    34     0.000242
    35     0.022406
    36     0.047615
    37     0.049011
    38     0.278267
    39     0.418385
    40    -0.404594
    41    -0.189209
    42    -0.301826
    43     0.278187
    44    -0.005942
    45     0.015249
    46    -0.009793
    47    -0.002468
    48     0.011616
    49     0.000307
    50    -0.000632
    51     0.000766
    52    -0.010892
    53    -0.001961
    54    -0.004010
    55     0.006689
    56     0.004445
    57     0.004237
    58    -0.010475
    59     0.001276
    60    -0.000100
    61     0.000901
    62    -0.000234
    63    -0.000150
    64    -0.000470
    65     0.006765
    66     0.013005
    67     0.026064
    68     0.015219
    69    -0.004107
    70    -0.013619
    71    -0.012537
    72     0.009745
    73     0.010341
    74    -0.001099
    75    -0.001349
    76    -0.000960
    77    -0.000096
    78     0.000798
    79     0.000058
Sym=    15a
Ene=   -0.750011E+00
Spin= Alpha
Occup= 1.981046
     1     0.000289
     2     0.001784
     3     0.002752
     4    -0.000355
     5    -0.021924
     6     0.028089
     7    -0.004408
     8     0.035185
     9    -0.045038
    10     0.007024
    11     0.036231
    12    -0.044052
    13     0.007959
    14    -0.042202
    15     0.051221
    16    -0.009153
    17     0.006489
    18    -0.033404
    19     0.028491
    20    -0.005778
    21    -0.009654
    22    -0.026750
    23    -0.011588
    24    -0.005611
    25    -0.016568
    26     0.009308
    27     0.011543
    28     0.015685
    29     0.000786
    30     0.001939
    31     0.001135
    32     0.000091
    33     0.000126
    34     0.000108
    35     0.005164
    36     0.008589
    37     0.022771
    38     0.003232
    39     0.006107
    40     0.015355
    41    -0.008741
    42    -0.003853
    43    -0.015871
    44    -0.001596
    45    -0.000488
    46    -0.001109
    47    -0.000131
    48    -0.000098
    49    -0.000086
    50    -0.000119
    51    -0.000315
    52    -0.000761
    53    -0.410724
    54     0.492951
    55    -0.092388
    56     0.289578
    57    -0.348176
    58     0.064920
    59     0.012501
    60    -0.015168
    61     0.002750
    62    -0.001405
    63     0.008661
    64    -0.006876
    65     0.000931
    66     0.001452
    67     0.004771
    68     0.009305
    69    -0.004412
    70     0.000965
    71    -0.011135
    72     0.006609
    73    -0.002043
    74    -0.000686
    75     0.000334
    76    -0.000359
    77     0.000009
    78    -0.000031
    79    -0.000031
Sym=    16a
Ene=   -0.751769E+00
Spin= Alpha
Occup= 1.980947
     1    -0.002801
     2    -0.017537
     3    -0.028577
     4     0.005593
     5     0.011670
     6     0.003156
     7    -0.036679
     8    -0.017729
     9    -0.004118
    10     0.059306
    11    -0.031549
    12    -0.017438
    13     0.047704
    14     0.036131
    15     0.019771
    16    -0.054071
    17     0.030255
    18    -0.018361
    19    -0.029062
    20    -0.001344
    21    -0.001279
    22    -0.010595
    23    -0.008486
    24    -0.001735
    25     0.003026
    26     0.011775
    27     0.004207
    28    -0.004490
    29     0.000934
    30     0.000967
    31    -0.000107
    32     0.000105
    33    -0.000192
    34     0.000118
    35    -0.003302
    36    -0.004486
    37    -0.019470
    38    -0.002514
    39    -0.010998
    40    -0.001224
    41     0.007168
    42     0.013725
    43     0.000152
    44     0.001566
    45     0.001170
    46     0.000330
    47     0.000165
    48     0.000167
    49    -0.000106
    50     0.005797
    51     0.012683
    52     0.015878
    53     0.373967
    54     0.222336
    55    -0.477166
    56    -0.261892
    57    -0.154404
    58     0.341577
    59    -0.010546
    60    -0.005835
    61     0.015807
    62    -0.010391
    63     0.001782
    64     0.004406
    65     0.006649
    66     0.011632
    67     0.028863
    68     0.012884
    69     0.015024
    70     0.005433
    71    -0.010938
    72    -0.013865
    73    -0.011930
    74    -0.001030
    75    -0.001198
    76    -0.001823
    77    -0.000423
    78    -0.000018
    79    -0.000029
Sym=    17a
Ene=   -0.752961E+00
Spin= Alpha
Occup= 1.980924
     1    -0.000580
     2    -0.003626
     3    -0.005804
     4     0.001308
     5    -0.021478
     6    -0.002761
     7    -0.029452
     8     0.034221
     9     0.004379
    10     0.047005
    11     0.038142
    12     0.007486
    13     0.045320
    14     0.043277
    15     0.008839
    16    -0.051647
    17     0.033021
    18     0.007029
    19     0.029988
    20    -0.004537
    21    -0.007147
    22    -0.023136
    23     0.004212
    24     0.013416
    25    -0.005627
    26    -0.009532
    27    -0.014858
    28     0.003904
    29     0.001702
    30     0.001232
    31     0.000541
    32     0.000099
    33    -0.000114
    34    -0.000092
    35    -0.000915
    36    -0.001342
    37    -0.004827
    38     0.007253
    39     0.001005
    40     0.004062
    41    -0.010126
    42    -0.001995
    43    -0.006627
    44     0.000722
    45     0.000382
    46    -0.000378
    47     0.000023
    48     0.000026
    49    -0.000044
    50     0.006657
    51     0.011285
    52     0.028557
    53    -0.010554
    54    -0.013882
    55     0.004992
    56     0.008715
    57     0.014194
    58    -0.011400
    59    -0.000814
    60    -0.001250
    61    -0.001890
    62    -0.000192
    63     0.000108
    64     0.000085
    65     0.000718
    66     0.001663
    67     0.002666
    68    -0.420059
    69    -0.090484
    70    -0.483450
    71     0.296624
    72     0.063287
    73     0.342979
    74    -0.012792
    75    -0.002577
    76     0.015211
    77    -0.008875
    78    -0.001096
    79    -0.006808
Sym=    18a
Ene=   -0.752275E+00
Spin= Alpha
Occup= 1.980857
     1    -0.001767
     2    -0.011061
     3    -0.018143
     4     0.003363
     5     0.030280
     6     0.021266
     7     0.004426
     8    -0.049111
     9    -0.033357
    10    -0.007701
    11    -0.041932
    12    -0.042589
    13     0.000283
    14    -0.048018
    15     0.048670
    16     0.000467
    17     0.003535
    18    -0.035408
    19    -0.028127
    20     0.002275
    21     0.005264
    22     0.007918
    23     0.433110
    24     0.479209
    25    -0.025289
    26    -0.308648
    27    -0.337345
    28     0.015974
    29     0.013990
    30    -0.014273
    31    -0.000190
    32     0.000824
    33     0.007046
    34     0.008821
    35     0.000702
    36     0.001768
    37     0.000247
    38    -0.006801
    39    -0.005513
    40     0.000409
    41     0.008809
    42     0.008654
    43    -0.000383
    44    -0.000549
    45     0.000545
    46     0.000169
    47     0.000155
    48     0.000065
    49    -0.000036
    50    -0.005313
    51    -0.008236
    52    -0.026502
    53     0.005733
    54    -0.003256
    55     0.012563
    56    -0.004951
    57     0.009544
    58    -0.014169
    59     0.000717
    60     0.001926
    61     0.001273
    62    -0.000160
    63     0.000030
    64    -0.000177
    65     0.005619
    66     0.009605
    67     0.025438
    68    -0.004651
    69     0.008804
    70    -0.014893
    71     0.010444
    72    -0.006473
    73     0.015140
    74    -0.001677
    75    -0.000705
    76    -0.001266
    77     0.000051
    78    -0.000047
    79     0.000332
Sym=    19a
Ene=   -0.752682E+00
Spin= Alpha
Occup= 1.980659
     1    -0.001805
     2    -0.011295
     3    -0.018314
     4     0.003396
     5     0.019263
     6    -0.019601
     7    -0.025041
     8    -0.031385
     9     0.031925
    10     0.039275
    11    -0.024130
    12     0.024669
    13     0.049303
    14    -0.027148
    15    -0.028322
    16     0.056446
    17     0.040738
    18     0.015220
    19    -0.014609
    20     0.002496
    21     0.005876
    22     0.008313
    23     0.235002
    24    -0.241902
    25    -0.551337
    26    -0.168512
    27     0.173363
    28     0.388228
    29     0.007888
    30     0.008123
    31    -0.016429
    32    -0.008282
    33    -0.005531
    34     0.005435
    35    -0.006222
    36    -0.009648
    37    -0.030747
    38     0.011284
    39    -0.011838
    40     0.004393
    41    -0.011643
    42     0.011771
    43    -0.011415
    44     0.001157
    45     0.001144
    46     0.002240
    47    -0.000037
    48     0.000184
    49    -0.000199
    50     0.004021
    51     0.007198
    52     0.015594
    53    -0.012048
    54     0.001517
    55    -0.001678
    56     0.013547
    57    -0.005230
    58    -0.001358
    59    -0.001058
    60    -0.000880
    61    -0.000118
    62     0.000012
    63    -0.000258
    64     0.000038
    65     0.003411
    66     0.006029
    67     0.014495
    68    -0.002843
    69     0.012618
    70    -0.001689
    71     0.006080
    72    -0.013925
    73    -0.001343
    74    -0.000902
    75    -0.001030
    76    -0.000101
    77    -0.000002
    78    -0.000013
    79     0.000251
Sym=    20a
Ene=   -0.754000E+00
Spin= Alpha
Occup= 1.980323
     1     0.003147
     2     0.019643
     3     0.031569
     4    -0.006073
     5    -0.026788
     6     0.020710
     7     0.018650
     8     0.043754
     9    -0.032002
    10    -0.030749
    11     0.030429
    12    -0.048797
    13    -0.016937
    14     0.034292
    15    -0.055662
    16     0.019209
    17    -0.006718
    18    -0.043229
    19     0.016713
    20    -0.004578
    21    -0.008335
    22    -0.018149
    23     0.003697
    24     0.005187
    25    -0.014924
    26    -0.007848
    27    -0.001607
    28     0.015242
    29     0.001087
    30     0.000291
    31     0.001110
    32    -0.000001
    33     0.000008
    34    -0.000383
    35     0.006129
    36     0.009219
    37     0.030909
    38    -0.010716
    39    -0.006609
    40     0.013140
    41     0.010592
    42     0.012823
    43    -0.013646
    44    -0.001006
    45    -0.002372
    46    -0.001173
    47    -0.000213
    48    -0.000176
    49     0.000213
    50    -0.003405
    51    -0.006630
    52    -0.010680
    53     0.011931
    54     0.001439
    55    -0.002334
    56    -0.013014
    57     0.002681
    58     0.004605
    59     0.000905
    60    -0.000144
    61     0.000490
    62     0.000313
    63     0.000042
    64     0.000045
    65    -0.001575
    66    -0.004486
    67    -0.010351
    68    -0.286945
    69     0.560533
    70     0.144210
    71     0.206847
    72    -0.393063
    73    -0.105758
    74    -0.009910
    75     0.016353
    76    -0.005492
    77     0.004871
    78     0.007462
    79    -0.007372
Sym=    21a
Ene=   -0.746621E+00
Spin= Alpha
Occup= 1.979128
     1    -0.001153
     2    -0.007214
     3    -0.011718
     4     0.002211
     5     0.024277
     6     0.006665
     7     0.026488
     8    -0.038665
     9    -0.011125
    10    -0.042746
    11    -0.044518
    12    -0.005968
    13    -0.038028
    14     0.051143
    15    -0.007166
    16    -0.043338
    17    -0.026583
    18    -0.002360
    19    -0.036020
    20     0.005225
    21     0.008970
    22     0.023139
    23     0.007721
    24    -0.016126
    25    -0.004120
    26    -0.004820
    27     0.015942
    28     0.009288
    29    -0.000520
    30    -0.001174
    31    -0.001571
    32     0.000215
    33     0.000057
    34    -0.000078
    35     0.002467
    36     0.005420
    37     0.006677
    38     0.503809
    39     0.052371
    40     0.402389
    41    -0.355461
    42    -0.038443
    43    -0.286239
    44    -0.015106
    45     0.002023
    46     0.012825
    47     0.007840
    48     0.001764
    49     0.007874
    50    -0.005990
    51    -0.009675
    52    -0.027968
    53    -0.003904
    54     0.013332
    55     0.010057
    56     0.010468
    57    -0.014081
    58    -0.008341
    59     0.002009
    60     0.001217
    61     0.000781
    62    -0.000126
    63    -0.000181
    64     0.000047
    65     0.001079
    66     0.002119
    67     0.003627
    68    -0.004154
    69    -0.000691
    70    -0.009168
    71     0.006995
    72     0.001517
    73     0.010817
    74     0.000400
    75    -0.000180
    76    -0.000663
    77     0.000003
    78     0.000135
    79     0.000024
Sym=    22a
Ene=   -0.846537E+00
Spin= Alpha
Occup= 1.974153
     1    -0.025196
     2    -0.156820
     3    -0.254853
     4     0.046846
     5    -0.073549
     6     0.061933
     7     0.073165
     8     0.125504
     9    -0.105946
    10    -0.124378
    11     0.006370
    12     0.012768
    13    -0.004856
    14    -0.002162
    15     0.020479
    16    -0.000740
    17     0.049479
    18     0.063112
    19    -0.048332
    20     0.007166
    21     0.019194
    22    -0.000172
    23     0.020452
    24    -0.018401
    25    -0.000754
    26    -0.010484
    27     0.007150
    28     0.001765
    29    -0.000194
    30     0.000069
    31     0.001900
    32     0.002161
    33    -0.000631
    34     0.000591
    35    -0.000689
    36     0.007275
    37     0.068118
    38     0.264134
    39    -0.467419
    40    -0.275155
    41    -0.156605
    42     0.300183
    43     0.164351
    44    -0.000648
    45    -0.007275
    46    -0.001013
    47     0.013777
    48     0.010344
    49    -0.013956
    50     0.008056
    51     0.020893
    52     0.001689
    53     0.000505
    54    -0.017681
    55    -0.021065
    56    -0.001475
    57     0.006674
    58     0.011125
    59     0.001906
    60     0.000036
    61    -0.000203
    62    -0.000583
    63    -0.000575
    64    -0.002181
    65     0.004898
    66     0.015421
    67    -0.010899
    68     0.015002
    69     0.001438
    70    -0.015078
    71    -0.004742
    72    -0.002826
    73     0.004572
    74     0.000336
    75     0.002689
    76     0.000340
    77    -0.000627
    78     0.002074
    79     0.000622
Sym=    23a
Ene=   -0.855557E+00
Spin= Alpha
Occup= 1.974029
     1     0.025885
     2     0.161012
     3     0.260694
     4    -0.046872
     5     0.073256
     6     0.072362
     7     0.068291
     8    -0.124772
     9    -0.122941
    10    -0.116094
    11    -0.004280
    12    -0.001411
    13     0.005666
    14    -0.001297
    15    -0.004569
    16    -0.012461
    17     0.059659
    18     0.053976
    19     0.051776
    20    -0.006860
    21    -0.018876
    22     0.002614
    23    -0.019615
    24    -0.000987
    25    -0.018811
    26     0.009173
    27     0.001299
    28     0.007548
    29     0.000043
    30    -0.002128
    31    -0.000103
    32    -0.000642
    33     0.002178
    34    -0.000646
    35    -0.007935
    36    -0.020876
    37     0.000045
    38     0.000459
    39    -0.019350
    40    -0.019458
    41     0.000442
    42     0.008929
    43     0.008265
    44    -0.002093
    45     0.000102
    46    -0.000051
    47    -0.000587
    48    -0.000595
    49     0.002200
    50     0.002565
    51    -0.004144
    52    -0.066150
    53    -0.302984
    54    -0.328734
    55    -0.401737
    56     0.182941
    57     0.201095
    58     0.252724
    59     0.001582
    60     0.002372
    61     0.004862
    62     0.012078
    63     0.013294
    64     0.013791
    65    -0.005999
    66    -0.017495
    67     0.006710
    68    -0.017231
    69    -0.017277
    70    -0.000589
    71     0.006580
    72     0.006452
    73    -0.000222
    74    -0.000162
    75    -0.000227
    76    -0.002418
    77     0.002158
    78    -0.000663
    79    -0.000667
Sym=    24a
Ene=   -0.881845E+00
Spin= Alpha
Occup= 1.973872
     1    -0.026205
     2    -0.162589
     3    -0.260650
     4     0.045633
     5     0.070195
     6    -0.073585
     7     0.074802
     8    -0.117874
     9     0.123159
    10    -0.125152
    11     0.003606
    12     0.001995
    13    -0.004504
    14     0.012123
    15     0.004844
    16     0.002213
    17     0.053220
    18    -0.055020
    19     0.059582
    20    -0.021510
    21    -0.033340
    22     0.039482
    23    -0.391300
    24     0.330083
    25    -0.305279
    26     0.245046
    27    -0.202064
    28     0.184327
    29    -0.004956
    30    -0.002967
    31    -0.002204
    32     0.013779
    33    -0.013448
    34     0.012337
    35     0.007983
    36     0.021030
    37    -0.000517
    38    -0.019278
    39     0.019685
    40    -0.000217
    41     0.008130
    42    -0.008795
    43     0.001081
    44     0.000035
    45    -0.000071
    46     0.002110
    47     0.002227
    48     0.000640
    49    -0.000624
    50     0.007647
    51     0.020495
    52    -0.002045
    53    -0.017897
    54    -0.000181
    55    -0.019042
    56     0.006746
    57    -0.000447
    58     0.008551
    59     0.000112
    60     0.002210
    61    -0.000026
    62    -0.000650
    63    -0.002207
    64    -0.000629
    65     0.006137
    66     0.017742
    67    -0.006440
    68    -0.000788
    69     0.017750
    70    -0.017742
    71     0.000452
    72    -0.006843
    73     0.006956
    74     0.002381
    75     0.000205
    76     0.000132
    77    -0.000685
    78     0.000680
    79     0.002170
Sym=    25a
Ene=   -0.880730E+00
Spin= Alpha
Occup= 1.973656
     1    -0.026126
     2    -0.162109
     3    -0.260082
     4     0.045279
     5     0.070618
     6     0.076078
     7    -0.070359
     8    -0.118900
     9    -0.127769
    10     0.117882
    11     0.002405
    12    -0.007222
    13    -0.003011
    14     0.009623
    15    -0.000910
    16     0.010300
    17    -0.058814
    18     0.051180
    19     0.058528
    20     0.006400
    21     0.018157
    22    -0.005249
    23    -0.001103
    24    -0.019240
    25     0.017989
    26     0.000904
    27     0.008571
    28    -0.006655
    29     0.002269
    30     0.000071
    31     0.000213
    32     0.000663
    33    -0.000672
    34     0.002151
    35     0.008878
    36     0.022627
    37     0.002345
    38    -0.021889
    39    -0.004568
    40     0.022434
    41     0.010371
    42     0.004406
    43    -0.010598
    44    -0.000025
    45     0.001843
    46     0.000002
    47     0.000653
    48     0.002107
    49    -0.000652
    50     0.007128
    51     0.019666
    52    -0.004651
    53    -0.018326
    54    -0.018680
    55     0.000891
    56     0.006820
    57     0.008002
    58    -0.000677
    59     0.000249
    60     0.000104
    61     0.002327
    62    -0.002123
    63    -0.000665
    64    -0.000674
    65    -0.021760
    66    -0.033787
    67     0.038796
    68    -0.371346
    69    -0.275414
    70     0.376462
    71     0.231070
    72     0.163218
    73    -0.234785
    74    -0.004321
    75    -0.001242
    76    -0.004505
    77    -0.012536
    78     0.014279
    79     0.012626
Sym=    26a
Ene=   -0.433959E-01
Spin= Alpha
Occup= 0.023399
     1    -0.046322
     2    -0.362192
     3    -0.903332
     4     0.082275
     5     0.152936
     6     0.165954
     7    -0.153897
     8    -0.456625
     9    -0.486095
    10     0.459363
    11    -0.001512
    12    -0.016654
    13     0.002685
    14     0.219879
    15     0.181972
    16     0.220447
    17    -0.160568
    18     0.143056
    19     0.161000
    20     0.000483
    21     0.011079
    22    -0.085774
    23    -0.044834
    24    -0.048502
    25     0.038704
    26     0.051245
    27    -0.009664
    28     0.005382
    29     0.016013
    30    -0.001349
    31    -0.000213
    32    -0.006019
    33     0.004247
    34     0.013562
    35     0.007458
    36     0.033283
    37    -0.084857
    38    -0.072584
    39    -0.089522
    40     0.076413
    41    -0.020440
    42     0.009526
    43     0.023534
    44    -0.006450
    45     0.016929
    46    -0.006426
    47    -0.007476
    48     0.013952
    49     0.007610
    50     0.001948
    51     0.016898
    52    -0.088272
    53    -0.038986
    54    -0.050711
    55     0.048692
    56    -0.005262
    57    -0.010421
    58    -0.046003
    59    -0.000951
    60    -0.002400
    61     0.015903
    62    -0.011469
    63     0.004291
    64     0.006073
    65     0.180083
    66     0.591138
    67     0.147388
    68     0.433915
    69     0.350218
    70    -0.434986
    71     0.075993
    72     0.017144
    73    -0.077869
    74    -0.114807
    75    -0.104094
    76    -0.114681
    77    -0.035018
    78     0.040523
    79     0.034834
Sym=    27a
Ene=   -0.429240E-01
Spin= Alpha
Occup= 0.023141
     1     0.044408
     2     0.347304
     3     0.865613
     4    -0.080129
     5    -0.159469
     6     0.160912
     7    -0.161425
     8     0.476321
     9    -0.475867
    10     0.477768
    11     0.004311
    12    -0.007971
    13     0.010647
    14    -0.221927
    15    -0.191751
    16    -0.184811
    17    -0.152671
    18     0.155928
    19    -0.165181
    20    -0.181543
    21    -0.595588
    22    -0.152010
    23    -0.439691
    24     0.398415
    25    -0.381276
    26    -0.080794
    27     0.050141
    28    -0.035855
    29     0.116466
    30     0.112335
    31     0.110518
    32    -0.038526
    33     0.038206
    34    -0.034584
    35    -0.001833
    36    -0.016419
    37     0.090779
    38     0.054417
    39    -0.053945
    40     0.084102
    41     0.011666
    42    -0.016198
    43    -0.024293
    44     0.003254
    45     0.003093
    46    -0.019248
    47    -0.014275
    48     0.006502
    49    -0.009528
    50     0.000121
    51    -0.008765
    52     0.087006
    53     0.066520
    54    -0.078345
    55     0.045605
    56     0.028367
    57     0.027706
    58     0.008546
    59     0.001989
    60    -0.019781
    61     0.001503
    62    -0.005440
    63     0.014121
    64    -0.009071
    65     0.000849
    66    -0.005860
    67     0.082568
    68     0.044108
    69    -0.035882
    70     0.042225
    71    -0.054012
    72    -0.001043
    73     0.008361
    74    -0.016984
    75     0.000204
    76     0.000631
    77    -0.004402
    78     0.005694
    79    -0.012991
Sym=    28a
Ene=   -0.419238E-01
Spin= Alpha
Occup= 0.022887
     1    -0.044074
     2    -0.345640
     3    -0.866945
     4     0.084042
     5    -0.161473
     6    -0.162763
     7    -0.162874
     8     0.478348
     9     0.487550
    10     0.492006
    11     0.008324
    12    -0.000023
    13    -0.002014
    14     0.185809
    15     0.202911
    16     0.212477
    17    -0.175814
    18    -0.166592
    19    -0.154098
    20    -0.002216
    21     0.000685
    22    -0.084307
    23     0.038576
    24     0.050199
    25     0.036646
    26     0.004832
    27    -0.054512
    28     0.003224
    29     0.000059
    30     0.018869
    31     0.000333
    32    -0.006738
    33    -0.013442
    34    -0.005693
    35     0.000286
    36     0.011873
    37    -0.096112
    38     0.081199
    39     0.046112
    40     0.044461
    41    -0.030979
    42     0.012813
    43     0.011724
    44     0.019791
    45    -0.002973
    46    -0.001235
    47    -0.009742
    48    -0.008128
    49    -0.013289
    50     0.174627
    51     0.564877
    52     0.177405
    53    -0.381246
    54    -0.410042
    55    -0.445024
    56    -0.033242
    57    -0.053679
    58    -0.085540
    59    -0.106071
    60    -0.109825
    61    -0.112938
    62    -0.042097
    63    -0.042295
    64    -0.044910
    65    -0.001114
    66     0.004912
    67    -0.082339
    68     0.039801
    69     0.036001
    70     0.048919
    71     0.006852
    72     0.002419
    73    -0.048558
    74    -0.000479
    75    -0.000393
    76     0.017684
    77    -0.012634
    78    -0.006292
    79    -0.004963
Sym=    29a
Ene=   -0.408902E-01
Spin= Alpha
Occup= 0.022644
     1     0.042846
     2     0.335878
     3     0.841267
     4    -0.088640
     5     0.167734
     6    -0.155505
     7    -0.167018
     8    -0.499941
     9     0.470539
    10     0.503299
    11    -0.002008
    12    -0.008435
    13    -0.006143
    14    -0.172551
    15    -0.222991
    16    -0.187429
    17    -0.173234
    18    -0.179284
    19     0.161653
    20     0.002948
    21     0.002219
    22     0.082845
    23    -0.033423
    24     0.032882
    25     0.046268
    26     0.000979
    27     0.000065
    28    -0.059321
    29    -0.001190
    30    -0.001158
    31    -0.019014
    32    -0.012940
    33    -0.007882
    34     0.006522
    35    -0.157248
    36    -0.494458
    37    -0.214116
    38     0.377065
    39    -0.484541
    40    -0.405120
    41     0.035357
    42    -0.118899
    43    -0.054541
    44     0.091291
    45     0.103875
    46     0.095670
    47    -0.045386
    48    -0.039939
    49     0.047916
    50     0.001763
    51    -0.002140
    52     0.087013
    53    -0.074569
    54     0.056434
    55     0.031705
    56     0.035814
    57     0.024106
    58    -0.004971
    59    -0.020470
    60     0.000386
    61     0.000072
    62    -0.008211
    63    -0.010537
    64     0.014443
    65     0.006970
    66     0.013702
    67     0.088419
    68    -0.018005
    69     0.038648
    70     0.019255
    71    -0.001091
    72    -0.062535
    73     0.004651
    74    -0.004098
    75    -0.019107
    76    -0.003687
    77    -0.005943
    78    -0.011115
    79     0.006078
Sym=    30a
Ene=   -0.195260E-01
Spin= Alpha
Occup= 0.011318
     1    -0.000905
     2    -0.006861
     3    -0.013729
     4     0.003631
     5    -0.021822
     6     0.003708
     7    -0.006887
     8     0.122483
     9    -0.001984
    10     0.065717
    11    -0.023235
    12     0.000904
    13    -0.013443
    14     0.121970
    15    -0.027982
    16    -0.081600
    17    -0.114524
    18    -0.014530
    19    -0.175011
    20    -0.020195
    21    -0.066112
    22    -0.065180
    23    -0.069449
    24     0.071603
    25     0.000294
    26    -0.057428
    27     0.070460
    28     0.100483
    29     0.024373
    30     0.020336
    31     0.021740
    32    -0.005262
    33     0.009484
    34    -0.027305
    35     0.000423
    36    -0.002670
    37     0.020069
    38    -0.731168
    39    -0.124991
    40    -0.534403
    41    -0.722303
    42    -0.136510
    43    -0.549942
    44    -0.060638
    45     0.012139
    46     0.049864
    47     0.019171
    48     0.008811
    49     0.018444
    50     0.021523
    51     0.070745
    52     0.070009
    53    -0.024081
    54    -0.047285
    55    -0.084452
    56     0.096148
    57    -0.052599
    58    -0.081561
    59    -0.029222
    60    -0.021360
    61    -0.022330
    62    -0.022835
    63    -0.020055
    64    -0.003724
    65    -0.005671
    66    -0.018319
    67    -0.019192
    68    -0.008261
    69     0.003397
    70     0.033545
    71     0.007959
    72     0.032183
    73     0.047465
    74     0.009023
    75     0.005578
    76     0.004134
    77    -0.003657
    78     0.001525
    79    -0.015475
Sym=    31a
Ene=   -0.236912E-01
Spin= Alpha
Occup= 0.015503
     1     0.002176
     2     0.017088
     3     0.038518
     4    -0.007784
     5    -0.017671
     6    -0.009131
     7     0.018198
     8     0.016007
     9     0.093261
    10    -0.034793
    11     0.023264
    12    -0.059152
    13    -0.010131
    14     0.093886
    15    -0.185976
    16     0.057422
    17    -0.026613
    18    -0.200238
    19     0.073960
    20     0.008952
    21     0.031974
    22     0.042024
    23     0.033654
    24    -0.029839
    25     0.030021
    26    -0.047642
    27    -0.023864
    28     0.051505
    29    -0.015739
    30    -0.009750
    31    -0.007418
    32     0.008302
    33    -0.025349
    34    -0.000598
    35    -0.004102
    36    -0.017770
    37    -0.040385
    38    -0.000440
    39    -0.106039
    40     0.010155
    41     0.027229
    42     0.000932
    43    -0.024582
    44     0.001987
    45     0.025164
    46    -0.000242
    47    -0.020400
    48     0.000471
    49     0.022787
    50     0.004258
    51     0.014141
    52     0.030309
    53    -0.013074
    54    -0.022038
    55    -0.021624
    56    -0.034429
    57    -0.009025
    58     0.028035
    59    -0.000998
    60    -0.007135
    61    -0.009674
    62    -0.000007
    63    -0.020929
    64     0.000959
    65    -0.010239
    66    -0.030096
    67    -0.030760
    68     0.411646
    69    -0.772919
    70    -0.215989
    71     0.417363
    72    -0.701528
    73    -0.228305
    74    -0.035292
    75     0.076910
    76    -0.019632
    77     0.017977
    78     0.024744
    79    -0.025852
Sym=    32a
Ene=   -0.231141E-01
Spin= Alpha
Occup= 0.015114
     1     0.001403
     2     0.010828
     3     0.022853
     4    -0.004857
     5    -0.004447
     6     0.005002
     7    -0.008357
     8    -0.018264
     9     0.016383
    10     0.090083
    11     0.021571
    12    -0.021407
    13    -0.053621
    14     0.067665
    15     0.084029
    16    -0.172082
    17    -0.189248
    18    -0.075421
    19     0.075989
    20    -0.001013
    21     0.000169
    22    -0.016596
    23     0.342164
    24    -0.350656
    25    -0.762417
    26     0.339744
    27    -0.343046
    28    -0.717541
    29    -0.033763
    30    -0.035979
    31     0.069660
    32     0.027208
    33     0.016792
    34    -0.015455
    35    -0.010000
    36    -0.035422
    37    -0.056954
    38     0.034315
    39    -0.019290
    40    -0.091066
    41     0.049684
    42    -0.038413
    43     0.029915
    44     0.008030
    45     0.005783
    46     0.026411
    47     0.001343
    48    -0.023868
    49     0.023800
    50     0.007428
    51     0.026198
    52     0.032878
    53    -0.004492
    54    -0.045031
    55    -0.022668
    56    -0.026742
    57     0.020049
    58    -0.013254
    59    -0.003743
    60    -0.015449
    61    -0.008157
    62    -0.021430
    63    -0.000212
    64    -0.004313
    65     0.007767
    66     0.027506
    67     0.032674
    68     0.021401
    69     0.025326
    70    -0.027376
    71    -0.042117
    72     0.044125
    73    -0.018068
    74    -0.013237
    75    -0.006150
    76    -0.008266
    77    -0.021421
    78     0.003086
    79     0.000947
Sym=    33a
Ene=   -0.223332E-01
Spin= Alpha
Occup= 0.014396
     1    -0.001225
     2    -0.009575
     3    -0.023389
     4     0.005503
     5     0.002673
     6    -0.010838
     7     0.006291
     8     0.041178
     9     0.089624
    10    -0.019095
    11    -0.028086
    12    -0.041220
    13     0.002758
    14    -0.128835
    15     0.138590
    16     0.007190
    17     0.011458
    18    -0.165614
    19    -0.127871
    20    -0.001526
    21    -0.011237
    22     0.026200
    23    -0.623261
    24    -0.665141
    25     0.029597
    26    -0.620314
    27    -0.630787
    28     0.017908
    29     0.056657
    30    -0.052869
    31     0.002567
    32     0.003788
    33     0.017321
    34     0.027774
    35    -0.000771
    36    -0.001571
    37    -0.008494
    38     0.000644
    39    -0.008342
    40    -0.000086
    41     0.009610
    42     0.011443
    43     0.002136
    44    -0.000815
    45     0.003597
    46     0.000275
    47    -0.001548
    48    -0.011190
    49    -0.009334
    50     0.012652
    51     0.044988
    52     0.046741
    53    -0.010446
    54    -0.063363
    55    -0.043336
    56    -0.015133
    57     0.041841
    58    -0.065150
    59    -0.011482
    60    -0.025025
    61    -0.008662
    62    -0.013939
    63    -0.000122
    64    -0.026588
    65    -0.014897
    66    -0.052372
    67    -0.053582
    68    -0.029460
    69    -0.047068
    70     0.052349
    71     0.079983
    72    -0.046585
    73     0.072234
    74     0.024979
    75     0.014659
    76     0.011464
    77     0.015189
    78    -0.026489
    79     0.000640
Sym=    34a
Ene=   -0.222512E-01
Spin= Alpha
Occup= 0.014386
     1     0.000253
     2     0.001654
     3     0.001533
     4    -0.000403
     5    -0.005991
     6    -0.001609
     7    -0.000669
     8     0.067319
     9     0.014146
    10     0.060619
    11    -0.033936
    12    -0.007527
    13    -0.037619
    14    -0.109747
    15    -0.028069
    16     0.136064
    17    -0.153748
    18    -0.027602
    19    -0.138358
    20    -0.011415
    21    -0.040328
    22    -0.045277
    23    -0.027731
    24     0.041512
    25    -0.041061
    26     0.067171
    27     0.062940
    28    -0.040309
    29     0.020473
    30     0.008368
    31     0.011871
    32    -0.024202
    33     0.011717
    34    -0.001400
    35    -0.000803
    36    -0.003066
    37    -0.006724
    38    -0.003746
    39    -0.013226
    40    -0.003793
    41     0.020164
    42     0.003321
    43     0.010840
    44    -0.002697
    45     0.003604
    46     0.003725
    47    -0.013417
    48     0.000502
    49    -0.006816
    50     0.011637
    51     0.039404
    52     0.061123
    53    -0.054241
    54    -0.039256
    55    -0.037961
    56    -0.059237
    57    -0.059270
    58     0.077443
    59    -0.012355
    60    -0.008595
    61    -0.024169
    62    -0.003167
    63    -0.018281
    64    -0.025393
    65     0.000683
    66     0.004213
    67    -0.007656
    68    -0.591959
    69    -0.120121
    70    -0.686818
    71    -0.574762
    72    -0.111031
    73    -0.672091
    74     0.047036
    75     0.009332
    76    -0.059353
    77     0.024323
    78     0.003636
    79     0.017022
Sym=    35a
Ene=   -0.221597E-01
Spin= Alpha
Occup= 0.014286
     1    -0.001975
     2    -0.015356
     3    -0.036168
     4     0.008154
     5    -0.012795
     6    -0.009569
     7    -0.002571
     8     0.079987
     9     0.050238
    10    -0.052217
    11    -0.032006
    12    -0.016585
    13     0.035866
    14     0.110148
    15     0.052461
    16    -0.135798
    17     0.151447
    18    -0.070605
    19    -0.127313
    20     0.005016
    21     0.019145
    22     0.010577
    23     0.020735
    24    -0.008238
    25     0.012063
    26     0.043394
    27     0.028758
    28     0.002379
    29    -0.001525
    30    -0.009528
    31    -0.005334
    32     0.016235
    33    -0.001475
    34    -0.004347
    35     0.007988
    36     0.027564
    37     0.036793
    38    -0.045804
    39     0.019250
    40     0.031847
    41     0.032500
    42     0.040900
    43     0.027964
    44    -0.017141
    45    -0.003370
    46    -0.008952
    47     0.023268
    48     0.007070
    49     0.000486
    50    -0.006554
    51    -0.032571
    52     0.038233
    53    -0.512763
    54    -0.283706
    55     0.700942
    56    -0.481448
    57    -0.263709
    58     0.699087
    59    -0.033792
    60    -0.011068
    61     0.066844
    62    -0.030304
    63     0.002698
    64     0.011497
    65    -0.016185
    66    -0.055814
    67    -0.065417
    68    -0.058303
    69    -0.052980
    70     0.035668
    71    -0.067193
    72    -0.063574
    73    -0.090049
    74     0.013916
    75     0.014305
    76     0.028610
    77     0.002115
    78    -0.019950
    79    -0.025662
Sym=    36a
Ene=   -0.219679E-01
Spin= Alpha
Occup= 0.008412
     1     0.017411
     2     0.171430
     3     0.554500
     4    -0.110597
     5     0.025171
     6     0.025236
     7     0.023210
     8    -0.096491
     9    -0.096555
    10    -0.088995
    11     0.039577
    12     0.041718
    13     0.040083
    14    -0.166058
    15    -0.168831
    16    -0.175086
    17     0.027448
    18     0.008453
    19     0.009463
    20     0.003339
    21     0.006901
    22     0.031102
    23     0.012498
    24    -0.021727
    25     0.006774
    26     0.004944
    27    -0.016852
    28    -0.005874
    29     0.001867
    30    -0.019889
    31     0.000275
    32     0.002474
    33     0.009112
    34     0.001334
    35     0.002765
    36     0.004731
    37     0.031049
    38    -0.019334
    39     0.012620
    40     0.011529
    41    -0.013567
    42     0.006502
    43     0.000657
    44    -0.019171
    45     0.001861
    46     0.000044
    47     0.003477
    48    -0.001438
    49     0.010735
    50     0.544763
    51     2.100410
    52    -0.715921
    53     0.160675
    54     0.167339
    55     0.197470
    56     0.144470
    57     0.151030
    58     0.177035
    59    -0.606477
    60    -0.622050
    61    -0.540876
    62     0.089407
    63     0.013117
    64     0.033458
    65     0.001289
    66    -0.000549
    67     0.025864
    68     0.001143
    69     0.000347
    70    -0.020973
    71    -0.010652
    72    -0.011073
    73    -0.022778
    74     0.003661
    75     0.002199
    76    -0.016128
    77     0.009764
    78    -0.000054
    79    -0.001353
Sym=    37a
Ene=   -0.101708E-01
Spin= Alpha
Occup= 0.004628
     1     0.033985
     2     0.370367
     3     1.397247
     4    -0.105350
     5     0.031465
     6    -0.046773
     7    -0.033194
     8    -0.248750
     9     0.315334
    10     0.253343
    11     0.002786
    12    -0.008221
    13    -0.007918
    14    -0.473820
    15    -0.374528
    16    -0.486442
    17    -0.142741
    18    -0.040517
    19     0.148962
    20    -0.011938
    21    -0.055052
    22     0.077919
    23    -0.014211
    24     0.001699
    25     0.025391
    26    -0.068032
    27     0.042585
    28     0.001683
    29     0.021225
    30     0.017142
    31     0.016838
    32     0.018185
    33    -0.002147
    34     0.024248
    35     0.032027
    36     0.254860
    37    -0.492735
    38    -0.240291
    39     0.164245
    40     0.247881
    41    -0.500105
    42     0.344361
    43     0.511219
    44     0.251874
    45    -0.484100
    46     0.217029
    47    -0.313564
    48    -0.296076
    49     0.404114
    50    -0.020324
    51    -0.084643
    52     0.077606
    53    -0.023589
    54    -0.001575
    55     0.008833
    56     0.002315
    57     0.038334
    58     0.057459
    59     0.023760
    60     0.023009
    61     0.040950
    62    -0.017865
    63    -0.019086
    64    -0.012434
    65    -0.006762
    66    -0.031249
    67     0.087899
    68     0.034675
    69     0.011610
    70    -0.038871
    71     0.002412
    72    -0.060924
    73    -0.011378
    74     0.008202
    75     0.019586
    76     0.021437
    77    -0.028250
    78     0.010135
    79     0.043729
Sym=    38a
Ene=   -0.224554E-01
Spin= Alpha
Occup= 0.007173
     1    -0.010428
     2    -0.094742
     3    -0.243689
     4     0.078466
     5     0.023518
     6     0.022669
     7    -0.022179
     8    -0.065482
     9    -0.059970
    10     0.057972
    11     0.039294
    12     0.037870
    13    -0.038693
    14     0.083340
    15     0.082295
    16     0.084541
    17    -0.008145
    18     0.004448
    19     0.007392
    20    -0.003889
    21    -0.006993
    22    -0.029503
    23    -0.014368
    24     0.004582
    25    -0.002177
    26    -0.011068
    27    -0.003397
    28     0.007266
    29     0.017317
    30     0.003373
    31     0.004889
    32    -0.005049
    33     0.002902
    34     0.007197
    35    -0.005187
    36    -0.010827
    37    -0.032666
    38     0.004793
    39    -0.013248
    40    -0.004211
    41    -0.004352
    42    -0.006487
    43     0.005732
    44     0.006034
    45     0.019884
    46     0.005680
    47    -0.003531
    48     0.005557
    49     0.002437
    50    -0.002366
    51    -0.000331
    52    -0.033898
    53     0.000023
    54     0.001355
    55     0.013318
    56    -0.011808
    57    -0.009939
    58     0.008739
    59     0.001370
    60     0.002148
    61     0.016314
    62    -0.007766
    63     0.001960
    64     0.001893
    65    -0.558038
    66    -2.095127
    67     0.552592
    68     0.222021
    69     0.199357
    70    -0.227034
    71     0.238194
    72     0.213379
    73    -0.242490
    74     0.649206
    75     0.637141
    76     0.650132
    77    -0.000889
    78    -0.002022
    79     0.001362
Sym=    39a
Ene=   -0.224737E-01
Spin= Alpha
Occup= 0.007174
     1    -0.011326
     2    -0.104442
     3    -0.280315
     4     0.081774
     5     0.024299
     6    -0.024466
     7     0.022265
     8    -0.069411
     9     0.070252
    10    -0.058250
    11     0.038831
    12    -0.038462
    13     0.038644
    14     0.100531
    15     0.088902
    16     0.095228
    17     0.006922
    18    -0.004863
    19     0.014668
    20    -0.558316
    21    -2.098382
    22     0.560518
    23     0.232129
    24    -0.209075
    25     0.199921
    26     0.242627
    27    -0.223045
    28     0.208684
    29     0.635675
    30     0.660205
    31     0.640327
    32    -0.002520
    33    -0.014181
    34     0.002213
    35    -0.003601
    36    -0.004101
    37    -0.038030
    38     0.004473
    39    -0.005085
    40    -0.012918
    41    -0.008140
    42     0.007076
    43    -0.004543
    44     0.004212
    45     0.002705
    46     0.017656
    47     0.010136
    48     0.000352
    49     0.002769
    50    -0.003796
    51    -0.006507
    52    -0.032577
    53     0.008226
    54     0.013548
    55     0.009168
    56     0.000446
    57     0.006183
    58     0.001117
    59     0.006637
    60     0.017956
    61     0.000586
    62     0.001092
    63    -0.005588
    64     0.004970
    65    -0.002982
    66    -0.003678
    67    -0.029252
    68    -0.016507
    69     0.000248
    70     0.000975
    71    -0.016034
    72     0.010141
    73    -0.009414
    74     0.017824
    75     0.003409
    76     0.000837
    77     0.001823
    78    -0.003589
    79     0.007496
Sym=    40a
Ene=   -0.952252E-02
Spin= Alpha
Occup= 0.003398
     1    -0.000602
     2    -0.006581
     3    -0.027326
     4     0.002661
     5     0.012888
     6    -0.015577
     7     0.000628
     8    -0.062808
     9     0.085160
    10    -0.001030
    11    -0.006276
    12     0.007316
    13    -0.000655
    14     0.123234
    15    -0.110016
    16     0.009614
    17    -0.008634
    18     0.085336
    19    -0.090919
    20    -0.004453
    21    -0.025645
    22     0.008826
    23    -0.051972
    24    -0.008699
    25    -0.054623
    26    -0.077280
    27    -0.050711
    28    -0.082756
    29     0.005354
    30    -0.033543
    31     0.030442
    32    -0.013823
    33     0.027220
    34    -0.027061
    35     0.002086
    36     0.016173
    37    -0.007395
    38     0.010057
    39     0.045916
    40     0.056110
    41     0.051627
    42     0.068757
    43     0.088855
    44     0.026717
    45    -0.000699
    46    -0.021796
    47     0.033608
    48     0.006375
    49    -0.008637
    50     0.004931
    51     0.012208
    52     0.016880
    53     0.099710
    54    -0.086398
    55     0.010750
    56     0.196347
    57    -0.170724
    58     0.022593
    59    -0.785048
    60     0.799577
    61    -0.040373
    62     0.001983
    63    -0.160938
    64     0.102898
    65     0.001479
    66     0.007201
    67    -0.007006
    68     0.013823
    69    -0.002944
    70     0.000342
    71     0.025295
    72    -0.004746
    73    -0.000193
    74    -0.008874
    75     0.020331
    76    -0.016556
    77    -0.005932
    78     0.019490
    79    -0.026582
Sym=    41a
Ene=   -0.950893E-02
Spin= Alpha
Occup= 0.003363
     1     0.000529
     2     0.005950
     3     0.021983
     4    -0.000615
     5     0.013104
     6     0.000266
     7     0.013013
     8    -0.063025
     9    -0.001909
    10    -0.060984
    11    -0.002203
    12    -0.000977
    13    -0.002547
    14     0.090967
    15    -0.016630
    16    -0.097200
    17    -0.093587
    18     0.001052
    19    -0.094075
    20    -0.003433
    21    -0.017067
    22    -0.008696
    23    -0.038147
    24     0.045722
    25     0.010834
    26    -0.049540
    27     0.065114
    28     0.052321
    29     0.027916
    30     0.016710
    31    -0.043313
    32    -0.015267
    33     0.000886
    34    -0.049060
    35     0.000267
    36     0.001210
    37    -0.000161
    38     0.080668
    39     0.006204
    40     0.079849
    41     0.162938
    42     0.009533
    43     0.159270
    44    -0.804616
    45    -0.027728
    46     0.831836
    47    -0.030969
    48     0.040509
    49     0.015685
    50     0.001133
    51     0.010053
    52     0.006048
    53     0.010902
    54    -0.054308
    55    -0.038537
    56     0.053383
    57    -0.080516
    58    -0.049348
    59     0.032400
    60    -0.026401
    61     0.002521
    62    -0.015928
    63    -0.026446
    64    -0.019676
    65     0.000019
    66    -0.000201
    67     0.001401
    68     0.013227
    69     0.002224
    70     0.015890
    71     0.023520
    72     0.004294
    73     0.030477
    74    -0.002272
    75    -0.005975
    76     0.008079
    77    -0.003217
    78     0.018415
    79    -0.018197
Sym=    42a
Ene=   -0.596883E-02
Spin= Alpha
Occup= 0.000916
     1    -0.065685
     2    -0.727829
     3    -2.437314
     4     0.018827
     5    -0.001657
     6    -0.001646
     7    -0.003046
     8     0.004041
     9     0.006346
    10     0.029787
    11     0.002079
    12     0.000398
    13     0.005570
    14     0.863002
    15     0.954701
    16     0.949740
    17     0.000709
    18     0.016384
    19     0.006837
    20    -0.003450
    21    -0.033615
    22     0.013404
    23    -0.033313
    24     0.057271
    25    -0.076439
    26    -0.005571
    27     0.049451
    28    -0.083883
    29    -0.175895
    30     0.141935
    31     0.022728
    32    -0.307524
    33     0.246012
    34     0.143345
    35    -0.002229
    36    -0.027302
    37     0.010159
    38     0.015027
    39    -0.069143
    40    -0.067264
    41    -0.023113
    42    -0.074521
    43    -0.073636
    44    -0.036489
    45    -0.029889
    46     0.057262
    47    -0.397953
    48    -0.107801
    49    -0.050168
    50    -0.001987
    51    -0.033609
    52     0.030494
    53     0.043196
    54     0.082252
    55     0.080767
    56     0.024502
    57     0.094513
    58     0.089223
    59    -0.122610
    60     0.079131
    61     0.026596
    62     0.192506
    63     0.379824
    64    -0.059397
    65    -0.009730
    66    -0.059963
    67     0.034916
    68    -0.046096
    69    -0.090412
    70     0.069202
    71    -0.032978
    72    -0.113783
    73     0.073593
    74    -0.086313
    75     0.021474
    76     0.085921
    77     0.154785
    78    -0.374796
    79     0.049388
Sym=    43a
Ene=   -0.593274E-02
Spin= Alpha
Occup= 0.000906
     1    -0.061215
     2    -0.677789
     3    -2.260616
     4     0.015640
     5    -0.002087
     6     0.001931
     7     0.006789
     8     0.010864
     9    -0.004326
    10    -0.049322
    11    -0.001718
    12     0.001866
    13    -0.005260
    14     0.916644
    15     0.824004
    16     0.832925
    17    -0.000266
    18    -0.005587
    19    -0.007437
    20    -0.008574
    21    -0.053239
    22     0.027543
    23    -0.093082
    24     0.054595
    25    -0.043218
    26    -0.118054
    27     0.050706
    28    -0.028755
    29     0.145358
    30    -0.087669
    31    -0.038180
    32    -0.076754
    33     0.067659
    34    -0.400138
    35    -0.010440
    36    -0.060525
    37     0.030234
    38     0.096954
    39    -0.052007
    40    -0.047117
    41     0.131834
    42    -0.052012
    43    -0.037110
    44     0.077703
    45    -0.036055
    46    -0.009506
    47     0.152991
    48    -0.212040
    49     0.382111
    50    -0.003593
    51    -0.029446
    52     0.005276
    53     0.069170
    54     0.026966
    55     0.045178
    56     0.076998
    57     0.001302
    58     0.034481
    59     0.156004
    60    -0.061710
    61    -0.094592
    62     0.115047
    63    -0.097515
    64     0.405007
    65    -0.002735
    66    -0.024630
    67    -0.004236
    68    -0.061973
    69    -0.020267
    70     0.043799
    71    -0.061270
    72     0.014834
    73     0.027730
    74     0.096558
    75    -0.008459
    76    -0.095346
    77     0.149414
    78     0.054135
    79    -0.370923
Sym=    44a
Ene=   -0.596005E-02
Spin= Alpha
Occup= 0.000895
     1    -0.003606
     2    -0.040087
     3    -0.137197
     4     0.001681
     5     0.001674
     6     0.001546
     7     0.000284
     8    -0.005815
     9    -0.006752
    10    -0.017661
    11    -0.000605
    12     0.004067
    13    -0.007324
    14     0.053547
    15     0.088992
    16     0.010767
    17     0.011900
    18    -0.001785
    19    -0.010410
    20    -0.001471
    21    -0.007421
    22     0.007348
    23    -0.005102
    24     0.030798
    25     0.013373
    26    -0.008437
    27     0.049719
    28     0.026397
    29     0.121492
    30    -0.105045
    31    -0.008912
    32     0.132240
    33    -0.160124
    34    -0.427039
    35    -0.002785
    36    -0.013706
    37     0.013432
    38     0.015632
    39    -0.030133
    40     0.010388
    41     0.031526
    42    -0.050703
    43     0.022159
    44    -0.015059
    45     0.062631
    46    -0.035138
    47     0.341433
    48    -0.012161
    49     0.339066
    50     0.002978
    51     0.011169
    52    -0.006631
    53     0.004332
    54     0.004036
    55    -0.018387
    56     0.000291
    57     0.008581
    58    -0.036646
    59    -0.109710
    60     0.071540
    61     0.022393
    62     0.080741
    63     0.301875
    64    -0.389784
    65     0.002237
    66     0.006169
    67    -0.003154
    68     0.004681
    69    -0.022128
    70    -0.016004
    71     0.014994
    72    -0.035303
    73    -0.032237
    74    -0.086668
    75    -0.028297
    76     0.097097
    77     0.023280
    78    -0.288213
    79     0.392406
Sym=    45a
Ene=   -0.256264E-02
Spin= Alpha
Occup= 0.000316
     1    -0.000352
     2    -0.002193
     3     0.008647
     4     0.003911
     5    -0.113385
     6     0.257941
     7     0.001186
     8     0.588935
     9    -1.349012
    10     0.009749
    11    -0.001260
    12    -0.001947
    13     0.008116
    14     0.009845
    15    -0.003918
    16     0.012108
    17    -0.001945
    18     0.336595
    19    -0.155051
    20     0.120143
    21     0.512148
    22    -0.438991
    23     0.151673
    24    -0.102499
    25     0.177458
    26     0.518142
    27    -0.403507
    28     0.591150
    29    -0.240323
    30    -0.163303
    31    -0.325933
    32     0.217986
    33    -0.289520
    34     0.233869
    35    -0.164086
    36    -0.610061
    37     0.262666
    38     0.143769
    39    -0.107964
    40    -0.179286
    41     0.502191
    42    -0.399213
    43    -0.587753
    44     0.378301
    45     0.230000
    46     0.450537
    47    -0.178517
    48    -0.286026
    49     0.221943
    50     0.053308
    51     0.214484
    52    -0.145732
    53    -0.103075
    54     0.006338
    55    -0.073079
    56    -0.311982
    57    -0.040747
    58    -0.233932
    59    -0.214077
    60     0.016862
    61    -0.134387
    62    -0.070835
    63    -0.188078
    64    -0.018721
    65    -0.050881
    66    -0.209083
    67     0.153377
    68    -0.108199
    69     0.005492
    70     0.075470
    71    -0.319539
    72    -0.037042
    73     0.237781
    74     0.211547
    75    -0.044710
    76     0.145634
    77     0.078944
    78    -0.193070
    79    -0.013609
Sym=    46a
Ene=   -0.781751E-03
Spin= Alpha
Occup= 0.000030
     1     0.008685
     2     0.155280
     3     0.720600
     4     0.318016
     5     0.040074
     6    -0.020417
     7    -0.011771
     8    -0.312311
     9     0.144854
    10     0.098503
    11    -0.068972
    12     0.022404
    13     0.021976
    14    -0.220938
    15    -0.232506
    16    -0.226087
    17    -0.016845
    18    -0.045041
    19     0.076061
    20    -0.155727
    21    -0.325214
    22    -0.665920
    23    -0.046242
    24     0.047854
    25    -0.055581
    26    -0.097930
    27     0.113147
    28    -0.141556
    29     0.412559
    30     0.438141
    31     0.457497
    32    -0.028542
    33     0.028596
    34    -0.036316
    35    -0.306068
    36    -0.515453
    37    -1.778127
    38    -0.003179
    39     0.004108
    40     0.009595
    41    -0.103654
    42     0.122463
    43     0.128314
    44     0.894283
    45     0.859576
    46     0.874814
    47     0.060620
    48     0.062314
    49    -0.071303
    50    -0.229296
    51    -0.419644
    52    -1.206001
    53     0.035635
    54     0.020560
    55     0.025961
    56     0.044026
    57    -0.010017
    58    -0.001851
    59     0.686343
    60     0.646347
    61     0.621368
    62    -0.022648
    63     0.001220
    64    -0.027856
    65    -0.146696
    66    -0.295050
    67    -0.674469
    68    -0.037787
    69    -0.048641
    70     0.044925
    71    -0.068183
    72    -0.112258
    73     0.091537
    74     0.395256
    75     0.432319
    76     0.412369
    77     0.018437
    78    -0.015893
    79    -0.026593
Sym=    47a
Ene=   -0.577687E-03
Spin= Alpha
Occup= 0.000023
     1     0.004506
     2     0.070588
     3     0.250399
     4     0.109813
     5    -0.116066
     6    -0.006774
     7    -0.015254
     8     0.931946
     9     0.055096
    10     0.127269
    11     0.270716
    12     0.015386
    13     0.037045
    14    -0.115233
    15    -0.127052
    16    -0.128206
    17    -0.040644
    18    -0.015889
    19    -0.230231
    20    -0.248707
    21    -0.309356
    22    -1.822115
    23     0.003412
    24    -0.038528
    25     0.034564
    26     0.131015
    27    -0.261037
    28     0.243244
    29     0.829613
    30     0.741009
    31     0.746453
    32     0.069726
    33    -0.063306
    34     0.097956
    35     0.094430
    36     0.074884
    37     0.854756
    38     0.023374
    39    -0.049852
    40    -0.053008
    41     0.120590
    42    -0.236102
    43    -0.244076
    44    -0.354975
    45    -0.273040
    46    -0.270506
    47    -0.049668
    48    -0.051192
    49     0.084305
    50     0.169004
    51     0.159144
    52     1.436291
    53     0.036767
    54     0.062003
    55     0.060004
    56     0.217352
    57     0.322723
    58     0.315202
    59    -0.581145
    60    -0.508892
    61    -0.507913
    62     0.090813
    63     0.081525
    64     0.112032
    65    -0.218333
    66    -0.274856
    67    -1.585193
    68     0.000435
    69     0.032005
    70    -0.032686
    71     0.095274
    72     0.212446
    73    -0.226792
    74     0.736415
    75     0.651163
    76     0.644451
    77    -0.046659
    78     0.057054
    79     0.086792
Sym=    48a
Ene=   -0.645123E-03
Spin= Alpha
Occup= 0.000025
     1     0.001856
     2     0.032466
     3     0.126280
     4     0.064978
     5    -0.015235
     6     0.090206
     7     0.086127
     8     0.112217
     9    -0.710883
    10    -0.689967
    11     0.026900
    12    -0.188814
    13    -0.192245
    14    -0.058163
    15    -0.052727
    16    -0.057007
    17     0.164528
    18     0.171930
    19    -0.023226
    20    -0.048761
    21    -0.070668
    22    -0.320647
    23    -0.002460
    24     0.021248
    25     0.025932
    26     0.011731
    27     0.062292
    28     0.116166
    29     0.156502
    30     0.211535
    31     0.075010
    32    -0.017228
    33    -0.037707
    34     0.010038
    35     0.256714
    36     0.289029
    37     2.008049
    38     0.088473
    39    -0.068518
    40    -0.071980
    41     0.423874
    42    -0.351077
    43    -0.354483
    44    -0.750146
    45    -0.804294
    46    -0.802260
    47    -0.134686
    48    -0.136391
    49     0.115944
    50    -0.289823
    51    -0.371431
    52    -2.096591
    53    -0.066397
    54    -0.038743
    55    -0.036831
    56    -0.365746
    57    -0.260037
    58    -0.259455
    59     0.831897
    60     0.911401
    61     0.897704
    62    -0.131511
    63    -0.116617
    64    -0.088134
    65    -0.054508
    66    -0.086698
    67    -0.329925
    68    -0.007538
    69     0.021501
    70     0.025207
    71    -0.002039
    72     0.102591
    73     0.073075
    74     0.171455
    75     0.092642
    76     0.224084
    77    -0.028065
    78    -0.021394
    79     0.007752
Sym=    49a
Ene=   -0.550892E-03
Spin= Alpha
Occup= 0.000022
     1     0.000380
     2     0.005891
     3     0.019698
     4     0.009083
     5    -0.005605
     6    -0.083755
     7     0.077725
     8     0.044781
     9     0.679776
    10    -0.640461
    11     0.014371
    12     0.203070
    13    -0.200716
    14    -0.017169
    15    -0.011133
    16    -0.004032
    17     0.152471
    18    -0.168299
    19    -0.002360
    20     0.254348
    21     0.275153
    22     2.015130
    23    -0.056806
    24     0.037094
    25    -0.038535
    26    -0.354289
    27     0.266296
    28    -0.270475
    29    -0.764905
    30    -0.827269
    31    -0.821045
    32    -0.104827
    33     0.109528
    34    -0.080141
    35     0.002468
    36     0.003593
    37     0.014647
    38    -0.000214
    39    -0.020125
    40     0.014861
    41    -0.005228
    42    -0.086431
    43     0.072916
    44    -0.015156
    45     0.052850
    46    -0.060186
    47    -0.018066
    48     0.023756
    49     0.003177
    50     0.007811
    51     0.002817
    52     0.082427
    53     0.002974
    54    -0.013439
    55     0.026653
    56     0.015053
    57    -0.057334
    58     0.110443
    59    -0.031788
    60    -0.081270
    61     0.034713
    62    -0.016936
    63     0.029297
    64     0.009506
    65    -0.281574
    66    -0.312039
    67    -2.200239
    68     0.058226
    69     0.041685
    70    -0.039253
    71     0.363619
    72     0.288568
    73    -0.285632
    74     0.855827
    75     0.902783
    76     0.907538
    77    -0.108050
    78     0.111310
    79     0.084745
Sym=    50a
Ene=   -0.541964E-04
Spin= Alpha
Occup= 0.000001
     1     0.020698
     2     0.435866
     3     0.057344
     4     0.076321
     5     0.000149
     6     0.000646
     7     0.000935
     8    -0.005363
     9    -0.004677
    10    -0.005118
    11    -0.013264
    12     0.001854
    13     0.001395
    14    -1.682988
    15    -1.685303
    16    -1.681543
    17     0.008705
    18     0.008800
    19    -0.010692
    20     0.037217
    21    -0.345404
    22     1.772538
    23    -0.110501
    24     0.110574
    25    -0.111413
    26    -0.672892
    27     0.675743
    28    -0.680776
    29    -0.235644
    30    -0.231022
    31    -0.228420
    32    -0.119782
    33     0.116962
    34    -0.117009
    35     0.029640
    36    -0.348443
    37     1.702926
    38     0.112505
    39    -0.113827
    40    -0.112551
    41     0.684069
    42    -0.682449
    43    -0.680867
    44    -0.198387
    45    -0.201400
    46    -0.199951
    47    -0.117126
    48    -0.117379
    49     0.117716
    50     0.032108
    51    -0.344154
    52     1.710815
    53     0.112321
    54     0.110136
    55     0.111589
    56     0.679139
    57     0.669302
    58     0.672353
    59    -0.205463
    60    -0.209800
    61    -0.213863
    62     0.116763
    63     0.118700
    64     0.116400
    65     0.037801
    66    -0.344677
    67     1.776438
    68    -0.110555
    69    -0.110351
    70     0.112283
    71    -0.672757
    72    -0.678648
    73     0.678788
    74    -0.235485
    75    -0.231797
    76    -0.234181
    77     0.116702
    78    -0.120009
    79    -0.116922
Sym=    51a
Ene=   -0.829771E-02
Spin= Alpha
Occup= 0.002945
     1     0.001034
     2     0.011268
     3     0.043189
     4    -0.004263
     5    -0.014817
     6    -0.001636
     7    -0.014311
     8     0.083749
     9     0.010846
    10     0.074056
    11     0.002731
    12     0.000917
    13     0.003951
    14     0.111730
    15    -0.003189
    16    -0.149373
    17     0.091586
    18     0.006634
    19     0.074741
    20     0.004631
    21     0.025628
    22    -0.009180
    23    -0.011979
    24    -0.057059
    25     0.051413
    26    -0.053244
    27    -0.088897
    28     0.080338
    29     0.044212
    30    -0.028655
    31    -0.021588
    32     0.035874
    33    -0.017763
    34     0.024988
    35    -0.000012
    36    -0.000509
    37     0.005439
    38    -0.008548
    39    -0.000784
    40    -0.000869
    41    -0.009524
    42    -0.006896
    43    -0.002653
    44    -0.015639
    45     0.010168
    46     0.006041
    47     0.027570
    48     0.004749
    49     0.015947
    50    -0.005210
    51    -0.027825
    52     0.009744
    53     0.056386
    54     0.060248
    55    -0.014424
    56     0.090230
    57     0.094133
    58    -0.059103
    59     0.029641
    60     0.031763
    61    -0.051338
    62     0.048111
    63     0.012825
    64     0.029758
    65     0.002468
    66     0.013421
    67    -0.016560
    68    -0.078092
    69    -0.001667
    70    -0.101193
    71    -0.160099
    72    -0.003371
    73    -0.205887
    74    -0.682138
    75    -0.060597
    76     0.738277
    77    -0.306031
    78    -0.054840
    79    -0.298025
Sym=    52a
Ene=   -0.834652E-02
Spin= Alpha
Occup= 0.002987
     1     0.003438
     2     0.038195
     3     0.159569
     4    -0.016129
     5     0.008973
     6     0.022002
     7    -0.003670
     8    -0.033190
     9    -0.142293
    10     0.033462
    11    -0.004800
    12    -0.005171
    13    -0.004507
    14    -0.160878
    15     0.101409
    16    -0.079224
    17    -0.029953
    18    -0.063550
    19    -0.094144
    20    -0.001086
    21     0.025588
    22    -0.100143
    23     0.124605
    24     0.054938
    25     0.063727
    26     0.252309
    27     0.113311
    28     0.127383
    29     0.623564
    30    -0.688673
    31     0.102025
    32     0.050227
    33     0.487628
    34     0.155927
    35    -0.005915
    36    -0.026197
    37     0.021871
    38     0.018952
    39    -0.011977
    40     0.003663
    41     0.038259
    42    -0.028441
    43     0.005137
    44     0.021072
    45    -0.000927
    46     0.004557
    47    -0.010920
    48     0.004830
    49     0.002561
    50    -0.000237
    51     0.009575
    52    -0.006968
    53    -0.059574
    54     0.008382
    55    -0.070151
    56    -0.089176
    57     0.057251
    58    -0.106974
    59    -0.025749
    60     0.046599
    61    -0.003900
    62    -0.014944
    63    -0.026959
    64    -0.048713
    65    -0.008667
    66    -0.044417
    67     0.032603
    68     0.010644
    69    -0.057498
    70     0.057644
    71     0.038693
    72    -0.101296
    73     0.097724
    74    -0.019575
    75     0.014512
    76     0.029728
    77     0.009963
    78    -0.033685
    79    -0.004348
Sym=    53a
Ene=   -0.844149E-02
Spin= Alpha
Occup= 0.003083
     1     0.006920
     2     0.077210
     3     0.315763
     4    -0.027295
     5     0.018166
     6     0.016294
     7    -0.010258
     8    -0.131087
     9    -0.117009
    10     0.026053
    11    -0.002659
    12     0.000318
    13     0.006001
    14    -0.005561
    15    -0.032509
    16    -0.244567
    17     0.127144
    18    -0.012707
    19    -0.021302
    20    -0.002989
    21    -0.008347
    22     0.014505
    23     0.029190
    24     0.001597
    25     0.022481
    26     0.034358
    27     0.031646
    28     0.024504
    29    -0.001147
    30     0.014098
    31     0.011295
    32     0.021401
    33    -0.034960
    34    -0.012159
    35    -0.004906
    36    -0.012963
    37     0.009836
    38     0.000553
    39     0.044178
    40     0.032116
    41     0.036185
    42     0.059400
    43     0.041356
    44     0.030296
    45    -0.001933
    46     0.004111
    47     0.042806
    48     0.012437
    49    -0.002953
    50    -0.016893
    51    -0.012207
    52    -0.156122
    53    -0.018765
    54    -0.035987
    55    -0.180212
    56    -0.028107
    57    -0.061262
    58    -0.358774
    59    -0.374511
    60    -0.317670
    61     0.815364
    62    -0.184178
    63     0.265616
    64     0.347731
    65    -0.011793
    66    -0.058245
    67     0.040447
    68    -0.072166
    69    -0.068205
    70    -0.016065
    71    -0.127044
    72    -0.120695
    73    -0.052777
    74     0.024491
    75     0.030426
    76    -0.018125
    77     0.031258
    78    -0.022940
    79    -0.006865
Sym=    54a
Ene=   -0.859611E-02
Spin= Alpha
Occup= 0.003202
     1    -0.009871
     2    -0.109479
     3    -0.450142
     4     0.042175
     5    -0.021468
     6    -0.002636
     7     0.020960
     8     0.161436
     9    -0.033374
    10    -0.156674
    11    -0.001373
    12     0.007351
    13     0.002050
    14     0.065008
    15     0.258746
    16     0.071697
    17     0.004273
    18     0.152188
    19    -0.001477
    20     0.004814
    21     0.018883
    22    -0.034364
    23    -0.030817
    24     0.014625
    25     0.000124
    26    -0.029344
    27     0.000695
    28     0.037123
    29     0.000374
    30     0.009973
    31    -0.041900
    32    -0.045030
    33     0.022263
    34    -0.007044
    35     0.012134
    36    -0.030428
    37     0.247682
    38     0.069013
    39    -0.198108
    40    -0.077175
    41     0.130872
    42    -0.405473
    43    -0.142817
    44     0.335279
    45    -0.804449
    46     0.338289
    47     0.339700
    48     0.001790
    49    -0.322517
    50     0.010682
    51     0.038565
    52    -0.033477
    53     0.003160
    54     0.019252
    55     0.036204
    56    -0.034317
    57     0.008123
    58     0.037960
    59    -0.042895
    60    -0.013890
    61     0.000168
    62     0.017830
    63     0.025154
    64     0.010660
    65     0.013744
    66     0.064369
    67    -0.041656
    68     0.069521
    69    -0.023917
    70    -0.068371
    71     0.122744
    72    -0.057006
    73    -0.120896
    74    -0.041127
    75     0.023497
    76    -0.029613
    77    -0.019463
    78    -0.000853
    79     0.034538
Sym=    55a
Ene=   -0.172270E-01
Spin= Alpha
Occup= 0.009554
     1    -0.001728
     2    -0.014081
     3    -0.035252
     4     0.002003
     5    -0.018630
     6    -0.009150
     7     0.025769
     8     0.076124
     9     0.075667
    10    -0.117538
    11    -0.003243
    12    -0.006349
    13     0.004058
    14     0.044486
    15    -0.086317
    16     0.075472
    17     0.128327
    18    -0.132855
    19    -0.076480
    20     0.016166
    21     0.052084
    22     0.048387
    23     0.080256
    24    -0.052575
    25    -0.026738
    26     0.089086
    27    -0.042900
    28    -0.104146
    29    -0.017523
    30    -0.019733
    31    -0.018781
    32     0.005811
    33    -0.019740
    34     0.006392
    35     0.045291
    36     0.161966
    37    -0.008611
    38    -0.250783
    39    -0.700698
    40     0.510858
    41    -0.228454
    42    -0.753204
    43     0.499705
    44    -0.065501
    45     0.008301
    46    -0.084524
    47    -0.006089
    48     0.025976
    49     0.000385
    50     0.006534
    51     0.021524
    52     0.018303
    53     0.004259
    54    -0.009466
    55    -0.047908
    56     0.036614
    57     0.000295
    58    -0.061757
    59    -0.009435
    60    -0.008267
    61    -0.006006
    62     0.001599
    63    -0.014638
    64    -0.000423
    65    -0.028780
    66    -0.090205
    67    -0.098261
    68    -0.123356
    69     0.048939
    70     0.113792
    71    -0.115743
    72     0.187963
    73     0.101253
    74     0.034328
    75     0.029337
    76     0.032583
    77     0.024383
    78    -0.005899
    79    -0.023838
Sym=    56a
Ene=   -0.957207E-02
Spin= Alpha
Occup= 0.004175
     1     0.018046
     2     0.195029
     3     0.738811
     4    -0.059647
     5    -0.015279
     6    -0.037239
     7     0.017263
     8     0.125570
     9     0.222684
    10    -0.145537
    11    -0.007446
    12    -0.010033
    13     0.000280
    14    -0.289888
    15    -0.151289
    16    -0.247679
    17     0.125203
    18     0.033298
    19    -0.114516
    20    -0.009224
    21    -0.044019
    22     0.050315
    23     0.016297
    24     0.007961
    25    -0.038380
    26     0.014399
    27     0.031441
    28    -0.091682
    29    -0.001731
    30     0.002906
    31     0.035747
    32     0.002447
    33     0.003156
    34     0.004677
    35    -0.009458
    36    -0.038834
    37     0.073032
    38    -0.036926
    39     0.009264
    40     0.029699
    41    -0.025817
    42    -0.053634
    43     0.008503
    44     0.001153
    45     0.047282
    46     0.005059
    47     0.011151
    48     0.028714
    49    -0.029746
    50    -0.009624
    51    -0.039905
    52     0.027498
    53     0.018567
    54    -0.001872
    55    -0.013302
    56     0.048949
    57     0.008999
    58    -0.009420
    59     0.009158
    60     0.007692
    61     0.021892
    62    -0.008722
    63     0.003811
    64    -0.025803
    65     0.048612
    66     0.252824
    67    -0.294798
    68     0.164413
    69     0.039525
    70    -0.151245
    71     0.350116
    72     0.106138
    73    -0.320702
    74     0.295660
    75    -0.819721
    76     0.383428
    77     0.430678
    78    -0.042044
    79    -0.135868
Sym=    57a
Ene=   -0.960725E-02
Spin= Alpha
Occup= 0.004228
     1     0.016979
     2     0.184343
     3     0.694542
     4    -0.052227
     5    -0.009660
     6     0.010546
     7    -0.040704
     8     0.088036
     9    -0.093517
    10     0.239366
    11    -0.004183
    12     0.003576
    13    -0.004090
    14    -0.284731
    15    -0.275169
    16    -0.097927
    17     0.064321
    18     0.106833
    19    -0.107609
    20     0.037519
    21     0.200741
    22    -0.242522
    23     0.154543
    24    -0.152813
    25     0.001701
    26     0.322595
    27    -0.316857
    28     0.017900
    29     0.386448
    30     0.392520
    31    -0.883232
    32    -0.127255
    33     0.186309
    34    -0.158114
    35    -0.006259
    36    -0.017251
    37     0.037762
    38    -0.059785
    39     0.061582
    40     0.011757
    41    -0.072349
    42     0.073023
    43    -0.054025
    44     0.006757
    45     0.018397
    46     0.020434
    47    -0.004709
    48     0.024674
    49    -0.046272
    50    -0.013177
    51    -0.056222
    52     0.039015
    53     0.030553
    54    -0.009564
    55     0.009587
    56     0.071570
    57    -0.008204
    58     0.029137
    59     0.020407
    60     0.014469
    61     0.017105
    62     0.003095
    63     0.011832
    64    -0.012568
    65    -0.009012
    66    -0.042213
    67     0.040073
    68     0.010812
    69    -0.035922
    70     0.013002
    71     0.011128
    72    -0.081524
    73     0.035439
    74     0.001033
    75     0.032842
    76     0.001507
    77    -0.000484
    78    -0.004065
    79     0.000699
Sym=    58a
Ene=   -0.101274E-01
Spin= Alpha
Occup= 0.004747
     1     0.034831
     2     0.376619
     3     1.425292
     4    -0.117059
     5    -0.049874
     6     0.042451
     7    -0.039222
     8     0.332042
     9    -0.291864
    10     0.290836
    11    -0.010508
    12     0.012741
    13    -0.004107
    14    -0.396120
    15    -0.469568
    16    -0.463743
    17    -0.167162
    18     0.103305
    19    -0.077052
    20     0.067541
    21     0.390478
    22    -0.539560
    23     0.186674
    24    -0.223398
    25     0.241913
    26     0.407447
    27    -0.485069
    28     0.522115
    29    -0.343572
    30    -0.137290
    31     0.322551
    32    -0.526365
    33     0.165359
    34    -0.322128
    35    -0.016082
    36    -0.067860
    37     0.066676
    38     0.003175
    39     0.000004
    40     0.021385
    41     0.042542
    42    -0.033156
    43    -0.005487
    44     0.018031
    45     0.039053
    46     0.012700
    47     0.013351
    48     0.017365
    49    -0.016263
    50    -0.021063
    51    -0.092240
    52     0.110872
    53    -0.008306
    54    -0.021942
    55     0.003754
    56     0.037685
    57     0.025218
    58     0.062372
    59     0.027045
    60     0.020753
    61     0.044354
    62    -0.018293
    63    -0.013085
    64    -0.016064
    65    -0.008443
    66    -0.039144
    67     0.086317
    68     0.014069
    69     0.033326
    70    -0.014789
    71    -0.050681
    72     0.010920
    73     0.027003
    74     0.023443
    75     0.006251
    76     0.022019
    77    -0.013318
    78     0.044651
    79     0.000073
Sym=    59a
Ene=   -0.100907E-01
Spin= Alpha
Occup= 0.004690
     1     0.033674
     2     0.363925
     3     1.376022
     4    -0.112595
     5    -0.043434
     6    -0.034480
     7     0.046007
     8     0.298685
     9     0.265827
    10    -0.305822
    11    -0.009852
    12    -0.003470
    13     0.014036
    14    -0.404689
    15    -0.453195
    16    -0.427030
    17     0.082058
    18    -0.183455
    19    -0.103273
    20    -0.009978
    21    -0.046705
    22     0.088396
    23     0.020417
    24     0.000045
    25     0.025165
    26    -0.030342
    27     0.053565
    28    -0.001753
    29     0.037604
    30     0.012967
    31     0.003370
    32     0.036344
    33    -0.019802
    34     0.001081
    35    -0.017188
    36    -0.071900
    37     0.065165
    38     0.010746
    39     0.023197
    40    -0.001195
    41     0.056902
    42     0.004208
    43    -0.035058
    44     0.019780
    45     0.038926
    46     0.015692
    47     0.009838
    48     0.011543
    49    -0.015219
    50    -0.018753
    51    -0.081211
    52     0.109087
    53    -0.018944
    54    -0.006794
    55    -0.029387
    56     0.021028
    57     0.046589
    58     0.020141
    59     0.023063
    60     0.019723
    61     0.042261
    62    -0.020531
    63    -0.028765
    64    -0.011391
    65     0.068219
    66     0.387300
    67    -0.525445
    68     0.191096
    69     0.237564
    70    -0.189833
    71     0.422686
    72     0.517015
    73    -0.421359
    74    -0.179453
    75     0.353016
    76    -0.341122
    77     0.127440
    78    -0.537389
    79    -0.334340
Sym=    60a
Ene=   -0.100509E-01
Spin= Alpha
Occup= 0.004767
     1    -0.035016
     2    -0.380560
     3    -1.446608
     4     0.112980
     5    -0.037498
     6    -0.036796
     7    -0.049938
     8     0.282510
     9     0.283479
    10     0.335661
    11    -0.004352
    12    -0.001615
    13    -0.011381
    14     0.469544
    15     0.465204
    16     0.418273
    17    -0.062358
    18    -0.149512
    19    -0.137912
    20     0.012034
    21     0.053478
    22    -0.071415
    23     0.007362
    24     0.018553
    25    -0.007041
    26     0.055152
    27    -0.016184
    28     0.026282
    29    -0.026069
    30    -0.022133
    31    -0.010755
    32    -0.017343
    33     0.006319
    34    -0.022983
    35     0.019075
    36     0.081395
    37    -0.087201
    38     0.019289
    39     0.008984
    40    -0.007635
    41    -0.018857
    42     0.062711
    43     0.028269
    44    -0.016132
    45    -0.048486
    46    -0.019964
    47    -0.017725
    48    -0.018575
    49     0.009826
    50    -0.028349
    51    -0.248959
    52     0.519038
    53     0.250465
    54     0.253088
    55     0.207304
    56     0.522763
    57     0.526520
    58     0.429550
    59    -0.163740
    60    -0.234731
    61     0.405432
    62    -0.172774
    63    -0.475624
    64    -0.360126
    65     0.008131
    66     0.038444
    67    -0.092907
    68    -0.025597
    69    -0.020921
    70     0.018658
    71     0.008512
    72     0.017109
    73    -0.044576
    74    -0.017582
    75    -0.013945
    76    -0.019725
    77     0.014198
    78    -0.032842
    79    -0.014942
Sym=    61a
Ene=   -0.187113E-01
Spin= Alpha
Occup= 0.010542
     1     0.000431
     2     0.003387
     3     0.008270
     4    -0.002516
     5     0.015881
     6    -0.013819
     7     0.005122
     8    -0.091424
     9     0.091250
    10    -0.025518
    11     0.016670
    12    -0.015639
    13     0.004082
    14    -0.105082
    15     0.116256
    16    -0.017489
    17     0.039023
    18    -0.151426
    19     0.140146
    20     0.025663
    21     0.084905
    22     0.076044
    23     0.091905
    24     0.006767
    25     0.095088
    26     0.087888
    27     0.131843
    28     0.094559
    29    -0.025696
    30    -0.032508
    31    -0.027295
    32     0.017294
    33    -0.004865
    34     0.028205
    35    -0.015703
    36    -0.048946
    37    -0.065673
    38     0.025144
    39    -0.054660
    40    -0.063907
    41    -0.075941
    42    -0.047234
    43    -0.073495
    44     0.024716
    45     0.016059
    46     0.015197
    47    -0.014265
    48    -0.023310
    49     0.001982
    50    -0.004532
    51    -0.015907
    52    -0.003373
    53     0.573525
    54    -0.690674
    55     0.143695
    56     0.568618
    57    -0.702139
    58     0.141817
    59     0.058213
    60    -0.060399
    61     0.014452
    62    -0.000374
    63     0.024192
    64    -0.017136
    65    -0.003969
    66    -0.013476
    67    -0.010392
    68    -0.029553
    69    -0.002667
    70    -0.003363
    71    -0.043384
    72     0.006952
    73    -0.025550
    74     0.001895
    75     0.003539
    76     0.007675
    77     0.001384
    78    -0.014878
    79     0.008766
Sym=    62a
Ene=   -0.239994E-01
Spin= Alpha
Occup= 0.009893
     1    -0.014164
     2    -0.138549
     3    -0.452550
     4     0.108899
     5    -0.018644
     6     0.015509
     7     0.018148
     8     0.077070
     9    -0.060921
    10    -0.074509
    11    -0.040673
    12     0.042704
    13     0.042248
    14     0.125789
    15     0.135892
    16     0.129996
    17     0.005939
    18     0.003230
    19    -0.000678
    20     0.000317
    21     0.005172
    22    -0.020215
    23     0.002011
    24    -0.002566
    25    -0.021104
    26     0.010399
    27    -0.011457
    28    -0.028568
    29    -0.004792
    30    -0.004841
    31     0.014838
    32     0.009227
    33    -0.001698
    34     0.001011
    35    -0.539406
    36    -2.092761
    37     0.748337
    38    -0.177076
    39     0.126653
    40     0.209616
    41    -0.179612
    42     0.118207
    43     0.212500
    44     0.574264
    45     0.539276
    46     0.572585
    47     0.029167
    48     0.026043
    49    -0.027728
    50    -0.000230
    51     0.002923
    52    -0.020816
    53     0.018900
    54     0.007068
    55     0.004209
    56     0.023032
    57     0.002432
    58    -0.002153
    59     0.016029
    60    -0.001524
    61    -0.005611
    62    -0.000448
    63     0.002190
    64    -0.009545
    65    -0.001535
    66     0.000015
    67    -0.026814
    68    -0.004881
    69    -0.018602
    70     0.004270
    71     0.003878
    72    -0.020836
    73    -0.006073
    74    -0.000710
    75     0.016860
    76    -0.002214
    77     0.000177
    78     0.008408
    79    -0.000981
Sym=    63a
Ene=   -0.899015E-02
Spin= Alpha
Occup= 0.002915
     1    -0.003118
     2    -0.034136
     3    -0.131226
     4     0.009710
     5     0.009494
     6    -0.003401
     7    -0.005841
     8    -0.047133
     9     0.017195
    10     0.058069
    11     0.004639
    12     0.012128
    13     0.012342
    14     0.023568
    15     0.126224
    16    -0.025700
    17    -0.024870
    18     0.049826
    19    -0.039086
    20     0.003889
    21     0.015593
    22    -0.026025
    23    -0.000926
    24     0.017053
    25     0.001399
    26     0.021266
    27     0.016894
    28     0.019231
    29    -0.024642
    30     0.003875
    31    -0.003795
    32    -0.015625
    33    -0.003772
    34    -0.010133
    35     0.008238
    36     0.037473
    37    -0.025406
    38    -0.023262
    39    -0.010120
    40     0.050491
    41    -0.038689
    42    -0.029198
    43     0.093279
    44    -0.016740
    45     0.028710
    46    -0.042558
    47     0.017583
    48     0.035625
    49    -0.007527
    50    -0.004399
    51    -0.022801
    52     0.028000
    53     0.033758
    54     0.021293
    55    -0.004051
    56     0.061858
    57     0.039313
    58    -0.013746
    59     0.022337
    60     0.013294
    61    -0.019079
    62     0.039032
    63     0.030638
    64     0.001597
    65    -0.003981
    66    -0.030701
    67     0.057224
    68     0.011547
    69    -0.087306
    70    -0.003679
    71     0.014983
    72    -0.173035
    73    -0.007674
    74     0.515432
    75    -0.341010
    76    -0.174021
    77    -0.711551
    78    -0.347354
    79    -0.207799
Sym=    64a
Ene=   -0.897692E-02
Spin= Alpha
Occup= 0.002907
     1    -0.002819
     2    -0.030789
     3    -0.124481
     4     0.012090
     5     0.010922
     6    -0.003621
     7    -0.001331
     8    -0.070718
     9     0.051062
    10     0.015014
    11    -0.001556
    12     0.009181
    13     0.017273
    14    -0.016428
    15    -0.002278
    16     0.128180
    17     0.022070
    18    -0.046360
    19    -0.025274
    20    -0.003890
    21    -0.036365
    22     0.077405
    23     0.014231
    24     0.026074
    25    -0.081167
    26     0.024422
    27     0.050228
    28    -0.165335
    29     0.393672
    30    -0.348689
    31    -0.055736
    32    -0.569163
    33    -0.644445
    34     0.149500
    35     0.010046
    36     0.049023
    37    -0.051967
    38    -0.034583
    39     0.055307
    40    -0.005610
    41    -0.068188
    42     0.107411
    43    -0.013517
    44    -0.011797
    45    -0.041425
    46     0.014205
    47     0.008663
    48     0.007818
    49    -0.029181
    50    -0.003269
    51    -0.016798
    52     0.026028
    53     0.010274
    54     0.000130
    55     0.019090
    56     0.022012
    57     0.001162
    58     0.039790
    59     0.009337
    60     0.001624
    61     0.003329
    62     0.005726
    63     0.029443
    64     0.015262
    65     0.000361
    66    -0.001762
    67    -0.004180
    68     0.001661
    69    -0.006619
    70     0.037373
    71     0.024499
    72     0.000850
    73     0.057920
    74    -0.022403
    75    -0.000647
    76     0.012598
    77    -0.001319
    78    -0.017929
    79    -0.024774
Sym=    65a
Ene=   -0.944293E-02
Spin= Alpha
Occup= 0.003275
     1     0.010516
     2     0.117548
     3     0.464772
     4    -0.027293
     5     0.009067
     6     0.008058
     7     0.009646
     8    -0.078907
     9    -0.065955
    10    -0.109781
    11     0.004890
    12     0.008723
    13    -0.014442
    14    -0.165684
    15    -0.188980
    16    -0.078111
    17     0.062631
    18     0.014628
    19     0.021334
    20    -0.011550
    21    -0.048536
    22     0.047312
    23    -0.003692
    24    -0.012533
    25    -0.031576
    26    -0.023419
    27    -0.002089
    28    -0.078843
    29     0.007067
    30     0.009699
    31     0.038957
    32    -0.000791
    33     0.007753
    34     0.005563
    35    -0.012884
    36    -0.049026
    37     0.031229
    38    -0.010899
    39     0.008951
    40    -0.020608
    41    -0.000451
    42     0.003464
    43    -0.058808
    44     0.016348
    45     0.013906
    46     0.032800
    47    -0.002403
    48    -0.002204
    49    -0.008294
    50    -0.049074
    51    -0.114192
    52    -0.182665
    53    -0.102865
    54    -0.107939
    55    -0.085273
    56    -0.191317
    57    -0.205198
    58    -0.146401
    59    -0.039785
    60    -0.098676
    61     0.410376
    62     0.847157
    63    -0.299664
    64    -0.096775
    65     0.001201
    66     0.012459
    67    -0.027404
    68     0.021505
    69     0.029137
    70     0.000661
    71     0.036260
    72     0.050277
    73     0.012574
    74    -0.004389
    75    -0.008258
    76     0.014976
    77    -0.034434
    78     0.032928
    79     0.015559
Sym=    66a
Ene=   -0.933390E-02
Spin= Alpha
Occup= 0.003210
     1    -0.006305
     2    -0.069210
     3    -0.263143
     4     0.017389
     5    -0.006584
     6     0.007783
     7     0.006697
     8     0.036837
     9    -0.079679
    10    -0.042082
    11    -0.010700
    12    -0.014183
    13     0.008171
    14     0.130980
    15     0.002168
    16     0.118906
    17     0.014567
    18     0.041987
    19    -0.004497
    20     0.006195
    21     0.027303
    22    -0.029957
    23    -0.004007
    24    -0.030160
    25    -0.009706
    26    -0.000422
    27    -0.068542
    28    -0.006407
    29     0.000311
    30    -0.026391
    31    -0.002175
    32     0.013349
    33    -0.000017
    34     0.001309
    35    -0.001468
    36    -0.035221
    37     0.101379
    38     0.057600
    39    -0.020086
    40    -0.057157
    41     0.120325
    42    -0.035393
    43    -0.118034
    44     0.172204
    45    -0.262968
    46     0.067911
    47    -0.235050
    48     0.838384
    49     0.365263
    50     0.009875
    51     0.042238
    52    -0.040871
    53     0.009971
    54    -0.030254
    55    -0.003352
    56     0.004855
    57    -0.072581
    58    -0.016484
    59    -0.000130
    60    -0.033127
    61    -0.011349
    62    -0.010815
    63    -0.011186
    64     0.002027
    65    -0.004708
    66    -0.024577
    67     0.029559
    68    -0.034619
    69     0.009228
    70     0.029804
    71    -0.061493
    72     0.025388
    73     0.051630
    74     0.022289
    75    -0.014235
    76     0.007328
    77     0.025311
    78    -0.022338
    79    -0.040350
Sym=    67a
Ene=   -0.588131E-02
Spin= Alpha
Occup= 0.000878
     1     0.002699
     2     0.029853
     3     0.098856
     4    -0.000485
     5     0.000386
     6     0.008275
     7     0.001895
     8     0.000661
     9    -0.063441
    10    -0.020180
    11    -0.000494
    12    -0.010453
    13    -0.000660
    14    -0.030261
    15    -0.038891
    16    -0.043458
    17     0.002313
    18     0.019140
    19    -0.006230
    20     0.003217
    21     0.014645
    22    -0.015189
    23     0.006259
    24     0.002851
    25     0.014326
    26     0.018375
    27     0.001174
    28     0.027930
    29    -0.121540
    30     0.153114
    31    -0.050650
    32    -0.158964
    33     0.119703
    34     0.405991
    35    -0.007736
    36    -0.032703
    37     0.028210
    38     0.023974
    39    -0.005765
    40    -0.017307
    41     0.055291
    42    -0.019388
    43    -0.033765
    44    -0.001529
    45     0.030653
    46     0.011580
    47     0.354782
    48    -0.047964
    49     0.336993
    50     0.006821
    51     0.031082
    52    -0.027343
    53    -0.014229
    54    -0.011746
    55    -0.027019
    56    -0.032765
    57    -0.021452
    58    -0.049897
    59    -0.119209
    60     0.026664
    61     0.059530
    62     0.018400
    63     0.277672
    64    -0.403944
    65    -0.001684
    66    -0.006451
    67     0.008774
    68    -0.002269
    69     0.011827
    70     0.008815
    71    -0.014150
    72     0.016316
    73     0.021887
    74     0.077969
    75     0.056834
    76    -0.120714
    77     0.010122
    78     0.305563
    79    -0.399465
Sym=    68a
Ene=   -0.586282E-02
Spin= Alpha
Occup= 0.000876
     1    -0.004192
     2    -0.046156
     3    -0.146173
     4    -0.001479
     5    -0.010369
     6     0.003489
     7     0.000247
     8     0.101940
     9    -0.031603
    10     0.003549
    11     0.014207
    12    -0.006600
    13     0.000507
    14     0.056173
    15     0.047514
    16     0.070197
    17    -0.005311
    18    -0.002387
    19    -0.036852
    20     0.010118
    21     0.047750
    22    -0.055012
    23     0.027780
    24    -0.029136
    25     0.037609
    26     0.056384
    27    -0.063461
    28     0.078851
    29     0.126974
    30    -0.181888
    31     0.006926
    32     0.249384
    33    -0.186940
    34    -0.384783
    35    -0.013892
    36    -0.058324
    37     0.038887
    38     0.025349
    39    -0.026440
    40    -0.044472
    41     0.044653
    42    -0.050625
    43    -0.086269
    44     0.073105
    45    -0.048205
    46     0.046873
    47    -0.407093
    48    -0.038479
    49    -0.272187
    50    -0.008355
    51    -0.036543
    52     0.029696
    53     0.007317
    54     0.026625
    55     0.027038
    56     0.014504
    57     0.055008
    58     0.052453
    59    -0.104945
    60     0.068247
    61     0.080073
    62     0.065026
    63     0.324733
    64    -0.300888
    65     0.004604
    66     0.022398
    67    -0.031095
    68    -0.002669
    69     0.035618
    70    -0.004521
    71     0.003567
    72     0.073646
    73    -0.018298
    74     0.075590
    75     0.019541
    76    -0.116880
    77    -0.019531
    78     0.312478
    79    -0.364244
Sym=    69a
Ene=   -0.306552E-02
Spin= Alpha
Occup= 0.000476
     1    -0.000404
     2    -0.004976
     3    -0.014629
     4    -0.001357
     5     0.007172
     6    -0.000729
     7     0.281950
     8    -0.040949
     9     0.016211
    10    -1.478169
    11    -0.000215
    12     0.006108
    13     0.000047
    14     0.007028
    15     0.009298
    16     0.010387
    17     0.356225
    18    -0.007464
    19     0.012829
    20    -0.094998
    21    -0.406808
    22     0.348211
    23    -0.142255
    24     0.139148
    25    -0.056335
    26    -0.462861
    27     0.461443
    28    -0.251171
    29     0.248206
    30     0.269428
    31     0.046511
    32    -0.288634
    33     0.154152
    34    -0.159127
    35    -0.110725
    36    -0.430560
    37     0.241241
    38     0.130338
    39    -0.135529
    40    -0.052370
    41     0.430855
    42    -0.435807
    43    -0.224025
    44     0.303803
    45     0.276082
    46     0.108972
    47    -0.248968
    48    -0.135182
    49     0.129443
    50     0.111615
    51     0.444063
    52    -0.282114
    53    -0.132196
    54    -0.138643
    55    -0.058920
    56    -0.447283
    57    -0.456768
    58    -0.249065
    59    -0.302968
    60    -0.314024
    61    -0.068088
    62    -0.258131
    63    -0.155616
    64    -0.158886
    65     0.091630
    66     0.389013
    67    -0.324051
    68     0.136276
    69     0.129315
    70    -0.051645
    71     0.447300
    72     0.436518
    73    -0.230679
    74    -0.254908
    75    -0.245736
    76    -0.047868
    77    -0.261328
    78     0.161221
    79     0.141473
Sym=    70a
Ene=   -0.254306E-02
Spin= Alpha
Occup= 0.000315
     1     0.001274
     2     0.013833
     3     0.036259
     4    -0.000611
     5     0.260022
     6     0.114509
     7    -0.008142
     8    -1.368559
     9    -0.604030
    10     0.045497
    11    -0.002263
    12    -0.004969
    13     0.001272
    14    -0.022688
    15    -0.024218
    16    -0.019550
    17    -0.010775
    18     0.152476
    19     0.349281
    20    -0.047283
    21    -0.195752
    22     0.152719
    23     0.008462
    24     0.098155
    25    -0.067964
    26    -0.031142
    27     0.303927
    28    -0.227268
    29    -0.045481
    30     0.200186
    31     0.137597
    32    -0.071546
    33     0.013086
    34    -0.190195
    35     0.062330
    36     0.239985
    37    -0.129461
    38    -0.003009
    39     0.115041
    40     0.074192
    41    -0.058740
    42     0.337876
    43     0.239589
    44     0.002299
    45    -0.238521
    46    -0.161180
    47     0.068109
    48     0.029699
    49    -0.188904
    50     0.135586
    51     0.543659
    52    -0.364540
    53    -0.099910
    54    -0.146200
    55    -0.186762
    56    -0.391186
    57    -0.501731
    58    -0.598642
    59    -0.204364
    60    -0.303507
    61    -0.338968
    62    -0.173206
    63    -0.242423
    64    -0.298319
    65    -0.127660
    66    -0.536720
    67     0.439758
    68    -0.113288
    69    -0.147098
    70     0.187057
    71    -0.428857
    72    -0.525007
    73     0.615015
    74     0.179892
    75     0.265614
    76     0.336726
    77     0.200130
    78    -0.256934
    79    -0.306996
Sym=    71a
Ene=   -0.281621E-03
Spin= Alpha
Occup= 0.000011
     1     0.000141
     2     0.001122
     3     0.003428
     4    -0.004022
     5     0.001265
     6    -0.003448
     7     0.001575
     8    -0.023693
     9     0.031979
    10    -0.013013
    11     0.007762
    12    -0.005466
    13    -0.001166
    14     1.246702
    15    -0.673090
    16    -0.576792
    17     0.007872
    18    -0.048369
    19     0.038985
    20     0.002584
    21    -0.007605
    22     0.067974
    23    -0.122298
    24    -0.056004
    25     0.051635
    26    -0.440285
    27    -0.188198
    28     0.170286
    29     0.205542
    30    -0.119215
    31    -0.120499
    32    -0.079710
    33     0.101521
    34     0.151654
    35     0.001580
    36     0.008599
    37    -0.021675
    38     0.103412
    39     0.064145
    40     0.052773
    41     0.375468
    42     0.240391
    43     0.197893
    44     0.200820
    45    -0.120712
    46    -0.092655
    47    -0.056456
    48    -0.087225
    49    -0.165836
    50    -0.000293
    51     0.000376
    52    -0.003587
    53     0.108017
    54    -0.058514
    55    -0.057808
    56     0.390527
    57    -0.207457
    58    -0.194535
    59     0.205474
    60    -0.102311
    61    -0.098247
    62     0.076662
    63     0.080655
    64    -0.162479
    65     0.001034
    66     0.004116
    67    -0.004964
    68    -0.119806
    69     0.070649
    70    -0.050851
    71    -0.416264
    72     0.243601
    73    -0.190667
    74     0.214408
    75    -0.126576
    76    -0.097421
    77     0.080600
    78    -0.076700
    79     0.163990
Sym=    72a
Ene=   -0.293414E-03
Spin= Alpha
Occup= 0.000012
     1     0.000142
     2     0.002074
     3     0.004512
     4     0.001482
     5     0.002298
     6     0.002486
     7    -0.003019
     8    -0.021374
     9    -0.006628
    10     0.018617
    11    -0.000589
    12     0.000044
    13     0.000313
    14     0.049338
    15     1.046878
    16    -1.110386
    17    -0.031373
    18    -0.021564
    19     0.045217
    20     0.002306
    21     0.002524
    22     0.023266
    23    -0.007482
    24     0.099110
    25     0.112109
    26    -0.030073
    27     0.353852
    28     0.376039
    29     0.011342
    30     0.174934
    31    -0.207625
    32    -0.151013
    33    -0.142996
    34    -0.003991
    35    -0.002477
    36     0.002563
    37    -0.051353
    38     0.008711
    39    -0.094404
    40     0.087172
    41     0.004811
    42    -0.324025
    43     0.357719
    44     0.010388
    45     0.188381
    46    -0.173254
    47    -0.133721
    48     0.150360
    49    -0.007744
    50     0.000382
    51     0.000965
    52     0.002618
    53     0.000396
    54     0.093327
    55    -0.100514
    56     0.004373
    57     0.344489
    58    -0.355231
    59    -0.000463
    60     0.179407
    61    -0.181907
    62     0.153472
    63    -0.138967
    64    -0.013625
    65    -0.001388
    66    -0.008890
    67     0.023499
    68    -0.004474
    69    -0.098919
    70    -0.102429
    71    -0.036851
    72    -0.352597
    73    -0.344821
    74     0.017786
    75     0.169636
    76    -0.175651
    77     0.151333
    78     0.126147
    79     0.012535
Sym=    73a
Ene=   -0.224291E-03
Spin= Alpha
Occup= 0.000009
     1     0.000280
     2     0.002283
     3     0.019902
     4     0.002582
     5    -0.041151
     6    -0.017764
     7     0.055625
     8     0.452567
     9     0.193028
    10    -0.586523
    11    -0.081436
    12    -0.030823
    13     0.101998
    14     0.014083
    15     0.029005
    16    -0.029322
    17     1.184032
    18    -0.401790
    19    -0.951768
    20     0.000276
    21    -0.049506
    22     0.261313
    23     0.111061
    24     0.022806
    25    -0.097130
    26     0.228277
    27     0.189262
    28    -0.411207
    29    -0.220667
    30     0.027877
    31     0.171828
    32    -0.036052
    33     0.037760
    34    -0.073114
    35     0.002968
    36    -0.133005
    37     0.732123
    38     0.043068
    39     0.083237
    40    -0.057312
    41     0.453323
    42    -0.052003
    43    -0.501692
    44     0.046840
    45    -0.206598
    46     0.076641
    47    -0.122300
    48    -0.156806
    49     0.127736
    50     0.001858
    51    -0.004361
    52     0.059629
    53     0.083742
    54     0.030964
    55    -0.128513
    56     0.295781
    57     0.131242
    58    -0.367430
    59     0.156928
    60     0.061961
    61    -0.235238
    62     0.047403
    63     0.001152
    64    -0.015811
    65    -0.006288
    66     0.198593
    67    -1.110748
    68     0.021910
    69    -0.029384
    70    -0.046947
    71     0.535672
    72     0.366617
    73    -0.615963
    74     0.026433
    75     0.132806
    76    -0.016314
    77    -0.189647
    78     0.216328
    79     0.200377
Sym=    74a
Ene=   -0.224398E-03
Spin= Alpha
Occup= 0.000009
     1    -0.000540
     2    -0.006620
     3    -0.014089
     4     0.003407
     5     0.005161
     6     0.064732
     7     0.027828
     8    -0.056106
     9    -0.696915
    10    -0.296647
    11     0.010300
    12     0.133888
    13     0.058942
    14     0.047689
    15     0.018554
    16    -0.023567
    17     0.593494
    18     1.445515
    19     0.130619
    20    -0.002934
    21     0.054553
    22    -0.323343
    23    -0.039176
    24    -0.122213
    25    -0.077088
    26     0.015695
    27    -0.513310
    28    -0.100975
    29     0.083342
    30    -0.199251
    31     0.166840
    32     0.072159
    33    -0.023316
    34     0.073182
    35    -0.000466
    36    -0.152176
    37     0.781904
    38    -0.052814
    39    -0.088067
    40    -0.007119
    41     0.163282
    42    -0.622805
    43    -0.356313
    44    -0.150527
    45     0.130123
    46    -0.033366
    47    -0.158416
    48    -0.125297
    49     0.163143
    50    -0.002793
    51     0.170966
    52    -0.923521
    53     0.045797
    54    -0.078292
    55    -0.000511
    56    -0.244215
    57    -0.646715
    58    -0.401832
    59     0.139225
    60    -0.098817
    61     0.054779
    62    -0.165668
    63    -0.156572
    64    -0.185976
    65    -0.000570
    66    -0.074084
    67     0.384996
    68     0.018782
    69    -0.118191
    70    -0.095787
    71    -0.129723
    72    -0.535840
    73    -0.114629
    74    -0.040777
    75     0.202840
    76    -0.179624
    77     0.097820
    78    -0.060575
    79    -0.067696
Sym=    75a
Ene=   -0.744351E-04
Spin= Alpha
Occup= 0.000001
     1    -0.000369
     2    -0.004793
     3    -0.006641
     4     0.002349
     5    -0.052584
     6     0.019962
     7    -0.037800
     8     0.582388
     9    -0.217454
    10     0.407718
    11    -0.108577
    12     0.039485
    13    -0.071338
    14     0.056360
    15     0.008446
    16    -0.027515
    17    -0.854953
    18     0.459042
    19    -1.242420
    20    -0.003337
    21     0.199672
    22    -1.084173
    23     0.041179
    24     0.028023
    25     0.016103
    26     0.602704
    27    -0.381478
    28     0.516120
    29    -0.021961
    30     0.104199
    31     0.028084
    32     0.192162
    33    -0.202395
    34     0.184679
    35    -0.000251
    36    -0.063673
    37     0.333070
    38     0.098069
    39    -0.016572
    40     0.106545
    41     0.465241
    42    -0.207744
    43     0.194410
    44     0.168612
    45     0.022978
    46    -0.211299
    47    -0.087410
    48    -0.059515
    49     0.040279
    50    -0.000691
    51    -0.128874
    52     0.663405
    53     0.078602
    54    -0.089793
    55     0.029935
    56     0.543629
    57     0.009645
    58     0.392002
    59     0.118608
    60    -0.189545
    61     0.029166
    62     0.118167
    63     0.147471
    64     0.101773
    65    -0.001423
    66    -0.006530
    67     0.015307
    68     0.123132
    69    -0.045844
    70     0.077781
    71     0.365623
    72    -0.148681
    73     0.252805
    74    -0.210714
    75     0.083205
    76     0.140688
    77    -0.014226
    78     0.001563
    79    -0.030592
Sym=    76a
Ene=    0.000000E+00
Spin= Alpha
Occup= 0.000000
     1    -0.000090
     2    -0.003782
     3     0.011451
     4    -0.083152
     5    -0.000816
     6     0.004016
     7    -0.003429
     8    -0.016549
     9     0.056297
    10    -0.093488
    11    -0.344343
    12     1.258628
    13    -1.816418
    14     0.012423
    15     0.010292
    16     0.009052
    17     0.634600
    18    -0.436189
    19     0.118770
    20     0.023291
    21    -0.439827
    22     2.208406
    23    -0.064065
    24     0.001595
    25     0.037533
    26    -0.484947
    27     0.274123
    28    -0.143839
    29    -0.212671
    30    -0.203948
    31    -0.198637
    32    -0.039397
    33     0.031114
    34    -0.024202
    35     0.002235
    36    -0.035555
    37     0.176788
    38     0.027558
    39    -0.079708
    40     0.105492
    41     0.116533
    42    -0.312806
    43     0.364576
    44    -0.020689
    45    -0.033899
    46    -0.000567
    47    -0.018037
    48     0.012265
    49    -0.001604
    50    -0.004708
    51     0.109390
    52    -0.541704
    53    -0.002798
    54    -0.099482
    55     0.095123
    56    -0.074025
    57    -0.427805
    58     0.260934
    59     0.048423
    60     0.062596
    61     0.029132
    62    -0.025486
    63     0.005817
    64    -0.010104
    65    -0.017483
    66     0.337599
    67    -1.701627
    68     0.090634
    69    -0.020002
    70     0.050878
    71     0.525012
    72     0.154626
    73    -0.035379
    74     0.167758
    75     0.152061
    76     0.144832
    77    -0.036212
    78     0.030572
    79     0.016785
Sym=    77a
Ene=    0.000000E+00
Spin= Alpha
Occup= 0.000000
     1     0.000270
     2     0.007885
     3    -0.018688
     4     0.149276
     5     0.004124
     6     0.002293
     7    -0.000213
     8     0.073725
     9     0.077376
    10     0.043906
    11     1.549591
    12     1.447213
    13     0.705054
    14    -0.022962
    15    -0.019447
    16    -0.020422
    17    -0.252157
    18    -0.511378
    19    -0.539082
    20    -0.006045
    21     0.115546
    22    -0.570075
    23    -0.079409
    24    -0.114053
    25    -0.025547
    26    -0.215016
    27    -0.459229
    28    -0.025633
    29     0.040599
    30     0.072857
    31     0.048775
    32     0.011423
    33     0.009601
    34     0.015876
    35    -0.004885
    36     0.093259
    37    -0.456288
    38    -0.107683
    39    -0.074107
    40    -0.030953
    41    -0.444600
    42    -0.216844
    43    -0.056034
    44     0.063716
    45     0.029078
    46     0.040862
    47     0.008366
    48     0.017262
    49     0.013319
    50     0.023927
    51    -0.459139
    52     2.314562
    53    -0.016003
    54    -0.007298
    55     0.042135
    56     0.249062
    57     0.276576
    58     0.445198
    59    -0.209517
    60    -0.208931
    61    -0.220424
    62     0.029970
    63     0.040365
    64     0.040520
    65    -0.016346
    66     0.302433
    67    -1.516576
    68    -0.043094
    69    -0.041037
    70    -0.103098
    71     0.026512
    72     0.043786
    73    -0.534932
    74     0.133826
    75     0.134747
    76     0.159773
    77    -0.004646
    78     0.028790
    79     0.026706
Sym=    78a
Ene=    0.000000E+00
Spin= Alpha
Occup= 0.000000
     1    -0.000425
     2    -0.010060
     3     0.013151
     4    -0.179000
     5     0.002488
     6    -0.001487
     7     0.000120
     8     0.083187
     9    -0.063228
    10    -0.066181
    11     1.577521
    12    -1.146371
    13    -1.087981
    14     0.017936
    15     0.026352
    16     0.019657
    17     0.388255
    18     0.408828
    19    -0.554629
    20    -0.009591
    21     0.188990
    22    -0.961707
    23    -0.064076
    24     0.038902
    25     0.109864
    26    -0.092785
    27     0.000085
    28     0.509271
    29     0.073205
    30     0.076835
    31     0.104614
    32    -0.000107
    33    -0.025641
    34     0.026764
    35     0.027328
    36    -0.507851
    37     2.541530
    38    -0.013966
    39    -0.014806
    40    -0.017082
    41     0.268787
    42    -0.370454
    43    -0.379364
    44    -0.239119
    45    -0.243551
    46    -0.243906
    47    -0.032784
    48    -0.032253
    49     0.037770
    50    -0.002850
    51     0.067291
    52    -0.344742
    53    -0.111203
    54     0.055835
    55     0.058275
    56    -0.455319
    57     0.148280
    58     0.142351
    59     0.044679
    60     0.019288
    61     0.017478
    62    -0.017103
    63    -0.016698
    64     0.007092
    65    -0.008551
    66     0.175036
    67    -0.887394
    68    -0.068693
    69     0.109518
    70     0.035962
    71    -0.112115
    72     0.501406
    73     0.000612
    74     0.064890
    75     0.097441
    76     0.068193
    77    -0.024791
    78     0.000183
    79     0.025814
Sym=    79a
Ene=    0.000000E+00
Spin= Alpha
Occup= 0.000000
     1     0.005964
     2     0.151788
     3    -0.273681
     4     2.786377
     5     0.001056
     6     0.000310
     7    -0.000463
     8    -0.006472
     9    -0.009000
    10    -0.007300
    11     0.005473
    12    -0.113384
    13    -0.160916
    14    -0.355949
    15    -0.357681
    16    -0.356897
    17     0.054602
    18     0.041160
    19     0.000835
    20    -0.018516
    21     0.258610
    22    -1.148380
    23     0.019433
    24    -0.011683
    25     0.030180
    26     0.051616
    27    -0.026837
    28     0.089927
    29     0.153854
    30     0.152679
    31     0.156864
    32    -0.037075
    33     0.032901
    34    -0.033324
    35    -0.018037
    36     0.234663
    37    -1.028559
    38    -0.010500
    39     0.017983
    40     0.019880
    41    -0.011977
    42     0.037354
    43     0.046599
    44     0.149762
    45     0.151051
    46     0.151078
    47    -0.038404
    48    -0.037633
    49     0.037810
    50    -0.021310
    51     0.303387
    52    -1.371747
    53    -0.025265
    54    -0.017968
    55    -0.015034
    56    -0.104505
    57    -0.078278
    58    -0.067362
    59     0.180576
    60     0.179825
    61     0.179869
    62     0.031873
    63     0.031986
    64     0.033066
    65    -0.019165
    66     0.269353
    67    -1.203826
    68     0.021546
    69     0.028493
    70    -0.011640
    71     0.065182
    72     0.091669
    73    -0.030428
    74     0.159640
    75     0.162024
    76     0.157516
    77     0.031458
    78    -0.036640
    79    -0.033300
