[Molden Format]
p30-5 set                                                                       
[Atoms] AU
 N        1     7        0.0000        0.0000        0.0000
[GTO]
    1 0
s    5 1.00
    1712.841585300000 -0.544779958049E-02
     257.648126770000 -0.406271746324E-01
      58.458245853000 -0.181119622506E+00
      16.198367905000 -0.468439755632E+00
       5.005260080900 -0.446168462892E+00
s    1 1.00
       0.587318565710  0.100000000000E+01
s    1 1.00
       0.187645922530  0.100000000000E+01
p    3 1.00
      13.571470233000 -0.588481169695E-01
       2.925737287400 -0.320246247625E+00
       0.799277507540 -0.753282265204E+00
p    1 1.00
       0.219543480340  0.100000000000E+01
d    1 1.00
       1.000000000000  0.100000000000E+01
 
[MO]
Sym=     1a
Ene=   -0.156595E+02
Spin= Alpha
Occup= 1.999717
     1     0.991619
     2    -0.033700
     3     0.014904
     4    -0.000001
     5     0.000000
     6     0.000001
     7     0.000001
     8    -0.000001
     9     0.000001
    10     0.003780
    11     0.003777
    12     0.003782
    13    -0.000003
    14     0.000000
    15    -0.000000
Sym=     2a
Ene=   -0.945956E+00
Spin= Alpha
Occup= 1.972678
     1     0.288587
     2     0.621231
     3     0.435510
     4     0.000002
     5     0.000004
     6    -0.000000
     7    -0.000002
     8    -0.000003
     9    -0.000001
    10     0.017216
    11     0.017505
    12     0.017179
    13     0.000415
    14     0.000038
    15     0.000188
Sym=     3a
Ene=   -0.297374E+00
Spin= Alpha
Occup= 1.000000
     1    -0.000001
     2    -0.000009
     3     0.000004
     4     0.337614
     5    -0.196103
     6     0.553071
     7    -0.230720
     8     0.134472
     9    -0.377740
    10     0.000002
    11     0.000003
    12     0.000002
    13    -0.000002
    14    -0.000000
    15     0.000000
Sym=     4a
Ene=   -0.298230E+00
Spin= Alpha
Occup= 1.000000
     1    -0.000004
     2    -0.000012
     3     0.000006
     4    -0.061551
     5     0.623053
     6     0.259176
     7     0.042890
     8    -0.424662
     9    -0.176601
    10     0.000001
    11     0.000001
    12    -0.000001
    13    -0.000000
    14     0.000001
    15    -0.000001
Sym=     5a
Ene=   -0.297901E+00
Spin= Alpha
Occup= 1.000000
     1    -0.000003
     2    -0.000013
     3     0.000004
     4     0.583798
     5     0.180262
     6    -0.292419
     7    -0.398405
     8    -0.122280
     9     0.199852
    10     0.000002
    11     0.000001
    12     0.000002
    13    -0.000002
    14     0.000001
    15    -0.000000
Sym=     6a
Ene=   -0.162906E-01
Spin= Alpha
Occup= 0.008719
     1     0.695496
     2     3.034686
     3    -1.120436
     4     0.000391
     5     0.000495
     6     0.000266
     7     0.000435
     8     0.000552
     9     0.000297
    10    -0.820272
    11    -0.823042
    12    -0.818170
    13    -0.003416
    14    -0.001381
    15    -0.001636
Sym=     7a
Ene=   -0.970537E-03
Spin= Alpha
Occup= 0.000059
     1     0.001600
     2     0.005278
     3     0.003957
     4    -0.000006
     5    -0.000000
     6    -0.000002
     7    -0.000005
     8     0.000000
     9    -0.000002
    10     0.081371
    11     0.222654
    12    -0.315779
    13    -0.641503
    14     0.674688
    15     0.171317
Sym=     8a
Ene=   -0.606340E-02
Spin= Alpha
Occup= 0.005398
     1     0.000575
     2     0.002424
     3    -0.000590
     4    -0.441397
     5    -0.780664
     6    -0.335933
     7    -0.497306
     8    -0.879411
     9    -0.378325
    10    -0.000793
    11    -0.000791
    12    -0.000780
    13     0.000001
    14    -0.000001
    15     0.000002
Sym=     9a
Ene=   -0.970126E-03
Spin= Alpha
Occup= 0.000059
     1     0.000400
     2     0.001347
     3     0.000917
     4     0.000011
     5    -0.000011
     6     0.000005
     7     0.000013
     8    -0.000012
     9     0.000004
    10     0.897489
    11    -0.720776
    12    -0.179619
    13     0.152874
    14     0.114186
    15     0.242380
Sym=    10a
Ene=   -0.611429E-02
Spin= Alpha
Occup= 0.005437
     1     0.000031
     2     0.000125
     3    -0.000033
     4     0.119516
     5     0.317884
     6    -0.896083
     7     0.134670
     8     0.357737
     9    -1.008360
    10    -0.000041
    11    -0.000051
    12    -0.000028
    13     0.000002
    14     0.000004
    15     0.000008
Sym=    11a
Ene=   -0.970554E-03
Spin= Alpha
Occup= 0.000059
     1    -0.000811
     2    -0.002671
     3    -0.001980
     4    -0.000004
     5     0.000005
     6     0.000013
     7    -0.000004
     8     0.000004
     9     0.000015
    10    -0.343199
    11    -0.162177
    12     0.511286
    13    -0.069048
    14    -0.058539
    15     0.849398
Sym=    12a
Ene=   -0.612999E-02
Spin= Alpha
Occup= 0.005453
     1    -0.000081
     2    -0.000340
     3     0.000082
     4     0.842066
     5    -0.455137
     6    -0.048976
     7     0.947384
     8    -0.511927
     9    -0.055208
    10     0.000097
    11     0.000124
    12     0.000112
    13    -0.000007
    14    -0.000002
    15     0.000004
Sym=    13a
Ene=   -0.971142E-03
Spin= Alpha
Occup= 0.000059
     1    -0.000246
     2    -0.000823
     3    -0.000561
     4     0.000005
     5    -0.000002
     6     0.000009
     7     0.000005
     8    -0.000002
     9     0.000009
    10    -0.254091
    11    -0.356849
    12     0.612709
    13     0.314984
    14     0.662850
    15    -0.288452
Sym=    14a
Ene=   -0.400340E-02
Spin= Alpha
Occup= 0.002314
     1     0.009881
     2     0.036941
     3     0.009330
     4     0.000003
     5     0.000003
     6    -0.000001
     7     0.000001
     8     0.000003
     9    -0.000001
    10    -0.058853
    11     0.504965
    12    -0.506671
    13     0.679021
    14     0.298210
    15     0.327422
Sym=    15a
Ene=   -0.772811E-03
Spin= Alpha
Occup= 0.000046
     1     0.555014
     2     1.878232
     3     1.266980
     4     0.000086
     5     0.000107
     6     0.000057
     7     0.000098
     8     0.000124
     9     0.000065
    10    -1.360412
    11    -1.366145
    12    -1.351504
    13    -0.006240
    14    -0.005418
    15    -0.003433
