[Molden Format]
p30-5 set                                                                       
[Atoms] AU
 O        1     8        0.0000        0.0000        0.0000
[GTO]
    1 0
s    5 1.00
    2266.176778500000 -0.538935039217E-02
     340.870101910000 -0.402347213890E-01
      77.363135167000 -0.180081842055E+00
      21.479644940000 -0.468288576577E+00
       6.658943312400 -0.446926171602E+00
s    1 1.00
       0.809759756680  0.100000000000E+01
s    1 1.00
       0.255307722340  0.100000000000E+01
p    3 1.00
      17.721504317000  0.626302487632E-01
       3.863550544000  0.333311384824E+00
       1.048092088300  0.741486383081E+00
p    1 1.00
       0.276415444110  0.100000000000E+01
d    1 1.00
       1.200000000000  0.100000000000E+01
 
[MO]
Sym=     1a
Ene=   -0.206976E+02
Spin= Alpha
Occup= 1.999862
     1     0.989825
     2    -0.037147
     3     0.011481
     4    -0.000137
     5    -0.000086
     6     0.000147
     7    -0.000135
     8    -0.000080
     9     0.000147
    10     0.005487
    11     0.005616
    12     0.005461
    13    -0.000129
    14     0.000256
    15     0.000157
Sym=     2a
Ene=   -0.123327E+01
Spin= Alpha
Occup= 1.984684
     1     0.298661
     2     0.628362
     3     0.439407
     4     0.051229
     5     0.030809
     6    -0.055398
     7     0.036361
     8     0.021870
     9    -0.039324
    10     0.010516
    11     0.010171
    12     0.010504
    13     0.000282
    14    -0.000877
    15    -0.000580
Sym=     3a
Ene=   -0.601610E+00
Spin= Alpha
Occup= 1.975721
     1    -0.036017
     2    -0.076024
     3    -0.054981
     4     0.417094
     5     0.250862
     6    -0.451075
     7     0.299609
     8     0.180197
     9    -0.324018
    10    -0.001080
    11    -0.001052
    12    -0.001059
    13    -0.000009
    14     0.000103
    15     0.000073
Sym=     4a
Ene=   -0.364863E+00
Spin= Alpha
Occup= 1.000000
     1    -0.000001
     2    -0.000007
     3    -0.000000
     4     0.356919
     5     0.335311
     6     0.516513
     7     0.215886
     8     0.203040
     9     0.312539
    10    -0.000129
    11    -0.000073
    12     0.000208
    13    -0.000117
    14    -0.000026
    15     0.000013
Sym=     5a
Ene=   -0.365982E+00
Spin= Alpha
Occup= 1.000000
     1     0.000000
     2    -0.000006
     3    -0.000000
     4    -0.416192
     5     0.557679
     6    -0.074694
     7    -0.264328
     8     0.354376
     9    -0.047331
    10     0.000101
    11    -0.000074
    12    -0.000017
    13    -0.000038
    14    -0.000052
    15     0.000088
Sym=     6a
Ene=   -0.168561E-01
Spin= Alpha
Occup= 0.013883
     1     0.103590
     2     0.430624
     3    -0.184360
     4    -0.583781
     5    -0.351112
     6     0.631344
     7     0.650816
     8     0.391432
     9    -0.703844
    10    -0.102491
    11    -0.110018
    12    -0.099572
    13     0.008992
    14    -0.012938
    15    -0.007305
Sym=     7a
Ene=   -0.644329E-02
Spin= Alpha
Occup= 0.002951
     1    -0.000002
     2    -0.000004
     3     0.000008
     4     0.006577
     5     0.011404
     6     0.012422
     7    -0.007647
     8    -0.013209
     9    -0.014419
    10     0.452322
    11     0.376750
    12    -0.829075
    13     0.518731
    14     0.160183
    15    -0.124922
Sym=     8a
Ene=   -0.104094E-02
Spin= Alpha
Occup= 0.000049
     1     0.009229
     2     0.027448
     3     0.021563
     4    -0.001099
     5    -0.000662
     6     0.001185
     7     0.001250
     8     0.000755
     9    -0.001346
    10     0.198573
    11     0.156724
    12    -0.418846
    13    -0.721452
    14    -0.153474
    15    -0.544965
Sym=     9a
Ene=   -0.740317E-02
Spin= Alpha
Occup= 0.003754
     1    -0.076566
     2    -0.266186
     3    -0.047732
     4     0.004271
     5     0.002569
     6    -0.004629
     7    -0.004769
     8    -0.002871
     9     0.005174
    10     0.227234
    11    -0.145093
    12     0.319792
    13     0.399551
    14    -0.740691
    15    -0.448770
Sym=    10a
Ene=   -0.643646E-02
Spin= Alpha
Occup= 0.002949
     1     0.000001
     2     0.000000
     3    -0.000005
     4     0.017508
     5    -0.020692
     6     0.004677
     7    -0.020194
     8     0.023845
     9    -0.005409
    10     0.715457
    11    -0.474579
    12    -0.240875
    13    -0.207126
    14    -0.318123
    15     0.570024
Sym=    11a
Ene=   -0.103998E-02
Spin= Alpha
Occup= 0.000049
     1    -0.002679
     2    -0.007969
     3    -0.006286
     4     0.000319
     5     0.000195
     6    -0.000342
     7    -0.000365
     8    -0.000222
     9     0.000388
    10     0.481540
    11    -0.716297
    12     0.253241
    13     0.072584
    14     0.544159
    15    -0.399102
Sym=    12a
Ene=   -0.800865E-02
Spin= Alpha
Occup= 0.006642
     1     0.000003
     2     0.000004
     3    -0.000003
     4    -0.543526
     5     0.736569
     6    -0.092945
     7     0.630288
     8    -0.854147
     9     0.107784
    10     0.019255
    11    -0.015693
    12    -0.003560
    13    -0.008383
    14    -0.010121
    15     0.017439
Sym=    13a
Ene=   -0.212997E-01
Spin= Alpha
Occup= 0.009417
     1    -0.634743
     2    -2.561823
     3     0.858166
     4    -0.103508
     5    -0.062259
     6     0.111904
     7     0.115808
     8     0.069655
     9    -0.125202
    10     0.717198
    11     0.744128
    12     0.708892
    13    -0.030313
    14     0.050477
    15     0.029766
Sym=    14a
Ene=   -0.804680E-03
Spin= Alpha
Occup= 0.000040
     1     0.000214
     2     0.000588
     3     0.000680
     4    -0.461018
     5    -0.423723
     6    -0.661929
     7     0.542874
     8     0.498955
     9     0.779455
    10     0.010186
    11     0.005312
    12    -0.017135
    13     0.009378
    14     0.002152
    15    -0.000771
Sym=    15a
Ene=    0.000000E+00
Spin= Alpha
Occup= 0.000000
     1     0.453707
     2     1.179764
     3     1.640968
     4    -0.010868
     5    -0.006471
     6     0.012251
     7     0.012477
     8     0.007429
     9    -0.014080
    10    -1.210683
    11    -1.240389
    12    -1.196061
    13     0.038161
    14    -0.045061
    15    -0.023650
