[Molden Format]
p30-5 set                                                                       
[Atoms] AU
 P        1    15        0.0000        0.0000        0.0000
[GTO]
    1 0
s    5 1.00
    8002.479510600000  0.552555527945E-02
    1203.681359000000  0.413263671710E-01
     273.442270310000  0.186070058991E+00
      76.655541517000  0.477107006766E+00
      23.516927435000  0.432247688783E+00
s    3 1.00
      39.791683439000  0.909541455125E-01
       4.277034332300 -0.550855656186E+00
       1.694025688800 -0.518269979075E+00
s    1 1.00
       0.275676746440  0.100000000000E+01
s    1 1.00
       0.104955900990  0.100000000000E+01
p    5 1.00
     219.507558230000  0.957391014006E-02
      51.274155030000  0.679938519137E-01
      15.921595892000  0.249832097533E+00
       5.506991348100  0.481481790475E+00
       1.953771942600  0.388697985432E+00
p    1 1.00
       0.478033979320  0.100000000000E+01
p    1 1.00
       0.136579526210  0.100000000000E+01
d    1 1.00
       0.450000000000  0.100000000000E+01
 
[MO]
Sym=     1a
Ene=   -0.799639E+02
Spin= Alpha
Occup= 1.999998
     1     0.994640
     2    -0.025779
     3    -0.029498
     4     0.000784
     5    -0.000000
     6     0.000001
     7     0.000001
     8    -0.000000
     9    -0.000000
    10    -0.000001
    11    -0.000000
    12     0.000000
    13     0.000000
    14     0.010247
    15     0.010247
    16     0.010247
    17    -0.000000
    18    -0.000000
    19     0.000001
Sym=     2a
Ene=   -0.751817E+01
Spin= Alpha
Occup= 1.999812
     1    -0.298532
     2    -1.021662
     3     0.046937
     4    -0.013581
     5    -0.000289
     6     0.000193
     7     0.000101
     8    -0.000014
     9     0.000010
    10     0.000008
    11     0.000004
    12    -0.000003
    13    -0.000004
    14    -0.003719
    15    -0.003716
    16    -0.003714
    17    -0.000002
    18    -0.000003
    19    -0.000000
Sym=     3a
Ene=   -0.541169E+01
Spin= Alpha
Occup= 1.999578
     1    -0.000073
     2    -0.000251
     3     0.000010
     4    -0.000004
     5     0.825261
     6    -0.249506
     7     0.478455
     8     0.034478
     9    -0.010432
    10     0.019990
    11    -0.005721
    12     0.001729
    13    -0.003316
    14    -0.000000
    15     0.000001
    16    -0.000002
    17     0.000000
    18     0.000001
    19    -0.000001
Sym=     4a
Ene=   -0.541170E+01
Spin= Alpha
Occup= 1.999577
     1     0.000000
     2     0.000002
     3     0.000000
     4    -0.000001
     5     0.433148
     6     0.827694
     7    -0.315474
     8     0.018099
     9     0.034592
    10    -0.013193
    11    -0.003003
    12    -0.005738
    13     0.002186
    14    -0.000000
    15     0.000000
    16     0.000000
    17     0.000000
    18     0.000000
    19     0.000001
Sym=     5a
Ene=   -0.541170E+01
Spin= Alpha
Occup= 1.999575
     1    -0.000081
     2    -0.000283
     3     0.000004
     4     0.000003
     5     0.321796
     6    -0.474222
     7    -0.802352
     8     0.013459
     9    -0.019822
    10    -0.033545
    11    -0.002231
    12     0.003288
    13     0.005563
    14     0.000001
    15    -0.000000
    16     0.000001
    17    -0.000000
    18    -0.000000
    19     0.000000
Sym=     6a
Ene=   -0.699085E+00
Spin= Alpha
Occup= 1.982996
     1     0.076132
     2     0.476912
     3     0.692311
     4     0.391103
     5    -0.000000
     6    -0.000000
     7    -0.000002
     8     0.000002
     9    -0.000000
    10     0.000002
    11    -0.000006
    12     0.000011
    13     0.000019
    14     0.023350
    15     0.023520
    16     0.023631
    17    -0.000095
    18    -0.000215
    19    -0.000023
Sym=     7a
Ene=   -0.199018E+00
Spin= Alpha
Occup= 1.000000
     1    -0.000001
     2    -0.000006
     3    -0.000018
     4     0.000014
     5    -0.147714
     6    -0.198527
     7    -0.022818
     8     0.275148
     9     0.369885
    10     0.042462
    11     0.396599
    12     0.532649
    13     0.061442
    14     0.000000
    15    -0.000008
    16     0.000001
    17     0.000000
    18    -0.000005
    19     0.000001
Sym=     8a
Ene=   -0.199283E+00
Spin= Alpha
Occup= 1.000000
     1    -0.000003
     2    -0.000021
     3    -0.000067
     4     0.000055
     5     0.082249
     6    -0.034471
     7    -0.232083
     8    -0.153309
     9     0.064229
    10     0.432500
    11    -0.220391
    12     0.092461
    13     0.622263
    14    -0.000002
    15    -0.000010
    16    -0.000006
    17     0.000001
    18    -0.000002
    19     0.000000
Sym=     9a
Ene=   -0.199069E+00
Spin= Alpha
Occup= 1.000000
     1     0.000001
     2     0.000004
     3     0.000017
     4    -0.000018
     5    -0.182119
     6     0.145537
     7    -0.086127
     8     0.339275
     9    -0.271207
    10     0.160443
    11     0.488801
    12    -0.390265
    13     0.231194
    14     0.000003
    15    -0.000004
    16     0.000006
    17    -0.000003
    18    -0.000007
    19     0.000004
Sym=    10a
Ene=   -0.215482E-01
Spin= Alpha
Occup= 0.017004
     1     0.136015
     2     1.354072
     3     4.269374
     4    -1.003922
     5     0.000091
     6    -0.000134
     7    -0.000225
     8    -0.000323
     9     0.000475
    10     0.000802
    11     0.000269
    12    -0.000397
    13    -0.000671
    14    -1.289104
    15    -1.289087
    16    -1.289355
    17     0.000060
    18     0.000221
    19    -0.000047
Sym=    11a
Ene=   -0.246869E-02
Spin= Alpha
Occup= 0.000425
     1     0.000160
     2     0.001935
     3     0.005336
     4     0.001241
     5    -0.116751
     6     0.172424
     7     0.291148
     8     0.424610
     9    -0.627030
    10    -1.058814
    11    -0.366273
    12     0.540706
    13     0.913158
    14    -0.002147
    15    -0.004857
    16    -0.001015
    17    -0.000038
    18    -0.001782
    19     0.001137
Sym=    12a
Ene=   -0.246373E-02
Spin= Alpha
Occup= 0.000423
     1    -0.000000
     2    -0.000005
     3    -0.000012
     4    -0.000009
     5     0.157412
     6     0.300357
     7    -0.114711
     8    -0.572414
     9    -1.092262
    10     0.417193
    11     0.493524
    12     0.941855
    13    -0.359879
    14    -0.000007
    15    -0.000132
    16     0.000164
    17    -0.000002
    18    -0.000154
    19     0.000134
Sym=    13a
Ene=   -0.246058E-02
Spin= Alpha
Occup= 0.000422
     1     0.000001
     2     0.000006
     3     0.000013
     4     0.000018
     5    -0.299595
     6     0.090580
     7    -0.173794
     8     1.089447
     9    -0.329425
    10     0.631990
    11    -0.939261
    12     0.284148
    13    -0.544891
    14    -0.000560
    15     0.005228
    16    -0.004706
    17     0.000255
    18     0.004612
    19    -0.002883
Sym=    14a
Ene=   -0.139935E-02
Spin= Alpha
Occup= 0.000188
     1     0.000093
     2     0.001352
     3     0.003468
     4     0.002020
     5    -0.002051
     6     0.000106
     7    -0.002245
     8     0.007467
     9    -0.000386
    10     0.008173
    11    -0.006448
    12     0.000333
    13    -0.007055
    14     0.065381
    15    -0.654923
    16     0.582573
    17    -0.018331
    18    -0.590018
    19     0.369350
Sym=    15a
Ene=   -0.135522E-03
Spin= Alpha
Occup= 0.000002
     1     0.000007
     2     0.000126
     3     0.000376
     4     0.000129
     5    -0.000045
     6     0.000032
     7    -0.000006
     8     0.000163
     9    -0.000114
    10     0.000021
    11    -0.000142
    12     0.000098
    13    -0.000017
    14    -0.246100
    15    -0.317104
    16     0.562473
    17    -0.541480
    18     0.244716
    19    -0.573221
Sym=    16a
Ene=    0.000000E+00
Spin= Alpha
Occup= 0.000000
     1    -0.019168
     2    -0.294524
     3    -0.680239
     4    -0.634930
     5    -0.000047
     6     0.000042
     7     0.000048
     8     0.000170
     9    -0.000158
    10    -0.000177
    11    -0.000150
    12     0.000141
    13     0.000158
    14     1.061531
    15     0.190899
    16     0.375443
    17    -0.396158
    18     0.483219
    19     0.452273
Sym=    17a
Ene=    0.000000E+00
Spin= Alpha
Occup= 0.000000
     1    -0.015151
     2    -0.232815
     3    -0.537729
     4    -0.501874
     5    -0.000008
     6     0.000033
     7     0.000035
     8     0.000031
     9    -0.000120
    10    -0.000130
    11    -0.000028
    12     0.000104
    13     0.000115
    14     0.906718
    15    -0.082406
    16     0.462490
    17     0.613338
    18     0.135888
    19    -0.447638
Sym=    18a
Ene=    0.000000E+00
Spin= Alpha
Occup= 0.000000
     1    -0.008955
     2    -0.137572
     3    -0.317592
     4    -0.296817
     5    -0.000005
     6     0.000018
     7     0.000013
     8     0.000020
     9    -0.000068
    10    -0.000050
    11    -0.000021
    12     0.000060
    13     0.000043
    14     0.737253
    15     0.305499
    16    -0.282446
    17    -0.414211
    18    -0.568080
    19    -0.359514
Sym=    19a
Ene=    0.000000E+00
Spin= Alpha
Occup= 0.000000
     1     0.047708
     2     0.732971
     3     1.692416
     4     1.580897
     5     0.000130
     6    -0.000182
     7    -0.000323
     8    -0.000476
     9     0.000669
    10     0.001189
    11     0.000418
    12    -0.000589
    13    -0.001046
    14    -0.899393
    15    -1.643236
    16    -1.508376
    17    -0.042037
    18     0.131484
    19    -0.028413
