[Molden Format]
p30-5 set                                                                       
[Atoms] AU
 S        1    16        0.0000        0.0000        0.0000
[GTO]
    1 0
s    5 1.00
    9184.930301000000 -0.547294661347E-02
    1381.510550300000 -0.409544021551E-01
     313.871475800000 -0.184758289562E+00
      88.053870623000 -0.475672806440E+00
      27.039914905000 -0.434951535842E+00
s    3 1.00
      45.648731303000 -0.919040458089E-01
       4.966452232600  0.556987772145E+00
       2.011624204700  0.511154682985E+00
s    1 1.00
       0.356610770130  0.100000000000E+01
s    1 1.00
       0.135072214770  0.100000000000E+01
p    5 1.00
     261.982334390000 -0.918305465927E-02
      61.306894736000 -0.659022265260E-01
      19.103729887000 -0.245877845187E+00
       6.656772037800 -0.482314710760E+00
       2.395963516100 -0.389563143514E+00
p    1 1.00
       0.617761616790  0.100000000000E+01
p    1 1.00
       0.169933768710  0.100000000000E+01
d    1 1.00
       0.550000000000  0.100000000000E+01
 
[MO]
Sym=     1a
Ene=   -0.920003E+02
Spin= Alpha
Occup= 1.999998
     1     0.994243
     2    -0.027000
     3     0.027781
     4     0.000307
     5     0.000023
     6    -0.000022
     7    -0.000016
     8    -0.000000
     9     0.000001
    10     0.000000
    11     0.000000
    12    -0.000001
    13    -0.000001
    14    -0.009771
    15    -0.009765
    16    -0.009776
    17    -0.000012
    18    -0.000006
    19     0.000008
Sym=     2a
Ene=   -0.901181E+01
Spin= Alpha
Occup= 1.999767
     1     0.305149
     2     1.022940
     3     0.044754
     4    -0.013472
     5     0.007389
     6    -0.017072
     7    -0.010169
     8    -0.000372
     9     0.000821
    10     0.000482
    11     0.000052
    12    -0.000119
    13    -0.000071
    14    -0.003107
    15    -0.003111
    16    -0.003105
    17     0.000003
    18     0.000003
    19    -0.000005
Sym=     3a
Ene=   -0.669690E+01
Spin= Alpha
Occup= 1.999614
     1    -0.000099
     2    -0.000286
     3    -0.000028
     4     0.000013
     5     0.924559
     6     0.247607
     7     0.230647
     8    -0.040565
     9    -0.009629
    10    -0.009519
    11     0.005253
    12     0.001521
    13     0.001452
    14     0.000181
    15    -0.000272
    16     0.000083
    17    -0.000075
    18    -0.000123
    19    -0.000023
Sym=     4a
Ene=   -0.669683E+01
Spin= Alpha
Occup= 1.999605
     1     0.006538
     2     0.021790
     3     0.000975
     4    -0.000217
     5    -0.336256
     6     0.707911
     7     0.592295
     8     0.017431
     9    -0.034528
    10    -0.027635
    11    -0.001558
    12     0.003527
    13     0.003245
    14    -0.000015
    15    -0.000143
    16    -0.000025
    17    -0.000011
    18    -0.000028
    19    -0.000015
Sym=     5a
Ene=   -0.669688E+01
Spin= Alpha
Occup= 1.999550
     1    -0.000977
     2    -0.003265
     3    -0.000150
     4     0.000031
     5    -0.017456
     6    -0.635791
     7     0.751405
     8     0.000114
     9     0.028409
    10    -0.032378
    11    -0.000160
    12    -0.003702
    13     0.004738
    14     0.000018
    15    -0.000019
    16     0.000024
    17    -0.000005
    18    -0.000017
    19     0.000011
Sym=     6a
Ene=   -0.643785E+00
Spin= Alpha
Occup= 1.982906
     1    -0.057386
     2    -0.361498
     3     0.502254
     4     0.286102
     5     0.101338
     6    -0.139760
     7    -0.069203
     8     0.175381
     9    -0.241781
    10    -0.119776
    11     0.260668
    12    -0.359424
    13    -0.177971
    14     0.012507
    15     0.013093
    16     0.012582
    17    -0.001032
    18    -0.000369
    19     0.000532
Sym=     7a
Ene=   -0.640001E+00
Spin= Alpha
Occup= 1.982872
     1    -0.056896
     2    -0.358506
     3     0.498958
     4     0.282317
     5    -0.102191
     6     0.141016
     7     0.069783
     8    -0.177033
     9     0.244271
    10     0.120906
    11    -0.262776
    12     0.362531
    13     0.179475
    14     0.012593
    15     0.013111
    16     0.012322
    17    -0.000917
    18    -0.000391
    19     0.000650
Sym=     8a
Ene=   -0.244190E+00
Spin= Alpha
Occup= 1.000000
     1     0.000004
     2     0.000025
     3    -0.000145
     4     0.000209
     5     0.072988
     6    -0.070781
     7     0.249840
     8     0.133880
     9    -0.129367
    10     0.457369
    11     0.174556
    12    -0.170803
    13     0.600535
    14     0.000502
    15    -0.000896
    16     0.000337
    17    -0.000179
    18    -0.000453
    19     0.000011
Sym=     9a
Ene=   -0.243946E+00
Spin= Alpha
Occup= 1.000000
     1     0.000011
     2     0.000061
     3    -0.000069
     4    -0.000052
     5     0.214688
     6     0.163555
     7    -0.015942
     8     0.393969
     9     0.299973
    10    -0.028937
    11     0.512976
    12     0.391308
    13    -0.039142
    14     0.000684
    15    -0.001151
    16     0.000405
    17    -0.000264
    18    -0.000519
    19    -0.000057
Sym=    10a
Ene=   -0.204747E-01
Spin= Alpha
Occup= 0.017128
     1     0.094324
     2     0.935349
     3    -2.781437
     4     0.684512
     5     0.146997
     6    -0.203364
     7    -0.100785
     8     0.497149
     9    -0.687790
    10    -0.340848
    11    -0.420240
    12     0.581444
    13     0.288103
    14     0.809447
    15     0.799767
    16     0.816961
    17     0.018472
    18     0.009195
    19    -0.012565
Sym=    11a
Ene=   -0.205200E-01
Spin= Alpha
Occup= 0.017094
     1    -0.094932
     2    -0.941678
     3     2.799285
     4    -0.686244
     5     0.146959
     6    -0.202141
     7    -0.099736
     8     0.496941
     9    -0.683535
    10    -0.337275
    11    -0.419812
    12     0.577398
    13     0.284947
    14    -0.814546
    15    -0.808419
    16    -0.821817
    17    -0.013941
    18    -0.007430
    19     0.009978
Sym=    12a
Ene=   -0.324700E-02
Spin= Alpha
Occup= 0.000450
     1     0.009210
     2     0.116851
     3    -0.283614
     4    -0.123947
     5    -0.006061
     6     0.000360
     7    -0.014014
     8    -0.020817
     9     0.001268
    10    -0.048064
    11     0.018171
    12    -0.001222
    13     0.041645
    14     0.183599
    15     0.470930
    16    -0.163819
    17    -0.744477
    18    -0.344015
    19     0.428533
Sym=    13a
Ene=   -0.286665E-02
Spin= Alpha
Occup= 0.000395
     1    -0.000552
     2    -0.007077
     3     0.016963
     4     0.008110
     5     0.004882
     6    -0.020117
     7     0.048124
     8     0.016732
     9    -0.069032
    10     0.165099
    11    -0.014440
    12     0.059961
    13    -0.143234
    14     0.418111
    15     0.104705
    16    -0.552986
    17    -0.339138
    18     0.333964
    19    -0.652772
Sym=    14a
Ene=   -0.277270E-02
Spin= Alpha
Occup= 0.000386
     1     0.001016
     2     0.013346
     3    -0.031660
     4    -0.016763
     5     0.140649
     6    -0.023607
     7     0.253354
     8     0.482661
     9    -0.080970
    10     0.869365
    11    -0.419074
    12     0.070147
    13    -0.754620
    14    -0.402992
    15     0.558527
    16    -0.096935
    17     0.117780
    18     0.193642
    19     0.128389
Sym=    15a
Ene=   -0.214142E-02
Spin= Alpha
Occup= 0.000233
     1     0.000002
     2     0.000083
     3    -0.000062
     4    -0.000502
     5     0.135410
     6     0.203153
     7    -0.212530
     8     0.464996
     9     0.697627
    10    -0.729823
    11    -0.403979
    12    -0.606092
    13     0.634014
    14    -0.260435
    15     0.427471
    16    -0.166361
    17     0.057456
    18     0.227652
    19    -0.036082
Sym=    16a
Ene=   -0.199450E-03
Spin= Alpha
Occup= 0.000002
     1    -0.006799
     2    -0.103749
     3     0.221196
     4     0.215504
     5    -0.209417
     6    -0.116051
     7    -0.072744
     8    -0.720818
     9    -0.399467
    10    -0.250427
    11     0.627843
    12     0.348000
    13     0.218271
    14    -0.801240
    15     0.233058
    16     0.032568
    17    -0.161089
    18     0.295922
    19    -0.129422
Sym=    17a
Ene=    0.000000E+00
Spin= Alpha
Occup= 0.000000
     1    -0.031585
     2    -0.487097
     3     1.029294
     4     1.041089
     5    -0.039131
     6    -0.021169
     7    -0.014074
     8    -0.134707
     9    -0.072915
    10    -0.048468
    11     0.117340
    12     0.063593
    13     0.042263
    14    -0.479847
    15    -0.925901
    16    -1.134298
    17     0.083622
    18     0.512844
    19     0.528746
Sym=    18a
Ene=    0.000000E+00
Spin= Alpha
Occup= 0.000000
     1     0.033151
     2     0.511152
     3    -1.080136
     4    -1.092292
     5     0.038974
     6     0.020864
     7     0.014494
     8     0.134161
     9     0.071875
    10     0.049909
    11    -0.116845
    12    -0.062723
    13    -0.043503
    14     0.882980
    15     0.502896
    16     1.279222
    17    -0.317939
    18     0.574188
    19     0.195549
Sym=    19a
Ene=    0.000000E+00
Spin= Alpha
Occup= 0.000000
     1    -0.036563
     2    -0.563573
     3     1.191566
     4     1.202604
     5     0.108241
     6     0.058521
     7     0.040520
     8     0.372729
     9     0.201398
    10     0.139492
    11    -0.324951
    12    -0.175212
    13    -0.121495
    14    -1.196959
    15    -1.287213
    16    -0.453257
    17    -0.423086
    18    -0.019684
    19    -0.194018
