[Molden Format]
p30-5 set                                                                       
[Atoms] AU
 HE       1     2        0.0000        0.0000       -1.0150
 HE       2     2        0.0000        0.0000        1.0150
[GTO]
    1 0
s    3 1.00
      38.354936737000  0.401838903516E-01
       5.768908147900  0.261391344439E+00
       1.239940703500  0.793039157864E+00
s    1 1.00
       0.297578159530  0.100000000000E+01
p    1 1.00
       1.000000000000  0.100000000000E+01
 
    2 0
s    3 1.00
      38.354936737000  0.401838903516E-01
       5.768908147900  0.261391344439E+00
       1.239940703500  0.793039157864E+00
s    1 1.00
       0.297578159530  0.100000000000E+01
p    1 1.00
       1.000000000000  0.100000000000E+01
 
[MO]
Sym=     1a
Ene=   -0.168306E+01
Spin= Alpha
Occup= 1.982306
     1     0.435886
     2     0.252177
     3    -0.000014
     4     0.000002
     5     0.032489
     6     0.435863
     7     0.252204
     8     0.000002
     9     0.000006
    10    -0.032501
Sym=     2a
Ene=   -0.751666E+00
Spin= Alpha
Occup= 1.000000
     1     0.531732
     2     0.376292
     3     0.000012
     4     0.000008
     5    -0.014267
     6    -0.531754
     7    -0.376280
     8    -0.000003
     9     0.000004
    10    -0.014262
Sym=     3a
Ene=   -0.437508E-02
Spin= Alpha
Occup= 0.002853
     1     0.301213
     2    -0.408894
     3    -0.000043
     4     0.000009
     5     0.548742
     6     0.299709
     7    -0.406681
     8    -0.000040
     9    -0.000007
    10    -0.548208
Sym=     4a
Ene=   -0.813128E-02
Spin= Alpha
Occup= 0.005234
     1     0.776470
     2    -0.616003
     3    -0.000014
     4     0.000003
     5    -0.264727
     6     0.776460
     7    -0.616013
     8     0.000001
     9     0.000008
    10     0.264741
Sym=     5a
Ene=   -0.350753E-02
Spin= Alpha
Occup= 0.002217
     1    -0.000024
     2     0.000019
     3    -0.083215
     4     0.660729
     5     0.000003
     6    -0.000004
     7    -0.000003
     8    -0.083220
     9     0.660739
    10     0.000009
Sym=     6a
Ene=   -0.350753E-02
Spin= Alpha
Occup= 0.002217
     1     0.000022
     2    -0.000033
     3     0.660745
     4     0.083200
     5     0.000021
     6     0.000036
     7    -0.000024
     8     0.660723
     9     0.083236
    10    -0.000042
Sym=     7a
Ene=   -0.471172E-02
Spin= Alpha
Occup= 0.002980
     1    -0.708177
     2     1.047825
     3    -0.000011
     4    -0.000007
     5    -0.258493
     6     0.708823
     7    -1.048684
     8     0.000003
     9    -0.000002
    10    -0.259647
Sym=     8a
Ene=   -0.176199E-02
Spin= Alpha
Occup= 0.000956
     1    -0.000001
     2    -0.000003
     3     0.388509
     4     0.649676
     5    -0.000016
     6     0.000014
     7     0.000004
     8    -0.388492
     9    -0.649669
    10    -0.000004
Sym=     9a
Ene=   -0.176199E-02
Spin= Alpha
Occup= 0.000956
     1     0.000000
     2     0.000008
     3     0.649656
     4    -0.388507
     5     0.000010
     6     0.000022
     7    -0.000019
     8    -0.649688
     9     0.388494
    10     0.000005
Sym=    10a
Ene=   -0.645122E-03
Spin= Alpha
Occup= 0.000280
     1    -0.258179
     2     1.020864
     3     0.000003
     4     0.000005
     5     1.048404
     6     0.258180
     7    -1.020857
     8     0.000009
     9    -0.000013
    10     1.048395
