[Molden Format]
p30-5 set                                                                       
[Atoms] AU
 HE       1     2        0.0000        0.0000       -1.7762
 HE       2     2        0.0000        0.0000        1.7762
[GTO]
    1 0
s    3 1.00
      38.354936737000  0.401838903516E-01
       5.768908147900  0.261391344439E+00
       1.239940703500  0.793039157864E+00
s    1 1.00
       0.297578159530  0.100000000000E+01
p    1 1.00
       1.000000000000  0.100000000000E+01
 
    2 0
s    3 1.00
      38.354936737000  0.401838903516E-01
       5.768908147900  0.261391344439E+00
       1.239940703500  0.793039157864E+00
s    1 1.00
       0.297578159530  0.100000000000E+01
p    1 1.00
       1.000000000000  0.100000000000E+01
 
[MO]
Sym=     1a
Ene=   -0.130276E+01
Spin= Alpha
Occup= 1.980606
     1     0.562341
     2     0.467442
     3     0.000008
     4     0.000000
     5     0.014718
     6     0.202578
     7     0.145270
     8    -0.000006
     9    -0.000007
    10    -0.009979
Sym=     2a
Ene=   -0.916862E+00
Spin= Alpha
Occup= 1.000000
     1     0.211514
     2     0.179613
     3    -0.000014
     4     0.000000
     5     0.006047
     6    -0.719691
     7    -0.314369
     8     0.000008
     9     0.000010
    10    -0.002781
Sym=     3a
Ene=   -0.126593E-01
Spin= Alpha
Occup= 0.009313
     1    -1.102975
     2     1.113517
     3    -0.000008
     4    -0.000000
     5     0.074937
     6    -0.246014
     7     0.201761
     8     0.000007
     9     0.000008
    10    -0.069563
Sym=     4a
Ene=   -0.404582E-02
Spin= Alpha
Occup= 0.002588
     1    -0.185555
     2     0.258683
     3     0.000026
     4     0.000000
     5    -0.921140
     6     0.303698
     7    -0.349827
     8    -0.000005
     9    -0.000009
    10     0.083605
Sym=     5a
Ene=   -0.201055E-02
Spin= Alpha
Occup= 0.001203
     1    -0.248650
     2     0.394141
     3    -0.000014
     4     0.000001
     5     0.370684
     6     0.990694
     7    -1.212003
     8    -0.000009
     9    -0.000011
    10    -0.063949
Sym=     6a
Ene=   -0.375400E-02
Spin= Alpha
Occup= 0.002327
     1    -0.000006
     2     0.000003
     3     0.748988
     4     0.662153
     5     0.000021
     6    -0.000006
     7    -0.000008
     8     0.016589
     9     0.014655
    10    -0.000009
Sym=     7a
Ene=   -0.375400E-02
Spin= Alpha
Occup= 0.002327
     1    -0.000006
     2     0.000004
     3     0.662153
     4    -0.748988
     5     0.000019
     6    -0.000005
     7    -0.000008
     8     0.014664
     9    -0.016581
    10    -0.000007
Sym=     8a
Ene=   -0.100363E-02
Spin= Alpha
Occup= 0.000544
     1    -0.003602
     2     0.005172
     3    -0.001428
     4     0.023897
     5     0.003253
     6     0.000827
     7    -0.001486
     8     0.059453
     9    -0.997673
    10     0.024960
Sym=     9a
Ene=   -0.100362E-02
Spin= Alpha
Occup= 0.000544
     1    -0.003431
     2     0.004926
     3     0.023911
     4     0.001411
     5     0.003096
     6     0.000789
     7    -0.001417
     8    -0.997737
     9    -0.058858
    10     0.023768
Sym=    10a
Ene=   -0.101267E-02
Spin= Alpha
Occup= 0.000545
     1    -0.143444
     2     0.206283
     3    -0.000527
     4    -0.000632
     5     0.129579
     6     0.033934
     7    -0.059827
     8     0.022327
     9     0.026416
    10     0.995676
