[Molden Format]
p30-5 set                                                                       
[Atoms] AU
 HE       1     2        0.0000        0.0000       -1.2687
 HE       2     2        0.0000        0.0000        1.2687
[GTO]
    1 0
s    3 1.00
      38.354936737000  0.401838903516E-01
       5.768908147900  0.261391344439E+00
       1.239940703500  0.793039157864E+00
s    1 1.00
       0.297578159530  0.100000000000E+01
p    1 1.00
       1.000000000000  0.100000000000E+01
 
    2 0
s    3 1.00
      38.354936737000  0.401838903516E-01
       5.768908147900  0.261391344439E+00
       1.239940703500  0.793039157864E+00
s    1 1.00
       0.297578159530  0.100000000000E+01
p    1 1.00
       1.000000000000  0.100000000000E+01
 
[MO]
Sym=     1a
Ene=   -0.154654E+01
Spin= Alpha
Occup= 1.980176
     1     0.431510
     2     0.289207
     3     0.000005
     4     0.000001
     5     0.023865
     6     0.431434
     7     0.289178
     8    -0.000005
     9     0.000013
    10    -0.023874
Sym=     2a
Ene=   -0.786116E+00
Spin= Alpha
Occup= 1.000000
     1     0.515272
     2     0.328783
     3     0.000002
     4     0.000006
     5    -0.002923
     6    -0.515346
     7    -0.328805
     8     0.000012
     9    -0.000006
    10    -0.002915
Sym=     3a
Ene=   -0.101578E-01
Spin= Alpha
Occup= 0.007744
     1     0.754644
     2    -0.642097
     3    -0.000000
     4    -0.000005
     5    -0.219929
     6     0.754492
     7    -0.641896
     8     0.000013
     9     0.000006
    10     0.219933
Sym=     4a
Ene=   -0.420843E-02
Spin= Alpha
Occup= 0.002971
     1    -0.708908
     2     0.984356
     3    -0.000001
     4    -0.000005
     5    -0.224002
     6     0.708414
     7    -0.983706
     8    -0.000011
     9     0.000008
    10    -0.222720
Sym=     5a
Ene=   -0.351620E-02
Spin= Alpha
Occup= 0.002451
     1    -0.310243
     2     0.374821
     3    -0.000007
     4    -0.000004
     5    -0.611065
     6    -0.311695
     7     0.376865
     8     0.000003
     9    -0.000016
    10     0.611471
Sym=     6a
Ene=   -0.281059E-02
Spin= Alpha
Occup= 0.001851
     1     0.000005
     2    -0.000002
     3    -0.502262
     4     0.478295
     5     0.000003
     6    -0.000007
     7    -0.000004
     8    -0.502002
     9     0.478032
    10     0.000015
Sym=     7a
Ene=   -0.281059E-02
Spin= Alpha
Occup= 0.001851
     1    -0.000018
     2     0.000006
     3     0.478286
     4     0.502258
     5    -0.000012
     6    -0.000008
     7     0.000009
     8     0.478041
     9     0.502006
    10     0.000001
Sym=     8a
Ene=   -0.196962E-02
Spin= Alpha
Occup= 0.001204
     1     0.000005
     2    -0.000007
     3     0.075609
     4     0.717535
     5    -0.000005
     6     0.000019
     7    -0.000006
     8    -0.075630
     9    -0.717882
    10    -0.000012
Sym=     9a
Ene=   -0.196962E-02
Spin= Alpha
Occup= 0.001204
     1     0.000007
     2    -0.000002
     3     0.717537
     4    -0.075600
     5     0.000005
     6    -0.000005
     7    -0.000008
     8    -0.717881
     9     0.075638
    10     0.000019
Sym=    10a
Ene=   -0.107508E-02
Spin= Alpha
Occup= 0.000547
     1    -0.346657
     2     0.688539
     3    -0.000001
     4     0.000006
     5     0.817313
     6     0.346678
     7    -0.688542
     8     0.000015
     9    -0.000008
    10     0.817359
