[Molden Format]
p30-5 set                                                                       
[Atoms] AU
 CL       1    17       -1.0601       -1.8796        0.0000
 O        2     8        0.0000        1.8117        0.0000
 O        3     8        2.2527        2.1824        0.0000
[GTO]
    1 0
s    5 1.00
   10449.827566000000  0.542659537894E-02
    1571.736522100000  0.406263781288E-01
     357.120655230000  0.183597478529E+00
     100.251859350000  0.474389487682E+00
      30.812727554000  0.437351811041E+00
s    3 1.00
      51.923789434000 -0.927541548481E-01
       5.704576097500  0.563808255442E+00
       2.350837680900  0.503670446297E+00
s    1 1.00
       0.446051246720  0.100000000000E+01
s    1 1.00
       0.168488561900  0.100000000000E+01
p    5 1.00
     307.667905690000 -0.887970255889E-02
      72.102015515000 -0.642840717212E-01
      22.532680262000 -0.242887397360E+00
       7.899176544400 -0.483408363699E+00
       2.876726832100 -0.389525638755E+00
p    1 1.00
       0.774593639550  0.100000000000E+01
p    1 1.00
       0.210376996980  0.100000000000E+01
d    1 1.00
       0.650000000000  0.100000000000E+01

    2 0
s    5 1.00
    2266.176778500000 -0.538935039217E-02
     340.870101910000 -0.402347213890E-01
      77.363135167000 -0.180081842055E+00
      21.479644940000 -0.468288576577E+00
       6.658943312400 -0.446926171602E+00
s    1 1.00
       0.809759756680  0.100000000000E+01
s    1 1.00
       0.255307722340  0.100000000000E+01
p    3 1.00
      17.721504317000  0.626302487632E-01
       3.863550544000  0.333311384824E+00
       1.048092088300  0.741486383081E+00
p    1 1.00
       0.276415444110  0.100000000000E+01
d    1 1.00
       1.200000000000  0.100000000000E+01

    3 0
s    5 1.00
    2266.176778500000 -0.538935039217E-02
     340.870101910000 -0.402347213890E-01
      77.363135167000 -0.180081842055E+00
      21.479644940000 -0.468288576577E+00
       6.658943312400 -0.446926171602E+00
s    1 1.00
       0.809759756680  0.100000000000E+01
s    1 1.00
       0.255307722340  0.100000000000E+01
p    3 1.00
      17.721504317000  0.626302487632E-01
       3.863550544000  0.333311384824E+00
       1.048092088300  0.741486383081E+00
p    1 1.00
       0.276415444110  0.100000000000E+01
d    1 1.00
       1.200000000000  0.100000000000E+01

[MO]
Sym=     1a
Ene=   -0.104855E+03
Spin= Alpha
Occup= 1.999999
     1     0.994044
     2     0.027394
     3    -0.025641
     4    -0.001823
     5     0.000008
     6     0.000008
     7     0.000005
     8     0.000026
     9     0.000079
    10     0.000001
    11    -0.000050
    12    -0.000162
    13    -0.000001
    14     0.009282
    15     0.009222
    16     0.009287
    17    -0.000018
    18    -0.000003
    19     0.000001
    20    -0.000009
    21    -0.000029
    22    -0.000094
    23     0.000001
    24    -0.000040
    25     0.000016
    26    -0.000233
    27    -0.000059
    28     0.000001
    29    -0.000002
    30     0.000007
    31     0.000030
    32     0.000003
    33    -0.000002
    34    -0.000001
    35     0.000012
    36    -0.000047
    37     0.000426
    38     0.000012
    39     0.000056
    40    -0.000015
    41    -0.000214
    42    -0.000140
    43     0.000001
    44    -0.000031
    45    -0.000050
    46    -0.000075
    47     0.000017
    48    -0.000001
    49    -0.000001
Sym=     2a
Ene=   -0.207870E+02
Spin= Alpha
Occup= 1.999959
     1    -0.000006
     2     0.000127
     3     0.000201
     4    -0.001567
     5     0.000007
     6     0.000005
     7     0.000008
     8     0.000113
     9     0.000059
    10     0.000033
    11    -0.000596
    12    -0.000963
    13    -0.000055
    14     0.000208
    15     0.000029
    16     0.000284
    17    -0.000174
    18    -0.000028
    19    -0.000045
    20     0.676992
    21    -0.027990
    22     0.006730
    23    -0.000195
    24     0.000340
    25    -0.000004
    26     0.000656
    27    -0.001006
    28    -0.000038
    29     0.004240
    30     0.003605
    31     0.003427
    32     0.000153
    33     0.000029
    34    -0.000191
    35     0.719853
    36    -0.030178
    37     0.005520
    38     0.000204
    39     0.000288
    40     0.000382
    41    -0.000717
    42     0.000345
    43     0.000340
    44     0.004627
    45     0.003883
    46     0.003929
    47     0.000086
    48     0.000033
    49    -0.000262
Sym=     3a
Ene=   -0.207879E+02
Spin= Alpha
Occup= 1.999935
     1     0.000003
     2    -0.000070
     3    -0.000149
     4     0.001163
     5    -0.000003
     6     0.000039
     7     0.000008
     8     0.000071
     9     0.000102
    10    -0.000003
    11     0.000153
    12     0.001008
    13     0.000037
    14    -0.000049
    15     0.000250
    16    -0.000024
    17     0.000147
    18     0.000029
    19     0.000024
    20    -0.720361
    21     0.029430
    22    -0.013509
    23     0.002502
    24     0.000011
    25     0.000060
    26    -0.002332
    27     0.000632
    28    -0.000014
    29    -0.002155
    30    -0.003499
    31    -0.003387
    32     0.000254
    33    -0.000023
    34     0.000236
    35     0.676968
    36    -0.027930
    37     0.012046
    38     0.002614
    39     0.000684
    40     0.000045
    41    -0.002465
    42    -0.000410
    43     0.000157
    44     0.002032
    45     0.003378
    46     0.003468
    47    -0.000205
    48     0.000013
    49    -0.000245
Sym=     4a
Ene=   -0.105907E+02
Spin= Alpha
Occup= 1.999765
     1    -0.310665
     2     1.025240
     3     0.040744
     4    -0.011660
     5     0.003915
     6     0.010929
     7    -0.001926
     8    -0.000012
     9    -0.000201
    10     0.000034
    11     0.000077
    12    -0.000102
    13    -0.000058
    14    -0.002748
    15    -0.002219
    16    -0.002758
    17     0.000265
    18     0.000042
    19    -0.000058
    20     0.000171
    21     0.000428
    22    -0.000484
    23    -0.000080
    24    -0.000506
    25    -0.000323
    26    -0.000687
    27     0.000044
    28    -0.000070
    29     0.000059
    30    -0.000146
    31     0.000166
    32    -0.000079
    33     0.000016
    34     0.000012
    35    -0.000005
    36    -0.000230
    37     0.001280
    38     0.000146
    39    -0.000015
    40     0.000206
    41    -0.000574
    42    -0.000565
    43     0.000016
    44    -0.000048
    45    -0.000086
    46    -0.000144
    47     0.000118
    48     0.000009
    49     0.000013
Sym=     5a
Ene=   -0.806239E+01
Spin= Alpha
Occup= 1.999550
     1     0.000198
     2    -0.000669
     3    -0.000160
     4     0.000310
     5     0.143026
     6     0.176172
     7     0.956646
     8    -0.006856
     9    -0.008334
    10    -0.043972
    11     0.001013
    12     0.001631
    13     0.007983
    14    -0.000105
    15    -0.000054
    16    -0.000040
    17     0.000055
    18    -0.000152
    19    -0.000482
    20    -0.000012
    21    -0.000045
    22    -0.000053
    23     0.000032
    24    -0.000176
    25     0.000002
    26     0.000194
    27    -0.000044
    28    -0.000026
    29    -0.000032
    30    -0.000026
    31    -0.000059
    32     0.000003
    33    -0.000041
    34    -0.000084
    35    -0.000005
    36     0.000064
    37    -0.000300
    38    -0.000016
    39     0.000311
    40    -0.000250
    41     0.000052
    42     0.000149
    43    -0.000133
    44    -0.000031
    45     0.000065
    46     0.000042
    47     0.000010
    48     0.000018
    49    -0.000021
Sym=     6a
Ene=   -0.806241E+01
Spin= Alpha
Occup= 1.999539
     1     0.000147
     2    -0.000480
     3    -0.000080
     4    -0.000054
     5     0.932437
     6    -0.299253
     7    -0.084533
     8    -0.043548
     9     0.013927
    10     0.003713
    11     0.007554
    12    -0.002458
    13    -0.000942
    14    -0.000025
    15    -0.000028
    16     0.000012
    17    -0.000098
    18     0.000003
    19     0.000062
    20     0.000009
    21     0.000014
    22     0.000204
    23    -0.000067
    24     0.000098
    25    -0.000033
    26    -0.000203
    27     0.000012
    28    -0.000029
    29    -0.000036
    30     0.000054
    31     0.000036
    32     0.000007
    33     0.000021
    34     0.000010
    35    -0.000027
    36     0.000010
    37    -0.000251
    38     0.000101
    39    -0.000052
    40    -0.000020
    41     0.000057
    42     0.000256
    43     0.000135
    44     0.000073
    45     0.000047
    46     0.000030
    47    -0.000029
    48     0.000004
    49    -0.000051
Sym=     7a
Ene=   -0.806554E+01
Spin= Alpha
Occup= 1.999447
     1    -0.003638
     2     0.011938
     3     0.001319
     4    -0.001638
     5    -0.275802
     6    -0.918897
     7     0.210683
     8     0.013288
     9     0.044120
    10    -0.009818
    11    -0.002086
    12    -0.006956
    13     0.001438
    14     0.000206
    15     0.000411
    16     0.000282
    17     0.000074
    18     0.000087
    19    -0.000294
    20     0.000205
    21     0.000493
    22     0.000465
    23    -0.000146
    24    -0.000482
    25    -0.000853
    26    -0.000822
    27    -0.000210
    28    -0.000120
    29    -0.000177
    30     0.000102
    31    -0.000114
    32    -0.000081
    33    -0.000092
    34     0.000075
    35     0.000032
    36    -0.000175
    37     0.001275
    38     0.000199
    39    -0.000426
    40     0.000780
    41    -0.000520
    42    -0.000679
    43     0.000187
    44     0.000023
    45    -0.000237
    46    -0.000236
    47     0.000021
    48    -0.000012
    49    -0.000140
Sym=     8a
Ene=   -0.147301E+01
Spin= Alpha
Occup= 1.990789
     1     0.002464
     2    -0.013605
     3     0.010862
     4     0.006832
     5     0.003886
     6     0.010995
     7    -0.001400
     8     0.006070
     9     0.014518
    10    -0.002545
    11     0.005473
    12     0.012578
    13    -0.003778
    14    -0.003849
    15     0.013667
    16    -0.004156
    17     0.003501
    18     0.000196
    19     0.001478
    20     0.291433
    21     0.609107
    22     0.390115
    23    -0.069813
    24     0.057880
    25     0.056939
    26    -0.058856
    27     0.035428
    28     0.038199
    29     0.019387
    30     0.012158
    31     0.008128
    32     0.005520
    33     0.001343
    34    -0.001330
    35     0.053840
    36     0.099512
    37    -0.005256
    38    -0.095686
    39    -0.014358
    40    -0.006642
    41    -0.005550
    42    -0.004422
    43    -0.010185
    44     0.016822
    45    -0.004915
    46    -0.004530
    47     0.001445
    48    -0.001380
    49    -0.001916
Sym=     9a
Ene=   -0.125275E+01
Spin= Alpha
Occup= 1.988776
     1    -0.001125
     2     0.006545
     3    -0.007938
     4    -0.001257
     5    -0.002261
     6    -0.006861
     7     0.000797
     8    -0.004233
     9    -0.010687
    10     0.001348
    11    -0.004536
    12    -0.012614
    13     0.002730
    14     0.001815
    15    -0.005754
    16     0.000530
    17    -0.000965
    18    -0.000434
    19    -0.000546
    20    -0.048043
    21    -0.115188
    22    -0.145188
    23     0.136707
    24    -0.032611
    25    -0.050862
    26     0.032498
    27    -0.019188
    28    -0.023743
    29     0.012230
    30    -0.010810
    31    -0.008426
    32    -0.003707
    33    -0.005308
    34    -0.001935
    35     0.284057
    36     0.593635
    37     0.412449
    38     0.107811
    39    -0.118788
    40    -0.116186
    41     0.065530
    42    -0.076192
    43    -0.073448
    44     0.013346
    45     0.012352
    46     0.010299
    47     0.006340
    48     0.004883
    49     0.000474
Sym=    10a
Ene=   -0.757184E+00
Spin= Alpha
Occup= 1.983256
     1     0.001319
     2    -0.008730
     3     0.014114
     4     0.006295
     5     0.005974
     6     0.016483
     7    -0.003080
     8     0.011239
     9     0.028751
    10    -0.005098
    11     0.015892
    12     0.045936
    13    -0.009066
    14    -0.002218
    15     0.003326
    16     0.000846
    17    -0.001537
    18     0.000559
    19    -0.000726
    20    -0.027277
    21    -0.062081
    22    -0.051994
    23    -0.034757
    24     0.071950
    25     0.083767
    26    -0.019882
    27     0.010681
    28     0.017096
    29    -0.007880
    30     0.004140
    31    -0.001217
    32     0.018844
    33     0.017658
    34     0.002064
    35     0.083197
    36     0.173873
    37     0.151264
    38     0.012725
    39     0.479897
    40     0.423490
    41    -0.007509
    42     0.315507
    43     0.281067
    44     0.002496
    45     0.000095
    46     0.004443
    47    -0.015974
    48    -0.014175
    49    -0.002519
Sym=    11a
Ene=   -0.107503E+01
Spin= Alpha
Occup= 1.983050
     1     0.084549
     2    -0.532481
     3     0.715616
     4     0.403700
     5     0.001427
     6    -0.006967
     7    -0.005964
     8     0.002009
     9    -0.012069
    10    -0.010508
    11     0.003053
    12    -0.018453
    13    -0.013104
    14     0.018120
    15     0.017503
    16     0.016970
    17     0.000959
    18     0.000612
    19     0.001069
    20    -0.021913
    21    -0.052533
    22    -0.042991
    23     0.009039
    24    -0.039421
    25    -0.014449
    26     0.012693
    27    -0.018951
    28    -0.008236
    29    -0.002975
    30     0.004353
    31    -0.002961
    32     0.001420
    33    -0.000304
    34     0.000157
    35     0.000544
    36     0.002114
    37     0.004840
    38     0.007223
    39     0.014012
    40     0.000349
    41     0.000299
    42     0.013095
    43     0.000730
    44    -0.001731
    45     0.000993
    46     0.000497
    47    -0.000215
    48     0.000402
    49     0.000210
Sym=    12a
Ene=   -0.648658E+00
Spin= Alpha
Occup= 1.978347
     1     0.007617
     2    -0.052054
     3     0.073552
     4     0.082867
     5    -0.026272
     6    -0.089727
     7     0.010456
     8    -0.043118
     9    -0.147749
    10     0.015016
    11    -0.046111
    12    -0.165532
    13     0.024096
    14     0.008736
    15    -0.026874
    16     0.011377
    17    -0.015344
    18     0.003055
    19     0.010910
    20    -0.025950
    21    -0.041341
    22    -0.080891
    23     0.001723
    24     0.472912
    25     0.409664
    26    -0.029286
    27     0.336000
    28     0.288142
    29     0.006803
    30    -0.008383
    31     0.003042
    32     0.005301
    33     0.005346
    34    -0.002975
    35     0.008729
    36     0.018492
    37     0.015212
    38    -0.034162
    39    -0.135211
    40    -0.113049
    41    -0.017277
    42    -0.143631
    43    -0.116763
    44     0.008512
    45    -0.004913
    46    -0.001588
    47    -0.010013
    48    -0.010841
    49    -0.001874
Sym=    13a
Ene=   -0.499105E+00
Spin= Alpha
Occup= 1.975421
     1    -0.002113
     2     0.013103
     3    -0.017741
     4    -0.007576
     5     0.040794
     6    -0.067575
     7    -0.260683
     8     0.071294
     9    -0.118008
    10    -0.453729
    11     0.099924
    12    -0.160896
    13    -0.629976
    14     0.001120
    15    -0.003581
    16    -0.001285
    17    -0.000600
    18    -0.002674
    19    -0.007748
    20     0.009992
    21     0.025179
    22     0.027775
    23    -0.010486
    24     0.033643
    25    -0.039273
    26    -0.008841
    27     0.023469
    28    -0.038418
    29     0.001078
    30    -0.001268
    31     0.002261
    32    -0.002008
    33     0.002262
    34     0.005495
    35    -0.002534
    36    -0.007283
    37    -0.003512
    38     0.007448
    39    -0.025653
    40     0.045661
    41     0.008309
    42    -0.026239
    43     0.040095
    44    -0.000192
    45    -0.000569
    46    -0.000761
    47     0.000066
    48    -0.000610
    49     0.000582
Sym=    14a
Ene=   -0.498089E+00
Spin= Alpha
Occup= 1.975410
     1    -0.000659
     2     0.004372
     3    -0.009000
     4     0.002788
     5     0.262350
     6    -0.063154
     7     0.056269
     8     0.454767
     9    -0.110191
    10     0.097309
    11     0.633095
    12    -0.149484
    13     0.135738
    14     0.003112
    15    -0.003311
    16    -0.000867
    17     0.006349
    18     0.001520
    19     0.001662
    20     0.002041
    21     0.000844
    22     0.023784
    23     0.001437
    24     0.000804
    25     0.014683
    26     0.020332
    27     0.005996
    28     0.011917
    29    -0.003661
    30     0.002847
    31    -0.000548
    32    -0.003164
    33     0.000062
    34    -0.001229
    35    -0.007692
    36    -0.021964
    37    -0.019884
    38     0.008382
    39     0.020190
    40    -0.002212
    41     0.014757
    42     0.011131
    43    -0.003703
    44    -0.002942
    45     0.000139
    46    -0.001796
    47    -0.000226
    48    -0.000325
    49    -0.000291
Sym=    15a
Ene=   -0.874446E+00
Spin= Alpha
Occup= 1.966581
     1    -0.001550
     2     0.010639
     3    -0.022056
     4    -0.004123
     5     0.008066
     6     0.005564
     7    -0.003398
     8     0.012805
     9     0.006260
    10    -0.006088
    11     0.026013
    12     0.003022
    13    -0.008875
    14    -0.005532
    15     0.007316
    16    -0.005307
    17    -0.000456
    18     0.000235
    19     0.001965
    20     0.003994
    21    -0.001266
    22     0.145488
    23    -0.501452
    24     0.005229
    25     0.060999
    26    -0.244869
    27     0.027510
    28     0.047521
    29    -0.037984
    30     0.011252
    31     0.012075
    32    -0.007016
    33    -0.001529
    34    -0.000046
    35     0.008675
    36     0.006886
    37     0.184637
    38     0.486417
    39    -0.010709
    40    -0.082054
    41     0.220593
    42    -0.030521
    43    -0.061254
    44    -0.038525
    45     0.010211
    46     0.011953
    47    -0.010538
    48     0.000212
    49     0.000539
Sym=    16a
Ene=   -0.723313E+00
Spin= Alpha
Occup= 1.953365
     1     0.003390
     2    -0.022908
     3     0.031920
     4     0.039301
     5     0.001006
     6    -0.020783
     7     0.018727
     8     0.003851
     9    -0.033594
    10     0.033392
    11     0.010547
    12    -0.018639
    13     0.049258
    14     0.000545
    15    -0.005255
    16     0.005086
    17    -0.007412
    18    -0.002423
    19    -0.007185
    20     0.000060
    21     0.004593
    22    -0.019405
    23    -0.046762
    24     0.268067
    25    -0.361733
    26    -0.033441
    27     0.182289
    28    -0.236486
    29    -0.004866
    30     0.004321
    31     0.003081
    32     0.023522
    33    -0.027148
    34    -0.002142
    35     0.000645
    36    -0.000500
    37     0.012196
    38    -0.051823
    39     0.301353
    40    -0.300836
    41    -0.038937
    42     0.192062
    43    -0.190785
    44     0.006203
    45    -0.007240
    46    -0.000421
    47    -0.022823
    48     0.027604
    49     0.004436
Sym=    17a
Ene=   -0.252115E+00
Spin= Alpha
Occup= 1.000000
     1     0.006242
     2    -0.041110
     3     0.067083
     4     0.033747
     5     0.069952
     6     0.242817
     7    -0.064415
     8     0.124036
     9     0.430199
    10    -0.115830
    11     0.169031
    12     0.587362
    13    -0.145647
    14     0.008325
    15    -0.012031
    16     0.009646
    17    -0.006204
    18     0.002185
    19     0.012073
    20    -0.055131
    21    -0.128015
    22    -0.169894
    23     0.050203
    24     0.159170
    25     0.225773
    26     0.032506
    27     0.136656
    28     0.174045
    29    -0.002246
    30     0.005095
    31    -0.007967
    32     0.011573
    33    -0.004168
    34    -0.003039
    35     0.003781
    36     0.010561
    37     0.004545
    38    -0.060991
    39     0.049325
    40    -0.211471
    41    -0.041399
    42     0.026003
    43    -0.176546
    44     0.004252
    45    -0.001006
    46    -0.000025
    47    -0.008330
    48    -0.000622
    49     0.000852
Sym=    18a
Ene=   -0.729329E-01
Spin= Alpha
Occup= 0.044678
     1     0.008429
     2    -0.063978
     3     0.136228
     4     0.004523
     5     0.032050
     6     0.111313
     7     0.023909
     8     0.070211
     9     0.243693
    10     0.050757
    11     0.031055
    12     0.105963
    13     0.026933
    14    -0.009986
    15    -0.051593
    16    -0.002000
    17    -0.015862
    18    -0.001522
    19    -0.006397
    20    -0.014990
    21    -0.037188
    22    -0.032226
    23    -0.048934
    24     0.483087
    25    -0.434283
    26    -0.003733
    27     0.105407
    28    -0.075649
    29     0.007639
    30     0.002588
    31     0.005908
    32    -0.004564
    33     0.009038
    34    -0.002179
    35    -0.000549
    36     0.000306
    37    -0.006625
    38     0.059486
    39    -0.437337
    40     0.453117
    41     0.010421
    42    -0.081710
    43     0.088706
    44     0.004637
    45    -0.002777
    46     0.000136
    47    -0.007263
    48     0.004691
    49     0.002916
Sym=    19a
Ene=   -0.572991E-01
Spin= Alpha
Occup= 0.030925
     1    -0.001575
     2     0.012708
     3    -0.028119
     4    -0.002332
     5     0.010393
     6    -0.012787
     7     0.000289
     8     0.024412
     9    -0.030050
    10     0.000253
    11     0.003681
    12    -0.009691
    13     0.001802
    14     0.000144
    15     0.014834
    16     0.002381
    17    -0.006887
    18     0.000272
    19     0.000678
    20    -0.149459
    21    -0.456321
    22    -0.147556
    23    -0.717318
    24    -0.106664
    25     0.001046
    26    -0.128010
    27    -0.037027
    28    -0.010220
    29     0.091049
    30     0.037863
    31     0.036266
    32     0.009496
    33     0.004013
    34    -0.023321
    35     0.145007
    36     0.436035
    37     0.152837
    38    -0.724268
    39    -0.115447
    40     0.013078
    41    -0.136890
    42    -0.031693
    43    -0.000487
    44    -0.082043
    45    -0.032339
    46    -0.036579
    47    -0.005750
    48    -0.001592
    49     0.024146
Sym=    20a
Ene=   -0.162194E-01
Spin= Alpha
Occup= 0.012914
     1     0.029702
     2    -0.296404
     3     0.844651
     4    -0.219669
     5     0.010081
     6     0.003753
     7    -0.017426
     8     0.035971
     9     0.019930
    10    -0.055676
    11    -0.046199
    12    -0.055377
    13     0.044896
    14    -1.007396
    15    -0.146847
    16     0.413176
    17     0.430173
    18     0.258531
    19     0.030936
    20    -0.007472
    21    -0.052407
    22     0.149604
    23    -0.012728
    24     0.043564
    25     0.002180
    26     0.064550
    27    -0.063801
    28    -0.010441
    29    -0.010764
    30     0.016018
    31    -0.005313
    32     0.007127
    33    -0.001000
    34    -0.006715
    35     0.009150
    36     0.045736
    37    -0.105117
    38     0.001520
    39    -0.013232
    40    -0.023776
    41     0.047452
    42     0.032368
    43     0.020611
    44    -0.005077
    45    -0.007501
    46    -0.002177
    47    -0.009603
    48     0.000739
    49    -0.001969
Sym=    21a
Ene=   -0.141680E-01
Spin= Alpha
Occup= 0.011280
     1     0.004967
     2    -0.047926
     3     0.146418
     4    -0.060833
     5    -0.056845
     6     0.057593
     7     0.311054
     8    -0.185541
     9     0.193108
    10     1.016720
    11     0.159139
    12    -0.181739
    13    -0.874571
    14    -0.130089
    15     0.170748
    16    -0.145209
    17    -0.120643
    18     0.189333
    19     0.479962
    20     0.003314
    21     0.016657
    22    -0.001727
    23     0.015426
    24    -0.012452
    25     0.006176
    26    -0.054167
    27    -0.000117
    28     0.041957
    29    -0.003330
    30     0.003335
    31    -0.010979
    32     0.004303
    33     0.003319
    34     0.008410
    35     0.000917
    36     0.004164
    37     0.029396
    38    -0.016463
    39     0.019397
    40    -0.022211
    41     0.000115
    42    -0.025517
    43     0.014419
    44     0.004334
    45    -0.001237
    46    -0.003546
    47    -0.000775
    48    -0.000176
    49     0.008632
Sym=    22a
Ene=   -0.192441E-01
Spin= Alpha
Occup= 0.012246
     1     0.033670
     2    -0.318123
     3     0.799740
     4     0.017589
     5     0.029717
     6     0.064784
     7    -0.030533
     8     0.082045
     9     0.180325
    10    -0.083709
    11     0.016891
    12     0.074957
    13     0.016255
    14    -0.115041
    15    -0.594064
    16     0.007278
    17    -0.181097
    18     0.161580
    19     0.111117
    20     0.237107
    21     1.019995
    22    -0.586378
    23    -0.073913
    24    -0.530811
    25    -0.394994
    26    -0.033031
    27     0.585145
    28     0.459451
    29    -0.178112
    30    -0.299624
    31    -0.192075
    32    -0.019806
    33     0.005022
    34    -0.001128
    35     0.043608
    36     0.165755
    37     0.050100
    38    -0.010198
    39    -0.083112
    40    -0.085725
    41    -0.056240
    42    -0.049490
    43    -0.033876
    44     0.005768
    45    -0.057036
    46    -0.041483
    47    -0.025266
    48    -0.058467
    49    -0.008600
Sym=    23a
Ene=   -0.201274E-01
Spin= Alpha
Occup= 0.009272
     1     0.120314
     2    -1.222759
     3     3.382165
     4    -0.607206
     5    -0.010041
     6    -0.032988
     7    -0.029366
     8    -0.029414
     9    -0.095173
    10    -0.097384
    11     0.008690
    12     0.024724
    13     0.088310
    14    -1.023547
    15    -0.824113
    16    -1.378473
    17     0.046376
    18    -0.321667
    19     0.092455
    20     0.007263
    21    -0.000634
    22     0.091440
    23    -0.011950
    24     0.023231
    25     0.026686
    26     0.000152
    27    -0.090095
    28    -0.043727
    29    -0.015669
    30    -0.002072
    31    -0.010676
    32     0.001463
    33    -0.007257
    34    -0.005972
    35     0.004300
    36     0.014263
    37    -0.009684
    38     0.001629
    39    -0.003028
    40    -0.012240
    41     0.002083
    42     0.012904
    43     0.026209
    44    -0.003981
    45    -0.005530
    46    -0.002426
    47    -0.001980
    48     0.004115
    49    -0.003300
Sym=    24a
Ene=   -0.180894E-01
Spin= Alpha
Occup= 0.011140
     1    -0.005043
     2     0.050728
     3    -0.145680
     4     0.034406
     5    -0.005595
     6     0.008070
     7     0.015451
     8    -0.025947
     9     0.026390
    10     0.051938
    11     0.043339
    12    -0.028142
    13    -0.046387
    14     0.008048
    15     0.124885
    16    -0.005956
    17     0.024556
    18    -0.055902
    19    -0.080453
    20    -0.074219
    21    -0.285597
    22    -0.008964
    23    -0.022431
    24    -0.113445
    25    -0.067068
    26    -0.029931
    27    -0.037209
    28    -0.071792
    29    -0.010081
    30     0.116558
    31     0.069478
    32     0.089331
    33     0.091876
    34     0.021864
    35    -0.321611
    36    -1.348692
    37     0.605743
    38    -0.073715
    39    -0.567353
    40    -0.500089
    41    -0.027885
    42     0.639685
    43     0.590597
    44     0.324478
    45     0.353911
    46     0.360036
    47    -0.028711
    48    -0.009211
    49    -0.025663
Sym=    25a
Ene=   -0.178926E-01
Spin= Alpha
Occup= 0.007355
     1    -0.014896
     2     0.155313
     3    -0.425052
     4     0.051369
     5    -0.015641
     6     0.026706
     7    -0.002363
     8    -0.065335
     9     0.086077
    10    -0.006730
    11     0.089733
    12    -0.079104
    13     0.004047
    14     0.108737
    15     0.310382
    16     0.012564
    17     0.097671
    18    -0.091345
    19    -0.037267
    20     0.000254
    21    -0.020069
    22     0.161383
    23     0.096671
    24    -0.023401
    25    -0.057992
    26     0.073115
    27    -0.026751
    28    -0.031103
    29    -0.025484
    30     0.099385
    31    -0.002733
    32     0.129220
    33     0.105423
    34     0.041034
    35     0.516482
    36     2.089448
    37    -0.749285
    38     0.269017
    39    -0.284170
    40    -0.311212
    41    -0.166786
    42     0.347025
    43     0.345814
    44    -0.602243
    45    -0.647994
    46    -0.642111
    47    -0.093701
    48    -0.076778
    49     0.018569
Sym=    26a
Ene=   -0.144995E-01
Spin= Alpha
Occup= 0.005344
     1     0.024699
     2    -0.263394
     3     0.707150
     4    -0.035317
     5    -0.021059
     6     0.002777
     7     0.091377
     8    -0.073254
     9     0.022151
    10     0.296366
    11     0.088722
    12    -0.027812
    13    -0.247566
    14    -0.207363
    15    -0.505649
    16    -0.055953
    17    -0.109508
    18    -0.004880
    19    -0.322160
    20    -0.505519
    21    -2.008712
    22     0.538211
    23     0.217723
    24    -0.314475
    25     0.028423
    26    -0.136180
    27     0.368145
    28     0.032292
    29     0.695281
    30     0.613609
    31     0.777225
    32    -0.082842
    33    -0.021756
    34     0.059635
    35     0.060415
    36     0.271243
    37    -0.205758
    38     0.145384
    39    -0.021254
    40     0.123585
    41     0.006221
    42    -0.047962
    43    -0.130543
    44    -0.110771
    45    -0.115608
    46    -0.090698
    47     0.004837
    48    -0.022083
    49    -0.004803
Sym=    27a
Ene=   -0.280888E-02
Spin= Alpha
Occup= 0.000278
     1    -0.001387
     2     0.016408
     3    -0.040333
     4    -0.004333
     5    -0.002966
     6     0.059352
     7     0.012575
     8    -0.017296
     9     0.199894
    10     0.046336
    11     0.039839
    12    -0.177193
    13    -0.051532
    14     0.023846
    15     0.043779
    16    -0.006267
    17     0.088841
    18    -0.051364
    19    -0.077817
    20    -0.006158
    21    -0.035151
    22     0.018424
    23     0.193300
    24    -0.071994
    25     0.037784
    26    -0.105587
    27     0.086008
    28    -0.017363
    29     0.607843
    30    -0.073632
    31    -0.359993
    32     0.104279
    33     0.036127
    34    -0.526119
    35    -0.081680
    36    -0.249563
    37    -0.125830
    38     0.270892
    39     0.011212
    40     0.024360
    41    -0.107599
    42    -0.003289
    43    -0.012958
    44    -0.205865
    45     0.230982
    46     0.309459
    47    -0.077272
    48    -0.043774
    49     0.593161
Sym=    28a
Ene=   -0.281709E-02
Spin= Alpha
Occup= 0.000282
     1    -0.002060
     2     0.025807
     3    -0.097055
     4     0.072344
     5    -0.021412
     6    -0.107549
     7     0.065775
     8    -0.070950
     9    -0.368274
    10     0.226587
    11     0.076927
    12     0.394692
    13    -0.226954
    14    -0.042815
    15     0.127517
    16     0.006626
    17     0.013378
    18    -0.042907
    19    -0.221114
    20     0.153739
    21     0.537569
    22     0.077473
    23     0.072825
    24    -0.092593
    25    -0.123338
    26    -0.006505
    27     0.236137
    28     0.193716
    29    -0.319298
    30     0.060760
    31    -0.655214
    32    -0.287501
    33    -0.067853
    34    -0.351833
    35     0.066013
    36     0.208721
    37     0.072521
    38    -0.051436
    39    -0.051086
    40     0.079085
    41     0.015171
    42     0.038598
    43    -0.117930
    44    -0.226557
    45     0.286065
    46    -0.431604
    47    -0.087813
    48    -0.040204
    49    -0.348166
Sym=    29a
Ene=   -0.242144E-02
Spin= Alpha
Occup= 0.000238
     1    -0.001312
     2     0.019681
     3    -0.064008
     4     0.030545
     5    -0.017390
     6    -0.062336
     7    -0.006814
     8    -0.058742
     9    -0.211457
    10    -0.027518
    11     0.066366
    12     0.237515
    13     0.038069
    14     0.029395
    15     0.033224
    16     0.031208
    17    -0.010458
    18     0.028826
    19     0.048484
    20    -0.003220
    21     0.026674
    22    -0.127023
    23    -0.059727
    24    -0.085024
    25     0.047813
    26     0.038345
    27     0.141064
    28    -0.052880
    29     0.004038
    30     0.563076
    31    -0.560794
    32    -0.188622
    33    -0.007066
    34     0.194378
    35    -0.016567
    36    -0.051316
    37    -0.042874
    38    -0.011654
    39    -0.100796
    40     0.097148
    41    -0.011163
    42     0.099420
    43    -0.101746
    44     0.163843
    45    -0.577966
    46     0.554747
    47     0.169765
    48    -0.082693
    49     0.018312
Sym=    30a
Ene=   -0.144719E-02
Spin= Alpha
Occup= 0.000118
     1     0.012138
     2    -0.165356
     3     0.477958
     4    -0.078455
     5     0.003888
     6     0.058394
     7    -0.036622
     8     0.010723
     9     0.229656
    10    -0.133428
    11    -0.033383
    12    -0.444503
    13     0.159791
    14    -0.092338
    15    -0.515860
    16    -0.095633
    17    -0.056311
    18     0.056439
    19     0.154161
    20     0.015949
    21     0.026004
    22     0.228170
    23     0.501594
    24     0.190400
    25     0.192352
    26    -0.562638
    27    -0.523666
    28    -0.394682
    29     0.265452
    30    -0.057934
    31    -0.172275
    32    -0.300624
    33    -0.077280
    34     0.085811
    35     0.198528
    36     0.662885
    37     0.610550
    38    -0.245563
    39     0.014445
    40    -0.155794
    41     0.352108
    42     0.163926
    43     0.336391
    44    -0.759159
    45    -0.427320
    46    -0.244229
    47    -0.556579
    48    -0.062515
    49    -0.087423
Sym=    31a
Ene=   -0.874569E-03
Spin= Alpha
Occup= 0.000042
     1    -0.008990
     2     0.125279
     3    -0.353195
     4     0.015802
     5    -0.006702
     6    -0.050269
     7     0.000011
     8    -0.027924
     9    -0.206939
    10    -0.002838
    11     0.055652
    12     0.356614
    13     0.007198
    14     0.093661
    15     0.354048
    16     0.091110
    17     0.044842
    18    -0.007634
    19    -0.004192
    20     0.050686
    21     0.168706
    22     0.048198
    23    -0.114718
    24    -0.171519
    25     0.033258
    26     0.213057
    27     0.323682
    28     0.072266
    29     0.024072
    30    -0.335716
    31    -0.093788
    32    -0.435821
    33     0.556884
    34     0.134979
    35    -0.096900
    36    -0.297745
    37    -0.388416
    38     0.118424
    39     0.097426
    40    -0.063777
    41    -0.132136
    42    -0.118912
    43    -0.034180
    44     0.404303
    45     0.101168
    46     0.210480
    47    -0.382481
    48     0.607365
    49     0.064855
Sym=    32a
Ene=   -0.553974E-03
Spin= Alpha
Occup= 0.000027
     1     0.005978
     2    -0.091550
     3     0.255091
     4    -0.017502
     5    -0.016970
     6     0.018850
     7    -0.003498
     8    -0.076942
     9     0.089326
    10    -0.013483
    11     0.100664
    12    -0.263965
    13     0.019523
    14    -0.047733
    15    -0.318811
    16    -0.081734
    17     0.001497
    18     0.005894
    19     0.013983
    20     0.084462
    21     0.274130
    22     0.786457
    23     0.229093
    24     0.083617
    25     0.032875
    26    -0.377176
    27    -0.240610
    28    -0.093940
    29    -0.613778
    30    -0.036322
    31    -0.089956
    32    -0.076052
    33    -0.064687
    34    -0.022835
    35    -0.382103
    36    -0.846320
    37    -1.712939
    38    -0.208933
    39    -0.061048
    40    -0.057221
    41     0.282845
    42     0.124893
    43     0.112983
    44     1.035602
    45     1.134264
    46     1.165598
    47    -0.038036
    48    -0.055152
    49    -0.112776
Sym=    33a
Ene=   -0.406835E-04
Spin= Alpha
Occup= 0.000000
     1    -0.028559
     2     0.511464
     3    -0.498194
     4    -2.422905
     5     0.009733
     6     0.049316
     7     0.008086
     8     0.066139
     9     0.292392
    10     0.039363
    11    -0.237069
    12    -0.896479
    13    -0.077784
    14     1.170015
    15     0.690221
    16     1.201925
    17    -0.180787
    18    -0.022583
    19    -0.052376
    20     0.053198
    21    -0.175052
    22     1.219975
    23     0.012682
    24     0.283376
    25    -0.146084
    26    -0.171627
    27    -1.135469
    28     0.381662
    29    -0.257650
    30    -0.149589
    31    -0.312537
    32    -0.037315
    33     0.083654
    34     0.022129
    35     0.007738
    36    -0.028482
    37     0.095632
    38     0.027808
    39    -0.120169
    40     0.156504
    41    -0.113899
    42     0.432715
    43    -0.385659
    44     0.071878
    45    -0.079652
    46    -0.083133
    47    -0.130487
    48     0.084823
    49     0.021995
Sym=    34a
Ene=   -0.467312E-02
Spin= Alpha
Occup= 0.001958
     1    -0.001192
     2     0.018630
     3    -0.044233
     4    -0.014078
     5     0.030587
     6     0.078107
     7    -0.078579
     8     0.105242
     9     0.258350
    10    -0.272971
    11    -0.101405
    12    -0.206935
    13     0.288379
    14     0.075212
    15     0.007921
    16     0.013128
    17    -0.018934
    18     0.091364
    19     0.336626
    20    -0.023729
    21    -0.160781
    22     0.109185
    23    -0.087125
    24    -0.158979
    25     0.393670
    26     0.183752
    27     0.088797
    28    -0.498208
    29    -0.071071
    30    -0.009431
    31     0.160324
    32    -0.110558
    33     0.313490
    34    -0.264261
    35     0.010288
    36    -0.012811
    37     0.007740
    38     0.178300
    39    -0.220960
    40     0.237617
    41    -0.256034
    42     0.256018
    43    -0.203668
    44    -0.214035
    45     0.037313
    46     0.086769
    47     0.106407
    48    -0.156127
    49    -0.244673
Sym=    35a
Ene=   -0.648156E-02
Spin= Alpha
Occup= 0.002495
     1     0.001615
     2    -0.016086
     3     0.010852
     4     0.080960
     5    -0.038415
     6    -0.088895
     7    -0.019853
     8    -0.136172
     9    -0.298220
    10    -0.070643
    11     0.156132
    12     0.315644
    13     0.080940
    14     0.052874
    15    -0.110200
    16     0.009950
    17     0.011460
    18     0.093144
    19     0.159955
    20     0.009375
    21     0.062968
    22    -0.131730
    23     0.007778
    24    -0.182295
    25     0.270988
    26     0.033565
    27     0.150424
    28    -0.210635
    29    -0.131821
    30     0.103963
    31    -0.006518
    32     0.389587
    33    -0.339070
    34    -0.080887
    35     0.005183
    36     0.019740
    37    -0.006970
    38     0.056357
    39    -0.282007
    40     0.275176
    41    -0.055898
    42     0.205006
    43    -0.168417
    44     0.094178
    45    -0.056361
    46    -0.058033
    47    -0.350248
    48     0.350829
    49     0.023930
Sym=    36a
Ene=   -0.155142E-01
Spin= Alpha
Occup= 0.011677
     1     0.001048
     2    -0.011206
     3     0.025147
     4     0.012034
     5    -0.367195
     6     0.090444
     7    -0.055962
     8    -1.191170
     9     0.291399
    10    -0.181667
    11     0.997658
    12    -0.230643
    13     0.152030
    14     0.066300
    15    -0.118811
    16     0.018462
    17     0.104804
    18     0.004697
    19    -0.037068
    20     0.009245
    21     0.016597
    22     0.036564
    23    -0.131324
    24     0.032036
    25    -0.041290
    26     0.127512
    27     0.015731
    28     0.022967
    29    -0.052464
    30     0.025011
    31    -0.005963
    32    -0.039860
    33     0.002764
    34    -0.000723
    35    -0.017248
    36    -0.077317
    37    -0.028889
    38     0.002890
    39     0.063383
    40    -0.021109
    41     0.000728
    42    -0.017945
    43     0.019617
    44    -0.005996
    45     0.034001
    46     0.004525
    47     0.000110
    48    -0.001047
    49    -0.009311
Sym=    37a
Ene=   -0.161327E-01
Spin= Alpha
Occup= 0.013299
     1     0.024033
     2    -0.238546
     3     0.685223
     4    -0.191556
     5     0.020450
     6     0.020934
     7    -0.017479
     8     0.070004
     9     0.073794
    10    -0.057298
    11    -0.073975
    12    -0.092579
    13     0.050637
    14     0.079936
    15    -0.050656
    16    -0.615141
    17     0.140150
    18     0.811775
    19    -0.299146
    20    -0.001445
    21    -0.017975
    22     0.064154
    23    -0.015151
    24     0.037362
    25     0.014399
    26     0.018667
    27    -0.055872
    28    -0.023987
    29    -0.010564
    30     0.018595
    31    -0.013169
    32     0.003340
    33     0.004141
    34     0.000201
    35     0.004934
    36     0.015882
    37    -0.015140
    38     0.003094
    39     0.006007
    40    -0.032730
    41     0.001839
    42    -0.000202
    43     0.035951
    44    -0.003305
    45    -0.009697
    46    -0.004857
    47    -0.008198
    48    -0.001684
    49    -0.002389
Sym=    38a
Ene=   -0.155649E-01
Spin= Alpha
Occup= 0.009406
     1    -0.017635
     2     0.172694
     3    -0.457535
     4     0.060250
     5     0.003485
     6    -0.050226
     7    -0.134352
     8     0.015211
     9    -0.148638
    10    -0.417196
    11    -0.019890
    12     0.082904
    13     0.284141
    14     0.169382
    15     0.303905
    16    -0.047281
    17     0.125327
    18     0.091676
    19     0.487492
    20    -0.276141
    21    -1.132502
    22     0.430914
    23     0.165559
    24    -0.059110
    25    -0.471582
    26    -0.109835
    27     0.177111
    28     0.522882
    29     0.278150
    30     0.353908
    31     0.270490
    32    -0.023437
    33    -0.067321
    34    -0.114911
    35    -0.020643
    36    -0.074805
    37    -0.033307
    38     0.031134
    39     0.129837
    40    -0.037479
    41     0.025787
    42    -0.181388
    43    -0.092361
    44    -0.019946
    45     0.021377
    46     0.014215
    47    -0.043515
    48    -0.008702
    49    -0.009875
Sym=    39a
Ene=   -0.122202E-01
Spin= Alpha
Occup= 0.007677
     1     0.001040
     2    -0.011549
     3     0.032792
     4    -0.009204
     5    -0.050673
     6     0.017712
     7    -0.099115
     8    -0.173994
     9     0.060364
    10    -0.324496
    11     0.173592
    12    -0.068964
    13     0.280066
    14    -0.494013
    15     0.467318
    16    -0.011130
    17    -0.729431
    18     0.142050
    19    -0.093526
    20    -0.005277
    21     0.010134
    22    -0.103334
    23     0.116017
    24    -0.004266
    25     0.017900
    26    -0.193833
    27    -0.024636
    28    -0.026736
    29     0.038492
    30    -0.017780
    31     0.000618
    32     0.037621
    33    -0.010239
    34    -0.016379
    35     0.005097
    36     0.031190
    37     0.099918
    38    -0.024771
    39    -0.029204
    40     0.047905
    41    -0.023088
    42     0.009249
    43    -0.048091
    44     0.001017
    45    -0.006178
    46    -0.005013
    47     0.004064
    48     0.006321
    49     0.010408
Sym=    40a
Ene=   -0.108094E-01
Spin= Alpha
Occup= 0.005604
     1     0.009358
     2    -0.100813
     3     0.278126
     4    -0.060645
     5    -0.019785
     6    -0.098569
     7    -0.018477
     8    -0.067440
     9    -0.323650
    10    -0.061082
    11     0.047690
    12     0.225795
    13     0.057716
    14    -0.004148
    15    -0.341642
    16     0.032720
    17    -0.136023
    18     0.129775
    19     0.166200
    20    -0.021096
    21    -0.106513
    22     0.062763
    23     0.009012
    24     0.247768
    25     0.099779
    26     0.021781
    27    -0.301415
    28    -0.151993
    29     0.144103
    30    -0.094597
    31     0.043073
    32    -0.231567
    33    -0.188904
    34    -0.074018
    35     0.105216
    36     0.426247
    37    -0.130575
    38     0.090174
    39    -0.153373
    40    -0.202557
    41    -0.077702
    42     0.348034
    43     0.332914
    44    -0.267794
    45    -0.012263
    46    -0.142727
    47     0.482083
    48     0.393727
    49     0.080309
Sym=    41a
Ene=   -0.921349E-02
Spin= Alpha
Occup= 0.003870
     1    -0.007242
     2     0.079811
     3    -0.206946
     4    -0.005942
     5     0.010828
     6     0.145414
     7    -0.015336
     8     0.023806
     9     0.480426
    10    -0.047440
    11     0.014999
    12    -0.424244
    13     0.035586
    14     0.085965
    15     0.176269
    16    -0.008340
    17     0.153654
    18    -0.079830
    19    -0.016423
    20    -0.055797
    21    -0.178049
    22     0.115891
    23    -0.012333
    24    -0.125417
    25     0.061335
    26    -0.142063
    27     0.080880
    28    -0.041625
    29     0.378784
    30    -0.063185
    31    -0.082071
    32     0.019592
    33    -0.083700
    34    -0.205812
    35    -0.011574
    36    -0.001139
    37    -0.083097
    38    -0.099512
    39    -0.032621
    40     0.008089
    41     0.254738
    42     0.039751
    43     0.020920
    44     0.519480
    45    -0.255901
    46    -0.194721
    47     0.177712
    48     0.202238
    49    -0.414367
Sym=    42a
Ene=   -0.921522E-02
Spin= Alpha
Occup= 0.003867
     1    -0.012363
     2     0.140439
     3    -0.371107
     4     0.016875
     5     0.062823
     6     0.197323
     7    -0.012288
     8     0.213468
     9     0.645240
    10    -0.038114
    11    -0.189525
    12    -0.503976
    13     0.026113
    14     0.049127
    15     0.432171
    16    -0.004037
    17     0.112224
    18    -0.124199
    19    -0.079334
    20     0.061082
    21     0.203447
    22     0.088857
    23    -0.041783
    24    -0.248320
    25     0.017833
    26     0.078987
    27     0.279890
    28     0.068747
    29    -0.333400
    30     0.062941
    31    -0.003667
    32    -0.302538
    33    -0.422875
    34     0.181781
    35     0.014479
    36     0.012882
    37     0.033069
    38    -0.041437
    39    -0.016884
    40     0.088075
    41    -0.052426
    42    -0.044432
    43    -0.049679
    44    -0.203052
    45     0.091580
    46     0.068230
    47     0.031026
    48     0.202632
    49     0.142487
Sym=    43a
Ene=   -0.273669E-02
Spin= Alpha
Occup= 0.000275
     1     0.006517
     2    -0.080599
     3     0.220994
     4     0.003077
     5     0.029839
     6     0.065732
     7    -0.052320
     8     0.107833
     9     0.234044
    10    -0.184548
    11    -0.121010
    12    -0.249611
    13     0.197434
    14    -0.038316
    15    -0.220054
    16    -0.036148
    17    -0.072962
    18     0.053643
    19     0.191100
    20    -0.173001
    21    -0.580528
    22    -0.200278
    23    -0.116699
    24     0.011829
    25     0.152661
    26     0.061130
    27    -0.096686
    28    -0.225356
    29     0.412616
    30     0.717514
    31    -0.073391
    32     0.032766
    33     0.131398
    34     0.354003
    35    -0.080789
    36    -0.260717
    37    -0.101443
    38     0.083183
    39     0.013495
    40    -0.015819
    41    -0.055410
    42    -0.010337
    43     0.045337
    44     0.300812
    45     0.591167
    46    -0.425402
    47     0.015581
    48    -0.000872
    49     0.171338
Sym=    44a
Ene=   -0.183026E-02
Spin= Alpha
Occup= 0.000179
     1     0.000015
     2     0.004255
     3    -0.004824
     4    -0.035439
     5     0.019566
     6    -0.015484
     7     0.001569
     8     0.080952
     9    -0.060181
    10     0.003672
    11    -0.137496
    12     0.061208
    13     0.007305
    14    -0.022621
    15     0.017024
    16     0.041274
    17    -0.137875
    18     0.019613
    19     0.028443
    20    -0.125266
    21    -0.474162
    22    -0.145059
    23    -0.394856
    24     0.134050
    25     0.025519
    26     0.589676
    27    -0.331895
    28    -0.217780
    29     0.467324
    30     0.062250
    31     0.224339
    32    -0.362513
    33    -0.471421
    34    -0.118373
    35    -0.114136
    36    -0.404180
    37    -0.377084
    38     0.356043
    39     0.041587
    40    -0.153176
    41    -0.383856
    42     0.170451
    43     0.345504
    44     0.462172
    45     0.054021
    46     0.186006
    47    -0.401632
    48    -0.380485
    49    -0.125646
Sym=    45a
Ene=   -0.209195E-02
Spin= Alpha
Occup= 0.000212
     1    -0.015179
     2     0.193602
     3    -0.555997
     4     0.057111
     5    -0.056622
     6    -0.099421
     7    -0.016800
     8    -0.217583
     9    -0.370189
    10    -0.063009
    11     0.296625
    12     0.490275
    13     0.076403
    14     0.205645
    15     0.452911
    16     0.080977
    17     0.225289
    18     0.018507
    19     0.078388
    20     0.128444
    21     0.530419
    22    -0.074381
    23     0.138445
    24    -0.186869
    25     0.073760
    26    -0.210207
    27     0.325129
    28    -0.091584
    29    -0.027794
    30    -0.666704
    31    -0.111778
    32    -0.245669
    33    -0.180609
    34     0.289779
    35    -0.020296
    36    -0.032395
    37    -0.030864
    38    -0.081126
    39    -0.290335
    40     0.241185
    41     0.087897
    42     0.349899
    43    -0.238131
    44     0.206110
    45     0.125579
    46    -0.160239
    47     0.028097
    48    -0.360793
    49     0.166727
Sym=    46a
Ene=   -0.144541E-02
Spin= Alpha
Occup= 0.000116
     1     0.003308
     2    -0.044051
     3     0.120364
     4    -0.006488
     5     0.006417
     6     0.001005
     7    -0.003969
     8     0.025935
     9     0.007031
    10    -0.013379
    11    -0.042273
    12    -0.050970
    13     0.016440
    14    -0.031912
    15    -0.130866
    16    -0.023058
    17    -0.055672
    18     0.014367
    19     0.025439
    20     0.023681
    21     0.090390
    22     0.137658
    23    -0.153604
    24    -0.000590
    25     0.072129
    26    -0.072030
    27    -0.121660
    28    -0.133680
    29    -0.782246
    30     0.180142
    31     0.217657
    32    -0.345280
    33     0.057831
    34    -0.364109
    35     0.052720
    36     0.178592
    37     0.103375
    38    -0.439061
    39    -0.053380
    40    -0.047722
    41     0.271460
    42     0.077448
    43     0.102467
    44     0.635797
    45    -0.344229
    46    -0.385010
    47     0.001886
    48    -0.092756
    49     0.411795
Sym=    47a
Ene=   -0.449608E-03
Spin= Alpha
Occup= 0.000022
     1    -0.020645
     2     0.321921
     3    -0.823746
     4    -0.204530
     5    -0.017084
     6    -0.043148
     7     0.003156
     8    -0.083143
     9    -0.207698
    10     0.013340
    11     0.208482
    12     0.542849
    13    -0.021080
    14     0.451689
    15     0.752308
    16     0.386075
    17     0.156039
    18    -0.022792
    19    -0.013949
    20    -0.337775
    21    -0.554756
    22    -2.139261
    23     0.152475
    24    -0.060335
    25    -0.020979
    26    -0.284220
    27     0.310284
    28     0.066043
    29     0.956183
    30     1.022030
    31     1.170648
    32    -0.100469
    33     0.045290
    34    -0.090529
    35    -0.007258
    36     0.078600
    37     0.367392
    38    -0.176291
    39    -0.054457
    40     0.036180
    41     0.166972
    42    -0.010724
    43    -0.077887
    44    -0.306159
    45     0.184629
    46     0.202739
    47    -0.062411
    48     0.039136
    49    -0.033615
Sym=    48a
Ene=   -0.260947E-03
Spin= Alpha
Occup= 0.000014
     1    -0.026624
     2     0.459785
     3    -0.809073
     4    -1.221529
     5     0.003387
     6    -0.012180
     7    -0.015870
     8     0.011897
     9    -0.053805
    10    -0.074459
    11     0.016306
    12     0.161668
    13     0.140673
    14     0.843096
    15     0.891603
    16     0.853289
    17     0.012177
    18     0.018570
    19     0.089459
    20     0.060344
    21     0.122862
    22     0.295935
    23     0.020544
    24    -0.241903
    25     0.251749
    26    -0.112693
    27     0.610789
    28    -0.659400
    29    -0.227216
    30    -0.131363
    31    -0.192394
    32     0.175778
    33    -0.174617
    34    -0.023118
    35     0.001654
    36    -0.036444
    37     0.052778
    38    -0.014540
    39     0.292386
    40    -0.293694
    41     0.015750
    42    -0.709363
    43     0.687337
    44    -0.012435
    45     0.023976
    46    -0.040073
    47     0.168546
    48    -0.170428
    49    -0.036432
Sym=    49a
Ene=   -0.154212E-04
Spin= Alpha
Occup= 0.000000
     1    -0.000034
     2    -0.004479
     3     0.005246
     4     0.022410
     5     0.005665
     6    -0.013779
     7    -0.001387
     8     0.045802
     9    -0.054552
    10    -0.004190
    11    -0.183037
    12     0.068596
    13     0.002341
    14    -0.045068
    15     0.015017
    16    -0.023596
    17    -0.162867
    18     0.003647
    19     0.010000
    20     0.024736
    21    -0.557176
    22     4.823487
    23    -0.111400
    24    -0.004544
    25    -0.001784
    26     3.149731
    27     0.488840
    28     0.007190
    29     0.347237
    30    -0.393498
    31    -0.420417
    32     0.148751
    33     0.007330
    34     0.000371
    35    -0.021867
    36     0.561423
    37    -4.801918
    38    -0.138808
    39    -0.019501
    40     0.003693
    41     3.160486
    42     0.516784
    43    -0.011776
    44    -0.381312
    45     0.403063
    46     0.417930
    47    -0.147914
    48    -0.005371
    49     0.015136
