[Molden Format]
p30-5 set                                                                       
[Atoms] AU
 H        1     1        2.0390       -2.6112        0.0000
 N        2     7        0.1772       -2.1352        0.0000
 N        3     7        0.0000        0.2099        0.0000
 N        4     7       -0.4685        2.2983        0.0000
[GTO]
    1 0
s    3 1.00
      13.010701000000  0.334854848130E-01
       1.962257200000  0.234721870881E+00
       0.444537960000  0.813770285260E+00
s    1 1.00
       0.121949620000  0.100000000000E+01
p    1 1.00
       0.800000000000  0.100000000000E+01

    2 0
s    5 1.00
    1712.841585300000 -0.544779958049E-02
     257.648126770000 -0.406271746324E-01
      58.458245853000 -0.181119622506E+00
      16.198367905000 -0.468439755632E+00
       5.005260080900 -0.446168462892E+00
s    1 1.00
       0.587318565710  0.100000000000E+01
s    1 1.00
       0.187645922530  0.100000000000E+01
p    3 1.00
      13.571470233000 -0.588481169695E-01
       2.925737287400 -0.320246247625E+00
       0.799277507540 -0.753282265204E+00
p    1 1.00
       0.219543480340  0.100000000000E+01
d    1 1.00
       1.000000000000  0.100000000000E+01

    3 0
s    5 1.00
    1712.841585300000 -0.544779958049E-02
     257.648126770000 -0.406271746324E-01
      58.458245853000 -0.181119622506E+00
      16.198367905000 -0.468439755632E+00
       5.005260080900 -0.446168462892E+00
s    1 1.00
       0.587318565710  0.100000000000E+01
s    1 1.00
       0.187645922530  0.100000000000E+01
p    3 1.00
      13.571470233000 -0.588481169695E-01
       2.925737287400 -0.320246247625E+00
       0.799277507540 -0.753282265204E+00
p    1 1.00
       0.219543480340  0.100000000000E+01
d    1 1.00
       1.000000000000  0.100000000000E+01

    4 0
s    5 1.00
    1712.841585300000 -0.544779958049E-02
     257.648126770000 -0.406271746324E-01
      58.458245853000 -0.181119622506E+00
      16.198367905000 -0.468439755632E+00
       5.005260080900 -0.446168462892E+00
s    1 1.00
       0.587318565710  0.100000000000E+01
s    1 1.00
       0.187645922530  0.100000000000E+01
p    3 1.00
      13.571470233000 -0.588481169695E-01
       2.925737287400 -0.320246247625E+00
       0.799277507540 -0.753282265204E+00
p    1 1.00
       0.219543480340  0.100000000000E+01
d    1 1.00
       1.000000000000  0.100000000000E+01

[MO]
Sym=     1a
Ene=   -0.156638E+02
Spin= Alpha
Occup= 1.999908
     1     0.001673
     2    -0.002775
     3    -0.001435
     4     0.000117
     5     0.000006
     6     0.686259
     7    -0.029238
     8     0.017017
     9     0.001527
    10     0.001112
    11    -0.000057
    12     0.001128
    13     0.004475
    14     0.000054
    15     0.001438
    16     0.001803
    17     0.002184
    18     0.000373
    19     0.000003
    20    -0.000000
    21     0.287639
    22    -0.009607
    23    -0.008812
    24     0.000244
    25    -0.000172
    26    -0.000045
    27    -0.000210
    28     0.003099
    29     0.000045
    30     0.001634
    31     0.003124
    32     0.001555
    33    -0.000171
    34     0.000002
    35    -0.000002
    36     0.651113
    37    -0.026885
    38     0.010022
    39     0.000568
    40    -0.002147
    41    -0.000008
    42     0.000439
    43    -0.002085
    44    -0.000012
    45     0.002431
    46     0.000876
    47     0.002444
    48     0.000461
    49    -0.000004
    50    -0.000016
Sym=     2a
Ene=   -0.157085E+02
Spin= Alpha
Occup= 1.999896
     1    -0.002883
     2     0.000868
     3     0.001876
     4    -0.000529
     5    -0.000005
     6    -0.630856
     7     0.027494
     8    -0.003302
     9    -0.001208
    10    -0.003852
    11     0.000052
    12     0.000687
    13     0.002588
    14    -0.000066
    15    -0.000655
    16     0.001048
    17    -0.002101
    18    -0.000490
    19     0.000000
    20     0.000004
    21     0.664341
    22    -0.027552
    23     0.016597
    24     0.000116
    25    -0.001777
    26     0.000047
    27    -0.002796
    28     0.013346
    29    -0.000021
    30     0.002568
    31    -0.001890
    32     0.002756
    33     0.000575
    34    -0.000002
    35    -0.000000
    36     0.371761
    37    -0.013479
    38    -0.011490
    39    -0.000306
    40     0.001410
    41    -0.000008
    42    -0.001529
    43     0.005862
    44     0.000010
    45     0.001488
    46     0.001889
    47     0.001338
    48    -0.000208
    49     0.000004
    50     0.000001
Sym=     3a
Ene=   -0.157270E+02
Spin= Alpha
Occup= 1.999880
     1    -0.001279
     2     0.001208
     3     0.000442
     4     0.000143
     5    -0.000003
     6    -0.329588
     7     0.013293
     8     0.010116
     9    -0.000705
    10     0.001201
    11     0.000028
    12    -0.000255
    13     0.005994
    14    -0.000015
    15    -0.000857
    16    -0.002367
    17    -0.001296
    18    -0.000113
    19     0.000009
    20    -0.000000
    21    -0.673370
    22     0.029768
    23    -0.012627
    24     0.000676
    25    -0.002406
    26     0.000003
    27    -0.002346
    28     0.016438
    29     0.000025
    30    -0.002506
    31     0.001058
    32    -0.002688
    33    -0.000985
    34     0.000002
    35     0.000029
    36     0.644543
    37    -0.029415
    38    -0.000186
    39     0.001108
    40    -0.005020
    41    -0.000031
    42    -0.001366
    43     0.003999
    44     0.000024
    45     0.002107
    46    -0.000540
    47     0.002154
    48     0.000827
    49     0.000008
    50    -0.000008
Sym=     4a
Ene=   -0.124340E+01
Spin= Alpha
Occup= 1.988776
     1    -0.002403
     2     0.001016
     3     0.000196
     4     0.000745
     5     0.000014
     6    -0.007775
     7    -0.016299
     8    -0.051623
     9    -0.003616
    10    -0.003508
    11     0.000294
    12     0.001879
    13    -0.016929
    14    -0.000134
    15    -0.000897
    16    -0.003326
    17    -0.000148
    18     0.000438
    19     0.000014
    20    -0.000033
    21     0.101534
    22     0.183652
    23     0.001087
    24     0.026457
    25    -0.146929
    26     0.000477
    27     0.009706
    28    -0.038972
    29    -0.000200
    30    -0.001275
    31     0.022890
    32    -0.003499
    33    -0.006270
    34    -0.000077
    35     0.000033
    36     0.277671
    37     0.557964
    38     0.399984
    39     0.005144
    40    -0.040700
    41     0.000282
    42    -0.007328
    43     0.047420
    44     0.000084
    45     0.013128
    46     0.023932
    47     0.012462
    48    -0.003334
    49    -0.000042
    50     0.000071
Sym=     5a
Ene=   -0.122038E+01
Spin= Alpha
Occup= 1.987949
     1     0.079122
     2    -0.013336
     3    -0.012826
     4     0.000183
     5    -0.000501
     6     0.256627
     7     0.513099
     8     0.303080
     9     0.108529
    10    -0.012357
    11     0.012024
    12    -0.099062
    13    -0.046290
    14    -0.009037
    15     0.012740
    16     0.026848
    17     0.012026
    18    -0.011269
    19    -0.000249
    20    -0.000794
    21     0.106464
    22     0.212978
    23     0.047364
    24     0.041419
    25     0.176019
    26     0.007086
    27    -0.028929
    28    -0.025710
    29    -0.004345
    30    -0.002990
    31     0.027727
    32    -0.000587
    33     0.004908
    34    -0.000128
    35     0.000849
    36    -0.011967
    37    -0.027518
    38    -0.032637
    39    -0.020837
    40     0.000084
    41    -0.001820
    42     0.028733
    43     0.011023
    44     0.003076
    45    -0.000761
    46    -0.001857
    47    -0.000334
    48     0.002341
    49    -0.000057
    50     0.000194
Sym=     6a
Ene=   -0.652643E+00
Spin= Alpha
Occup= 1.981979
     1    -0.001830
     2     0.000877
     3     0.000470
     4     0.001411
     5    -0.017758
     6    -0.010914
     7    -0.023367
     8    -0.035281
     9    -0.020760
    10    -0.032248
    11     0.436448
    12     0.013971
    13     0.014037
    14    -0.306001
    15    -0.001720
    16     0.000918
    17    -0.001982
    18     0.002629
    19    -0.008530
    20    -0.034054
    21     0.014107
    22     0.031326
    23     0.016666
    24    -0.031105
    25     0.012530
    26     0.409851
    27     0.019304
    28    -0.008927
    29    -0.242778
    30     0.000813
    31     0.002495
    32     0.000664
    33    -0.000909
    34    -0.001318
    35     0.022015
    36    -0.003956
    37    -0.009236
    38    -0.002577
    39    -0.010275
    40     0.000638
    41     0.083182
    42     0.002530
    43    -0.003275
    44     0.023222
    45     0.000328
    46    -0.001105
    47    -0.000354
    48    -0.001563
    49    -0.004778
    50     0.020936
Sym=     7a
Ene=   -0.903666E+00
Spin= Alpha
Occup= 1.977469
     1    -0.002005
     2    -0.004814
     3    -0.000362
     4     0.000612
     5    -0.000223
     6     0.032501
     7     0.071634
     8    -0.003378
     9     0.012487
    10    -0.048327
    11     0.006495
    12    -0.010231
    13     0.005927
    14    -0.003464
    15     0.000883
    16     0.009116
    17     0.000536
    18    -0.000183
    19    -0.000089
    20    -0.000726
    21    -0.169610
    22    -0.368529
    23    -0.176739
    24    -0.043578
    25     0.317896
    26     0.011699
    27     0.016608
    28    -0.146615
    29    -0.006574
    30    -0.006088
    31    -0.025563
    32    -0.003768
    33     0.005936
    34     0.000080
    35    -0.000034
    36     0.054100
    37     0.129574
    38     0.406525
    39     0.112160
    40    -0.470876
    41     0.006886
    42    -0.032390
    43     0.143452
    44    -0.003016
    45     0.019091
    46    -0.024622
    47     0.022247
    48     0.013384
    49    -0.000203
    50     0.000834
Sym=     8a
Ene=   -0.739733E+00
Spin= Alpha
Occup= 1.974410
     1     0.416874
     2     0.095361
     3    -0.030701
     4     0.018324
     5     0.000483
     6     0.042088
     7     0.073896
     8    -0.094619
     9    -0.464869
    10     0.055172
    11    -0.011387
    12     0.232341
    13     0.008433
    14     0.008794
    15     0.026002
    16    -0.011564
    17    -0.005697
    18     0.015806
    19     0.000256
    20     0.000703
    21    -0.028039
    22    -0.066832
    23    -0.042125
    24    -0.107134
    25    -0.077012
    26    -0.005233
    27     0.068396
    28    -0.019378
    29     0.003343
    30     0.005395
    31    -0.008005
    32    -0.002783
    33    -0.028231
    34     0.000113
    35    -0.000867
    36     0.007800
    37     0.020883
    38     0.047344
    39     0.059846
    40     0.023953
    41     0.003035
    42    -0.072658
    43    -0.040321
    44    -0.003728
    45     0.001014
    46     0.000703
    47     0.000822
    48    -0.000710
    49    -0.000035
    50    -0.000092
Sym=     9a
Ene=   -0.807025E+00
Spin= Alpha
Occup= 1.974047
     1     0.063675
     2    -0.003947
     3    -0.008978
     4    -0.014017
     5    -0.001831
     6     0.070271
     7     0.150014
     8     0.356010
     9     0.129166
    10     0.410055
    11     0.044384
    12    -0.119322
    13    -0.151154
    14    -0.032308
    15     0.020220
    16    -0.021070
    17     0.019958
    18    -0.018589
    19    -0.000892
    20    -0.003214
    21    -0.151318
    22    -0.336348
    23    -0.150786
    24     0.143311
    25    -0.308723
    26     0.032580
    27    -0.092706
    28     0.178682
    29    -0.019417
    30    -0.010441
    31    -0.026208
    32    -0.006787
    33     0.014737
    34    -0.000254
    35     0.002887
    36     0.032594
    37     0.075212
    38    -0.072281
    39    -0.044523
    40     0.068061
    41    -0.000370
    42     0.040539
    43     0.017611
    44     0.007662
    45    -0.001244
    46     0.011082
    47    -0.001269
    48    -0.001988
    49    -0.000269
    50     0.001307
Sym=    10a
Ene=   -0.635266E+00
Spin= Alpha
Occup= 1.961345
     1     0.064502
     2     0.042823
     3     0.000468
     4     0.004240
     5     0.000672
     6    -0.021327
     7    -0.042372
     8    -0.139983
     9    -0.062372
    10    -0.051809
    11    -0.013902
    12     0.099651
    13     0.018899
    14     0.017292
    15     0.003870
    16    -0.000799
    17    -0.004444
    18    -0.011921
    19     0.000415
    20    -0.000418
    21     0.004297
    22     0.014595
    23    -0.006727
    24     0.452708
    25     0.081542
    26     0.037209
    27    -0.261535
    28    -0.092144
    29    -0.019956
    30     0.013296
    31    -0.011799
    32    -0.000656
    33    -0.033039
    34     0.000825
    35    -0.004405
    36     0.002803
    37     0.009379
    38     0.019619
    39     0.407058
    40     0.115792
    41     0.049878
    42    -0.233248
    43    -0.073263
    44    -0.031902
    45    -0.016228
    46     0.018478
    47    -0.000042
    48     0.038354
    49    -0.001029
    50     0.004008
Sym=    11a
Ene=   -0.497244E+00
Spin= Alpha
Occup= 1.961037
     1     0.008660
     2     0.005056
     3    -0.000041
     4     0.000804
     5    -0.013754
     6    -0.004309
     7    -0.008849
     8    -0.022794
     9    -0.013308
    10    -0.011702
    11     0.307738
    12     0.014177
    13     0.004585
    14    -0.299645
    15     0.000245
    16     0.000079
    17    -0.000935
    18    -0.000602
    19    -0.007704
    20    -0.007025
    21     0.000079
    22     0.000686
    23    -0.001110
    24     0.038784
    25     0.013792
    26    -0.248924
    27    -0.022253
    28    -0.013769
    29     0.127249
    30     0.001400
    31    -0.001189
    32     0.000000
    33    -0.003610
    34    -0.009627
    35     0.054188
    36     0.000425
    37     0.001269
    38     0.008987
    39     0.040994
    40     0.005020
    41    -0.492854
    42    -0.023731
    43    -0.006709
    44     0.341639
    45    -0.001325
    46     0.001315
    47     0.000279
    48     0.003725
    49     0.008261
    50    -0.035015
Sym=    12a
Ene=   -0.539700E-01
Spin= Alpha
Occup= 0.036046
     1    -0.013320
     2    -0.000365
     3     0.001255
     4    -0.000812
     5     0.018407
     6     0.003125
     7     0.010145
     8     0.005212
     9     0.019058
    10     0.018246
    11    -0.451656
    12    -0.001792
    13    -0.001968
    14     0.103438
    15    -0.002929
    16    -0.000924
    17    -0.000213
    18     0.003523
    19     0.006840
    20    -0.038921
    21     0.003864
    22     0.012515
    23     0.002044
    24    -0.057842
    25    -0.012035
    26     0.619910
    27     0.011045
    28     0.002355
    29    -0.162073
    30     0.000607
    31    -0.003077
    32    -0.000664
    33    -0.000529
    34    -0.000497
    35    -0.011406
    36    -0.001964
    37    -0.007141
    38     0.001030
    39     0.066960
    40     0.005938
    41    -0.627644
    42    -0.012271
    43    -0.003051
    44     0.095676
    45     0.002581
    46    -0.000545
    47    -0.000231
    48    -0.002468
    49    -0.010648
    50     0.046478
Sym=    13a
Ene=   -0.517798E-01
Spin= Alpha
Occup= 0.035014
     1    -0.134181
     2     0.002855
     3     0.014110
     4    -0.001312
     5    -0.001491
     6     0.059261
     7     0.192218
     8     0.041781
     9     0.211212
    10     0.050899
    11     0.040066
    12    -0.019474
    13    -0.007372
    14    -0.009936
    15    -0.034011
    16    -0.018908
    17    -0.012467
    18     0.041867
    19    -0.000470
    20     0.002427
    21    -0.020142
    22    -0.075833
    23    -0.032117
    24    -0.662052
    25    -0.152021
    26    -0.064880
    27     0.080671
    28    -0.017480
    29     0.009311
    30     0.019031
    31     0.000819
    32     0.005476
    33    -0.019153
    34    -0.000936
    35     0.001177
    36     0.008898
    37     0.033645
    38     0.036977
    39     0.647984
    40     0.171138
    41     0.056329
    42    -0.133896
    43    -0.046491
    44    -0.010234
    45     0.000616
    46    -0.007661
    47    -0.003162
    48    -0.013280
    49     0.000793
    50    -0.002782
Sym=    14a
Ene=   -0.415595E-01
Spin= Alpha
Occup= 0.024136
     1    -0.021312
     2    -0.012760
     3    -0.004676
     4    -0.031242
     5    -0.000147
     6    -0.171504
     7    -0.569172
     8     0.089392
     9    -0.063055
    10     0.759346
    11     0.011038
    12     0.033748
    13    -0.100386
    14     0.000579
    15     0.042273
    16     0.131689
    17     0.040751
    18    -0.018765
    19    -0.000585
    20     0.002624
    21     0.282112
    22     1.009575
    23     0.102437
    24    -0.090737
    25     0.551814
    26    -0.012496
    27    -0.057132
    28     0.215453
    29     0.000814
    30    -0.119128
    31    -0.206214
    32    -0.121553
    33    -0.008376
    34     0.000707
    35    -0.005171
    36    -0.047730
    37    -0.169515
    38    -0.132685
    39     0.057811
    40    -0.141932
    41     0.007506
    42    -0.018282
    43     0.046616
    44    -0.003130
    45     0.029554
    46     0.019490
    47     0.034458
    48     0.016753
    49    -0.000273
    50     0.000261
Sym=    15a
Ene=   -0.646825E-02
Spin= Alpha
Occup= 0.003387
     1     0.223634
     2     0.020170
     3    -0.028247
     4     0.150867
     5     0.218490
     6    -0.016292
     7    -0.010284
     8    -0.629681
     9    -0.223627
    10     0.137820
    11     0.048602
    12    -0.520088
    13    -0.068644
    14    -0.016398
    15     0.549219
    16    -0.148147
    17    -0.294840
    18     0.144301
    19     0.544776
    20    -0.015779
    21     0.018995
    22     0.071130
    23     0.010793
    24    -0.056578
    25     0.073587
    26    -0.048500
    27     0.138513
    28    -0.471349
    29    -0.042875
    30     0.098028
    31    -0.038388
    32    -0.120624
    33     0.023921
    34     0.129714
    35     0.053344
    36     0.022455
    37     0.129852
    38     0.327022
    39     0.006085
    40     0.061490
    41    -0.005233
    42     0.047255
    43    -0.131182
    44     0.004163
    45    -0.022960
    46    -0.008825
    47    -0.029826
    48     0.000557
    49     0.006270
    50     0.005430
Sym=    16a
Ene=   -0.322974E-01
Spin= Alpha
Occup= 0.017473
     1     0.001020
     2     0.001400
     3     0.002814
     4     0.004467
     5    -0.000510
     6     0.036639
     7     0.120000
     8    -0.056091
     9    -0.010564
    10    -0.080696
    11     0.001792
    12    -0.021888
    13     0.026083
    14    -0.002108
    15    -0.000143
    16    -0.061205
    17    -0.001499
    18    -0.004754
    19    -0.000572
    20    -0.000145
    21     0.238661
    22     0.922511
    23    -0.026260
    24     0.160221
    25    -0.848223
    26    -0.008248
    27     0.025355
    28    -0.162217
    29    -0.001252
    30    -0.144114
    31    -0.131346
    32    -0.140108
    33     0.007132
    34    -0.000072
    35     0.001914
    36    -0.218332
    37    -0.803258
    38     0.057445
    39     0.198683
    40    -0.798055
    41     0.005039
    42    -0.019279
    43     0.074523
    44    -0.002053
    45     0.102204
    46     0.170666
    47     0.066159
    48    -0.023955
    49     0.000609
    50    -0.002534
Sym=    17a
Ene=   -0.949559E-02
Spin= Alpha
Occup= 0.006158
     1     0.006957
     2     0.001936
     3    -0.001844
     4     0.007176
     5     0.042446
     6    -0.007452
     7    -0.038339
     8    -0.007603
     9     0.035603
    10    -0.034367
    11     0.787678
    12     0.000277
    13    -0.059507
    14     0.643542
    15    -0.004651
    16     0.049212
    17    -0.013006
    18     0.054592
    19     0.007978
    20     0.165980
    21     0.047433
    22     0.222118
    23    -0.101285
    24     0.027907
    25    -0.005416
    26     0.454968
    27     0.045745
    28    -0.060257
    29     0.411675
    30    -0.068584
    31    -0.050676
    32    -0.087819
    33    -0.082560
    34     0.060081
    35    -0.336327
    36    -0.023285
    37    -0.103257
    38     0.105491
    39    -0.005936
    40     0.032736
    41    -0.150607
    42     0.009551
    43     0.022558
    44    -0.145237
    45     0.006846
    46     0.065747
    47     0.024201
    48     0.016848
    49    -0.021344
    50     0.096135
Sym=    18a
Ene=   -0.145440E-01
Spin= Alpha
Occup= 0.005818
     1     0.249294
     2     0.143395
     3    -0.084352
     4     0.042957
     5     0.004247
     6     0.578938
     7     2.567490
     8    -1.206811
     9     0.418403
    10     0.195648
    11    -0.016430
    12     0.208091
    13    -0.003768
    14    -0.004565
    15    -0.741430
    16    -0.661355
    17    -0.907469
    18    -0.039534
    19     0.009692
    20    -0.024165
    21     0.186339
    22     0.830216
    23     0.117040
    24     0.066902
    25     0.125390
    26    -0.000668
    27     0.042313
    28     0.040176
    29    -0.002294
    30    -0.255156
    31    -0.030636
    32    -0.373269
    33    -0.050642
    34     0.006775
    35     0.046033
    36    -0.055911
    37    -0.275257
    38    -0.002609
    39    -0.069548
    40     0.031517
    41     0.013520
    42    -0.103216
    43     0.127560
    44     0.001161
    45     0.063064
    46     0.083394
    47     0.061210
    48    -0.007313
    49     0.003492
    50    -0.022610
Sym=    19a
Ene=   -0.168929E-01
Spin= Alpha
Occup= 0.006720
     1    -0.015558
     2    -0.017572
     3     0.000775
     4    -0.007625
     5     0.004422
     6     0.012482
     7     0.072997
     8     0.190293
     9    -0.031715
    10    -0.085735
    11     0.009020
    12     0.003638
    13     0.084588
    14     0.009877
    15     0.003278
    16     0.039334
    17    -0.021974
    18    -0.026217
    19     0.004191
    20    -0.007772
    21    -0.122634
    22    -0.550027
    23    -0.043100
    24    -0.039821
    25     0.082089
    26     0.015639
    27    -0.060129
    28     0.258543
    29     0.012424
    30     0.187100
    31    -0.075917
    32     0.210971
    33     0.098224
    34    -0.016067
    35     0.012973
    36    -0.659583
    37    -2.860650
    38     0.886203
    39    -0.076069
    40     0.346120
    41     0.012285
    42    -0.051652
    43     0.165207
    44     0.005809
    45     0.888912
    46     0.748172
    47     0.903871
    48     0.013116
    49    -0.006446
    50    -0.013741
Sym=    20a
Ene=   -0.900957E-03
Spin= Alpha
Occup= 0.000058
     1     0.019517
     2     0.015358
     3    -0.004734
     4     0.011837
     5    -0.011362
     6    -0.057808
     7    -0.239327
     8    -0.406964
     9    -0.000979
    10     0.151701
    11    -0.004227
    12    -0.008147
    13    -0.009621
    14    -0.002998
    15     0.226598
    16     0.154185
    17    -0.033264
    18     0.015671
    19    -0.039544
    20    -0.006070
    21     0.015073
    22     0.114847
    23    -0.090136
    24     0.014600
    25    -0.275929
    26     0.004946
    27     0.063848
    28    -0.490651
    29     0.006730
    30    -0.682787
    31     0.276788
    32     0.477755
    33    -0.025517
    34     0.178248
    35     0.013792
    36     0.089981
    37     0.284839
    38     0.562586
    39     0.123836
    40    -0.070375
    41    -0.013382
    42     0.091696
    43    -0.038714
    44    -0.012030
    45     0.324357
    46    -0.420642
    47    -0.697672
    48     0.444847
    49    -0.133850
    50    -0.050222
Sym=    21a
Ene=   -0.750538E-03
Spin= Alpha
Occup= 0.000048
     1    -0.003487
     2     0.005174
     3     0.001905
     4     0.008925
     5     0.032514
     6    -0.013340
     7    -0.040276
     8    -0.010934
     9     0.000134
    10    -0.011669
    11     0.035961
    12     0.024499
    13     0.009956
    14     0.315208
    15     0.019056
    16     0.063859
    17     0.029684
    18     0.036784
    19    -0.068171
    20     0.694260
    21    -0.001854
    22    -0.012403
    23     0.025938
    24    -0.015469
    25     0.007889
    26    -0.090010
    27    -0.025928
    28     0.048102
    29    -0.118661
    30    -0.002506
    31    -0.025488
    32     0.007268
    33     0.078920
    34    -0.123092
    35     0.997226
    36    -0.001994
    37     0.002611
    38    -0.061225
    39     0.001834
    40     0.016334
    41     0.101571
    42    -0.011345
    43     0.009217
    44    -0.144330
    45    -0.014044
    46     0.049290
    47     0.003797
    48     0.032440
    49    -0.203003
    50     0.659499
Sym=    22a
Ene=   -0.813586E-03
Spin= Alpha
Occup= 0.000051
     1    -0.326826
     2    -0.002921
     3    -0.089154
     4    -0.027006
     5     0.001824
     6    -0.271775
     7    -0.842934
     8     0.235477
     9     0.196463
    10    -0.476050
    11     0.004119
    12     0.307675
    13     0.216842
    14     0.005156
    15     0.900145
    16     1.032542
    17     0.490109
    18    -0.274258
    19     0.002934
    20    -0.006649
    21     0.124898
    22     0.343727
    23     0.864693
    24    -0.002090
    25     0.380667
    26     0.001140
    27    -0.183345
    28     1.558377
    29     0.004353
    30    -0.175899
    31    -1.436089
    32     0.065047
    33    -0.188441
    34    -0.029560
    35     0.006653
    36    -0.197393
    37    -0.567988
    38    -1.910076
    39    -0.221554
    40     0.268932
    41     0.008045
    42    -0.205876
    43     0.287468
    44     0.003999
    45     0.647782
    46     0.992317
    47     0.252917
    48    -0.467772
    49     0.022640
    50     0.016682
Sym=    23a
Ene=   -0.417511E-02
Spin= Alpha
Occup= 0.002076
     1    -0.051781
     2     0.022137
     3     0.015744
     4     0.011011
     5     0.028016
     6    -0.013715
     7    -0.083756
     8    -0.142132
     9     0.025681
    10     0.097256
    11    -0.120837
    12     0.091333
    13     0.014686
    14    -0.146178
    15    -0.007446
    16    -0.014281
    17     0.078986
    18     0.022587
    19     0.019444
    20    -0.303345
    21    -0.002319
    22    -0.022055
    23    -0.094706
    24    -0.061372
    25    -0.012297
    26     0.074020
    27    -0.033980
    28    -0.344573
    29     0.078537
    30     0.067036
    31     0.010039
    32    -0.074474
    33     0.018609
    34    -0.040232
    35    -0.008287
    36     0.006607
    37     0.047448
    38     0.263569
    39    -0.159730
    40     0.033355
    41     0.657319
    42    -0.132747
    43    -0.075861
    44     0.807770
    45     0.098089
    46     0.023138
    47    -0.142320
    48    -0.043547
    49    -0.192100
    50     0.481482
Sym=    24a
Ene=   -0.413080E-02
Spin= Alpha
Occup= 0.001949
     1    -0.031647
     2     0.056450
     3     0.034769
     4     0.056117
     5    -0.003140
     6    -0.039472
     7    -0.221555
     8    -0.769814
     9     0.035820
    10     0.284346
    11     0.026793
    12     0.156628
    13    -0.117606
    14     0.032278
    15     0.086220
    16     0.029963
    17     0.044720
    18     0.182953
    19    -0.006003
    20     0.012924
    21     0.001611
    22    -0.011591
    23    -0.263398
    24    -0.182104
    25    -0.122536
    26     0.007702
    27    -0.102526
    28    -1.319431
    29     0.005830
    30    -0.423917
    31     0.125798
    32     0.329683
    33    -0.019232
    34     0.067956
    35     0.016409
    36     0.002559
    37     0.068560
    38     0.976349
    39    -0.493084
    40     0.002019
    41    -0.057127
    42    -0.422684
    43    -0.377650
    44    -0.072506
    45    -0.207184
    46    -0.087947
    47     0.301748
    48    -0.388381
    49     0.027031
    50    -0.042748
Sym=    25a
Ene=   -0.299398E-02
Spin= Alpha
Occup= 0.000987
     1    -0.280564
     2     0.029380
     3    -0.027877
     4     0.044777
     5    -0.017935
     6    -0.378255
     7    -1.603865
     8    -1.071614
     9     0.117278
    10     0.440511
    11    -0.011217
    12     0.287295
    13     0.004471
    14    -0.015164
    15     0.788207
    16     0.744742
    17     0.723630
    18    -0.357667
    19    -0.022296
    20     0.026920
    21     0.074635
    22     0.381805
    23    -0.781569
    24     0.071678
    25    -0.567791
    26     0.021880
    27     0.293244
    28    -1.808402
    29     0.022791
    30    -0.090360
    31     0.402179
    32    -0.596804
    33    -0.095665
    34     0.148935
    35     0.007384
    36    -0.031598
    37    -0.179799
    38     1.680709
    39     0.052402
    40    -0.239699
    41    -0.017857
    42     0.171439
    43    -0.700969
    44    -0.022283
    45     0.013506
    46    -0.432051
    47     0.368787
    48     0.261422
    49    -0.079922
    50    -0.054093
Sym=    26a
Ene=   -0.260565E-01
Spin= Alpha
Occup= 0.018942
     1     0.905233
     2     0.069611
     3    -0.104962
     4     0.052077
     5     0.001092
     6    -0.244893
     7    -0.967260
     8     0.016076
     9     0.813778
    10    -0.161042
    11     0.005179
    12    -0.013441
    13     0.047567
    14     0.004987
    15     0.206698
    16     0.132197
    17     0.107412
    18    -0.053794
    19    -0.000318
    20    -0.000390
    21     0.009862
    22     0.020137
    23     0.014056
    24    -0.064047
    25     0.046061
    26     0.001866
    27     0.015203
    28     0.041878
    29     0.001250
    30     0.005974
    31    -0.026148
    32    -0.003232
    33     0.071039
    34    -0.001819
    35    -0.000253
    36    -0.001568
    37     0.004710
    38    -0.032283
    39    -0.007128
    40    -0.011127
    41    -0.000666
    42    -0.028953
    43    -0.010817
    44    -0.001043
    45     0.012267
    46    -0.000991
    47     0.001645
    48    -0.016563
    49     0.000641
    50     0.000319
Sym=    27a
Ene=   -0.554852E-02
Spin= Alpha
Occup= 0.002553
     1     0.051583
     2     0.044536
     3    -0.032768
     4    -0.025598
     5     0.012233
     6     0.049707
     7     0.229055
     8    -0.197562
     9     0.049190
    10    -0.096275
    11     0.106016
    12     0.061228
    13    -0.071148
    14     0.186186
    15    -0.076739
    16    -0.059141
    17    -0.064833
    18    -0.113346
    19    -0.030536
    20    -0.160605
    21     0.006541
    22     0.021562
    23     0.159397
    24    -0.478871
    25    -0.090307
    26    -0.443075
    27    -0.460801
    28    -0.084090
    29    -0.419978
    30     0.149392
    31    -0.173540
    32    -0.039453
    33    -0.231228
    34    -0.075909
    35    -0.156973
    36    -0.012719
    37    -0.038513
    38    -0.074455
    39    -0.366044
    40    -0.054680
    41    -0.301744
    42    -0.163911
    43    -0.001066
    44    -0.190349
    45    -0.067195
    46     0.180142
    47    -0.032703
    48     0.362939
    49    -0.157904
    50     0.256997
Sym=    28a
Ene=   -0.112465E-01
Spin= Alpha
Occup= 0.006528
     1     0.153584
     2     0.025188
     3    -0.032908
     4    -0.100980
     5    -0.006764
     6    -0.112035
     7    -0.399986
     8     0.109929
     9    -0.339958
    10    -0.373789
    11    -0.059912
    12    -0.343629
    13    -0.329751
    14    -0.086463
    15     0.157736
    16     0.326728
    17    -0.005061
    18    -0.253196
    19     0.009518
    20     0.059730
    21     0.260753
    22     1.216945
    23    -0.176888
    24    -0.321890
    25     0.027217
    26     0.000284
    27    -0.302211
    28     0.306818
    29     0.012344
    30    -0.497320
    31    -0.113129
    32    -0.487332
    33     0.222615
    34     0.004036
    35    -0.051090
    36    -0.056329
    37    -0.270450
    38    -0.197900
    39     0.033440
    40     0.140180
    41     0.009668
    42    -0.035011
    43     0.294571
    44     0.024341
    45     0.100864
    46     0.165346
    47     0.014515
    48    -0.115560
    49    -0.003381
    50     0.020506
Sym=    29a
Ene=   -0.647600E-02
Spin= Alpha
Occup= 0.002180
     1    -0.067296
     2    -0.007878
     3     0.014438
     4     0.021482
     5    -0.001892
     6     0.051641
     7     0.124603
     8     0.599390
     9     0.001045
    10     0.056726
    11    -0.024903
    12     0.055615
    13     0.470740
    14    -0.047392
    15    -0.061241
    16    -0.664470
    17     0.463851
    18    -0.109221
    19     0.036277
    20     0.089961
    21     0.471319
    22     1.923844
    23    -0.629262
    24    -0.141940
    25     0.407188
    26     0.054429
    27    -0.091826
    28     0.210574
    29     0.054678
    30    -0.773217
    31    -1.087698
    32    -0.712246
    33     0.125914
    34     0.042701
    35     0.002997
    36     0.017557
    37     0.127832
    38     0.080323
    39    -0.080649
    40     0.508057
    41    -0.014506
    42     0.026896
    43     0.179448
    44    -0.034329
    45     0.006490
    46     0.277062
    47    -0.122509
    48     0.007846
    49     0.049190
    50    -0.056697
Sym=    30a
Ene=   -0.543746E-02
Spin= Alpha
Occup= 0.002375
     1     0.114289
     2    -0.035421
     3    -0.044410
     4    -0.018837
     5    -0.027609
     6     0.052021
     7     0.239963
     8     0.210811
     9    -0.014130
    10    -0.211666
    11    -0.026143
    12    -0.146980
    13    -0.011189
    14     0.006498
    15    -0.016608
    16    -0.048763
    17    -0.142113
    18    -0.070565
    19    -0.079876
    20    -0.132838
    21     0.136620
    22     0.617053
    23    -0.101155
    24     0.017943
    25    -0.074304
    26    -0.086456
    27    -0.008005
    28     0.413107
    29    -0.063908
    30    -0.450275
    31    -0.286710
    32     0.070815
    33    -0.108172
    34     0.333400
    35     0.040971
    36     0.003607
    37    -0.025277
    38    -0.202474
    39     0.249156
    40    -0.073723
    41     0.104435
    42     0.287461
    43     0.002128
    44     0.161302
    45    -0.352568
    46    -0.183574
    47     0.475954
    48     0.208089
    49     0.353032
    50     0.315711
Sym=    31a
Ene=   -0.747832E-03
Spin= Alpha
Occup= 0.000047
     1     0.084968
     2    -0.048216
     3    -0.084082
     4    -0.099183
     5    -0.001955
     6     0.082817
     7     0.288531
     8     0.540618
     9     0.016188
    10     0.110091
    11    -0.005813
    12    -0.293022
    13     0.089780
    14     0.013117
    15    -0.054766
    16    -0.660342
    17    -0.106832
    18    -0.428253
    19    -0.015285
    20     0.050269
    21    -0.113563
    22    -0.274087
    23    -0.310546
    24     0.174263
    25    -0.126988
    26    -0.011498
    27     0.097423
    28     0.478675
    29    -0.009447
    30     0.383621
    31     0.739367
    32     0.200823
    33    -0.963842
    34     0.030436
    35     0.071358
    36     0.190529
    37     0.458644
    38     0.298387
    39    -0.031474
    40    -0.343370
    41     0.003413
    42    -0.018284
    43     0.281133
    44    -0.013585
    45    -0.199234
    46    -1.165902
    47    -0.469471
    48    -0.397348
    49    -0.027693
    50     0.045287
Sym=    32a
Ene=   -0.594273E-03
Spin= Alpha
Occup= 0.000038
     1     0.231820
     2    -0.003125
     3    -0.332147
     4     0.079587
     5    -0.003939
     6    -0.243345
     7    -0.619533
     8     0.990726
     9     0.253786
    10    -0.208575
    11     0.000916
    12     0.159438
    13     0.618871
    14    -0.011332
    15     0.531642
    16     0.416685
    17     0.904319
    18     0.356447
    19     0.013301
    20    -0.030130
    21    -0.112334
    22    -0.268518
    23     0.655777
    24    -0.051598
    25     0.222378
    26    -0.004043
    27    -0.664244
    28     3.373063
    29     0.012443
    30     0.316336
    31     0.479199
    32     0.289673
    33     0.177423
    34    -0.043827
    35    -0.033296
    36     0.290718
    37     0.750833
    38    -1.933726
    39     0.041068
    40    -0.181762
    41    -0.006932
    42    -0.361161
    43     1.182038
    44    -0.008347
    45    -0.948330
    46    -0.756350
    47    -0.751640
    48     0.105797
    49     0.023637
    50     0.005577
Sym=    33a
Ene=   -0.352489E-03
Spin= Alpha
Occup= 0.000023
     1     1.535216
     2     0.118071
     3    -0.782418
     4     0.270230
     5     0.010001
     6     0.001263
     7     0.101544
     8    -3.260640
     9     0.276788
    10    -0.062588
    11     0.001473
    12    -0.986357
    13    -0.955275
    14     0.001363
    15    -0.818516
    16     0.183284
    17     0.464526
    18     0.268172
    19    -0.014843
    20     0.001923
    21    -0.113401
    22    -0.239704
    23     0.369083
    24    -0.025952
    25    -0.261337
    26    -0.000719
    27     0.303736
    28    -2.684278
    29    -0.008100
    30     0.492717
    31     0.003101
    32     0.443238
    33    -0.048114
    34     0.027725
    35     0.000676
    36    -0.126214
    37    -0.069843
    38     0.938557
    39     0.059587
    40     0.229915
    41    -0.001060
    42     0.394812
    43    -0.204371
    44     0.004603
    45     0.618990
    46     0.093870
    47     0.496030
    48    -0.060901
    49    -0.020719
    50    -0.013328
Sym=    34a
Ene=   -0.216082E-02
Spin= Alpha
Occup= 0.000840
     1    -0.044448
     2     0.034607
     3     0.008285
     4    -0.009896
     5     0.071458
     6    -0.052823
     7    -0.259965
     8    -0.939562
     9     0.021467
    10     0.053527
    11     0.022568
    12     0.055145
    13    -0.317646
    14     0.026163
    15     0.067986
    16     0.290750
    17     0.007568
    18    -0.055366
    19     0.095549
    20     0.070913
    21     0.045236
    22     0.188283
    23    -0.156131
    24     0.034810
    25    -0.309974
    26    -0.028086
    27     0.215308
    28    -1.469568
    29    -0.079465
    30    -0.077675
    31    -0.197210
    32    -0.060521
    33     0.033915
    34    -0.569966
    35    -0.056821
    36     0.095277
    37     0.457804
    38     1.178132
    39    -0.089813
    40     0.130526
    41     0.020472
    42     0.025620
    43    -0.293099
    44     0.040969
    45     0.019256
    46    -0.319039
    47    -0.288643
    48     0.063812
    49     0.740216
    50     0.181614
Sym=    35a
Ene=   -0.389473E-02
Spin= Alpha
Occup= 0.001692
     1     0.068840
     2    -0.024969
     3    -0.035098
     4    -0.019867
     5     0.063272
     6    -0.022908
     7    -0.099691
     8    -0.631778
     9    -0.010390
    10     0.045640
    11    -0.022119
    12    -0.123697
    13    -0.209556
    14    -0.047719
    15     0.126539
    16     0.045829
    17    -0.037330
    18    -0.182814
    19     0.135353
    20     0.017593
    21     0.004413
    22    -0.004356
    23     0.116714
    24     0.065876
    25    -0.025415
    26    -0.005882
    27     0.256447
    28    -0.781328
    29    -0.031591
    30    -0.273880
    31    -0.092438
    32     0.284776
    33    -0.051623
    34    -0.563151
    35    -0.090505
    36     0.024688
    37     0.180797
    38     0.478512
    39     0.227810
    40     0.235890
    41     0.087237
    42     0.310586
    43     0.054001
    44     0.115020
    45    -0.435062
    46     0.136477
    47     0.213809
    48     0.059408
    49    -0.355591
    50    -0.049563
Sym=    36a
Ene=   -0.265229E-02
Spin= Alpha
Occup= 0.000829
     1     0.138048
     2    -0.024953
     3    -0.023588
     4     0.066430
     5     0.027032
     6    -0.000309
     7     0.022248
     8     1.543447
     9    -0.015451
    10     0.401380
    11     0.012500
    12    -0.103159
    13     0.831888
    14     0.012874
    15     0.042244
    16    -0.688632
    17     0.272454
    18     0.098856
    19     0.049583
    20     0.005942
    21    -0.153212
    22    -0.529727
    23    -0.372114
    24    -0.092171
    25     0.358867
    26    -0.010248
    27    -0.434963
    28     2.216518
    29    -0.022012
    30    -0.071872
    31     1.450665
    32     0.111830
    33    -0.303137
    34    -0.243544
    35    -0.018813
    36    -0.294665
    37    -1.494903
    38    -1.540146
    39     0.212162
    40    -0.756619
    41     0.021139
    42     0.008851
    43     0.087911
    44     0.026089
    45     0.606783
    46     0.335874
    47     0.517819
    48     0.131002
    49     0.143541
    50     0.057504
Sym=    37a
Ene=   -0.634200E-02
Spin= Alpha
Occup= 0.003261
     1    -0.194208
     2    -0.018697
     3     0.020804
     4    -0.145826
     5     0.233349
     6     0.021523
     7     0.050811
     8     0.536018
     9     0.181172
    10    -0.138642
    11     0.020923
    12     0.456568
    13     0.044853
    14    -0.070373
    15    -0.501574
    16     0.142279
    17     0.240322
    18    -0.159111
    19     0.611995
    20     0.035830
    21    -0.061163
    22    -0.253706
    23     0.086950
    24     0.032607
    25    -0.096722
    26    -0.065100
    27    -0.153992
    28     0.467036
    29    -0.049791
    30    -0.002475
    31     0.094979
    32     0.181495
    33     0.003852
    34     0.135875
    35     0.008496
    36    -0.002125
    37    -0.043515
    38    -0.371710
    39    -0.000496
    40    -0.112025
    41    -0.021419
    42    -0.048069
    43     0.091984
    44    -0.000090
    45     0.014585
    46    -0.061763
    47     0.004203
    48     0.009884
    49    -0.023487
    50     0.010087
Sym=    38a
Ene=   -0.555154E-02
Spin= Alpha
Occup= 0.002505
     1    -0.068123
     2    -0.029439
     3     0.032410
     4     0.031531
     5     0.009731
     6    -0.065164
     7    -0.315504
     8     0.022851
     9    -0.008885
    10     0.159345
    11     0.130871
    12    -0.006380
    13     0.057865
    14     0.224840
    15     0.089676
    16     0.041497
    17     0.136977
    18     0.099499
    19    -0.040233
    20    -0.220748
    21     0.023270
    22     0.082251
    23    -0.180921
    24     0.382124
    25     0.136984
    26    -0.537280
    27     0.424057
    28    -0.242509
    29    -0.500272
    30    -0.136700
    31     0.087193
    32    -0.090233
    33     0.173496
    34     0.046979
    35    -0.177503
    36    -0.037304
    37    -0.133206
    38     0.295796
    39     0.220157
    40     0.193196
    41    -0.311070
    42     0.094491
    43     0.046774
    44    -0.163663
    45     0.150010
    46     0.088572
    47    -0.024632
    48    -0.324200
    49    -0.079898
    50     0.401511
Sym=    39a
Ene=   -0.103322E-01
Spin= Alpha
Occup= 0.005335
     1    -0.036787
     2    -0.025775
     3     0.011358
     4     0.032566
     5     0.040727
     6    -0.200202
     7    -0.916097
     8     0.292514
     9     0.116784
    10    -0.145710
    11     0.061771
    12     0.025175
    13    -0.221434
    14     0.176070
    15     0.152011
    16     0.417779
    17     0.240003
    18     0.303283
    19     0.015057
    20    -0.281481
    21     0.220627
    22     1.015296
    23    -0.585909
    24     0.139889
    25    -0.003097
    26    -0.012149
    27     0.216531
    28    -0.323294
    29    -0.048785
    30    -0.335775
    31    -0.263898
    32    -0.434675
    33    -0.345440
    34    -0.026979
    35     0.301982
    36    -0.110077
    37    -0.477711
    38     0.552343
    39    -0.078973
    40     0.189495
    41     0.062114
    42     0.000222
    43     0.077518
    44    -0.009591
    45     0.084515
    46     0.329361
    47     0.086330
    48     0.037264
    49     0.037676
    50    -0.108863
Sym=    40a
Ene=   -0.855464E-02
Spin= Alpha
Occup= 0.004053
     1     0.019499
     2    -0.007176
     3     0.000359
     4     0.047218
     5    -0.056007
     6    -0.062013
     7    -0.284358
     8     0.038945
     9     0.117372
    10    -0.048088
    11    -0.412402
    12     0.013475
    13    -0.107884
    14    -0.596620
    15     0.061207
    16     0.183720
    17     0.014916
    18     0.271697
    19     0.087501
    20     0.501028
    21     0.083474
    22     0.381455
    23    -0.204833
    24     0.123242
    25    -0.004872
    26    -0.010804
    27     0.147374
    28    -0.141223
    29     0.070729
    30    -0.110303
    31    -0.116009
    32    -0.180383
    33    -0.231312
    34     0.092830
    35    -0.336145
    36    -0.081532
    37    -0.354961
    38     0.268552
    39    -0.072096
    40     0.048204
    41     0.006695
    42    -0.031515
    43    -0.003686
    44     0.085588
    45     0.089086
    46     0.168525
    47     0.101237
    48     0.017211
    49    -0.012984
    50     0.076222
Sym=    41a
Ene=   -0.571188E-02
Spin= Alpha
Occup= 0.002128
     1    -0.013779
     2     0.009962
     3     0.018055
     4     0.020694
     5     0.027243
     6     0.048258
     7     0.178716
     8     0.571733
     9    -0.003348
    10    -0.299230
    11     0.038280
    12    -0.023384
    13     0.067954
    14     0.047750
    15    -0.089712
    16     0.051696
    17    -0.089541
    18     0.240368
    19     0.033620
    20    -0.043461
    21     0.355801
    22     1.599958
    23    -0.704429
    24     0.159329
    25    -0.274954
    26    -0.058328
    27     0.019985
    28     0.478032
    29    -0.066954
    30    -0.548577
    31    -0.607357
    32    -0.600865
    33     0.004731
    34    -0.247502
    35    -0.042793
    36     0.073049
    37     0.182669
    38     0.119642
    39    -0.028600
    40    -0.316689
    41    -0.020125
    42    -0.084101
    43    -0.415977
    44    -0.004141
    45     0.192238
    46    -0.894655
    47     0.179449
    48     0.041338
    49    -0.236025
    50    -0.017465
Sym=    42a
Ene=   -0.236707E-03
Spin= Alpha
Occup= 0.000015
     1     0.222374
     2     0.370648
     3     1.051554
     4    -0.108309
     5     0.038615
     6    -0.164709
     7    -0.077603
     8    -1.241953
     9    -0.637181
    10     0.078059
    11     0.002255
    12    -0.841153
    13     0.197008
    14    -0.008103
    15     0.572806
    16     0.820667
    17     0.616339
    18    -0.220067
    19    -0.024406
    20     0.001852
    21     0.036523
    22     0.099800
    23     0.221161
    24    -0.008740
    25    -0.039776
    26    -0.003377
    27     0.219746
    28     0.216476
    29    -0.010899
    30     0.003239
    31    -0.483975
    32    -0.029703
    33    -0.158613
    34     0.009717
    35    -0.004460
    36     0.029753
    37     0.123793
    38    -0.083245
    39    -0.027867
    40     0.087282
    41     0.003688
    42    -0.020715
    43    -0.000214
    44     0.012323
    45    -0.078745
    46     0.034801
    47    -0.104525
    48    -0.116837
    49    -0.005620
    50    -0.008314
Sym=    43a
Ene=   -0.296507E-03
Spin= Alpha
Occup= 0.000019
     1     0.717154
     2    -0.156969
     3    -0.492792
     4     0.554373
     5     0.012049
     6     0.053719
     7     0.034457
     8     0.932994
     9     0.253459
    10    -0.095477
    11     0.004960
    12    -0.374239
    13     0.722311
    14     0.006696
    15    -0.849405
    16     0.458539
    17    -0.145509
    18    -0.099629
    19    -0.006501
    20     0.002262
    21     0.203710
    22     0.342338
    23     0.479184
    24    -0.140498
    25     0.105003
    26    -0.000311
    27    -0.374544
    28     1.308304
    29    -0.009097
    30    -0.635772
    31    -0.752567
    32    -0.684059
    33    -0.159691
    34    -0.002504
    35     0.003851
    36     0.090715
    37     0.098920
    38    -0.416672
    39     0.055133
    40    -0.020747
    41     0.005244
    42     0.192630
    43    -0.059128
    44     0.009913
    45    -0.383291
    46     0.123173
    47    -0.456260
    48    -0.265074
    49    -0.002524
    50    -0.002381
Sym=    44a
Ene=   -0.272545E-03
Spin= Alpha
Occup= 0.000018
     1    -0.022946
     2    -0.013808
     3    -0.032365
     4    -0.022172
     5     0.881247
     6     0.003611
     7     0.002029
     8     0.063500
     9     0.019849
    10    -0.008411
    11     0.119226
    12     0.041336
    13    -0.004331
    14     0.101712
    15     0.004521
    16    -0.041392
    17    -0.009467
    18     0.021646
    19    -0.557302
    20     0.253704
    21     0.000456
    22     0.000065
    23     0.018263
    24     0.004206
    25     0.019786
    26    -0.171291
    27    -0.005188
    28     0.051657
    29    -0.765677
    30    -0.002651
    31     0.021941
    32    -0.010947
    33     0.010612
    34     0.116297
    35    -0.131668
    36    -0.001186
    37    -0.011924
    38    -0.035660
    39    -0.001929
    40    -0.007475
    41     0.177095
    42    -0.015203
    43     0.008520
    44     0.645943
    45    -0.015177
    46     0.010115
    47     0.005649
    48     0.002891
    49     0.041680
    50    -0.285468
Sym=    45a
Ene=    0.000000E+00
Spin= Alpha
Occup= 0.000000
     1     0.227766
     2     0.051484
     3     0.070946
     4     0.551414
     5    -0.227968
     6     0.031858
     7     0.039094
     8    -2.092518
     9    -0.035909
    10    -0.060500
    11     0.084813
    12    -0.604105
    13    -1.509654
    14     0.414915
    15    -0.206283
    16    -0.201470
    17     0.053397
    18    -0.378727
    19     0.109494
    20     0.095003
    21    -0.088999
    22    -0.112310
    23    -3.828329
    24     0.126216
    25     0.049317
    26    -0.114995
    27     1.655690
    28    -4.336313
    29    -0.582367
    30     0.297107
    31     0.097494
    32     0.433578
    33     0.102466
    34     0.019925
    35    -0.033508
    36    -0.000283
    37    -0.039027
    38     5.626283
    39    -0.183423
    40    -0.029301
    41     0.098983
    42     0.057813
    43    -3.039640
    44     0.406730
    45    -0.154203
    46     0.305699
    47    -0.127383
    48     0.083267
    49     0.032540
    50    -0.133704
Sym=    46a
Ene=    0.000000E+00
Spin= Alpha
Occup= 0.000000
     1     0.271036
     2     0.059513
     3     0.022959
     4     0.211792
     5    -0.266957
     6    -0.022993
     7     0.474771
     8    -3.163722
     9    -0.028270
    10    -0.079021
    11     0.099762
    12    -0.145649
    13    -2.002199
    14     0.476412
    15     0.174409
    16    -0.256508
    17     0.365261
    18    -0.023011
    19     0.129391
    20     0.102653
    21     0.052961
    22    -0.076622
    23     8.799154
    24     0.077691
    25    -0.021506
    26    -0.123073
    27    -0.277319
    28     1.607784
    29    -0.647797
    30    -0.394506
    31     0.429557
    32    -0.410182
    33    -0.152607
    34     0.022737
    35    -0.026685
    36    -0.032456
    37     0.244959
    38    -5.991266
    39    -0.072366
    40    -0.087001
    41     0.115132
    42    -0.972251
    43     3.265806
    44     0.456069
    45     0.267615
    46    -0.342774
    47     0.347752
    48     0.249313
    49     0.035358
    50    -0.148997
Sym=    47a
Ene=    0.000000E+00
Spin= Alpha
Occup= 0.000000
     1     0.410059
     2    -0.350956
     3    -0.345126
     4    -0.497741
     5    -0.155960
     6     0.022795
     7    -0.211517
     8     5.627032
     9    -0.009455
    10    -0.008821
    11     0.056496
    12    -0.753400
    13     3.500978
    14     0.270225
    15    -0.366462
    16     0.328114
    17    -0.243151
    18     0.087745
    19     0.076818
    20     0.059021
    21     0.019724
    22     0.173957
    23    -2.202840
    24     0.232983
    25     0.086726
    26    -0.067758
    27     0.411282
    28     5.479816
    29    -0.363926
    30    -0.030877
    31    -0.187961
    32     0.010467
    33     0.121672
    34     0.011653
    35    -0.016123
    36     0.013091
    37    -0.193035
    38    -3.058068
    39    -0.196873
    40    -0.035927
    41     0.064383
    42    -1.241483
    43     1.239535
    44     0.256320
    45    -0.167743
    46     0.020454
    47    -0.037288
    48     0.254451
    49     0.023616
    50    -0.084541
Sym=    48a
Ene=    0.000000E+00
Spin= Alpha
Occup= 0.000000
     1    -0.553180
     2     0.136415
     3     0.149217
     4     0.631821
     5     0.152021
     6     0.001447
     7     0.035198
     8     5.151361
     9     0.039322
    10    -0.084303
    11    -0.051654
    12     0.272440
    13     2.375668
    14    -0.247878
    15    -0.034123
    16     0.261356
    17    -0.166275
    18    -0.335538
    19    -0.070707
    20    -0.046813
    21    -0.094144
    22    -0.004083
    23     1.176807
    24    -0.068870
    25     0.061993
    26     0.060089
    27    -1.303658
    28     7.069833
    29     0.321058
    30     0.380603
    31     0.271626
    32     0.391618
    33    -0.109090
    34    -0.020462
    35     0.005616
    36     0.008161
    37    -0.072587
    38    -6.505273
    39    -0.007818
    40    -0.061911
    41    -0.056521
    42    -0.838692
    43     3.405814
    44    -0.223066
    45     0.101484
    46    -0.463164
    47     0.148046
    48     0.148347
    49    -0.009579
    50     0.074001
Sym=    49a
Ene=    0.000000E+00
Spin= Alpha
Occup= 0.000000
     1    -0.604807
     2    -0.582052
     3     0.325939
     4    -0.067714
     5    -0.448423
     6    -0.009392
     7    -0.249959
     8     3.203807
     9     0.032318
    10     0.036652
    11     0.168605
    12     1.064462
    13     1.350098
    14     0.812302
    15     0.189113
    16     0.181796
    17    -0.237633
    18     0.039187
    19     0.220091
    20     0.179706
    21    -0.020173
    22     0.013490
    23    -1.516226
    24    -0.193834
    25    -0.010254
    26    -0.216659
    27    -1.277460
    28     1.940060
    29    -1.122239
    30     0.192753
    31    -0.131280
    32     0.109565
    33    -0.036554
    34     0.040021
    35    -0.055276
    36     0.017423
    37    -0.077304
    38    -0.859977
    39     0.190493
    40     0.046201
    41     0.192936
    42     0.610228
    43     0.529747
    44     0.784842
    45     0.015055
    46    -0.127384
    47    -0.073136
    48    -0.213296
    49     0.047171
    50    -0.264130
Sym=    50a
Ene=    0.000000E+00
Spin= Alpha
Occup= 0.000000
     1    -0.125473
     2    -2.366744
     3     0.707337
     4    -0.048882
     5     0.131806
     6     0.013261
     7    -0.126750
     8     2.067587
     9    -0.034117
    10    -0.030118
    11    -0.048161
    12     1.215407
    13    -0.533474
    14    -0.234312
    15     0.212409
    16    -0.195308
    17    -0.142607
    18    -0.146903
    19    -0.064567
    20    -0.051435
    21     0.003522
    22    -0.092431
    23     1.877266
    24     0.059131
    25     0.017125
    26     0.062239
    27    -0.169539
    28     0.941793
    29     0.322466
    30    -0.055498
    31     0.105874
    32    -0.087687
    33     0.014850
    34    -0.013301
    35     0.014803
    36    -0.002878
    37     0.013233
    38    -1.629795
    39    -0.022353
    40    -0.036270
    41    -0.055442
    42    -0.275449
    43     0.831762
    44    -0.225153
    45     0.041537
    46    -0.084789
    47     0.043486
    48     0.068198
    49    -0.014261
    50     0.075685
