[Molden Format]
p30-5 set                                                                       
[Atoms] AU
 N        1     7        0.0000        0.0000        0.6122
 O        2     8        0.0000        2.0810       -0.2678
 O        3     8        0.0000       -2.0810       -0.2678
[GTO]
    1 0
s    5 1.00
    1712.841585300000 -0.544779958049E-02
     257.648126770000 -0.406271746324E-01
      58.458245853000 -0.181119622506E+00
      16.198367905000 -0.468439755632E+00
       5.005260080900 -0.446168462892E+00
s    1 1.00
       0.587318565710  0.100000000000E+01
s    1 1.00
       0.187645922530  0.100000000000E+01
p    3 1.00
      13.571470233000 -0.588481169695E-01
       2.925737287400 -0.320246247625E+00
       0.799277507540 -0.753282265204E+00
p    1 1.00
       0.219543480340  0.100000000000E+01
d    1 1.00
       1.000000000000  0.100000000000E+01
 
    2 0
s    5 1.00
    2266.176778500000 -0.538935039217E-02
     340.870101910000 -0.402347213890E-01
      77.363135167000 -0.180081842055E+00
      21.479644940000 -0.468288576577E+00
       6.658943312400 -0.446926171602E+00
s    1 1.00
       0.809759756680  0.100000000000E+01
s    1 1.00
       0.255307722340  0.100000000000E+01
p    3 1.00
      17.721504317000  0.626302487632E-01
       3.863550544000  0.333311384824E+00
       1.048092088300  0.741486383081E+00
p    1 1.00
       0.276415444110  0.100000000000E+01
d    1 1.00
       1.200000000000  0.100000000000E+01
 
    3 0
s    5 1.00
    2266.176778500000 -0.538935039217E-02
     340.870101910000 -0.402347213890E-01
      77.363135167000 -0.180081842055E+00
      21.479644940000 -0.468288576577E+00
       6.658943312400 -0.446926171602E+00
s    1 1.00
       0.809759756680  0.100000000000E+01
s    1 1.00
       0.255307722340  0.100000000000E+01
p    3 1.00
      17.721504317000  0.626302487632E-01
       3.863550544000  0.333311384824E+00
       1.048092088300  0.741486383081E+00
p    1 1.00
       0.276415444110  0.100000000000E+01
d    1 1.00
       1.200000000000  0.100000000000E+01
 
[MO]
Sym=     1a
Ene=   -0.207056E+02
Spin= Alpha
Occup= 1.999956
     1    -0.010134
     2     0.000409
     3     0.000356
     4     0.000009
     5    -0.002240
     6     0.000095
     7    -0.000012
     8    -0.006605
     9    -0.000143
    10    -0.000021
    11    -0.000026
    12    -0.000023
    13     0.000000
    14     0.000003
    15    -0.000869
    16     0.680972
    17    -0.028806
    18     0.012823
    19    -0.000018
    20     0.001423
    21    -0.000729
    22    -0.000008
    23    -0.002973
    24     0.001728
    25     0.003227
    26     0.003031
    27     0.003373
    28     0.000004
    29    -0.000005
    30    -0.000081
    31    -0.715995
    32     0.030683
    33    -0.013185
    34    -0.000004
    35     0.001500
    36     0.000746
    37    -0.000001
    38    -0.003224
    39    -0.001781
    40    -0.003432
    41    -0.003247
    42    -0.003524
    43    -0.000000
    44     0.000001
    45    -0.000127
Sym=     2a
Ene=   -0.192099E+02
Spin= Alpha
Occup= 1.999930
     1    -0.550188
     2     0.021276
     3     0.004345
     4    -0.000015
     5     0.000209
     6     0.000249
     7     0.000006
     8     0.000167
     9    -0.002990
    10    -0.002484
    11    -0.002182
    12    -0.002215
    13    -0.000003
    14    -0.000003
    15     0.000060
    16    -0.599284
    17     0.025278
    18    -0.011170
    19     0.000015
    20    -0.000089
    21     0.000263
    22     0.000009
    23     0.004127
    24    -0.001048
    25    -0.002924
    26    -0.003529
    27    -0.002900
    28     0.000008
    29    -0.000003
    30     0.000263
    31    -0.561851
    32     0.023920
    33    -0.010134
    34     0.000002
    35     0.000190
    36    -0.000092
    37    -0.000001
    38    -0.003852
    39    -0.001221
    40    -0.002782
    41    -0.003351
    42    -0.002684
    43     0.000001
    44     0.000000
    45    -0.000262
Sym=     3a
Ene=   -0.173580E+02
Spin= Alpha
Occup= 1.999891
     1     0.822501
     2    -0.032099
     3     0.012884
     4    -0.000006
     5    -0.000286
     6    -0.002711
     7     0.000010
     8     0.000034
     9    -0.000815
    10     0.003268
    11    -0.000812
    12     0.002654
    13     0.000017
    14    -0.000003
    15    -0.000053
    16    -0.392321
    17     0.016595
    18    -0.006747
    19     0.000011
    20    -0.003228
    21     0.001131
    22     0.000009
    23    -0.000711
    24     0.000398
    25    -0.002066
    26    -0.000451
    27    -0.001495
    28    -0.000022
    29     0.000006
    30    -0.000964
    31    -0.384476
    32     0.016722
    33    -0.006244
    34     0.000002
    35     0.002665
    36     0.001230
    37     0.000001
    38     0.000424
    39     0.000542
    40    -0.002017
    41    -0.000464
    42    -0.001415
    43    -0.000002
    44    -0.000003
    45     0.000960
Sym=     4a
Ene=   -0.159229E+01
Spin= Alpha
Occup= 1.991170
     1     0.162515
     2     0.338553
     3     0.077733
     4    -0.000761
     5    -0.198172
     6     0.053721
     7     0.000415
     8     0.038656
     9     0.004418
    10    -0.002772
    11     0.034199
    12     0.001742
    13     0.000104
    14    -0.000057
    15    -0.013677
    16     0.227155
    17     0.460599
    18     0.224841
    19     0.001336
    20    -0.128920
    21     0.107271
    22     0.000898
    23    -0.023486
    24     0.045257
    25     0.002271
    26     0.022082
    27     0.005958
    28    -0.000098
    29     0.000051
    30    -0.012505
    31     0.010625
    32     0.017837
    33    -0.000542
    34    -0.000119
    35     0.023737
    36    -0.004599
    37    -0.000186
    38     0.002010
    39    -0.004959
    40    -0.000307
    41     0.002579
    42    -0.002218
    43     0.000007
    44     0.000002
    45    -0.000940
Sym=     5a
Ene=   -0.140020E+01
Spin= Alpha
Occup= 1.988122
     1     0.038755
     2     0.060278
     3    -0.013664
     4     0.000157
     5     0.116086
     6     0.040019
     7    -0.000098
     8    -0.007983
     9    -0.007446
    10    -0.006359
    11     0.011071
    12    -0.003172
    13    -0.000042
    14     0.000010
    15     0.013835
    16    -0.022640
    17    -0.045690
    18    -0.024708
    19    -0.000371
    20     0.018100
    21    -0.005509
    22    -0.000258
    23     0.008482
    24     0.001570
    25    -0.000051
    26    -0.001712
    27    -0.000721
    28     0.000028
    29    -0.000013
    30     0.001785
    31     0.295173
    32     0.602822
    33     0.406357
    34     0.000139
    35    -0.056477
    36    -0.025631
    37     0.000117
    38    -0.057071
    39    -0.024911
    40     0.009961
    41     0.015566
    42     0.009992
    43     0.000004
    44     0.000000
    45     0.002464
Sym=     6a
Ene=   -0.891436E+00
Spin= Alpha
Occup= 1.982957
     1     0.141885
     2     0.337040
     3     0.122307
     4     0.004335
     5    -0.201778
     6     0.011377
     7    -0.002274
     8     0.052436
     9     0.011330
    10     0.008206
    11     0.023795
    12     0.009212
    13    -0.000103
    14     0.000241
    15    -0.006966
    16    -0.185437
    17    -0.383737
    18    -0.407201
    19    -0.004616
    20    -0.369749
    21     0.191187
    22    -0.002951
    23    -0.185818
    24     0.099407
    25    -0.016177
    26     0.009557
    27    -0.009424
    28     0.000268
    29    -0.000140
    30    -0.015643
    31    -0.016414
    32    -0.039700
    33    -0.034024
    34    -0.001594
    35    -0.000513
    36    -0.020037
    37    -0.000650
    38    -0.011871
    39    -0.015607
    40    -0.000669
    41    -0.000953
    42    -0.003646
    43    -0.000218
    44    -0.000093
    45    -0.002710
Sym=     7a
Ene=   -0.736909E+00
Spin= Alpha
Occup= 1.981718
     1    -0.001278
     2    -0.003112
     3    -0.001038
     4     0.374363
     5     0.000704
     6    -0.002214
     7    -0.203385
     8     0.000458
     9     0.000982
    10    -0.000034
    11    -0.000124
    12    -0.000219
    13    -0.026145
    14     0.021789
    15     0.000229
    16     0.002320
    17     0.004847
    18     0.004500
    19    -0.502299
    20     0.005624
    21     0.001747
    22    -0.330546
    23     0.003345
    24     0.001421
    25     0.000191
    26    -0.000235
    27     0.000233
    28     0.031613
    29    -0.013049
    30     0.000004
    31     0.000161
    32     0.000372
    33     0.001480
    34    -0.063414
    35    -0.000413
    36    -0.001392
    37    -0.000764
    38     0.000405
    39    -0.000913
    40     0.000029
    41    -0.000087
    42     0.000032
    43    -0.013274
    44    -0.005148
    45    -0.000027
Sym=     8a
Ene=   -0.691855E+00
Spin= Alpha
Occup= 1.978916
     1    -0.039355
     2    -0.087771
     3    -0.028883
     4    -0.000620
     5    -0.040853
     6     0.235120
     7     0.000313
     8     0.097312
     9    -0.119552
    10    -0.006103
    11    -0.024904
    12     0.019598
    13    -0.000029
    14    -0.000042
    15     0.029998
    16    -0.008484
    17    -0.013841
    18    -0.108110
    19     0.000344
    20     0.037967
    21     0.088351
    22     0.000145
    23     0.074451
    24     0.064315
    25    -0.000219
    26     0.005307
    27     0.001144
    28    -0.000022
    29     0.000000
    30    -0.001182
    31     0.006520
    32     0.015092
    33     0.047928
    34     0.000761
    35     0.261032
    36    -0.532008
    37     0.000482
    38     0.188514
    39    -0.346495
    40    -0.000492
    41     0.020452
    42    -0.018140
    43     0.000055
    44     0.000025
    45    -0.019563
Sym=     9a
Ene=   -0.996035E+00
Spin= Alpha
Occup= 1.972359
     1     0.138399
     2     0.315097
     3     0.093285
     4     0.001211
     5     0.387585
     6     0.083858
     7    -0.000676
     8    -0.075786
     9    -0.021045
    10     0.002625
    11     0.022442
    12     0.009758
    13     0.000000
    14     0.000077
    15     0.024192
    16    -0.029141
    17    -0.063480
    18    -0.017882
    19    -0.001030
    20     0.100666
    21    -0.081222
    22    -0.000593
    23     0.064625
    24    -0.042486
    25     0.001995
    26    -0.005401
    27    -0.004346
    28     0.000060
    29    -0.000033
    30     0.010000
    31    -0.035531
    32    -0.076111
    33    -0.224566
    34    -0.000808
    35     0.450738
    36     0.155379
    37    -0.000440
    38     0.214474
    39     0.064940
    40    -0.013508
    41     0.024695
    42    -0.007395
    43    -0.000072
    44    -0.000032
    45     0.018899
Sym=    10a
Ene=   -0.698412E+00
Spin= Alpha
Occup= 1.970302
     1    -0.025607
     2    -0.054693
     3    -0.057009
     4     0.002358
     5    -0.039505
     6     0.311852
     7    -0.001234
     8    -0.081357
     9    -0.160116
    10    -0.008586
    11    -0.019391
    12     0.019865
    13    -0.000283
    14     0.000151
    15    -0.033848
    16     0.017752
    17     0.039567
    18     0.030675
    19    -0.003986
    20    -0.335717
    21    -0.453037
    22    -0.002594
    23    -0.219730
    24    -0.294313
    25    -0.002469
    26     0.027449
    27    -0.019333
    28     0.000269
    29    -0.000106
    30     0.016022
    31    -0.006088
    32    -0.008257
    33    -0.096257
    34     0.000146
    35    -0.049403
    36     0.079149
    37     0.000384
    38    -0.081516
    39     0.067481
    40     0.000435
    41     0.006257
    42    -0.000507
    43    -0.000047
    44    -0.000014
    45    -0.001738
Sym=    11a
Ene=   -0.605170E+00
Spin= Alpha
Occup= 1.960751
     1    -0.000590
     2    -0.001343
     3    -0.000521
     4     0.223896
     5    -0.000050
     6     0.000632
     7    -0.126670
     8    -0.000078
     9    -0.000403
    10    -0.000041
    11    -0.000109
    12     0.000005
    13     0.051003
    14     0.011546
    15     0.000008
    16     0.000258
    17     0.000564
    18     0.000553
    19     0.269048
    20     0.000237
    21    -0.000574
    22     0.231719
    23     0.000138
    24    -0.000398
    25     0.000012
    26     0.000030
    27     0.000009
    28    -0.005022
    29     0.002427
    30     0.000036
    31     0.000161
    32     0.000339
    33     0.000363
    34    -0.544001
    35    -0.000290
    36    -0.000567
    37    -0.384074
    38    -0.000138
    39    -0.000327
    40     0.000016
    41     0.000004
    42    -0.000006
    43    -0.029876
    44    -0.012638
    45    -0.000043
Sym=    12a
Ene=   -0.277044E+00
Spin= Alpha
Occup= 1.000000
     1    -0.094579
     2    -0.200043
     3    -0.470426
     4     0.000058
     5    -0.001430
     6     0.495080
     7    -0.000136
     8     0.002062
     9    -0.261491
    10    -0.019775
    11     0.038004
    12    -0.037223
    13     0.000020
    14    -0.000006
    15     0.003308
    16     0.026202
    17     0.067496
    18     0.074536
    19     0.000039
    20    -0.033669
    21     0.394041
    22    -0.000089
    23    -0.022421
    24     0.327325
    25    -0.001311
    26     0.008854
    27    -0.000150
    28     0.000009
    29     0.000001
    30    -0.005014
    31     0.027064
    32     0.068070
    33     0.081275
    34     0.000222
    35     0.063174
    36     0.328236
    37     0.000219
    38     0.039761
    39     0.284066
    40    -0.001844
    41     0.010513
    42    -0.002008
    43     0.000008
    44     0.000004
    45     0.003321
Sym=    13a
Ene=   -0.635219E-01
Spin= Alpha
Occup= 0.036544
     1    -0.000389
     2    -0.001645
     3     0.000674
     4     0.610252
     5     0.000075
     6    -0.000302
     7    -0.176582
     8     0.000246
     9     0.000423
    10     0.000238
    11     0.000175
    12     0.000192
    13     0.029542
    14     0.000794
    15     0.000231
    16     0.000199
    17     0.000772
    18    -0.000450
    19     0.452886
    20    -0.000324
    21    -0.000073
    22     0.105676
    23    -0.000315
    24    -0.000316
    25     0.000009
    26    -0.000329
    27     0.000093
    28     0.027920
    29    -0.010768
    30    -0.000226
    31     0.000037
    32     0.000088
    33     0.000172
    34     0.624869
    35     0.000408
    36     0.000121
    37    -0.017573
    38     0.000099
    39     0.000006
    40    -0.000060
    41     0.000088
    42    -0.000028
    43    -0.044878
    44    -0.017847
    45    -0.000046
Sym=    14a
Ene=   -0.465133E-01
Spin= Alpha
Occup= 0.026277
     1    -0.193690
     2    -0.641298
     3    -0.144587
     4     0.000174
     5     0.569285
     6    -0.381545
     7     0.000289
     8    -0.118853
     9     0.065281
    10     0.066052
    11     0.111482
    12     0.046219
    13     0.000066
    14    -0.000100
    15    -0.013797
    16     0.195641
    17     0.648038
    18     0.144147
    19    -0.001097
    20    -0.699159
    21     0.179562
    22     0.000862
    23    -0.136486
    24     0.109410
    25    -0.072667
    26    -0.145986
    27    -0.061079
    28     0.000498
    29     0.000639
    30     0.043802
    31     0.014804
    32     0.051523
    33    -0.041170
    34    -0.000629
    35     0.150723
    36    -0.160081
    37     0.000360
    38    -0.009703
    39    -0.021792
    40    -0.012363
    41    -0.026853
    42     0.022836
    43     0.000031
    44    -0.000019
    45     0.038363
Sym=    15a
Ene=   -0.467462E-01
Spin= Alpha
Occup= 0.024671
     1    -0.202992
     2    -0.726358
     3    -0.010307
     4    -0.000263
     5    -0.698275
     6    -0.312596
     7     0.000159
     8     0.117588
     9     0.059035
    10     0.109050
    11     0.096198
    12     0.099492
    13    -0.000567
    14     0.000107
    15     0.007721
    16    -0.022692
    17    -0.074300
    18    -0.067459
    19    -0.000467
    20    -0.034895
    21    -0.179050
    22     0.000392
    23     0.041185
    24    -0.042201
    25     0.005345
    26    -0.008374
    27     0.034441
    28     0.000453
    29    -0.000264
    30    -0.034498
    31     0.167197
    32     0.524802
    33     0.194781
    34    -0.000440
    35     0.690241
    36     0.280407
    37    -0.000050
    38     0.143476
    39     0.051230
    40    -0.060042
    41    -0.108652
    42    -0.043698
    43     0.000182
    44     0.000003
    45    -0.042542
Sym=    16a
Ene=   -0.139772E-01
Spin= Alpha
Occup= 0.009809
     1    -0.008160
     2    -0.038239
     3     0.034464
     4     0.001423
     5     0.185390
     6    -0.277337
     7     0.000530
     8     0.161000
     9    -0.076127
    10    -0.000348
    11    -0.091090
    12     0.074609
    13    -0.002028
    14     0.000042
    15     0.168950
    16     0.026426
    17     0.104254
    18    -0.096706
    19     0.001153
    20    -0.071749
    21     0.023513
    22    -0.000424
    23    -0.032026
    24     0.043132
    25    -0.022864
    26    -0.045403
    27     0.017037
    28     0.001597
    29    -0.000310
    30     0.021716
    31     0.009705
    32     0.042956
    33     0.025661
    34    -0.002613
    35    -0.333826
    36     0.827775
    37     0.002668
    38     0.349004
    39    -0.880278
    40    -0.014939
    41     0.039868
    42    -0.054951
    43     0.000947
    44     0.001016
    45    -0.007633
Sym=    17a
Ene=   -0.869105E-02
Spin= Alpha
Occup= 0.003827
     1     0.343568
     2     1.423880
     3    -0.540127
     4     0.007789
     5    -0.070871
     6    -0.399556
     7     0.010170
     8    -0.292599
     9    -0.462924
    10    -0.434247
    11    -0.591204
    12    -0.571446
    13     0.191589
    14    -0.070271
    15    -0.157170
    16    -0.177130
    17    -0.774261
    18     0.522579
    19     0.092842
    20     0.121821
    21    -0.123451
    22    -0.192419
    23    -0.370006
    24     0.418494
    25     0.561982
    26     0.195884
    27     0.016448
    28    -0.302661
    29     0.135718
    30     0.360634
    31    -0.026346
    32    -0.083745
    33    -0.158351
    34    -0.009583
    35     0.251198
    36    -0.004981
    37     0.055842
    38    -0.254317
    39     0.096894
    40     0.074032
    41     0.086745
    42     0.087069
    43    -0.070352
    44    -0.041791
    45     0.039803
Sym=    18a
Ene=   -0.200594E-01
Spin= Alpha
Occup= 0.009212
     1     0.200006
     2     0.886493
     3    -0.350777
     4     0.008957
     5    -0.156051
     6    -0.141611
     7     0.006562
     8    -0.033005
     9    -0.162603
    10    -0.274735
    11    -0.046637
    12    -0.248169
    13     0.000775
    14     0.003011
    15    -0.050779
    16     0.501044
    17     2.071045
    18    -0.813543
    19    -0.012515
    20     0.387882
    21    -0.158968
    22     0.013694
    23    -0.271116
    24     0.112505
    25    -0.597088
    26    -0.489429
    27    -0.557869
    28     0.005049
    29     0.002805
    30    -0.047403
    31     0.009311
    32     0.030016
    33     0.001467
    34    -0.000730
    35     0.037238
    36    -0.012475
    37     0.000464
    38    -0.026906
    39    -0.005824
    40    -0.015575
    41     0.031876
    42    -0.010681
    43    -0.000680
    44    -0.000707
    45     0.015862
Sym=    19a
Ene=   -0.676250E-02
Spin= Alpha
Occup= 0.002535
     1     0.003879
     2     0.015709
     3     0.007491
     4    -0.002930
     5     0.001809
     6    -0.004887
     7     0.023987
     8     0.001787
     9    -0.008999
    10     0.003031
    11    -0.010947
    12    -0.012962
    13     0.000444
    14     0.168486
    15    -0.000076
    16     0.000082
    17     0.001119
    18    -0.006349
    19    -0.013878
    20    -0.004215
    21     0.000541
    22     0.022159
    23     0.005801
    24     0.001056
    25     0.001012
    26     0.002813
    27    -0.002117
    28    -0.085320
    29    -0.074938
    30    -0.001441
    31     0.000901
    32     0.003437
    33    -0.002449
    34     0.024464
    35     0.002422
    36    -0.000177
    37    -0.022337
    38    -0.003195
    39     0.002173
    40     0.002062
    41    -0.000745
    42    -0.005217
    43    -0.472712
    44     0.846307
    45    -0.003359
Sym=    20a
Ene=   -0.702974E-02
Spin= Alpha
Occup= 0.002686
     1     0.008009
     2     0.041900
     3    -0.006867
     4     0.049504
     5    -0.004092
     6     0.000041
     7     0.153791
     8     0.003497
     9     0.019205
    10    -0.048913
    11    -0.033212
    12     0.033731
    13     0.081323
    14     0.435720
    15    -0.009341
    16    -0.004123
    17    -0.010117
    18    -0.010420
    19     0.090787
    20    -0.024017
    21     0.004505
    22    -0.147546
    23     0.035866
    24    -0.002835
    25    -0.046257
    26     0.059862
    27     0.014026
    28     0.321930
    29     0.790541
    30     0.031339
    31    -0.001491
    32    -0.007999
    33     0.017506
    34     0.022710
    35     0.008097
    36     0.009677
    37    -0.017960
    38     0.006059
    39    -0.007648
    40     0.003432
    41     0.010667
    42    -0.002666
    43     0.004401
    44    -0.022056
    45    -0.000892
Sym=    21a
Ene=   -0.767809E-03
Spin= Alpha
Occup= 0.000044
     1    -0.000775
     2    -0.001097
     3     0.005761
     4     0.007614
     5     0.002577
     6     0.006571
     7    -0.022064
     8     0.003464
     9     0.002543
    10    -0.002570
    11     0.015356
    12     0.003682
    13    -0.990772
    14     0.051031
    15     0.006411
    16    -0.001855
    17    -0.003148
    18    -0.015073
    19    -0.058943
    20     0.003256
    21    -0.002615
    22     0.333620
    23     0.002250
    24    -0.002495
    25     0.013753
    26    -0.000060
    27    -0.000184
    28    -0.517100
    29     0.281510
    30     0.010296
    31     0.004301
    32     0.012349
    33     0.010425
    34     0.036771
    35    -0.001863
    36    -0.000787
    37    -0.274843
    38    -0.007011
    39    -0.003339
    40    -0.005672
    41    -0.022299
    42    -0.009744
    43    -0.486697
    44    -0.294242
    45    -0.004841
Sym=    22a
Ene=   -0.475649E-04
Spin= Alpha
Occup= 0.000003
     1    -0.047854
     2     0.030044
     3    -6.118704
     4     0.000075
     5    -0.004030
     6     0.031876
     7    -0.001781
     8    -2.859018
     9     2.442659
    10     0.575927
    11    -0.329805
    12     0.086795
    13    -0.001119
    14    -0.000825
    15     0.236949
    16     0.047400
    17    -0.719308
    18     6.344813
    19    -0.000947
    20     0.051958
    21     0.004521
    22     0.002154
    23    -2.860352
    24     0.875392
    25    -0.452700
    26     0.083167
    27    -0.444935
    28    -0.001606
    29    -0.000413
    30    -0.176803
    31     0.018429
    32    -0.245923
    33     1.449427
    34    -0.000535
    35    -0.066608
    36     0.113331
    37     0.001128
    38     1.090477
    39    -0.614362
    40    -0.129238
    41     0.143562
    42    -0.304342
    43    -0.000249
    44     0.000382
    45    -0.062891
Sym=    23a
Ene=   -0.321719E-03
Spin= Alpha
Occup= 0.000016
     1    -0.342819
     2    -0.751292
     3     0.577499
     4     0.001971
     5    -0.007552
     6     0.195207
     7    -0.004976
     8    -0.060371
     9    -0.508167
    10     1.022907
    11     1.304415
    12     1.066121
    13     0.006728
    14     0.002848
    15    -0.001254
    16     0.003789
    17     0.265972
    18    -0.982349
    19    -0.004603
    20    -0.044531
    21     0.047931
    22     0.006486
    23     0.964663
    24    -0.369832
    25     0.245219
    26    -0.456694
    27     0.143643
    28    -0.001374
    29     0.000735
    30     0.341511
    31    -0.050437
    32     0.170307
    33    -1.381836
    34    -0.002342
    35     0.060930
    36     0.017995
    37     0.007701
    38    -1.046902
    39    -0.355976
    40     0.437432
    41    -0.325096
    42     0.330628
    43     0.002710
    44     0.000902
    45    -0.331750
Sym=    24a
Ene=   -0.255320E-02
Spin= Alpha
Occup= 0.000808
     1     0.063170
     2     0.302318
     3     0.147706
     4     0.001953
     5     0.542683
     6     0.156751
     7     0.005870
     8     0.079202
     9     0.168707
    10     0.005013
    11    -0.269729
    12    -0.087443
    13    -0.001973
    14     0.015195
    15    -0.510771
    16    -0.121426
    17    -0.481201
    18    -0.000526
    19     0.000211
    20     0.191483
    21    -0.084556
    22    -0.000217
    23    -0.409302
    24     0.243689
    25     0.044350
    26     0.243631
    27     0.466475
    28     0.001939
    29    -0.011611
    30    -0.350665
    31     0.201674
    32     0.794434
    33     0.015944
    34     0.003580
    35     0.412972
    36     0.210190
    37    -0.006033
    38    -0.675199
    39    -0.445107
    40    -0.119767
    41    -0.513005
    42    -0.551020
    43     0.008261
    44    -0.003486
    45    -0.341032
Sym=    25a
Ene=   -0.614338E-02
Spin= Alpha
Occup= 0.002303
     1    -0.030815
     2    -0.107547
     3     0.405282
     4     0.003884
     5     0.087336
     6    -0.057782
     7     0.004513
     8    -0.001019
     9    -0.139629
    10     0.191601
    11    -0.005882
    12    -0.093904
    13    -0.005497
    14     0.013958
    15    -0.022536
    16     0.035915
    17     0.180427
    18    -0.254922
    19    -0.005967
    20    -0.162801
    21     0.032720
    22     0.009449
    23     0.292426
    24    -0.046394
    25     0.611566
    26     0.008762
    27    -0.735162
    28     0.032644
    29     0.038742
    30    -0.548136
    31    -0.007170
    32     0.015393
    33    -0.242681
    34     0.000548
    35    -0.007309
    36     0.056398
    37    -0.001934
    38    -0.073874
    39    -0.113896
    40     0.013863
    41     0.097567
    42    -0.032281
    43     0.006108
    44    -0.000051
    45    -0.095530
Sym=    26a
Ene=   -0.284233E-02
Spin= Alpha
Occup= 0.000984
     1    -0.031945
     2    -0.160154
     3     0.621093
     4     0.021806
     5     0.011839
     6    -0.202475
     7     0.032902
     8     0.015591
     9    -0.407446
    10     0.834015
    11    -0.187850
    12    -0.619690
    13    -0.003697
    14     0.065291
    15     0.058754
    16     0.081695
    17     0.327196
    18    -0.241667
    19     0.006250
    20    -0.179994
    21     0.046889
    22    -0.011464
    23     0.278985
    24    -0.040592
    25    -0.485766
    26     0.153718
    27    -0.067390
    28    -0.024623
    29    -0.005752
    30     0.052250
    31     0.054706
    32     0.236223
    33    -0.266850
    34     0.009848
    35     0.150199
    36     0.025886
    37    -0.017973
    38    -0.282949
    39    -0.000825
    40    -0.460804
    41     0.167380
    42     0.033183
    43     0.027483
    44    -0.013792
    45    -0.047908
Sym=    27a
Ene=   -0.887202E-02
Spin= Alpha
Occup= 0.006289
     1     0.010636
     2     0.050078
     3    -0.023417
     4    -0.584921
     5    -0.005847
     6    -0.008580
     7    -0.339516
     8    -0.012080
     9    -0.003401
    10    -0.017388
    11    -0.004176
    12    -0.020149
    13     0.074842
    14     0.001612
    15    -0.010707
    16    -0.003241
    17    -0.013439
    18     0.013062
    19    -0.141609
    20    -0.002225
    21     0.005298
    22     0.121004
    23     0.006132
    24    -0.004905
    25    -0.001886
    26     0.011246
    27     0.001089
    28     0.002903
    29     0.026044
    30    -0.001617
    31    -0.003177
    32    -0.013690
    33     0.003954
    34     0.738780
    35     0.001975
    36     0.007742
    37    -0.869015
    38     0.003067
    39    -0.014225
    40     0.002568
    41    -0.005990
    42     0.017104
    43     0.083228
    44     0.034372
    45     0.013106
Sym=    28a
Ene=   -0.107489E-01
Spin= Alpha
Occup= 0.006684
     1     0.033982
     2     0.157605
     3    -0.045746
     4    -0.378057
     5    -0.006515
     6    -0.030649
     7    -0.232766
     8    -0.001132
     9    -0.018165
    10    -0.056659
    11    -0.036546
    12    -0.050331
    13    -0.275633
    14     0.014873
    15    -0.013295
    16    -0.005092
    17    -0.018047
    18     0.000776
    19     0.827569
    20    -0.012287
    21     0.031317
    22    -0.830240
    23     0.024031
    24    -0.037579
    25    -0.007122
    26     0.027801
    27     0.004135
    28     0.077905
    29    -0.068202
    30    -0.013390
    31     0.000009
    32    -0.002216
    33     0.010015
    34    -0.168371
    35     0.011941
    36     0.004069
    37     0.151498
    38    -0.002672
    39    -0.005117
    40    -0.001881
    41     0.002575
    42     0.006076
    43     0.087458
    44     0.069587
    45     0.007531
Sym=    29a
Ene=   -0.869937E-02
Spin= Alpha
Occup= 0.004066
     1    -0.069597
     2    -0.292411
     3    -0.099558
     4     0.008657
     5     0.059195
     6     0.146972
     7     0.030109
     8     0.209724
     9     0.222182
    10     0.115601
    11     0.302547
    12    -0.047333
    13     0.270098
    14    -0.080891
    15     0.172434
    16     0.010753
    17     0.035216
    18    -0.027769
    19     0.158679
    20     0.110951
    21     0.183251
    22    -0.312400
    23    -0.177203
    24    -0.385959
    25    -0.024198
    26    -0.370067
    27     0.318264
    28    -0.452159
    29     0.225049
    30    -0.343506
    31    -0.002767
    32    -0.030404
    33     0.202937
    34    -0.001948
    35    -0.103009
    36    -0.063589
    37     0.057658
    38     0.095824
    39     0.046001
    40    -0.034217
    41    -0.023229
    42    -0.015311
    43    -0.094977
    44    -0.050918
    45     0.028905
Sym=    30a
Ene=   -0.703771E-02
Spin= Alpha
Occup= 0.002631
     1    -0.140413
     2    -0.531491
     3     0.568976
     4     0.001958
     5    -0.170454
     6     0.002077
     7     0.001001
     8    -0.122544
     9    -0.015154
    10     0.279794
    11     0.130332
    12     0.168589
    13    -0.004116
    14     0.000334
    15    -0.056836
    16    -0.003260
    17     0.010518
    18    -0.130943
    19    -0.002086
    20     0.096711
    21     0.121442
    22     0.003927
    23    -0.025930
    24    -0.201287
    25     0.021401
    26     0.081135
    27    -0.110149
    28     0.003979
    29    -0.002049
    30     0.114753
    31     0.067815
    32     0.360266
    33    -0.496698
    34    -0.000194
    35     0.304423
    36     0.105084
    37    -0.001048
    38    -0.538040
    39    -0.205325
    40     0.209267
    41     0.241465
    42    -0.633644
    43     0.003811
    44     0.002652
    45     0.697015
Sym=    31a
Ene=   -0.620525E-02
Spin= Alpha
Occup= 0.001818
     1     0.447483
     2     1.890807
     3     0.216361
     4    -0.003562
     5    -0.198791
     6     0.367974
     7    -0.002992
     8     0.016697
     9     0.438390
    10    -0.548166
    11    -1.243607
    12    -0.626856
    13     0.001288
    14    -0.002735
    15     0.073763
    16     0.288373
    17     1.051088
    18     0.147143
    19    -0.004110
    20    -0.361909
    21     0.226830
    22     0.005163
    23     0.424331
    24    -0.331380
    25    -0.336462
    26    -0.796126
    27    -0.384953
    28     0.009479
    29    -0.003875
    30     0.077684
    31     0.072062
    32     0.248212
    33     0.154245
    34     0.000172
    35     0.220238
    36     0.165625
    37     0.000756
    38    -0.057245
    39    -0.135694
    40     0.034797
    41    -0.282746
    42    -0.036006
    43    -0.003915
    44    -0.004886
    45     0.134206
Sym=    32a
Ene=   -0.915452E-03
Spin= Alpha
Occup= 0.000052
     1    -0.013672
     2    -0.070882
     3    -0.022817
     4     0.004702
     5    -0.608347
     6     0.017386
     7     0.001868
     8    -0.177882
     9     0.059251
    10    -0.029993
    11     0.334191
    12    -0.116409
    13    -0.003800
    14     0.008895
    15    -0.944591
    16     0.131140
    17     0.385207
    18     0.282379
    19    -0.001509
    20     0.116016
    21    -0.133324
    22     0.003290
    23     0.435875
    24     0.076988
    25    -0.204692
    26    -0.997988
    27    -0.064384
    28    -0.011608
    29     0.001861
    30     0.165407
    31    -0.090003
    32    -0.300576
    33    -0.108142
    34     0.000192
    35    -0.033638
    36     0.066051
    37    -0.000247
    38     0.490799
    39    -0.177047
    40     0.071098
    41     0.891879
    42    -0.169688
    43     0.001334
    44    -0.002111
    45    -0.093714
Sym=    33a
Ene=   -0.740091E-03
Spin= Alpha
Occup= 0.000039
     1    -0.018594
     2    -0.111285
     3    -0.308599
     4     0.001332
     5     0.163988
     6     0.210138
     7     0.000152
     8     0.018484
     9     0.418889
    10    -0.265280
    11     1.257363
    12    -0.361644
    13     0.011717
    14    -0.000158
    15     0.164213
    16     0.208174
    17     0.458989
    18     1.011702
    19    -0.000013
    20     0.246307
    21    -0.028544
    22    -0.003084
    23    -0.249565
    24    -0.302365
    25    -0.496279
    26    -0.531856
    27    -0.895902
    28     0.000884
    29     0.000865
    30     0.451639
    31     0.185161
    32     0.471048
    33     0.695285
    34    -0.000974
    35    -0.175524
    36    -0.083259
    37     0.004429
    38    -0.150450
    39    -0.267456
    40    -0.326571
    41    -0.788414
    42    -0.665313
    43     0.003806
    44     0.002335
    45    -0.472798
Sym=    34a
Ene=   -0.419764E-04
Spin= Alpha
Occup= 0.000002
     1    -0.023679
     2     0.028950
     3    -3.428010
     4    -0.002098
     5    -0.002900
     6     0.003057
     7    -0.007418
     8     5.129916
     9     1.336966
    10     0.318125
    11    -0.190559
    12     0.045161
    13    -0.001906
    14     0.000448
    15    -0.421042
    16    -0.003768
    17     0.155345
    18    -2.172868
    19    -0.003684
    20     0.047917
    21     0.140761
    22     0.008008
    23     0.480718
    24    -1.274346
    25     0.106065
    26     0.100467
    27    -0.100012
    28     0.002339
    29    -0.001457
    30     0.172708
    31     0.035244
    32    -0.708442
    33     6.498218
    34    -0.001130
    35    -0.024683
    36    -0.086896
    37     0.003844
    38     2.699809
    39     1.450596
    40    -0.407210
    41     0.031469
    42    -0.293651
    43     0.000324
    44     0.000448
    45     0.247514
Sym=    35a
Ene=   -0.493489E-02
Spin= Alpha
Occup= 0.001896
     1    -0.020969
     2    -0.001616
     3     0.150001
     4    -0.000915
     5    -0.052450
     6     0.197952
     7    -0.004467
     8    -0.228286
     9     0.350192
    10    -0.155457
    11    -0.039894
    12     0.243811
    13    -0.001682
    14    -0.009523
    15    -0.103416
    16     0.011620
    17    -0.024449
    18     0.358950
    19    -0.003121
    20     0.136730
    21     0.075180
    22     0.005335
    23    -0.267675
    24    -0.102891
    25     0.079574
    26    -0.118637
    27    -0.139415
    28     0.001121
    29    -0.006068
    30     0.054271
    31     0.045038
    32     0.283810
    33    -0.399974
    34    -0.002422
    35     0.342792
    36     0.169967
    37     0.003400
    38    -0.590151
    39    -0.369789
    40    -0.814515
    41     0.310196
    42     0.398840
    43    -0.004148
    44     0.008231
    45     0.098107
Sym=    36a
Ene=   -0.302200E-02
Spin= Alpha
Occup= 0.001117
     1    -0.006688
     2    -0.029208
     3     0.057418
     4    -0.244613
     5     0.005641
     6    -0.010730
     7    -0.431102
     8    -0.001878
     9    -0.030157
    10     0.065593
    11    -0.002041
    12    -0.036188
    13    -0.031161
    14    -0.795397
    15    -0.012362
    16     0.005953
    17     0.024121
    18    -0.022061
    19    -0.099162
    20    -0.010434
    21    -0.000105
    22     0.203689
    23     0.025591
    24     0.002058
    25    -0.053506
    26     0.010428
    27     0.011128
    28     0.359151
    29     0.360743
    30    -0.001434
    31     0.006760
    32     0.028741
    33    -0.025797
    34    -0.136635
    35     0.012009
    36     0.004377
    37     0.238599
    38    -0.025731
    39    -0.008973
    40    -0.029253
    41     0.007245
    42    -0.013221
    43    -0.296066
    44     0.105271
    45    -0.011332
Sym=    37a
Ene=   -0.553985E-02
Spin= Alpha
Occup= 0.001985
     1     0.003445
     2     0.011018
     3    -0.018795
     4     0.384168
     5    -0.002329
     6     0.008970
     7     0.263358
     8    -0.003171
     9     0.007970
    10    -0.003557
    11    -0.002814
    12    -0.007404
    13    -0.205664
    14    -0.194861
    15    -0.004536
    16    -0.000983
    17    -0.007065
    18     0.016836
    19    -0.027839
    20     0.010800
    21    -0.008623
    22     0.021615
    23    -0.018803
    24     0.012152
    25     0.011556
    26    -0.015844
    27     0.004370
    28    -0.257907
    29     0.293776
    30     0.010504
    31     0.001475
    32     0.004337
    33     0.007844
    34     0.043426
    35    -0.001442
    36    -0.001165
    37    -0.199798
    38     0.006301
    39     0.000614
    40     0.003275
    41    -0.022330
    42     0.011206
    43     0.653761
    44     0.432137
    45     0.007653
Sym=    38a
Ene=   -0.947192E-02
Spin= Alpha
Occup= 0.004986
     1     0.038680
     2     0.179156
     3     0.234320
     4    -0.014113
     5     0.113753
     6    -0.203837
     7    -0.010212
     8     0.336047
     9    -0.268616
    10    -0.117816
    11    -0.308237
    12     0.180965
    13    -0.017801
    14    -0.004855
    15     0.301904
    16     0.042475
    17     0.199553
    18    -0.368014
    19    -0.001309
    20    -0.123437
    21     0.094811
    22     0.007568
    23     0.099143
    24    -0.104856
    25    -0.013922
    26    -0.037556
    27     0.012360
    28     0.011105
    29    -0.009326
    30     0.000940
    31    -0.005888
    32    -0.000262
    33    -0.006960
    34     0.017925
    35     0.134328
    36    -0.122182
    37    -0.026939
    38    -0.278744
    39     0.364474
    40    -0.017501
    41     0.561966
    42    -0.484472
    43     0.020208
    44     0.009515
    45    -0.426788
Sym=    39a
Ene=   -0.130732E-01
Spin= Alpha
Occup= 0.007771
     1    -0.166499
     2    -0.777464
     3     0.339019
     4     0.003782
     5    -0.134035
     6    -0.206729
     7     0.001492
     8    -0.181017
     9    -0.071638
    10     0.261445
    11    -0.031815
    12     0.343255
    13    -0.004034
    14     0.001654
    15    -0.215703
    16     0.056333
    17     0.223114
    18    -0.050090
    19    -0.011439
    20     0.328561
    21     0.751171
    22     0.015024
    23    -0.380027
    24    -0.703072
    25    -0.020828
    26    -0.025026
    27    -0.151488
    28     0.009134
    29    -0.002403
    30     0.089592
    31    -0.007074
    32    -0.029927
    33    -0.091345
    34     0.001249
    35     0.047232
    36     0.016300
    37    -0.002327
    38     0.056619
    39     0.064267
    40     0.021857
    41    -0.055049
    42     0.055045
    43     0.001391
    44     0.000640
    45    -0.086681
Sym=    40a
Ene=   -0.793160E-02
Spin= Alpha
Occup= 0.003765
     1    -0.045038
     2    -0.293736
     3    -0.367825
     4    -0.030141
     5    -0.006299
     6     0.055709
     7    -0.022646
     8    -0.087278
     9    -0.023963
    10     0.235429
    11     0.238507
    12    -0.158842
    13    -0.169232
    14     0.091801
    15     0.085547
    16    -0.032058
    17    -0.239589
    18     0.476726
    19    -0.068677
    20     0.394571
    21    -0.133155
    22     0.161353
    23    -0.724248
    24     0.198416
    25     0.416925
    26    -0.618637
    27     0.221135
    28     0.336903
    29    -0.075696
    30     0.060242
    31     0.010094
    32     0.046207
    33    -0.014351
    34     0.006206
    35    -0.022715
    36    -0.124106
    37    -0.041399
    38    -0.051847
    39     0.154432
    40    -0.015059
    41    -0.106166
    42     0.043568
    43     0.052280
    44     0.028225
    45     0.049280
Sym=    41a
Ene=   -0.192898E-01
Spin= Alpha
Occup= 0.006713
     1    -0.082645
     2    -0.348602
     3     0.026124
     4    -0.000729
     5    -0.117882
     6     0.018584
     7    -0.000775
     8     0.035032
     9     0.043606
    10     0.096915
    11     0.037286
    12     0.050986
    13    -0.003295
    14    -0.000186
    15    -0.006305
    16     0.039357
    17     0.160177
    18    -0.060070
    19     0.005113
    20    -0.002023
    21    -0.061031
    22    -0.004473
    23     0.016051
    24     0.077541
    25    -0.058242
    26    -0.074826
    27    -0.019037
    28     0.001634
    29    -0.001417
    30    -0.019635
    31    -0.623575
    32    -2.513400
    33     0.844393
    34    -0.003316
    35     0.295272
    36     0.152677
    37     0.003245
    38    -0.193597
    39    -0.115450
    40     0.781890
    41     0.754256
    42     0.736392
    43     0.001027
    44     0.001413
    45     0.017478
Sym=    42a
Ene=   -0.114628E-01
Spin= Alpha
Occup= 0.004326
     1    -0.419919
     2    -1.884864
     3     0.540343
     4    -0.039178
     5    -0.007517
     6     0.324053
     7    -0.017057
     8    -0.055703
     9     0.156941
    10     0.745804
    11     0.450356
    12     0.746359
    13     0.110329
    14    -0.038991
    15    -0.026115
    16     0.218684
    17     0.833971
    18    -0.127040
    19     0.121269
    20     0.142673
    21    -0.364672
    22    -0.189763
    23    -0.115265
    24     0.463844
    25    -0.167447
    26    -0.368392
    27    -0.483638
    28    -0.196078
    29     0.081355
    30     0.256087
    31     0.060544
    32     0.266522
    33    -0.196173
    34     0.002402
    35    -0.127050
    36    -0.013340
    37     0.022662
    38     0.055988
    39    -0.001812
    40    -0.046333
    41    -0.172312
    42    -0.081357
    43    -0.038215
    44    -0.018679
    45    -0.074976
Sym=    43a
Ene=   -0.216316E-03
Spin= Alpha
Occup= 0.000013
     1    -0.002611
     2    -0.007174
     3    -0.021854
     4     0.398697
     5    -0.001834
     6    -0.001767
     7     1.530400
     8     0.015810
     9     0.000906
    10     0.009730
    11     0.006889
    12     0.006989
    13    -0.024873
    14    -0.384535
    15    -0.005084
    16     0.001121
    17     0.002854
    18     0.000913
    19     0.242684
    20     0.000247
    21    -0.000742
    22    -0.918567
    23     0.004433
    24    -0.001943
    25    -0.001958
    26    -0.006062
    27    -0.004164
    28     0.299501
    29    -0.100764
    30     0.003660
    31     0.000661
    32    -0.000830
    33     0.025015
    34     0.285811
    35     0.001017
    36    -0.000130
    37    -0.992950
    38     0.007246
    39     0.004674
    40    -0.003566
    41    -0.000757
    42    -0.002639
    43    -0.330141
    44    -0.108354
    45    -0.000679
Sym=    44a
Ene=   -0.522584E-03
Spin= Alpha
Occup= 0.000028
     1    -0.111569
     2    -0.552020
     3    -1.250278
     4     0.003063
     5     0.049520
     6    -0.335907
     7    -0.002526
     8    -0.132100
     9    -0.626984
    10     0.137104
    11    -0.010435
    12     0.684801
    13    -0.002630
    14     0.004477
    15    -0.078364
    16     0.254933
    17     0.478340
    18     1.728659
    19    -0.004931
    20     0.006394
    21    -0.116556
    22     0.008656
    23    -0.288011
    24     0.599129
    25    -0.834495
    26    -0.770748
    27    -0.589996
    28    -0.003494
    29     0.002235
    30    -0.368010
    31     0.140457
    32     0.277946
    33     0.909532
    34    -0.001583
    35     0.062690
    36    -0.098174
    37     0.003598
    38     0.032434
    39     0.472322
    40    -0.452727
    41    -0.470919
    42    -0.269458
    43    -0.000068
    44    -0.000768
    45     0.295420
Sym=    45a
Ene=   -0.513074E-03
Spin= Alpha
Occup= 0.000026
     1    -0.058538
     2    -0.201733
     3    -0.282220
     4    -0.000482
     5    -0.351072
     6     0.026891
     7    -0.001017
     8     0.535626
     9    -0.032421
    10     0.128364
    11     0.225951
    12     0.193149
    13     0.009398
    14    -0.000645
    15     0.095389
    16    -0.188258
    17    -0.232297
    18    -1.658650
    19     0.001970
    20    -0.186206
    21    -0.015163
    22    -0.004633
    23     0.815985
    24    -0.190424
    25     0.768534
    26     0.265635
    27     0.645205
    28     0.000420
    29    -0.000562
    30     0.154483
    31     0.320335
    32     0.548678
    33     2.333481
    34    -0.000807
    35    -0.185485
    36    -0.017022
    37     0.003680
    38     0.723370
    39     0.240636
    40    -1.105137
    41    -0.788348
    42    -0.981964
    43     0.003403
    44     0.001905
    45     0.095020
