[Molden Format]
p30-5 set                                                                       
[Atoms] AU
 O        1     8        0.0000        0.0000        0.8338
 O        2     8        0.0000        2.0457       -0.4169
 O        3     8        0.0000       -2.0457       -0.4169
[GTO]
    1 0
s    5 1.00
    2266.176778500000 -0.538935039217E-02
     340.870101910000 -0.402347213890E-01
      77.363135167000 -0.180081842055E+00
      21.479644940000 -0.468288576577E+00
       6.658943312400 -0.446926171602E+00
s    1 1.00
       0.809759756680  0.100000000000E+01
s    1 1.00
       0.255307722340  0.100000000000E+01
p    3 1.00
      17.721504317000  0.626302487632E-01
       3.863550544000  0.333311384824E+00
       1.048092088300  0.741486383081E+00
p    1 1.00
       0.276415444110  0.100000000000E+01
d    1 1.00
       1.200000000000  0.100000000000E+01
 
    2 0
s    5 1.00
    2266.176778500000 -0.538935039217E-02
     340.870101910000 -0.402347213890E-01
      77.363135167000 -0.180081842055E+00
      21.479644940000 -0.468288576577E+00
       6.658943312400 -0.446926171602E+00
s    1 1.00
       0.809759756680  0.100000000000E+01
s    1 1.00
       0.255307722340  0.100000000000E+01
p    3 1.00
      17.721504317000  0.626302487632E-01
       3.863550544000  0.333311384824E+00
       1.048092088300  0.741486383081E+00
p    1 1.00
       0.276415444110  0.100000000000E+01
d    1 1.00
       1.200000000000  0.100000000000E+01
 
    3 0
s    5 1.00
    2266.176778500000 -0.538935039217E-02
     340.870101910000 -0.402347213890E-01
      77.363135167000 -0.180081842055E+00
      21.479644940000 -0.468288576577E+00
       6.658943312400 -0.446926171602E+00
s    1 1.00
       0.809759756680  0.100000000000E+01
s    1 1.00
       0.255307722340  0.100000000000E+01
p    3 1.00
      17.721504317000  0.626302487632E-01
       3.863550544000  0.333311384824E+00
       1.048092088300  0.741486383081E+00
p    1 1.00
       0.276415444110  0.100000000000E+01
d    1 1.00
       1.200000000000  0.100000000000E+01
 
[MO]
Sym=     1a
Ene=   -0.207367E+02
Spin= Alpha
Occup= 1.999894
     1     0.400252
     2    -0.016850
     3     0.006282
     4    -0.000019
     5    -0.001304
     6     0.000847
     7    -0.000011
     8     0.001692
     9    -0.001351
    10     0.001890
    11     0.002051
    12     0.002007
    13     0.000004
    14     0.000001
    15     0.000885
    16    -0.567246
    17     0.023114
    18    -0.009971
    19    -0.000007
    20    -0.001299
    21     0.001104
    22    -0.000001
    23     0.002317
    24    -0.000470
    25    -0.002822
    26    -0.002490
    27    -0.002493
    28     0.000001
    29     0.000000
    30    -0.000219
    31     0.703893
    32    -0.028715
    33     0.007759
    34    -0.000005
    35    -0.000912
    36    -0.000150
    37     0.000001
    38     0.000839
    39     0.000758
    40     0.003752
    41     0.003943
    42     0.003716
    43    -0.000004
    44     0.000001
    45     0.000369
Sym=     2a
Ene=   -0.207589E+02
Spin= Alpha
Occup= 1.999872
     1     0.635443
     2    -0.027131
     3     0.007568
     4     0.000010
     5     0.000500
     6     0.000579
     7     0.000011
     8    -0.000683
     9    -0.002129
    10     0.003067
    11     0.004070
    12     0.003596
    13     0.000003
    14    -0.000001
    15    -0.000355
    16     0.723758
    17    -0.029600
    18     0.005822
    19     0.000001
    20     0.000355
    21    -0.000390
    22     0.000002
    23    -0.000253
    24     0.000194
    25     0.004107
    26     0.004299
    27     0.004004
    28    -0.000000
    29    -0.000001
    30    -0.000468
    31     0.221531
    32    -0.008977
    33    -0.000998
    34     0.000004
    35     0.000152
    36     0.000530
    37    -0.000001
    38    -0.001391
    39     0.000208
    40     0.001490
    41     0.001730
    42     0.001561
    43     0.000005
    44    -0.000007
    45     0.000407
Sym=     3a
Ene=   -0.207585E+02
Spin= Alpha
Occup= 1.999864
     1     0.642611
     2    -0.026237
     3     0.014548
     4     0.000009
     5     0.000323
     6     0.002369
     7     0.000002
     8    -0.000377
     9    -0.002328
    10     0.002933
    11     0.001781
    12     0.002573
    13     0.000000
    14     0.000003
    15    -0.000204
    16    -0.363064
    17     0.014188
    18    -0.007389
    19     0.000004
    20    -0.001427
    21     0.000734
    22     0.000001
    23     0.001171
    24    -0.000767
    25    -0.002043
    26    -0.001223
    27    -0.001461
    28    -0.000001
    29     0.000001
    30    -0.000473
    31    -0.658156
    32     0.026146
    33    -0.011589
    34    -0.000001
    35     0.002165
    36     0.000727
    37     0.000002
    38    -0.001637
    39    -0.001397
    40    -0.003561
    41    -0.002699
    42    -0.002899
    43     0.000001
    44     0.000001
    45     0.000433
Sym=     4a
Ene=   -0.141183E+01
Spin= Alpha
Occup= 1.990204
     1    -0.293306
     2    -0.617054
     3    -0.410927
     4     0.000271
     5     0.001826
     6    -0.163309
     7     0.000209
     8     0.001302
     9    -0.110230
    10    -0.012382
    11    -0.025351
    12    -0.008059
    13     0.000021
    14    -0.000010
    15     0.000320
    16    -0.007267
    17    -0.004489
    18     0.056086
    19     0.000217
    20     0.079736
    21    -0.024992
    22     0.000060
    23     0.018754
    24     0.017303
    25     0.004699
    26    -0.004562
    27    -0.002139
    28     0.000008
    29     0.000007
    30     0.010841
    31    -0.008059
    32    -0.005926
    33     0.055794
    34    -0.000065
    35    -0.066669
    36    -0.044620
    37     0.000026
    38    -0.008467
    39     0.003738
    40     0.004707
    41    -0.003990
    42    -0.002644
    43     0.000030
    44    -0.000001
    45    -0.011169
Sym=     5a
Ene=   -0.129991E+01
Spin= Alpha
Occup= 1.989191
     1     0.005355
     2     0.025928
     3     0.069671
     4     0.000380
     5     0.079911
     6     0.117920
     7     0.000235
     8     0.002862
     9     0.046416
    10     0.007573
    11     0.000734
    12    -0.007512
    13     0.000001
    14    -0.000042
    15    -0.016123
    16     0.001906
    17     0.005408
    18    -0.000246
    19     0.000062
    20    -0.021662
    21     0.012091
    22     0.000031
    23    -0.015928
    24     0.002574
    25     0.000205
    26     0.000055
    27     0.001850
    28    -0.000027
    29     0.000035
    30    -0.003301
    31    -0.285172
    32    -0.593314
    33    -0.407827
    34     0.000411
    35    -0.054113
    36     0.167467
    37     0.000094
    38    -0.031017
    39     0.115949
    40    -0.007825
    41    -0.023485
    42    -0.007498
    43    -0.000079
    44     0.000067
    45    -0.001461
Sym=     6a
Ene=   -0.130715E+01
Spin= Alpha
Occup= 1.989068
     1    -0.011692
     2    -0.036925
     3    -0.100307
     4     0.000127
     5     0.087514
     6    -0.069684
     7     0.000094
     8     0.014169
     9    -0.020818
    10    -0.006506
    11     0.007499
    12    -0.001744
    13     0.000000
    14    -0.000016
    15    -0.010792
    16     0.295834
    17     0.615833
    18     0.430422
    19     0.000173
    20     0.105909
    21     0.052448
    22     0.000007
    23     0.074228
    24     0.035749
    25     0.009010
    26     0.015152
    27     0.014730
    28    -0.000006
    29     0.000031
    30    -0.004659
    31    -0.000871
    32     0.000072
    33     0.020466
    34     0.000004
    35    -0.010287
    36    -0.011930
    37     0.000003
    38     0.004951
    39     0.003291
    40     0.000840
    41    -0.000713
    42    -0.000828
    43    -0.000008
    44     0.000046
    45    -0.002877
Sym=     7a
Ene=   -0.703120E+00
Spin= Alpha
Occup= 1.982404
     1    -0.025674
     2    -0.051912
     3    -0.104101
     4    -0.000765
     5    -0.006243
     6     0.094392
     7    -0.000479
     8    -0.018042
     9     0.056236
    10     0.000457
    11     0.019094
    12    -0.021654
    13     0.000009
    14     0.000029
    15    -0.012536
    16     0.020795
    17     0.051210
    18     0.076103
    19    -0.000059
    20    -0.028690
    21    -0.001430
    22    -0.000071
    23    -0.051973
    24     0.011592
    25     0.002903
    26    -0.000053
    27     0.003037
    28     0.000025
    29     0.000012
    30    -0.001340
    31     0.085276
    32     0.180107
    33     0.158285
    34    -0.000576
    35    -0.403423
    36     0.487534
    37    -0.000432
    38    -0.264698
    39     0.345104
    40     0.005103
    41    -0.017468
    42     0.019021
    43    -0.000029
    44     0.000035
    45     0.005836
Sym=     8a
Ene=   -0.671997E+00
Spin= Alpha
Occup= 1.981190
     1     0.008086
     2     0.009328
     3     0.061683
     4     0.000469
     5    -0.035265
     6    -0.063926
     7     0.000299
     8    -0.045608
     9    -0.026713
    10    -0.001472
    11    -0.020681
    12     0.018773
    13     0.000046
    14    -0.000054
    15    -0.013860
    16     0.040915
    17     0.082651
    18     0.070951
    19     0.000533
    20    -0.324668
    21    -0.571792
    22     0.000263
    23    -0.230020
    24    -0.394831
    25    -0.000022
    26     0.018999
    27    -0.015106
    28    -0.000037
    29     0.000039
    30     0.010112
    31    -0.025077
    32    -0.061465
    33    -0.073464
    34     0.000109
    35    -0.045183
    36     0.024435
    37    -0.000059
    38    -0.055636
    39     0.002383
    40    -0.003473
    41    -0.002463
    42    -0.001941
    43    -0.000024
    44     0.000065
    45    -0.001023
Sym=     9a
Ene=   -0.783564E+00
Spin= Alpha
Occup= 1.980795
     1    -0.000037
     2    -0.000029
     3    -0.000053
     4     0.586460
     5    -0.009350
     6     0.002319
     7     0.394635
     8    -0.004312
     9     0.001469
    10     0.000056
    11     0.000036
    12    -0.000145
    13     0.000015
    14    -0.028664
    15     0.000740
    16     0.000376
    17     0.000921
    18     0.003320
    19     0.171060
    20     0.007165
    21    -0.002853
    22     0.091095
    23     0.003716
    24    -0.000862
    25     0.000221
    26    -0.000446
    27     0.000012
    28    -0.021458
    29     0.012114
    30     0.000468
    31     0.000068
    32    -0.000004
    33    -0.001591
    34     0.171243
    35     0.004474
    36     0.003631
    37     0.091271
    38     0.002519
    39     0.001454
    40    -0.000165
    41     0.000228
    42     0.000109
    43     0.021448
    44     0.012112
    45     0.000433
Sym=    10a
Ene=   -0.806903E+00
Spin= Alpha
Occup= 1.963858
     1     0.010674
     2     0.025059
     3    -0.077837
     4    -0.006640
     5    -0.332533
     6    -0.378130
     7    -0.004429
     8    -0.152051
     9    -0.237896
    10    -0.012161
    11     0.018757
    12     0.010019
    13    -0.000053
    14     0.000336
    15     0.026706
    16     0.007944
    17     0.024833
    18     0.015396
    19    -0.001974
    20     0.082840
    21     0.060965
    22    -0.001178
    23     0.075321
    24     0.081152
    25     0.004082
    26     0.003856
    27    -0.004668
    28     0.000270
    29    -0.000140
    30     0.007043
    31    -0.021577
    32    -0.034054
    33    -0.205620
    34    -0.001748
    35     0.318651
    36     0.363390
    37    -0.000861
    38     0.124129
    39     0.206505
    40    -0.010853
    41     0.028102
    42     0.002109
    43    -0.000229
    44    -0.000161
    45     0.026882
Sym=    11a
Ene=   -0.828944E+00
Spin= Alpha
Occup= 1.963602
     1     0.014416
     2     0.031818
     3    -0.061033
     4     0.009438
     5     0.332290
     6    -0.391495
     7     0.006316
     8     0.146752
     9    -0.244223
    10    -0.012306
    11     0.014813
    12     0.013941
    13    -0.000022
    14    -0.000485
    15    -0.029703
    16    -0.020402
    17    -0.032180
    18    -0.206270
    19     0.003020
    20    -0.388735
    21     0.261355
    22     0.001508
    23    -0.170542
    24     0.136754
    25    -0.011099
    26     0.032076
    27    -0.001062
    28    -0.000349
    29     0.000227
    30    -0.025486
    31     0.001659
    32     0.010128
    33    -0.000766
    34     0.002621
    35    -0.090263
    36     0.057655
    37     0.001443
    38    -0.085191
    39     0.076010
    40     0.003331
    41     0.003378
    42    -0.005195
    43     0.000362
    44     0.000235
    45    -0.007571
Sym=    12a
Ene=   -0.452678E+00
Spin= Alpha
Occup= 1.456427
     1     0.000113
     2     0.000411
     3    -0.000266
     4     0.000053
     5    -0.000257
     6    -0.000264
     7     0.000063
     8    -0.000264
     9     0.000439
    10    -0.000194
    11     0.000072
    12     0.000205
    13     0.032804
    14    -0.000015
    15     0.000025
    16    -0.000040
    17    -0.000047
    18     0.000152
    19     0.487964
    20     0.000287
    21     0.000233
    22     0.330567
    23     0.000052
    24     0.000174
    25    -0.000011
    26     0.000051
    27    -0.000039
    28    -0.014189
    29     0.008549
    30     0.000013
    31    -0.000113
    32    -0.000162
    33    -0.000338
    34    -0.487657
    35     0.000246
    36    -0.000181
    37    -0.330549
    38     0.000228
    39    -0.000228
    40    -0.000063
    41     0.000069
    42     0.000033
    43    -0.014077
    44    -0.008613
    45     0.000031
Sym=    13a
Ene=   -0.214089E+00
Spin= Alpha
Occup= 0.543019
     1    -0.000035
     2    -0.000083
     3    -0.000206
     4    -0.349561
     5     0.000466
     6     0.000149
     7    -0.316113
     8     0.000816
     9     0.000189
    10    -0.000040
    11    -0.000017
    12     0.000015
    13    -0.000050
    14     0.001883
    15    -0.000002
    16    -0.000053
    17    -0.000071
    18    -0.000496
    19     0.513156
    20     0.000289
    21    -0.000172
    22     0.278349
    23     0.000297
    24    -0.000093
    25    -0.000105
    26    -0.000047
    27     0.000148
    28     0.002718
    29    -0.002797
    30    -0.000031
    31     0.000109
    32     0.000130
    33     0.000915
    34     0.513207
    35     0.000214
    36     0.000424
    37     0.278565
    38     0.000396
    39     0.000205
    40     0.000026
    41     0.000060
    42    -0.000080
    43    -0.002986
    44    -0.002379
    45    -0.000032
Sym=    14a
Ene=   -0.590045E-02
Spin= Alpha
Occup= 0.002097
     1    -0.041780
     2    -0.038118
     3    -0.420898
     4    -0.002209
     5    -0.010431
     6    -0.141474
     7     0.025471
     8    -0.010141
     9     0.392046
    10    -0.540384
    11     0.256455
    12     0.573776
    13    -0.115652
    14     0.166025
    15    -0.193186
    16    -0.039124
    17    -0.096779
    18     0.059575
    19     0.024089
    20     0.006153
    21    -0.004235
    22    -0.001462
    23     0.003962
    24    -0.023018
    25    -0.335081
    26     0.340523
    27     0.194292
    28     0.082844
    29    -0.203296
    30    -0.034400
    31    -0.012312
    32    -0.051973
    33     0.209148
    34    -0.070548
    35    -0.017578
    36     0.042502
    37     0.070783
    38     0.154415
    39    -0.068595
    40    -0.078684
    41     0.087825
    42     0.040159
    43     0.113723
    44    -0.253712
    45    -0.040176
Sym=    15a
Ene=   -0.618404E-01
Spin= Alpha
Occup= 0.034457
     1    -0.139293
     2    -0.419662
     3    -0.127763
     4     0.001783
     5     0.563396
     6     0.408732
     7    -0.001358
     8     0.112393
     9     0.044351
    10     0.023476
    11     0.075567
    12     0.056858
    13    -0.000157
    14     0.000368
    15     0.024174
    16    -0.008379
    17    -0.029655
    18    -0.010973
    19     0.000407
    20    -0.081185
    21    -0.094051
    22    -0.000322
    23    -0.009834
    24    -0.026744
    25     0.001702
    26    -0.013934
    27     0.022503
    28     0.000182
    29    -0.000219
    30    -0.013130
    31     0.121124
    32     0.348673
    33     0.137711
    34    -0.000368
    35     0.611955
    36     0.387563
    37     0.000087
    38     0.140548
    39     0.060944
    40    -0.037365
    41    -0.045963
    42    -0.029092
    43    -0.000564
    44     0.000925
    45    -0.035492
Sym=    16a
Ene=   -0.161260E-01
Spin= Alpha
Occup= 0.013107
     1     0.000319
     2     0.000882
     3    -0.000035
     4     0.903194
     5    -0.002325
     6     0.001395
     7    -0.982044
     8     0.001458
     9    -0.001814
    10    -0.000923
    11    -0.001394
    12     0.000929
    13    -0.000037
    14     0.039584
    15     0.002269
    16    -0.000039
    17    -0.000746
    18     0.000239
    19     0.250291
    20    -0.000157
    21     0.001160
    22    -0.059298
    23    -0.001100
    24    -0.000048
    25     0.002264
    26     0.000510
    27    -0.002247
    28     0.075025
    29    -0.042066
    30     0.001006
    31    -0.000056
    32     0.000005
    33    -0.000225
    34     0.250569
    35    -0.001636
    36    -0.000712
    37    -0.059672
    38    -0.000020
    39     0.000870
    40    -0.001022
    41    -0.000246
    42     0.000853
    43    -0.078283
    44    -0.037400
    45    -0.000112
Sym=    17a
Ene=   -0.184855E-01
Spin= Alpha
Occup= 0.013503
     1    -0.021557
     2    -0.127108
     3     0.144970
     4    -0.001338
     5     0.116406
     6     0.181722
     7     0.001998
     8    -0.142808
     9    -0.070551
    10     0.021996
    11    -0.092728
    12     0.086726
    13     0.001734
    14    -0.000218
    15    -0.083907
    16    -0.151670
    17    -0.633525
    18     0.294906
    19     0.000070
    20     0.405041
    21     0.773779
    22    -0.000805
    23    -0.445496
    24    -0.823226
    25     0.160948
    26     0.188399
    27     0.106133
    28    -0.000954
    29     0.004271
    30     0.009667
    31    -0.052503
    32    -0.211983
    33    -0.031441
    34     0.002158
    35    -0.044236
    36     0.074261
    37    -0.002777
    38    -0.055717
    39    -0.014496
    40     0.039152
    41     0.036244
    42     0.040034
    43    -0.003116
    44     0.005579
    45    -0.053447
Sym=    18a
Ene=   -0.183905E-01
Spin= Alpha
Occup= 0.012499
     1     0.054301
     2     0.175617
     3     0.172191
     4    -0.000703
     5    -0.185419
     6     0.154892
     7     0.000228
     8     0.107883
     9    -0.117372
    10    -0.053622
    11    -0.125757
    12     0.032240
    13     0.001552
    14     0.000134
    15     0.090437
    16    -0.004588
    17    -0.010566
    18    -0.134576
    19    -0.002285
    20    -0.019852
    21    -0.016433
    22     0.002381
    23     0.108232
    24     0.056505
    25     0.001012
    26     0.009099
    27     0.001616
    28    -0.000322
    29    -0.001664
    30     0.034962
    31     0.274950
    32     1.157824
    33    -0.526179
    34    -0.000901
    35    -0.518175
    36     0.613283
    37     0.001327
    38     0.482026
    39    -0.716987
    40    -0.312094
    41    -0.242505
    42    -0.320217
    43     0.001357
    44    -0.005375
    45    -0.009994
Sym=    19a
Ene=   -0.200421E-01
Spin= Alpha
Occup= 0.007755
     1     0.070092
     2     0.228940
     3     0.198945
     4     0.000343
     5     0.144347
     6     0.041038
     7    -0.001026
     8    -0.027224
     9    -0.095277
    10    -0.057535
    11    -0.125006
    12     0.002429
    13     0.003898
    14    -0.001942
    15    -0.036980
    16     0.624596
    17     2.522350
    18    -0.856213
    19    -0.002830
    20     0.288235
    21     0.084383
    22     0.002707
    23    -0.186992
    24    -0.146642
    25    -0.774788
    26    -0.701544
    27    -0.796472
    28    -0.001786
    29     0.000887
    30     0.028509
    31     0.006121
    32     0.022998
    33    -0.088680
    34     0.002188
    35     0.013796
    36     0.021510
    37    -0.001834
    38    -0.038666
    39    -0.035137
    40     0.007913
    41     0.012599
    42    -0.020700
    43     0.000702
    44    -0.002807
    45    -0.002085
Sym=    20a
Ene=   -0.790459E-02
Spin= Alpha
Occup= 0.003259
     1    -0.087753
     2    -0.343437
     3     0.309635
     4     0.001247
     5     0.141016
     6     0.159138
     7    -0.001613
     8    -0.126363
     9    -0.242740
    10     0.008393
    11     0.185160
    12     0.147647
    13    -0.012083
    14     0.007424
    15     0.159772
    16    -0.025763
    17    -0.087925
    18    -0.082519
    19     0.003233
    20     0.028214
    21     0.066019
    22    -0.001134
    23     0.017772
    24    -0.107923
    25     0.055148
    26     0.136812
    27    -0.048889
    28     0.007050
    29    -0.013489
    30     0.047862
    31     0.039011
    32     0.188928
    33    -0.318691
    34    -0.010357
    35     0.055907
    36    -0.046061
    37     0.011377
    38    -0.295499
    39    -0.022321
    40     0.287129
    41     0.133356
    42    -0.576629
    43     0.038197
    44    -0.066267
    45     0.742941
Sym=    21a
Ene=   -0.854548E-02
Spin= Alpha
Occup= 0.003500
     1    -0.006909
     2    -0.008327
     3    -0.068124
     4     0.084634
     5    -0.001293
     6    -0.023804
     7    -0.240218
     8    -0.002842
     9     0.062827
    10    -0.087667
    11     0.049764
    12     0.085190
    13    -0.009627
    14    -0.865206
    15    -0.022840
    16    -0.006269
    17    -0.017896
    18     0.017622
    19    -0.081316
    20     0.004313
    21    -0.000482
    22     0.084619
    23    -0.007804
    24    -0.003837
    25    -0.022366
    26     0.037745
    27     0.011901
    28    -0.233021
    29    -0.050229
    30    -0.013799
    31    -0.003776
    32    -0.013849
    33     0.029823
    34    -0.083736
    35    -0.005789
    36     0.005459
    37     0.084307
    38     0.025398
    39    -0.011276
    40    -0.015083
    41     0.009707
    42     0.020741
    43     0.257695
    44    -0.069512
    45    -0.006733
Sym=    22a
Ene=   -0.134910E-02
Spin= Alpha
Occup= 0.000065
     1     0.177862
     2     0.622694
     3     0.258645
     4    -0.001287
     5    -0.045701
     6    -0.355434
     7    -0.000374
     8     0.019981
     9     0.421755
    10    -0.386116
    11    -0.953410
    12     0.230770
    13    -0.021589
    14     0.019278
    15     0.100446
    16     0.027692
    17     0.080831
    18     0.109764
    19     0.010332
    20    -0.219058
    21     0.142812
    22    -0.007239
    23     0.115036
    24    -0.090176
    25     0.264913
    26    -0.300808
    27    -0.041985
    28     0.025614
    29     0.046818
    30    -0.189141
    31     0.052684
    32     0.161561
    33     0.173946
    34     0.003775
    35     0.169450
    36     0.137302
    37    -0.006330
    38    -0.103961
    39    -0.093183
    40     0.246366
    41    -0.468431
    42    -0.065004
    43     0.068258
    44    -0.051411
    45     0.109665
Sym=    23a
Ene=   -0.108042E-02
Spin= Alpha
Occup= 0.000051
     1    -0.039035
     2    -0.204173
     3     0.089724
     4     0.001449
     5     0.212492
     6    -0.031759
     7     0.020399
     8    -0.001390
     9    -0.152356
    10    -0.252434
    11     0.447268
    12     0.206226
    13    -0.022709
    14    -0.036359
    15    -0.669212
    16     0.022971
    17     0.094926
    18    -0.044049
    19    -0.035464
    20     0.299909
    21    -0.221025
    22     0.037460
    23    -0.052257
    24     0.162105
    25     0.550201
    26    -0.808884
    27    -0.148809
    28     0.091459
    29    -0.063860
    30     0.395057
    31    -0.011594
    32    -0.032722
    33    -0.096186
    34    -0.038049
    35     0.006266
    36     0.044244
    37     0.033578
    38     0.030006
    39    -0.075655
    40    -0.021809
    41     0.217300
    42    -0.063594
    43    -0.081214
    44    -0.104975
    45     0.060704
Sym=    24a
Ene=   -0.109111E-02
Spin= Alpha
Occup= 0.000053
     1    -0.034592
     2    -0.160064
     3     0.023115
     4    -0.018757
     5    -0.044066
     6     0.003339
     7    -0.072201
     8     0.030372
     9    -0.106893
    10    -0.115071
    11     0.343231
    12     0.082436
    13    -0.001264
    14     0.354047
    15    -0.036927
    16     0.001899
    17     0.011733
    18    -0.051786
    19     0.212499
    20     0.111250
    21    -0.071974
    22    -0.206568
    23    -0.042716
    24     0.037218
    25     0.047657
    26    -0.111538
    27    -0.017427
    28    -0.550729
    29     0.223843
    30     0.085327
    31     0.014591
    32     0.053230
    33    -0.001453
    34     0.205328
    35    -0.084440
    36    -0.047450
    37    -0.198186
    38     0.024547
    39     0.017117
    40     0.182948
    41    -0.192506
    42    -0.154527
    43     0.601991
    44     0.171924
    45    -0.143431
Sym=    25a
Ene=   -0.638824E-03
Spin= Alpha
Occup= 0.000554
     1    -0.000535
     2    -0.016361
     3     0.039127
     4     0.000593
     5    -0.002624
     6     0.023615
     7    -0.001274
     8     0.010511
     9    -0.051515
    10     0.018365
    11    -0.002402
    12    -0.025779
    13    -0.194282
    14    -0.002923
    15     0.002184
    16    -0.000368
    17    -0.001691
    18    -0.026374
    19    -0.537618
    20     0.007101
    21    -0.008113
    22     0.691548
    23     0.007851
    24     0.008928
    25     0.003305
    26    -0.008950
    27     0.006505
    28     0.297433
    29    -0.176968
    30    -0.004988
    31    -0.001013
    32    -0.006921
    33    -0.008584
    34     0.532854
    35    -0.012583
    36    -0.010814
    37    -0.685380
    38     0.006567
    39     0.019280
    40     0.015960
    41    -0.009408
    42    -0.005403
    43     0.285023
    44     0.183519
    45    -0.001108
Sym=    26a
Ene=   -0.620678E-01
Spin= Alpha
Occup= 0.034301
     1    -0.143877
     2    -0.432680
     3    -0.130483
     4    -0.001909
     5    -0.547927
     6     0.424177
     7     0.001708
     8    -0.103941
     9     0.041850
    10     0.025837
    11     0.081485
    12     0.055103
    13    -0.000142
    14     0.000014
    15    -0.021439
    16     0.120947
    17     0.348420
    18     0.132030
    19     0.000350
    20    -0.619474
    21     0.375299
    22    -0.000554
    23    -0.136476
    24     0.065568
    25    -0.036883
    26    -0.045222
    27    -0.027321
    28     0.000247
    29    -0.000423
    30     0.030890
    31     0.001628
    32     0.008972
    33    -0.023994
    34    -0.000455
    35     0.102477
    36    -0.087739
    37     0.000264
    38     0.013000
    39    -0.017587
    40    -0.003512
    41    -0.018746
    42     0.017934
    43    -0.000009
    44     0.000444
    45     0.012731
Sym=    27a
Ene=   -0.494060E-02
Spin= Alpha
Occup= 0.001685
     1    -0.016292
     2    -0.006632
     3    -0.206393
     4    -0.015670
     5     0.051327
     6    -0.083990
     7     0.010486
     8    -0.052956
     9     0.203631
    10    -0.334767
    11     0.130422
    12     0.329647
    13    -0.046943
    14    -0.106233
    15     0.171483
    16     0.003517
    17    -0.001135
    18     0.165968
    19     0.069865
    20     0.011383
    21     0.034238
    22    -0.082570
    23    -0.110113
    24    -0.034348
    25     0.067583
    26     0.023585
    27    -0.127528
    28     0.007018
    29     0.244963
    30     0.063587
    31    -0.021248
    32    -0.044877
    33    -0.025803
    34     0.045581
    35    -0.012317
    36    -0.028957
    37    -0.074425
    38    -0.029485
    39     0.002835
    40    -0.216347
    41     0.125611
    42     0.200585
    43    -0.254769
    44     0.728620
    45     0.079278
Sym=    28a
Ene=   -0.104021E-01
Spin= Alpha
Occup= 0.006098
     1     0.044431
     2     0.220101
     3    -0.213005
     4    -0.001242
     5    -0.002182
     6    -0.038600
     7     0.003645
     8     0.006440
     9     0.133446
    10    -0.212478
    11     0.019444
    12     0.045963
    13     0.683443
    14     0.011545
    15     0.003804
    16    -0.008487
    17    -0.032486
    18     0.077279
    19    -0.345312
    20    -0.010549
    21     0.021787
    22     0.292079
    23    -0.035259
    24    -0.028902
    25    -0.023945
    26     0.027825
    27     0.037250
    28    -0.187581
    29     0.185578
    30    -0.020453
    31    -0.006388
    32    -0.023224
    33     0.078298
    34     0.349286
    35     0.015196
    36     0.010985
    37    -0.296536
    38     0.028331
    39    -0.012146
    40    -0.026680
    41     0.034094
    42     0.025541
    43    -0.197336
    44    -0.175671
    45     0.016063
Sym=    29a
Ene=   -0.973606E-02
Spin= Alpha
Occup= 0.005307
     1    -0.020194
     2    -0.165390
     3     0.388492
     4    -0.002542
     5     0.137938
     6     0.246220
     7     0.002020
     8    -0.344729
     9    -0.434144
    10     0.058784
    11    -0.240323
    12     0.186156
    13     0.037403
    14    -0.010047
    15    -0.233334
    16    -0.055220
    17    -0.196331
    18    -0.047350
    19    -0.015627
    20    -0.086854
    21    -0.160421
    22     0.010836
    23     0.273174
    24     0.340653
    25     0.183116
    26     0.640719
    27    -0.588311
    28    -0.011111
    29     0.050135
    30     0.184788
    31    -0.007959
    32    -0.063100
    33    -0.255747
    34     0.027296
    35    -0.014096
    36    -0.018166
    37    -0.027037
    38    -0.098168
    39    -0.009679
    40     0.098412
    41    -0.057893
    42     0.002041
    43    -0.025955
    44     0.030479
    45    -0.026701
Sym=    30a
Ene=   -0.952233E-02
Spin= Alpha
Occup= 0.005097
     1    -0.016785
     2    -0.116191
     3     0.158450
     4     0.000654
     5    -0.193289
     6     0.144434
     7    -0.002150
     8     0.385162
     9    -0.233459
    10    -0.034872
    11    -0.218964
    12     0.304012
    13     0.006043
    14     0.004086
    15     0.211878
    16    -0.006145
    17    -0.058910
    18    -0.168869
    19    -0.008597
    20     0.010928
    21    -0.035089
    22     0.009781
    23     0.043868
    24     0.014577
    25     0.050589
    26    -0.052479
    27     0.032386
    28    -0.000493
    29    -0.013588
    30     0.023921
    31     0.020674
    32     0.092299
    33     0.031003
    34    -0.003380
    35     0.055496
    36    -0.176503
    37     0.006030
    38    -0.159810
    39     0.373123
    40    -0.121300
    41     0.564662
    42    -0.523280
    43     0.024764
    44    -0.061092
    45    -0.420690
Sym=    31a
Ene=   -0.775327E-02
Spin= Alpha
Occup= 0.003176
     1     0.077930
     2     0.292919
     3    -0.240571
     4     0.001625
     5     0.184620
     6    -0.125930
     7    -0.004753
     8    -0.211477
     9     0.183294
    10    -0.015386
    11    -0.251523
    12    -0.039361
    13     0.012666
    14    -0.013031
    15     0.074970
    16    -0.019400
    17    -0.107949
    18     0.301545
    19    -0.010550
    20     0.023785
    21    -0.009104
    22     0.010522
    23    -0.211995
    24     0.123891
    25    -0.335057
    26     0.018755
    27     0.383746
    28    -0.014897
    29    -0.013491
    30     0.833498
    31     0.040068
    32     0.127525
    33     0.051783
    34     0.005082
    35     0.032260
    36    -0.056195
    37    -0.003886
    38     0.004655
    39     0.089126
    40    -0.035561
    41    -0.186636
    42     0.009909
    43    -0.000780
    44    -0.004580
    45     0.069357
Sym=    32a
Ene=   -0.186850E-01
Spin= Alpha
Occup= 0.007550
     1     0.053353
     2     0.197876
     3     0.039753
     4    -0.000239
     5     0.015807
     6    -0.101040
     7     0.000584
     8    -0.149828
     9     0.022643
    10    -0.027526
    11    -0.006235
    12    -0.081477
    13    -0.001022
    14    -0.002945
    15    -0.105225
    16    -0.027523
    17    -0.116800
    18     0.113743
    19     0.001875
    20     0.035611
    21     0.106234
    22    -0.002340
    23    -0.099229
    24    -0.165690
    25     0.049767
    26     0.057276
    27     0.011567
    28    -0.000250
    29     0.004613
    30    -0.046593
    31     0.577334
    32     2.315047
    33    -0.763963
    34     0.001999
    35     0.066756
    36    -0.440050
    37    -0.002816
    38    -0.157016
    39     0.427531
    40    -0.728903
    41    -0.757955
    42    -0.641764
    43    -0.005000
    44     0.014979
    45    -0.020727
Sym=    33a
Ene=   -0.179093E-01
Spin= Alpha
Occup= 0.006296
     1    -0.623002
     2    -2.534265
     3     0.885682
     4     0.000295
     5    -0.004991
     6    -0.337161
     7    -0.000137
     8    -0.002858
     9     0.264754
    10     0.885389
    11     0.743062
    12     0.830222
    13     0.054720
    14     0.000310
    15    -0.002777
    16     0.051167
    17     0.245725
    18    -0.232348
    19    -0.027362
    20     0.140766
    21    -0.061662
    22     0.023100
    23    -0.026844
    24    -0.056794
    25    -0.102743
    26    -0.106115
    27    -0.087081
    28    -0.015620
    29     0.016523
    30     0.029546
    31     0.050709
    32     0.243301
    33    -0.233098
    34     0.028701
    35    -0.171144
    36    -0.016994
    37    -0.024564
    38     0.067230
    39    -0.116338
    40    -0.103727
    41    -0.119674
    42    -0.066154
    43    -0.018324
    44    -0.009277
    45    -0.027753
Sym=    34a
Ene=   -0.147207E-02
Spin= Alpha
Occup= 0.000071
     1    -0.016370
     2    -0.061791
     3    -0.027351
     4    -0.005026
     5     0.146787
     6    -0.005383
     7     0.013189
     8    -0.145168
     9    -0.012323
    10    -0.082797
    11     0.146192
    12     0.060649
    13    -0.043265
    14     0.088024
    15     0.545908
    16     0.043228
    17     0.123574
    18     0.186633
    19     0.021957
    20    -0.077979
    21     0.102333
    22    -0.017640
    23    -0.030859
    24    -0.099255
    25     0.267348
    26    -0.040234
    27    -0.468920
    28     0.053525
    29     0.049254
    30     0.126296
    31    -0.030945
    32    -0.077523
    33    -0.175947
    34    -0.004243
    35    -0.137020
    36    -0.156419
    37     0.002354
    38    -0.008411
    39     0.125642
    40    -0.386383
    41    -0.000406
    42     0.507413
    43     0.246990
    44    -0.374506
    45     0.052117
Sym=    35a
Ene=   -0.157839E-02
Spin= Alpha
Occup= 0.000076
     1     0.011252
     2     0.038918
     3     0.014815
     4    -0.005174
     5     0.032046
     6    -0.017344
     7     0.019351
     8    -0.031640
     9     0.021844
    10    -0.008339
    11    -0.065542
    12     0.001673
    13     0.063201
    14     0.111405
    15     0.121412
    16     0.012515
    17     0.034320
    18     0.054131
    19    -0.036262
    20    -0.040376
    21     0.034379
    22     0.038643
    23     0.006073
    24    -0.025166
    25     0.102727
    26    -0.031892
    27    -0.133649
    28    -0.475825
    29    -0.812941
    30     0.003609
    31    -0.002896
    32    -0.007104
    33    -0.023748
    34     0.030025
    35    -0.009621
    36    -0.020220
    37    -0.027565
    38    -0.011673
    39     0.021101
    40    -0.053412
    41    -0.016927
    42     0.081652
    43    -0.167975
    44     0.163993
    45     0.032497
Sym=    36a
Ene=   -0.108339E-02
Spin= Alpha
Occup= 0.000052
     1     0.064919
     2     0.313759
     3    -0.046579
     4    -0.005002
     5     0.155218
     6     0.028189
     7    -0.022746
     8    -0.000333
     9     0.184433
    10     0.257383
    11    -0.752981
    12    -0.137478
    13     0.018761
    14     0.110950
    15    -0.464853
    16    -0.031433
    17    -0.102509
    18     0.002712
    19     0.062174
    20    -0.091280
    21     0.030461
    22    -0.062428
    23     0.059048
    24     0.039192
    25    -0.014911
    26     0.034049
    27     0.237901
    28    -0.153585
    29     0.058109
    30    -0.101985
    31    -0.046189
    32    -0.164857
    33    -0.009143
    34     0.068469
    35     0.309766
    36     0.219332
    37    -0.064346
    38    -0.077886
    39    -0.130396
    40    -0.488856
    41     0.744766
    42     0.314932
    43     0.225803
    44     0.026307
    45     0.433946
Sym=    37a
Ene=    0.000000E+00
Spin= Alpha
Occup= 0.000000
     1     0.047208
     2    -0.209355
     3     2.600066
     4     0.048141
     5     0.241539
     6    -0.170796
     7    -0.163880
     8    -1.095687
     9    -0.662296
    10    -0.299474
    11     0.238467
    12    -0.332754
    13    -0.371877
    14     0.054692
    15     0.041932
    16     0.198800
    17     0.680273
    18     0.093084
    19    -0.164721
    20    -0.310760
    21     0.159051
    22     0.304364
    23     0.832914
    24    -0.293323
    25    -0.457828
    26    -0.563037
    27    -0.459054
    28    -0.283447
    29     0.187867
    30     0.167569
    31     0.021208
    32     0.328726
    33    -1.852278
    34     0.014983
    35     0.040670
    36     0.123534
    37    -0.022714
    38    -1.092552
    39    -0.903809
    40     0.067722
    41     0.051740
    42    -0.178590
    43    -0.193710
    44    -0.104027
    45    -0.309954
Sym=    38a
Ene=    0.000000E+00
Spin= Alpha
Occup= 0.000000
     1    -0.167471
     2    -0.231255
     3    -0.959090
     4     0.162710
     5     0.136435
     6    -0.072017
     7    -0.546850
     8    -0.629723
     9     0.280641
    10     0.659931
    11     0.315636
    12     0.562690
    13    -0.104018
    14     0.169674
    15     0.129676
    16    -0.211278
    17    -0.535956
    18    -0.222413
    19    -0.301563
    20    -0.096484
    21     0.077731
    22     0.546548
    23    -0.158722
    24     0.084922
    25     0.681511
    26     0.469342
    27     0.620015
    28    -0.184639
    29     0.135069
    30     0.032110
    31    -0.171741
    32    -0.400729
    33    -0.738944
    34    -0.248424
    35    -0.025746
    36     0.001294
    37     0.451759
    38    -0.022182
    39    -0.208430
    40     0.577012
    41     0.376988
    42     0.422595
    43     0.040160
    44     0.059148
    45    -0.149645
Sym=    39a
Ene=    0.000000E+00
Spin= Alpha
Occup= 0.000000
     1    -0.198756
     2     0.127480
     3    -3.805080
     4    -0.101952
     5    -0.112546
     6    -0.390058
     7     0.342817
     8     0.093627
     9     1.690184
    10     1.005105
    11     0.721212
    12     0.480282
    13     0.014563
    14    -0.102901
    15    -0.013296
    16     0.044416
    17     0.001593
    18     1.661681
    19     0.176246
    20    -0.070028
    21     0.108649
    22    -0.319000
    23    -0.868889
    24     0.076980
    25    -0.028043
    26     0.083722
    27    -0.442154
    28     0.101271
    29    -0.070375
    30     0.162353
    31     0.094578
    32     0.220277
    33     1.675359
    34     0.171056
    35     0.280648
    36     0.207498
    37    -0.309305
    38     0.514822
    39    -0.038496
    40    -0.160130
    41    -0.086267
    42    -0.438663
    43    -0.031295
    44    -0.057825
    45    -0.158789
Sym=    40a
Ene=    0.000000E+00
Spin= Alpha
Occup= 0.000000
     1    -0.008560
     2     0.126505
     3    -0.784876
     4     0.021669
     5    -0.132293
     6    -0.061283
     7    -0.073532
     8     1.270026
     9     0.384313
    10     0.137261
    11    -0.025153
    12     0.037121
    13     0.066962
    14     0.021253
    15    -0.357786
    16     0.231844
    17     0.605225
    18     0.510602
    19    -0.018748
    20    -0.004024
    21     0.070353
    22     0.035149
    23     0.111905
    24    -0.453818
    25    -0.651519
    26    -0.560796
    27    -0.727005
    28     0.027074
    29    -0.008915
    30     0.133294
    31    -0.316462
    32    -0.913321
    33    -0.058341
    34    -0.052139
    35     0.017498
    36    -0.095627
    37     0.095183
    38     0.587546
    39     0.640048
    40     0.909071
    41     0.850610
    42     0.840002
    43     0.057612
    44     0.050268
    45     0.164831
Sym=    41a
Ene=    0.000000E+00
Spin= Alpha
Occup= 0.000000
     1    -0.045156
     2    -0.044674
     3    -0.620904
     4    -0.175714
     5     0.402597
     6     0.089734
     7     0.589340
     8    -2.162763
     9     0.031688
    10     0.169167
    11    -0.071280
    12     0.248107
    13    -0.007158
    14    -0.183152
    15     0.227355
    16     0.011980
    17    -0.149211
    18     1.663260
    19     0.298607
    20    -0.151525
    21    -0.005566
    22    -0.539721
    23    -0.584732
    24     0.782652
    25    -0.150958
    26    -0.164822
    27     0.191624
    28     0.110747
    29    -0.083420
    30    -0.256643
    31    -0.173621
    32    -0.378480
    33    -1.682365
    34     0.302260
    35    -0.253887
    36    -0.117773
    37    -0.545796
    38    -0.185298
    39    -0.413883
    40     0.549784
    41     0.445649
    42     0.348397
    43    -0.128830
    44    -0.097930
    45    -0.106564
Sym=    42a
Ene=    0.000000E+00
Spin= Alpha
Occup= 0.000000
     1    -0.073512
     2    -0.837029
     3     4.356906
     4    -0.079192
     5    -0.112893
     6     0.070823
     7     0.267780
     8     0.675075
     9    -1.843346
    10    -0.140263
    11     0.341877
    12     0.176187
    13     0.289721
    14    -0.089363
    15    -0.066809
    16    -0.074964
    17     0.192249
    18    -2.957113
    19     0.197210
    20    -0.070308
    21     0.096260
    22    -0.363227
    23     1.741303
    24    -0.964583
    25     0.392790
    26    -0.028999
    27     0.378165
    28     0.248751
    29    -0.166299
    30     0.323509
    31    -0.048384
    32     0.175153
    33    -2.005556
    34     0.067726
    35     0.171204
    36     0.084333
    37    -0.121351
    38    -1.460712
    39    -0.522567
    40     0.288627
    41    -0.148479
    42     0.385242
    43     0.125893
    44     0.071473
    45    -0.221470
Sym=    43a
Ene=    0.000000E+00
Spin= Alpha
Occup= 0.000000
     1    -0.037063
     2    -0.000470
     3    -0.675518
     4    -0.033155
     5     0.234809
     6    -0.022854
     7     0.108537
     8     2.163686
     9     0.213981
    10     0.172324
    11     0.087371
    12     0.118182
    13    -0.055839
    14    -0.036926
    15    -0.285652
    16    -0.040759
    17     0.357700
    18    -2.260610
    19     0.048028
    20    -0.394850
    21     0.159923
    22    -0.083224
    23     1.518065
    24    -0.960712
    25     0.426252
    26    -0.009297
    27     0.270641
    28    -0.023832
    29     0.025755
    30     0.247078
    31     0.073127
    32    -0.319608
    33     2.890578
    34     0.074246
    35    -0.365203
    36    -0.142762
    37    -0.131276
    38     1.784146
    39     1.064809
    40    -0.496175
    41    -0.065239
    42    -0.398813
    43    -0.065577
    44    -0.009346
    45     0.249735
Sym=    44a
Ene=    0.000000E+00
Spin= Alpha
Occup= 0.000000
     1    -0.221796
     2    -0.644500
     3    -0.752893
     4    -0.031284
     5    -0.198933
     6     0.287961
     7     0.104382
     8     0.659362
     9    -0.638220
    10     0.523454
    11     0.311063
    12     0.910713
    13    -0.387347
    14    -0.030234
    15    -0.071905
    16     0.075764
    17     0.169425
    18     0.058586
    19    -0.044982
    20     0.126853
    21    -0.103209
    22     0.079282
    23     0.124250
    24     0.069356
    25    -0.306646
    26    -0.406105
    27    -0.028805
    28    -0.247659
    29     0.140518
    30    -0.059781
    31     0.068400
    32     0.172343
    33     0.561915
    34     0.146840
    35     0.100409
    36    -0.057947
    37    -0.265733
    38    -0.162176
    39     0.391828
    40    -0.213767
    41    -0.494441
    42     0.144954
    43    -0.286166
    44    -0.193812
    45     0.136519
Sym=    45a
Ene=    0.000000E+00
Spin= Alpha
Occup= 0.000000
     1    -0.161136
     2    -0.347316
     3    -1.398989
     4     0.105438
     5     0.214427
     6     0.103250
     7    -0.353611
     8    -0.947824
     9    -0.037248
    10     0.448132
    11     0.366256
    12     0.590348
    13     0.413766
    14     0.100579
    15     0.082030
    16     0.207402
    17     0.461002
    18     1.679345
    19    -0.082424
    20    -0.172293
    21    -0.011371
    22     0.145795
    23    -0.152333
    24     0.464010
    25    -0.614319
    26    -0.710746
    27    -0.385456
    28     0.192924
    29    -0.102227
    30    -0.109748
    31     0.128371
    32     0.322186
    33     0.347286
    34    -0.273047
    35    -0.091409
    36    -0.040231
    37     0.498075
    38    -0.002741
    39    -0.069185
    40    -0.373226
    41    -0.398224
    42    -0.349227
    43     0.324670
    44     0.250557
    45    -0.030542
