[Molden Format]
p30-5 set                                                                       
[Atoms] AU
 B        1     5        0.0000        0.0000       -1.4143
 N        2     7        0.0000        0.0000        1.0102
[GTO]
    1 0
s    5 1.00
     839.318300860000 -0.562888359825E-02
     126.264648430000 -0.418327946095E-01
      28.620600763000 -0.184174881258E+00
       7.879372271000 -0.468396550281E+00
       2.408885717200 -0.444579308833E+00
s    1 1.00
       0.251051090360  0.100000000000E+01
s    1 1.00
       0.083648866069  0.100000000000E+01
p    3 1.00
       6.033222361900 -0.540325003228E-01
       1.249915786600 -0.301940343932E+00
       0.338716763500 -0.771707916582E+00
p    1 1.00
       0.096415632351  0.100000000000E+01
d    1 1.00
       0.500000000000  0.100000000000E+01

    2 0
s    5 1.00
    1712.841585300000 -0.544779958049E-02
     257.648126770000 -0.406271746324E-01
      58.458245853000 -0.181119622506E+00
      16.198367905000 -0.468439755632E+00
       5.005260080900 -0.446168462892E+00
s    1 1.00
       0.587318565710  0.100000000000E+01
s    1 1.00
       0.187645922530  0.100000000000E+01
p    3 1.00
      13.571470233000 -0.588481169695E-01
       2.925737287400 -0.320246247625E+00
       0.799277507540 -0.753282265204E+00
p    1 1.00
       0.219543480340  0.100000000000E+01
d    1 1.00
       1.000000000000  0.100000000000E+01

[MO]
Sym=     1a
Ene=   -0.156215E+02
Spin= Alpha
Occup= 1.999983
     1     0.000846
     2     0.000096
     3    -0.006019
     4    -0.000029
     5    -0.000093
     6    -0.003031
     7     0.000016
     8     0.000049
     9    -0.004231
    10    -0.000759
    11    -0.000771
    12     0.002178
    13    -0.000006
    14    -0.000002
    15     0.000005
    16     0.989286
    17    -0.041287
    18     0.019839
    19     0.000036
    20    -0.000048
    21    -0.003079
    22     0.000023
    23     0.000099
    24    -0.001682
    25     0.002873
    26     0.002864
    27     0.001743
    28     0.000013
    29     0.000090
    30     0.000090
Sym=     2a
Ene=   -0.771459E+01
Spin= Alpha
Occup= 1.999854
     1     0.991094
     2    -0.035626
     3     0.011063
     4     0.000514
     5     0.000391
     6    -0.002772
     7     0.000064
     8     0.000131
     9    -0.002146
    10     0.002333
    11     0.002276
    12     0.002948
    13     0.000002
    14    -0.000162
    15    -0.000147
    16    -0.001251
    17     0.001053
    18     0.000283
    19     0.000160
    20    -0.000071
    21     0.000583
    22    -0.000106
    23     0.000002
    24    -0.002003
    25     0.000444
    26     0.000339
    27    -0.003890
    28     0.000042
    29    -0.000026
    30    -0.000077
Sym=     3a
Ene=   -0.107112E+01
Spin= Alpha
Occup= 1.983644
     1     0.112907
     2     0.219339
     3     0.020851
     4     0.009667
     5     0.011196
     6    -0.182288
     7    -0.005907
     8    -0.006698
     9     0.029774
    10    -0.006660
    11    -0.006758
    12     0.030261
    13    -0.000249
    14    -0.000182
    15    -0.000284
    16     0.276458
    17     0.561477
    18     0.238274
    19     0.014676
    20     0.016724
    21     0.063366
    22    -0.009842
    23    -0.011201
    24     0.054574
    25     0.011993
    26     0.012042
    27     0.032975
    28     0.000015
    29     0.000995
    30     0.001082
Sym=     4a
Ene=   -0.486146E+00
Spin= Alpha
Occup= 1.962393
     1    -0.108106
     2    -0.250864
     3    -0.062215
     4     0.317832
     5    -0.009925
     6     0.092558
     7    -0.141208
     8     0.005997
     9     0.014243
    10    -0.008410
    11    -0.003693
    12    -0.020205
    13    -0.001860
    14    -0.035071
    15     0.000621
    16     0.038302
    17     0.092460
    18     0.183201
    19     0.410934
    20    -0.012148
    21    -0.260704
    22    -0.270656
    23     0.010040
    24     0.124723
    25     0.006952
    26     0.007556
    27    -0.009986
    28    -0.000378
    29     0.022069
    30    -0.000319
Sym=     5a
Ene=   -0.479962E+00
Spin= Alpha
Occup= 1.962083
     1    -0.101842
     2    -0.237611
     3    -0.064638
     4    -0.109312
     5     0.309433
     6     0.075084
     7     0.050389
     8    -0.137403
     9     0.017251
    10    -0.003470
    11    -0.009060
    12    -0.019126
    13    -0.000451
    14     0.011492
    15    -0.033788
    16     0.036627
    17     0.087737
    18     0.168081
    19    -0.139844
    20     0.398853
    21    -0.234304
    22     0.094306
    23    -0.262376
    24     0.112352
    25     0.007001
    26     0.006312
    27    -0.008849
    28    -0.000263
    29    -0.007150
    30     0.021434
Sym=     6a
Ene=   -0.470004E+00
Spin= Alpha
Occup= 1.954501
     1     0.160224
     2     0.374814
     3     0.165250
     4     0.169759
     5     0.216920
     6     0.017953
     7    -0.078503
     8    -0.099941
     9    -0.072035
    10     0.015180
    11     0.015273
    12     0.033048
    13    -0.001011
    14    -0.016593
    15    -0.021153
    16    -0.067263
    17    -0.157721
    18    -0.215138
    19     0.207992
    20     0.266359
    21     0.243568
    22    -0.138986
    23    -0.177642
    24    -0.122624
    25    -0.008723
    26    -0.009035
    27     0.006277
    28    -0.000755
    29     0.010689
    30     0.013768
Sym=     7a
Ene=   -0.210344E-02
Spin= Alpha
Occup= 0.001294
     1    -0.061104
     2    -0.264142
     3     0.041264
     4     0.634337
     5     0.035133
     6    -0.052755
     7     0.076931
     8     0.000879
     9     0.004553
    10     0.119967
    11     0.095523
    12     0.150578
    13    -0.029595
    14     0.246327
    15     0.017328
    16    -0.015887
    17    -0.070529
    18    -0.057814
    19     0.559300
    20     0.050355
    21    -0.010105
    22     0.793206
    23     0.062764
    24     0.049223
    25    -0.063769
    26     0.028765
    27     0.104603
    28    -0.145659
    29    -0.507370
    30    -0.021251
Sym=     8a
Ene=   -0.342792E-01
Spin= Alpha
Occup= 0.032028
     1    -0.125797
     2    -0.479311
     3    -0.022014
     4    -0.160265
     5     0.614645
     6    -0.033628
     7     0.034148
     8    -0.114633
     9     0.010075
    10     0.042004
    11     0.029877
    12     0.076855
    13     0.012122
    14     0.009338
    15    -0.068985
    16     0.016045
    17     0.042137
    18     0.073416
    19     0.223361
    20    -0.617578
    21     0.369121
    22    -0.010358
    23     0.001504
    24     0.002520
    25     0.006496
    26    -0.010772
    27     0.008123
    28     0.005439
    29    -0.011338
    30     0.048774
Sym=     9a
Ene=   -0.335098E-01
Spin= Alpha
Occup= 0.030870
     1     0.132870
     2     0.510831
     3     0.015761
     4    -0.629036
     5    -0.033169
     6     0.005552
     7     0.116460
     8     0.002481
     9    -0.006618
    10    -0.030322
    11    -0.051336
    12    -0.075989
    13    -0.004435
    14     0.074789
    15     0.010821
    16    -0.021866
    17    -0.067147
    18    -0.081678
    19     0.653423
    20    -0.014239
    21    -0.395847
    22     0.011996
    23     0.008245
    24    -0.006900
    25     0.017013
    26    -0.009257
    27    -0.003965
    28     0.000694
    29    -0.053674
    30    -0.004737
Sym=    10a
Ene=   -0.982127E-02
Spin= Alpha
Occup= 0.004261
     1    -0.462313
     2    -2.725484
     3     0.223852
     4    -0.044521
     5    -0.079336
     6     0.709945
     7    -0.005456
     8    -0.014419
     9    -0.169797
    10     0.792849
    11     0.782387
    12     0.416151
    13    -0.001196
    14     0.031924
    15     0.033185
    16    -0.365240
    17    -1.682335
    18     1.481082
    19     0.028500
    20     0.001111
    21     0.281549
    22     0.005098
    23    -0.039960
    24    -0.562656
    25     0.669096
    26     0.651690
    27     0.243074
    28     0.000621
    29    -0.031076
    30    -0.035593
Sym=    11a
Ene=   -0.393173E-03
Spin= Alpha
Occup= 0.000047
     1     0.004814
     2    -0.051489
     3    -0.033320
     4    -0.325980
     5     0.290986
     6     0.061649
     7    -0.311421
     8     0.286910
     9    -0.014720
    10    -0.093691
    11     0.071501
    12    -0.031943
    13     0.043903
    14     0.723261
    15    -0.639091
    16     0.007945
    17     0.012542
    18     0.139109
    19     0.166944
    20    -0.155905
    21     0.002410
    22    -0.057606
    23     0.036219
    24    -0.085858
    25    -0.013054
    26    -0.066395
    27     0.017274
    28    -0.004827
    29     0.534762
    30    -0.469333
Sym=    12a
Ene=   -0.129797E-03
Spin= Alpha
Occup= 0.000010
     1    -0.020051
     2    -0.019887
     3     0.024333
     4    -0.065676
     5    -0.073550
     6     0.354562
     7    -0.043503
     8    -0.046283
     9     0.204382
    10     0.507351
    11     0.476292
    12    -1.239816
    13    -0.032166
    14     0.271444
    15     0.297604
    16    -0.161303
    17     0.038334
    18    -0.918456
    19     0.016741
    20     0.015049
    21     0.396833
    22    -0.105578
    23    -0.120392
    24    -0.099966
    25     0.501675
    26     0.497791
    27     0.799521
    28     0.014655
    29     0.159216
    30     0.173476
Sym=    13a
Ene=   -0.989444E-03
Spin= Alpha
Occup= 0.000573
     1     0.011353
     2     0.050042
     3    -0.007774
     4     0.030175
     5     0.128945
     6     0.037449
     7     0.020013
     8     0.070811
     9    -0.000862
    10     0.050577
    11    -0.092153
    12    -0.033925
    13    -0.928544
    14    -0.033572
    15    -0.080740
    16    -0.015044
    17    -0.048220
    18    -0.009892
    19    -0.010907
    20     0.010993
    21     0.018003
    22     0.007641
    23     0.069317
    24    -0.002663
    25     0.014552
    26     0.049489
    27     0.051076
    28     0.440698
    29    -0.045781
    30    -0.153124
Sym=    14a
Ene=   -0.346376E-02
Spin= Alpha
Occup= 0.001901
     1    -0.125391
     2    -0.505760
     3     0.145142
     4     0.077761
     5    -0.150829
     6     0.321854
     7     0.036608
     8    -0.026019
     9    -0.020397
    10     0.580218
    11     0.012090
    12     0.017867
    13     0.070955
    14    -0.046951
    15    -0.059842
    16    -0.054822
    17    -0.119050
    18    -0.028521
    19     0.143336
    20    -0.046539
    21     0.414159
    22     0.222279
    23    -0.078072
    24     0.413102
    25     0.454870
    26    -0.590820
    27     0.553413
    28     0.187154
    29     0.165665
    30     0.148655
Sym=    15a
Ene=   -0.520397E-02
Spin= Alpha
Occup= 0.003296
     1    -0.026245
     2    -0.218017
     3     0.011927
     4     0.329322
     5     0.054255
     6    -0.043414
     7     0.195340
     8     0.027711
     9     0.034010
    10    -0.025255
    11     0.137740
    12     0.040062
    13    -0.033485
    14    -0.296623
    15    -0.041162
    16     0.061822
    17     0.233057
    18     0.014220
    19     0.399732
    20     0.042490
    21    -0.155433
    22     0.660119
    23     0.079678
    24    -0.235773
    25    -0.155792
    26     0.091036
    27    -0.247388
    28    -0.023064
    29     0.565146
    30     0.064701
Sym=    16a
Ene=   -0.182655E-01
Spin= Alpha
Occup= 0.008191
     1     0.216330
     2     1.101608
     3    -0.283548
     4     0.066558
     5     0.085230
     6    -0.718419
     7     0.007201
     8     0.011317
     9     0.042693
    10    -0.276611
    11    -0.280661
    12    -0.096300
    13    -0.002873
    14    -0.031553
    15    -0.034056
    16    -0.577078
    17    -2.511688
    18     0.521732
    19    -0.046318
    20    -0.034489
    21    -0.276678
    22    -0.001042
    23     0.021007
    24     0.284699
    25     0.561246
    26     0.555748
    27     0.664848
    28     0.004385
    29     0.045089
    30     0.047450
Sym=    17a
Ene=   -0.454628E-03
Spin= Alpha
Occup= 0.000053
     1    -0.013049
     2     0.902003
     3     0.376464
     4    -0.252800
     5    -0.266489
     6    -1.009714
     7    -0.251274
     8    -0.268451
     9     0.075563
    10    -0.087993
    11    -0.069818
    12     0.695005
    13    -0.097947
    14     0.494533
    15     0.520963
    16     0.052137
    17     0.194258
    18    -1.299307
    19     0.139152
    20     0.152727
    21    -0.102602
    22     0.000373
    23     0.008591
    24     1.237972
    25     0.128638
    26     0.113687
    27    -0.766938
    28     0.039491
    29     0.388613
    30     0.406377
Sym=    18a
Ene=   -0.355207E-04
Spin= Alpha
Occup= 0.000003
     1    -0.055281
     2    -0.188901
     3    -0.562143
     4     0.095858
     5    -0.363053
     6     0.085859
     7     0.324485
     8    -1.170933
     9    -0.022649
    10     0.235398
    11     0.236557
    12     0.212017
    13    -0.011815
    14     0.164546
    15    -0.545832
    16     0.005983
    17    -0.050459
    18     0.324427
    19    -0.067766
    20     0.228641
    21    -0.029765
    22    -0.285099
    23     0.955819
    24    -0.068605
    25    -0.026943
    26    -0.017723
    27    -0.046153
    28     0.003475
    29     0.074815
    30    -0.247069
Sym=    19a
Ene=   -0.103742E-02
Spin= Alpha
Occup= 0.000587
     1     0.001162
     2    -0.007067
     3    -0.017866
     4     0.047394
     5    -0.043670
     6     0.050789
     7     0.035020
     8    -0.018758
     9     0.011331
    10    -0.746757
    11     0.820389
    12    -0.085035
    13    -0.077375
    14    -0.054637
    15     0.031562
    16     0.043848
    17     0.178272
    18     0.116487
    19    -0.000603
    20     0.000241
    21     0.079759
    22     0.021619
    23    -0.021489
    24     0.043577
    25     0.307873
    26    -0.553144
    27    -0.056659
    28     0.057874
    29    -0.090635
    30     0.084791
Sym=    20a
Ene=   -0.160950E-02
Spin= Alpha
Occup= 0.000605
     1     0.007161
     2     0.033012
     3    -0.051329
     4     0.020877
     5     0.041621
     6    -0.182781
     7     0.020081
     8     0.018035
     9     0.067387
    10     0.303778
    11     0.137066
    12    -0.313584
    13    -0.005370
    14    -0.014539
    15    -0.010251
    16     0.513641
    17     1.919959
    18     0.825702
    19    -0.023322
    20    -0.008150
    21     0.237089
    22    -0.025103
    23     0.001651
    24     0.336416
    25    -1.230771
    26    -1.134800
    27    -1.255263
    28    -0.005637
    29    -0.047076
    30    -0.073661
Sym=    21a
Ene=   -0.301280E-02
Spin= Alpha
Occup= 0.001801
     1    -0.030773
     2    -0.154842
     3     0.080073
     4    -0.002694
     5    -0.514354
     6    -0.117909
     7    -0.002794
     8    -0.053255
     9    -0.010713
    10     0.083379
    11     0.031556
    12     0.086721
    13    -0.236723
    14     0.002060
    15    -0.262818
    16     0.040925
    17     0.155696
    18    -0.072646
    19    -0.048365
    20    -0.504739
    21    -0.111827
    22    -0.050087
    23    -0.665276
    24    -0.038948
    25    -0.081062
    26    -0.011414
    27    -0.144228
    28    -0.351945
    29    -0.038651
    30     0.483713
Sym=    22a
Ene=   -0.529766E-02
Spin= Alpha
Occup= 0.002141
     1     0.596302
     2     2.887498
     3    -0.631537
     4    -0.019041
     5    -0.005289
     6     0.840077
     7     0.018640
     8     0.029452
     9     0.035476
    10    -1.057377
    11    -0.992202
    12    -1.512272
    13    -0.063468
    14     0.007839
    15     0.000285
    16    -0.119655
    17    -0.330799
    18     0.524417
    19     0.069319
    20     0.083692
    21     0.778606
    22     0.053885
    23     0.077626
    24     0.265394
    25     0.132390
    26     0.385614
    27     0.258336
    28    -0.208815
    29     0.042461
    30     0.075675
Sym=    23a
Ene=   -0.351800E-03
Spin= Alpha
Occup= 0.000041
     1     0.056989
     2    -1.245113
     3    -0.641982
     4    -0.134758
     5    -0.184224
     6     1.120352
     7    -0.106499
     8    -0.140877
     9    -0.283121
    10    -0.263681
    11    -0.290645
    12    -0.248266
    13    -0.062638
    14     0.319566
    15     0.404444
    16     0.101320
    17    -0.083179
    18     2.707609
    19     0.056984
    20     0.067301
    21    -0.172876
    22    -0.064579
    23    -0.090053
    24    -1.868637
    25    -0.651597
    26    -0.653108
    27     0.363004
    28     0.024464
    29     0.234130
    30     0.300414
Sym=    24a
Ene=   -0.420994E-04
Spin= Alpha
Occup= 0.000003
     1    -0.079911
     2    -0.178290
     3    -0.368679
     4     0.354831
     5     0.133688
     6    -0.043596
     7     1.147367
     8     0.430389
     9     0.036160
    10     0.222593
    11     0.223831
    12     0.442651
    13     0.006012
    14     0.526946
    15     0.194671
    16     0.012825
    17    -0.042687
    18     0.050281
    19    -0.226181
    20    -0.086583
    21    -0.059336
    22    -0.942823
    23    -0.353344
    24     0.151428
    25    -0.026231
    26    -0.017420
    27    -0.127857
    28    -0.002125
    29     0.242009
    30     0.092056
Sym=    25a
Ene=   -0.435528E-01
Spin= Alpha
Occup= 0.043046
     1    -0.158427
     2    -0.540071
     3    -0.084244
     4    -0.227583
     5    -0.322470
     6    -0.313093
     7     0.057836
     8     0.077817
     9     0.055940
    10     0.021947
    11     0.012755
    12     0.108678
    13    -0.018777
    14    -0.002093
    15     0.000110
    16    -0.006796
    17    -0.061626
    18     0.003638
    19     0.317252
    20     0.418300
    21     0.444317
    22    -0.049619
    23    -0.060269
    24    -0.019061
    25     0.005788
    26    -0.000543
    27     0.021538
    28    -0.010568
    29    -0.011927
    30    -0.019132
Sym=    26a
Ene=   -0.513763E-02
Spin= Alpha
Occup= 0.003383
     1     0.022266
     2     0.200022
     3     0.004108
     4     0.044596
     5    -0.401619
     6     0.003431
     7     0.029935
     8    -0.211917
     9    -0.026764
    10    -0.111659
    11     0.025876
    12    -0.026865
    13     0.011057
    14    -0.043008
    15     0.264323
    16    -0.047609
    17    -0.172414
    18    -0.055029
    19     0.067790
    20    -0.467096
    21     0.120184
    22     0.105936
    23    -0.747724
    24     0.224309
    25    -0.087745
    26     0.111302
    27     0.211925
    28     0.019895
    29     0.088397
    30    -0.510092
Sym=    27a
Ene=   -0.333654E-02
Spin= Alpha
Occup= 0.001640
     1    -0.397738
     2    -1.811949
     3     0.414470
     4    -0.139607
     5     0.059407
     6     0.178424
     7    -0.043626
     8     0.008980
     9    -0.051235
    10     0.631529
    11     0.957870
    12     0.569468
    13    -0.065524
    14    -0.018452
    15    -0.014337
    16    -0.064439
    17    -0.176918
    18    -0.169187
    19    -0.037923
    20     0.145556
    21     0.304030
    22    -0.070436
    23     0.215924
    24     0.443153
    25    -0.553742
    26     0.271547
    27     0.745876
    28    -0.134183
    29     0.091761
    30     0.114628
Sym=    28a
Ene=   -0.400822E-02
Spin= Alpha
Occup= 0.001762
     1    -0.088763
     2    -0.425585
     3     0.077228
     4    -0.075829
     5     0.229773
     6    -0.099107
     7    -0.011800
     8     0.012968
     9    -0.006563
    10     0.229064
    11     0.076239
    12     0.231746
    13    -0.237504
    14    -0.039243
    15     0.117286
    16     0.002095
    17    -0.013391
    18    -0.070410
    19    -0.072749
    20     0.159463
    21    -0.098774
    22    -0.088372
    23     0.236135
    24    -0.025451
    25     0.267015
    26    -0.308254
    27     0.018317
    28    -0.755319
    29     0.107817
    30    -0.286448
Sym=    29a
Ene=   -0.475628E-04
Spin= Alpha
Occup= 0.000005
     1     0.207461
     2     0.518660
     3     1.346385
     4     0.143297
     5    -0.060244
     6    -0.094271
     7     0.452077
     8    -0.239269
     9    -0.257968
    10    -0.731658
    11    -0.723912
    12    -1.006705
    13     0.002219
    14     0.200640
    15    -0.120793
    16    -0.023642
    17     0.100369
    18    -0.260116
    19    -0.081501
    20     0.065058
    21     0.135792
    22    -0.346305
    23     0.241133
    24    -0.151235
    25     0.043527
    26     0.042175
    27     0.235815
    28    -0.002476
    29     0.089402
    30    -0.062676
Sym=    30a
Ene=   -0.542750E-05
Spin= Alpha
Occup= 0.000001
     1     0.002170
     2    -0.670478
     3    -2.000363
     4    -0.002078
     5     0.024372
     6     0.211432
     7    -0.025062
     8     0.056972
     9    -2.276804
    10     0.158960
    11     0.161793
    12    -0.528069
    13     0.001749
    14    -0.025506
    15     0.014976
    16     0.062996
    17    -0.328801
    18     4.045265
    19     0.009974
    20    -0.004025
    21     0.090774
    22     0.038115
    23    -0.027054
    24    -0.933279
    25    -0.326750
    26    -0.329665
    27    -0.149955
    28     0.000653
    29    -0.008133
    30     0.009838
