[Molden Format]
p30-5 set                                                                       
[Atoms] AU
 C        1     6        0.0000        0.0000        0.0000
[GTO]
    1 0
s    8 1.00
   67025.071028999999  0.709883366380E-04
   10039.986537999999  0.551759078496E-03
    2284.931691100000  0.289330111183E-02
     647.141221300000  0.121111499128E-01
     211.094723350000  0.428226972503E-01
      76.177643862000  0.129053328799E+00
      29.633839163000  0.318146477908E+00
      12.187785081000  0.591790274517E+00
s    2 1.00
      53.026006299000  0.913649169262E-01
      15.258502776000  0.928761090236E+00
s    1 1.00
       5.240395746400  0.100000000000E+01
s    1 1.00
       2.290502237900  0.100000000000E+01
s    1 1.00
       0.696732830060  0.100000000000E+01
s    1 1.00
       0.275993373630  0.100000000000E+01
s    1 1.00
       0.107398843890  0.100000000000E+01
p    5 1.00
     105.125550820000  0.249653501281E-02
      24.884461066000  0.195463956283E-01
       7.863723082600  0.888349466294E-01
       2.840700183500  0.294789686074E+00
       1.122713733500  0.702715999245E+00
p    1 1.00
       0.460507255550  0.100000000000E+01
p    1 1.00
       0.189375309130  0.100000000000E+01
p    1 1.00
       0.075983791611  0.100000000000E+01
d    1 1.00
       1.848000000000  0.100000000000E+01
d    1 1.00
       0.649000000000  0.100000000000E+01
d    1 1.00
       0.228000000000  0.100000000000E+01
f    1 1.00
       1.419000000000  0.100000000000E+01
f    1 1.00
       0.485000000000  0.100000000000E+01
g    1 1.00
       1.011000000000  0.100000000000E+01
 
[MO]
Sym=     1a
Ene=   -0.113323E+02
Spin= Alpha
Occup= 1.999630
     1     0.547287
     2    -0.000661
     3     0.370479
     4     0.175088
     5     0.016467
     6    -0.002782
     7    -0.002439
     8     0.000000
     9    -0.000000
    10     0.000000
    11     0.000000
    12     0.000000
    13    -0.000001
    14    -0.000000
    15    -0.000000
    16     0.000000
    17    -0.000000
    18     0.000000
    19     0.000000
    20    -0.001685
    21    -0.001555
    22    -0.001684
    23    -0.000028
    24    -0.000006
    25     0.000031
    26    -0.001770
    27    -0.002146
    28    -0.001773
    29     0.000082
    30     0.000016
    31    -0.000088
    32    -0.000497
    33    -0.000337
    34    -0.000496
    35    -0.000035
    36    -0.000007
    37     0.000038
    38    -0.000000
    39    -0.000000
    40     0.000000
    41    -0.000000
    42    -0.000000
    43     0.000000
    44    -0.000000
    45     0.000000
    46     0.000000
    47    -0.000000
    48    -0.000000
    49     0.000000
    50     0.000001
    51    -0.000000
    52    -0.000000
    53     0.000000
    54     0.000000
    55    -0.000000
    56    -0.000000
    57     0.000000
    58    -0.000347
    59    -0.000030
    60    -0.000261
    61    -0.000036
    62    -0.000560
    63     0.000006
    64     0.000013
    65     0.000004
    66     0.000033
    67    -0.000203
    68    -0.000014
    69    -0.000261
    70     0.000006
    71     0.000028
    72    -0.000346
Sym=     2a
Ene=   -0.727409E+00
Spin= Alpha
Occup= 1.957773
     1    -0.114101
     2    -0.016519
     3    -0.144750
     4    -0.078901
     5     0.303491
     6     0.534154
     7     0.240198
     8     0.000003
     9     0.000000
    10    -0.000002
    11     0.000002
    12     0.000005
    13    -0.000010
    14     0.000002
    15     0.000009
    16    -0.000004
    17     0.000005
    18    -0.000006
    19     0.000001
    20     0.005464
    21     0.002906
    22     0.005449
    23     0.000556
    24     0.000110
    25    -0.000601
    26     0.015364
    27     0.028286
    28     0.015443
    29    -0.002810
    30    -0.000556
    31     0.003034
    32     0.012648
    33     0.005047
    34     0.012611
    35     0.001651
    36     0.000325
    37    -0.001789
    38     0.000000
    39    -0.000002
    40     0.000002
    41     0.000000
    42    -0.000001
    43     0.000001
    44    -0.000000
    45     0.000000
    46     0.000002
    47    -0.000000
    48     0.000000
    49    -0.000002
    50     0.000003
    51    -0.000001
    52    -0.000002
    53     0.000001
    54     0.000000
    55    -0.000004
    56    -0.000003
    57     0.000001
    58    -0.000930
    59    -0.000788
    60    -0.002059
    61    -0.000922
    62    -0.006461
    63     0.000145
    64     0.000331
    65     0.000098
    66     0.000853
    67    -0.000536
    68    -0.000357
    69    -0.002049
    70     0.000145
    71     0.000733
    72    -0.000897
Sym=     3a
Ene=   -0.230474E+00
Spin= Alpha
Occup= 1.000000
     1     0.000004
     2     0.000001
     3     0.000004
     4    -0.000010
     5    -0.000054
     6     0.000026
     7     0.000204
     8     0.279611
     9     0.085154
    10    -0.173929
    11     0.312213
    12     0.095076
    13    -0.194194
    14     0.298644
    15     0.090940
    16    -0.185770
    17     0.102220
    18     0.031140
    19    -0.063593
    20     0.000006
    21    -0.000001
    22     0.000004
    23     0.000002
    24    -0.000001
    25    -0.000003
    26    -0.000077
    27    -0.000039
    28    -0.000067
    29    -0.000009
    30     0.000009
    31     0.000018
    32    -0.000049
    33    -0.000062
    34    -0.000050
    35     0.000005
    36    -0.000002
    37    -0.000007
    38    -0.000682
    39     0.000005
    40     0.000420
    41    -0.000031
    42    -0.000209
    43     0.000166
    44    -0.000289
    45    -0.000171
    46     0.000033
    47     0.000111
    48    -0.001585
    49    -0.000247
    50     0.000977
    51    -0.000409
    52    -0.000341
    53     0.000414
    54    -0.000689
    55    -0.000298
    56     0.000270
    57     0.000121
    58     0.000018
    59    -0.000006
    60     0.000007
    61    -0.000006
    62     0.000004
    63    -0.000003
    64     0.000001
    65    -0.000002
    66     0.000003
    67     0.000012
    68    -0.000002
    69     0.000008
    70    -0.000003
    71     0.000002
    72     0.000024
Sym=     4a
Ene=   -0.230475E+00
Spin= Alpha
Occup= 1.000000
     1     0.000001
     2     0.000001
     3    -0.000001
     4    -0.000008
     5    -0.000028
     6     0.000008
     7     0.000180
     8     0.184208
     9    -0.022704
    10     0.285014
    11     0.205689
    12    -0.025354
    13     0.318240
    14     0.196750
    15    -0.024265
    16     0.304428
    17     0.067345
    18    -0.008293
    19     0.104209
    20     0.000002
    21    -0.000002
    22    -0.000001
    23     0.000000
    24    -0.000001
    25    -0.000002
    26    -0.000055
    27    -0.000038
    28    -0.000034
    29    -0.000001
    30     0.000005
    31     0.000011
    32    -0.000039
    33    -0.000050
    34    -0.000045
    35     0.000004
    36    -0.000001
    37    -0.000006
    38    -0.000450
    39     0.000000
    40    -0.000691
    41     0.000012
    42    -0.000051
    43    -0.000326
    44    -0.000224
    45     0.000154
    46    -0.000005
    47    -0.000020
    48    -0.001046
    49     0.000071
    50    -0.001609
    51    -0.000234
    52    -0.000024
    53    -0.000740
    54    -0.000491
    55     0.000201
    56    -0.000387
    57    -0.000022
    58     0.000005
    59    -0.000004
    60     0.000003
    61    -0.000004
    62     0.000006
    63    -0.000002
    64    -0.000000
    65    -0.000001
    66     0.000000
    67     0.000006
    68    -0.000002
    69     0.000007
    70    -0.000002
    71    -0.000000
    72     0.000016
Sym=     5a
Ene=   -0.189966E-01
Spin= Alpha
Occup= 0.020789
     1    -0.000000
     2    -0.000000
     3    -0.000000
     4     0.000000
     5     0.000001
     6     0.000001
     7    -0.000003
     8    -0.087791
     9     0.482707
    10     0.095193
    11    -0.060706
    12     0.333786
    13     0.065825
    14    -0.010635
    15     0.058476
    16     0.011533
    17    -0.004604
    18     0.025316
    19     0.004992
    20     0.000000
    21     0.000004
    22    -0.000004
    23    -0.000000
    24     0.000002
    25    -0.000010
    26     0.000001
    27    -0.000004
    28     0.000003
    29    -0.000005
    30    -0.000002
    31     0.000007
    32     0.000000
    33     0.000001
    34     0.000002
    35     0.000003
    36    -0.000000
    37     0.000002
    38    -0.011867
    39     0.017404
    40     0.012827
    41     0.006636
    42     0.027717
    43     0.005467
    44    -0.004978
    45     0.027364
    46    -0.007210
    47     0.002748
    48    -0.028851
    49     0.088506
    50     0.031180
    51     0.004597
    52     0.068798
    53     0.013566
    54    -0.012400
    55     0.068191
    56    -0.004967
    57     0.004031
    58    -0.000001
    59    -0.000001
    60     0.000003
    61     0.000004
    62    -0.000002
    63     0.000000
    64    -0.000000
    65    -0.000001
    66     0.000001
    67    -0.000000
    68    -0.000000
    69     0.000000
    70     0.000000
    71     0.000001
    72    -0.000000
Sym=     6a
Ene=   -0.139910E-03
Spin= Alpha
Occup= 0.000011
     1    -0.000089
     2     0.000077
     3     0.000075
     4    -0.000067
     5    -0.000088
     6     0.000043
     7     0.000001
     8    -0.000016
     9     0.000094
    10     0.000019
    11    -0.000825
    12     0.004609
    13     0.000914
    14    -0.000027
    15     0.000141
    16     0.000027
    17    -0.000001
    18     0.000009
    19     0.000001
    20    -0.230419
    21     0.550756
    22    -0.320220
    23     0.673812
    24     0.314808
    25    -0.874933
    26     0.178085
    27    -0.424705
    28     0.246503
    29    -0.520920
    30    -0.242804
    31     0.673482
    32     0.019610
    33    -0.046955
    34     0.027329
    35    -0.057343
    36    -0.026836
    37     0.074685
    38     0.000272
    39    -0.002559
    40    -0.000498
    41     0.000310
    42    -0.000716
    43    -0.000200
    44     0.000264
    45    -0.001115
    46    -0.000178
    47     0.000197
    48     0.000197
    49    -0.001368
    50    -0.000160
    51     0.000183
    52    -0.000501
    53    -0.000077
    54     0.000045
    55    -0.000386
    56    -0.000246
    57    -0.000037
    58    -0.027959
    59    -0.053134
    60    -0.011189
    61    -0.080387
    62     0.083310
    63     0.018744
    64     0.022463
    65     0.024746
    66     0.062686
    67    -0.014917
    68    -0.026466
    69    -0.004408
    70     0.018550
    71     0.041404
    72    -0.020480
Sym=     7a
Ene=   -0.486151E-02
Spin= Alpha
Occup= 0.003130
     1     0.000064
     2     0.000014
     3     0.000022
     4    -0.000041
     5    -0.000124
     6     0.000118
     7    -0.000328
     8     1.143285
     9     0.215495
    10    -0.038370
    11    -0.541857
    12    -0.102150
    13     0.018294
    14    -0.827577
    15    -0.155966
    16     0.027769
    17    -0.089875
    18    -0.016955
    19     0.003002
    20    -0.000040
    21     0.000009
    22    -0.000019
    23    -0.000010
    24    -0.000001
    25     0.000011
    26     0.000129
    27     0.000056
    28     0.000173
    29     0.000017
    30    -0.000044
    31    -0.000054
    32     0.000062
    33     0.000114
    34     0.000102
    35    -0.000011
    36    -0.000018
    37     0.000009
    38     0.028364
    39    -0.009187
    40    -0.000954
    41    -0.019370
    42     0.015370
    43     0.002126
    44     0.012396
    45     0.002820
    46    -0.001942
    47    -0.008096
    48     0.323492
    49     0.068272
    50    -0.010891
    51     0.160709
    52     0.020771
    53    -0.006148
    54     0.144826
    55     0.027030
    56    -0.004166
    57     0.004062
    58    -0.000044
    59     0.000016
    60    -0.000013
    61     0.000016
    62     0.000006
    63     0.000013
    64    -0.000005
    65     0.000003
    66    -0.000006
    67    -0.000029
    68     0.000009
    69    -0.000015
    70     0.000013
    71    -0.000009
    72    -0.000058
Sym=     8a
Ene=   -0.136513E-03
Spin= Alpha
Occup= 0.000010
     1    -0.000092
     2     0.000082
     3     0.000069
     4    -0.000065
     5    -0.000076
     6     0.000043
     7     0.000005
     8    -0.000008
     9     0.000047
    10     0.000009
    11    -0.000605
    12     0.003339
    13     0.000658
    14    -0.000025
    15     0.000142
    16     0.000028
    17    -0.000002
    18     0.000004
    19     0.000001
    20     0.303850
    21    -0.044064
    22    -0.259682
    23    -0.959857
    24    -0.051920
    25    -0.765384
    26    -0.230075
    27     0.034103
    28     0.195856
    29     0.726660
    30     0.039704
    31     0.577405
    32    -0.025807
    33     0.003680
    34     0.022104
    35     0.081508
    36     0.004377
    37     0.065154
    38     0.000207
    39    -0.001766
    40    -0.000366
    41     0.000333
    42    -0.000548
    43    -0.000026
    44     0.000069
    45    -0.000837
    46    -0.000223
    47    -0.000211
    48     0.000160
    49    -0.001030
    50    -0.000121
    51     0.000082
    52    -0.000394
    53    -0.000103
    54     0.000077
    55    -0.000286
    56    -0.000141
    57     0.000085
    58    -0.019344
    59    -0.039942
    60    -0.021590
    61    -0.069463
    62    -0.006985
    63    -0.002288
    64    -0.019759
    65    -0.004306
    66    -0.087830
    67     0.001279
    68    -0.013598
    69     0.023230
    70    -0.003280
    71    -0.050535
    72     0.023131
Sym=     9a
Ene=   -0.486198E-02
Spin= Alpha
Occup= 0.003131
     1    -0.000054
     2    -0.000040
     3     0.000128
     4     0.000142
     5    -0.000776
     6     0.000427
     7    -0.000078
     8    -0.078026
     9     0.211012
    10    -1.141961
    11     0.036917
    12    -0.100176
    13     0.542004
    14     0.056528
    15    -0.152870
    16     0.827275
    17     0.006167
    18    -0.016621
    19     0.089997
    20     0.000157
    21     0.000213
    22     0.000156
    23    -0.000015
    24     0.000008
    25     0.000014
    26     0.000060
    27    -0.000169
    28     0.000139
    29     0.000045
    30     0.000049
    31    -0.000059
    32    -0.000105
    33     0.000001
    34    -0.000079
    35    -0.000027
    36     0.000016
    37     0.000020
    38    -0.001940
    39    -0.008873
    40    -0.028201
    41     0.003878
    42     0.001481
    43    -0.012990
    44    -0.003398
    45     0.016332
    46     0.018916
    47    -0.006626
    48    -0.022088
    49     0.067153
    50    -0.323930
    51    -0.012271
    52     0.027187
    53    -0.144668
    54    -0.008571
    55     0.019553
    56    -0.161119
    57     0.003431
    58    -0.000071
    59     0.000028
    60     0.000013
    61     0.000019
    62     0.000095
    63    -0.000004
    64    -0.000011
    65    -0.000002
    66    -0.000018
    67    -0.000031
    68     0.000011
    69     0.000019
    70    -0.000004
    71    -0.000021
    72    -0.000036
Sym=    10a
Ene=   -0.535470E-04
Spin= Alpha
Occup= 0.000004
     1     0.000006
     2    -0.000007
     3    -0.000001
     4     0.000001
     5     0.000009
     6    -0.000002
     7    -0.000001
     8    -0.000178
     9    -0.000044
    10     0.000059
    11     0.003101
    12     0.000735
    13    -0.000864
    14    -0.000449
    15    -0.000086
    16     0.000024
    17    -0.000125
    18    -0.000031
    19     0.000042
    20    -0.000083
    21    -0.000013
    22     0.000086
    23    -0.000049
    24     0.000163
    25     0.000009
    26    -0.000913
    27    -0.000090
    28     0.001006
    29    -0.000519
    30     0.001635
    31     0.000063
    32    -0.000154
    33    -0.000016
    34     0.000171
    35    -0.000090
    36     0.000288
    37     0.000012
    38     0.801888
    39    -0.013666
    40    -0.253918
    41    -0.024307
    42     0.142214
    43     0.269992
    44    -1.054215
    45    -0.124510
    46     0.071406
    47     0.296867
    48    -0.724096
    49     0.012028
    50     0.229230
    51     0.021419
    52    -0.128440
    53    -0.242935
    54     0.948577
    55     0.111923
    56    -0.064049
    57    -0.267260
    58    -0.000930
    59     0.000026
    60    -0.000144
    61    -0.000026
    62     0.000049
    63    -0.000969
    64     0.000167
    65    -0.000291
    66     0.000196
    67    -0.000121
    68    -0.000124
    69     0.000229
    70    -0.001133
    71     0.000412
    72     0.000919
Sym=    11a
Ene=   -0.110027E-01
Spin= Alpha
Occup= 0.005947
     1    -0.348354
     2    -0.097830
     3    -0.136182
     4     0.329255
     5     0.944298
     6    -0.646297
     7    -0.418619
     8     0.000134
     9     0.000016
    10     0.000042
    11    -0.000023
    12     0.000010
    13    -0.000086
    14    -0.000096
    15    -0.000042
    16     0.000069
    17    -0.000020
    18     0.000008
    19    -0.000010
    20     0.143073
    21     0.041466
    22     0.142503
    23     0.022068
    24     0.004350
    25    -0.023941
    26    -0.051410
    27     0.032149
    28    -0.051016
    29    -0.018141
    30    -0.003588
    31     0.019713
    32    -0.051030
    33    -0.006030
    34    -0.050721
    35    -0.009772
    36    -0.001927
    37     0.010584
    38     0.000006
    39    -0.000053
    40     0.000048
    41     0.000005
    42    -0.000001
    43     0.000021
    44    -0.000005
    45     0.000037
    46     0.000111
    47    -0.000022
    48     0.000037
    49     0.000083
    50    -0.000022
    51     0.000007
    52     0.000006
    53    -0.000009
    54     0.000028
    55    -0.000056
    56    -0.000150
    57     0.000033
    58     0.038729
    59    -0.011504
    60     0.001047
    61    -0.011013
    62    -0.033834
    63     0.002093
    64     0.004721
    65     0.000805
    66     0.010124
    67     0.022799
    68    -0.005139
    69     0.001110
    70     0.002098
    71     0.010622
    72     0.039135
Sym=    12a
Ene=   -0.417919E-03
Spin= Alpha
Occup= 0.000012
     1     3.674749
     2    -3.080968
     3    -3.362490
     4     3.018817
     5     3.329664
     6    -1.777091
     7     0.074334
     8     0.000062
     9     0.001114
    10    -0.005607
    11    -0.001306
    12    -0.022334
    13     0.112016
    14     0.000070
    15     0.000890
    16    -0.004410
    17     0.000025
    18     0.000526
    19    -0.002683
    20    -1.430908
    21    -1.703064
    22    -1.432756
    23     0.059096
    24     0.011670
    25    -0.064078
    26     1.750241
    27     1.382171
    28     1.747738
    29     0.079932
    30     0.015825
    31    -0.086573
    32     0.278763
    33     0.216316
    34     0.278303
    35     0.013559
    36     0.002680
    37    -0.014680
    38     0.000420
    39     0.020913
    40    -0.030977
    41    -0.002004
    42     0.002590
    43    -0.013663
    44     0.002660
    45    -0.010811
    46    -0.044189
    47     0.007011
    48     0.000411
    49    -0.000842
    50    -0.040103
    51     0.001469
    52     0.003684
    53    -0.018048
    54    -0.001297
    55     0.011699
    56     0.000235
    57    -0.004205
    58    -1.274488
    59     0.056582
    60    -0.637003
    61     0.071886
    62    -0.860298
    63    -0.010350
    64    -0.023864
    65    -0.008446
    66    -0.066354
    67    -0.746940
    68     0.025727
    69    -0.638308
    70    -0.010325
    71    -0.052158
    72    -1.277103
Sym=    13a
Ene=   -0.334358E-02
Spin= Alpha
Occup= 0.002126
     1    -0.000017
     2    -0.000002
     3    -0.000007
     4    -0.000068
     5     0.000174
     6     0.000107
     7     0.000028
     8     0.000108
     9     0.000028
    10    -0.000047
    11    -0.000106
    12    -0.000043
    13     0.000119
    14    -0.000044
    15    -0.000005
    16    -0.000012
    17     0.000001
    18     0.000001
    19    -0.000002
    20     0.125088
    21    -0.003609
    22    -0.121543
    23     0.016850
    24     0.047819
    25     0.036362
    26     0.632114
    27    -0.018014
    28    -0.614505
    29     0.085102
    30     0.241601
    31     0.183868
    32     0.204935
    33    -0.005869
    34    -0.199065
    35     0.027596
    36     0.078344
    37     0.059569
    38     0.000003
    39     0.000005
    40    -0.000018
    41     0.000002
    42     0.000002
    43    -0.000012
    44     0.000003
    45     0.000001
    46    -0.000010
    47    -0.000001
    48     0.000046
    49     0.000015
    50    -0.000026
    51     0.000017
    52     0.000009
    53    -0.000017
    54     0.000015
    55     0.000002
    56    -0.000019
    57     0.000000
    58     0.027899
    59     0.009167
    60     0.030146
    61    -0.023512
    62     0.003564
    63    -0.009822
    64    -0.010998
    65    -0.012536
    66    -0.011468
    67     0.001029
    68    -0.004733
    69    -0.034052
    70    -0.004281
    71     0.011413
    72    -0.028039
Sym=    14a
Ene=   -0.533805E-04
Spin= Alpha
Occup= 0.000004
     1    -0.000016
     2     0.000018
     3    -0.000001
     4    -0.000005
     5     0.000010
     6    -0.000012
     7     0.000001
     8     0.000025
     9    -0.000016
    10     0.000102
    11    -0.000217
    12     0.000337
    13    -0.001907
    14    -0.000019
    15    -0.000063
    16     0.000302
    17     0.000013
    18    -0.000011
    19     0.000070
    20     0.000143
    21    -0.000007
    22    -0.000135
    23     0.000011
    24     0.000092
    25     0.000048
    26     0.001430
    27    -0.000062
    28    -0.001351
    29     0.000105
    30     0.000988
    31     0.000492
    32     0.000254
    33    -0.000011
    34    -0.000238
    35     0.000019
    36     0.000172
    37     0.000086
    38     0.174089
    39     0.006008
    40     0.775699
    41     0.072290
    42     0.252650
    43    -1.065820
    44    -0.305694
    45    -0.261009
    46     0.026767
    47    -0.154108
    48    -0.156681
    49    -0.005497
    50    -0.697586
    51    -0.065063
    52    -0.227686
    53     0.960615
    54     0.275456
    55     0.234920
    56    -0.023829
    57     0.138878
    58     0.001282
    59    -0.000365
    60     0.000272
    61    -0.000188
    62     0.000038
    63    -0.000473
    64     0.000031
    65    -0.000193
    66    -0.000027
    67     0.000046
    68    -0.000193
    69    -0.000220
    70    -0.000781
    71    -0.000145
    72    -0.001451
Sym=    15a
Ene=   -0.151032E-02
Spin= Alpha
Occup= 0.000644
     1     0.000005
     2     0.000000
     3    -0.000000
     4    -0.000007
     5     0.000005
     6     0.000005
     7    -0.000012
     8    -0.314177
     9     1.727465
    10     0.340660
    11     0.362581
    12    -1.993613
    13    -0.393133
    14     0.197481
    15    -1.085828
    16    -0.214132
    17    -0.040055
    18     0.220237
    19     0.043431
    20     0.000001
    21    -0.000003
    22    -0.000011
    23     0.000010
    24     0.000009
    25    -0.000043
    26     0.000047
    27    -0.000216
    28     0.000195
    29     0.000086
    30    -0.000058
    31     0.000353
    32     0.000013
    33    -0.000064
    34     0.000051
    35     0.000007
    36    -0.000020
    37     0.000102
    38     0.008298
    39    -0.095182
    40    -0.009017
    41     0.016087
    42    -0.021920
    43    -0.004318
    44     0.004037
    45    -0.022236
    46    -0.017481
    47     0.002837
    48    -0.165920
    49     1.157661
    50     0.180234
    51    -0.135434
    52     0.415499
    53     0.081935
    54    -0.075946
    55     0.417569
    56     0.146819
    57    -0.014100
    58    -0.000028
    59    -0.000063
    60    -0.000067
    61    -0.000155
    62     0.000103
    63     0.000012
    64     0.000015
    65     0.000030
    66    -0.000027
    67    -0.000010
    68    -0.000026
    69     0.000003
    70     0.000010
    71     0.000005
    72    -0.000003
Sym=    16a
Ene=   -0.325099E-04
Spin= Alpha
Occup= 0.000002
     1    -0.000025
     2     0.000032
     3    -0.000017
     4     0.000012
     5     0.000010
     6    -0.000009
     7     0.000002
     8     0.000027
     9    -0.000171
    10    -0.000030
    11    -0.000156
    12     0.001112
    13     0.000172
    14    -0.000027
    15     0.000147
    16     0.000029
    17     0.000003
    18    -0.000025
    19    -0.000003
    20     0.019504
    21    -0.030214
    22     0.010698
    23    -0.058758
    24    -0.017911
    25     0.027892
    26    -0.148478
    27     0.231268
    28    -0.082772
    29     0.447120
    30     0.137033
    31    -0.215994
    32    -0.018111
    33     0.028265
    34    -0.010152
    35     0.054530
    36     0.016744
    37    -0.026500
    38     0.000103
    39    -0.000117
    40    -0.000131
    41    -0.000106
    42    -0.000271
    43    -0.000060
    44     0.000064
    45    -0.000299
    46     0.000131
    47     0.000011
    48     0.000055
    49    -0.000580
    50    -0.000032
    51     0.000098
    52    -0.000186
    53    -0.000009
    54    -0.000007
    55    -0.000133
    56    -0.000132
    57    -0.000048
    58     0.238916
    59     0.343511
    60    -0.473900
    61    -0.124406
    62     0.496986
    63    -0.246569
    64    -0.243256
    65     0.461964
    66     0.461594
    67     0.169658
    68     0.007327
    69    -0.721340
    70    -0.240059
    71    -0.744337
    72     0.431756
Sym=    17a
Ene=   -0.150247E-02
Spin= Alpha
Occup= 0.000941
     1     0.000000
     2    -0.000000
     3     0.000001
     4    -0.000001
     5    -0.000001
     6     0.000005
     7    -0.000004
     8    -0.000056
     9     0.000302
    10     0.000063
    11     0.000097
    12    -0.000524
    13    -0.000109
    14     0.000027
    15    -0.000151
    16    -0.000030
    17    -0.000005
    18     0.000029
    19     0.000006
    20     0.039555
    21    -0.011834
    22    -0.027721
    23    -0.124328
    24    -0.010004
    25    -0.082503
    26     0.198846
    27    -0.060681
    28    -0.138170
    29    -0.624892
    30    -0.050924
    31    -0.411402
    32     0.053055
    33    -0.016096
    34    -0.036957
    35    -0.166735
    36    -0.013537
    37    -0.110026
    38    -0.000012
    39     0.000066
    40     0.000014
    41    -0.000007
    42     0.000029
    43     0.000004
    44    -0.000003
    45     0.000031
    46     0.000007
    47     0.000005
    48    -0.000046
    49     0.000206
    50     0.000045
    51    -0.000003
    52     0.000110
    53     0.000028
    54    -0.000023
    55     0.000097
    56     0.000011
    57    -0.000015
    58    -0.012081
    59    -0.018220
    60     0.026220
    61     0.045446
    62     0.009956
    63    -0.003731
    64    -0.018579
    65     0.009500
    66     0.063846
    67     0.000913
    68    -0.018867
    69    -0.040476
    70    -0.001430
    71    -0.028627
    72     0.017321
Sym=    18a
Ene=   -0.357336E-04
Spin= Alpha
Occup= 0.000002
     1    -1.382799
     2     1.737609
     3    -0.884848
     4     0.452376
     5     0.894140
     6    -0.648500
     7     0.036788
     8     0.000058
     9     0.001505
    10    -0.007601
    11    -0.000549
    12    -0.015123
    13     0.076365
    14    -0.000063
    15    -0.000973
    16     0.004903
    17     0.000016
    18     0.000457
    19    -0.002329
    20    -0.243827
    21    -0.283428
    22    -0.243996
    23     0.008604
    24     0.001678
    25    -0.009352
    26     0.306397
    27     0.830162
    28     0.308355
    29    -0.113865
    30    -0.021946
    31     0.123777
    32     0.063298
    33     0.123509
    34     0.063517
    35    -0.013088
    36    -0.002532
    37     0.014232
    38     0.000129
    39     0.010344
    40    -0.020802
    41    -0.000846
    42     0.001747
    43    -0.009227
    44     0.001100
    45    -0.003890
    46    -0.022112
    47     0.002968
    48     0.000279
    49     0.000888
    50    -0.033757
    51     0.000960
    52     0.003082
    53    -0.015167
    54    -0.000846
    55     0.008330
    56    -0.003164
    57    -0.002766
    58     0.012692
    59    -0.514292
    60    -0.795222
    61     0.541354
    62     0.100336
    63     0.093219
    64     0.176762
    65    -0.222736
    66    -0.498998
    67     0.018489
    68    -0.200225
    69    -0.826326
    70     0.094319
    71     0.479581
    72     0.031656
Sym=    19a
Ene=   -0.334358E-02
Spin= Alpha
Occup= 0.002126
     1     0.000002
     2    -0.000000
     3     0.000001
     4     0.000018
     5    -0.000032
     6    -0.000036
     7    -0.000013
     8     0.000052
     9    -0.000011
    10     0.000108
    11    -0.000129
    12    -0.000002
    13    -0.000110
    14     0.000013
    15     0.000009
    16    -0.000045
    17     0.000004
    18     0.000001
    19     0.000000
    20    -0.037203
    21    -0.008303
    22     0.045518
    23    -0.035912
    24     0.142475
    25     0.015549
    26    -0.188073
    27    -0.041988
    28     0.230180
    29    -0.181513
    30     0.720126
    31     0.078555
    32    -0.060939
    33    -0.013604
    34     0.074546
    35    -0.058827
    36     0.233396
    37     0.025475
    38     0.000024
    39     0.000004
    40     0.000006
    41     0.000012
    42     0.000001
    43     0.000001
    44     0.000006
    45     0.000001
    46     0.000003
    47     0.000001
    48     0.000037
    49    -0.000002
    50     0.000041
    51     0.000013
    52    -0.000001
    53     0.000025
    54     0.000011
    55    -0.000002
    56     0.000019
    57     0.000002
    58    -0.010455
    59    -0.007808
    60    -0.015358
    61    -0.009220
    62     0.008347
    63    -0.020375
    64    -0.008347
    65    -0.037315
    66     0.022704
    67     0.003679
    68     0.012619
    69     0.006149
    70    -0.021760
    71     0.001148
    72     0.008352
Sym=    20a
Ene=   -0.457188E-04
Spin= Alpha
Occup= 0.000003
     1    -0.007560
     2     0.008748
     3    -0.000742
     4    -0.002013
     5     0.001939
     6    -0.000486
     7     0.000329
     8     0.003157
     9     0.001075
    10    -0.002537
    11    -0.048236
    12    -0.015758
    13     0.035353
    14     0.004180
    15     0.001167
    16    -0.002053
    17     0.002038
    18     0.000624
    19    -0.001287
    20     0.097672
    21     0.002699
    22    -0.099293
    23     0.029944
    24    -0.048218
    25     0.013923
    26     2.631432
    27     0.062198
    28    -2.689569
    29     0.809948
    30    -1.303574
    31     0.375079
    32     0.330249
    33     0.007684
    34    -0.337025
    35     0.101638
    36    -0.163389
    37     0.046959
    38     0.022271
    39     0.001991
    40    -0.014916
    41     0.002075
    42     0.006235
    43    -0.005383
    44     0.009062
    45     0.004394
    46    -0.004158
    47    -0.002318
    48     0.009551
    49     0.006660
    50    -0.008585
    51     0.009369
    52    -0.000411
    53    -0.004908
    54     0.005044
    55     0.000754
    56    -0.005481
    57     0.001378
    58     2.507879
    59    -0.465909
    60     0.314093
    61    -0.084421
    62    -0.022795
    63     0.839262
    64    -0.217531
    65     0.169517
    66    -0.198026
    67     0.046753
    68     0.073313
    69    -0.386707
    70     0.757005
    71    -0.710231
    72    -2.463975
Sym=    21a
Ene=   -0.150269E-02
Spin= Alpha
Occup= 0.000942
     1    -0.000001
     2    -0.000000
     3     0.000001
     4     0.000001
     5    -0.000000
     6    -0.000001
     7     0.000001
     8     0.000061
     9    -0.000392
    10    -0.000080
    11    -0.000130
    12     0.000785
    13     0.000157
    14    -0.000021
    15     0.000135
    16     0.000028
    17     0.000008
    18    -0.000047
    19    -0.000010
    20     0.023956
    21    -0.065746
    22     0.041793
    23    -0.069143
    24    -0.037249
    25     0.114866
    26     0.121675
    27    -0.331991
    28     0.210310
    29    -0.351427
    30    -0.188163
    31     0.577939
    32     0.032428
    33    -0.088629
    34     0.056203
    35    -0.093641
    36    -0.050228
    37     0.154453
    38     0.000017
    39    -0.000115
    40    -0.000021
    41     0.000014
    42    -0.000039
    43    -0.000008
    44     0.000010
    45    -0.000049
    46    -0.000011
    47     0.000002
    48     0.000068
    49    -0.000264
    50    -0.000066
    51    -0.000001
    52    -0.000173
    53    -0.000032
    54     0.000021
    55    -0.000146
    56    -0.000014
    57    -0.000014
    58     0.018032
    59     0.024390
    60    -0.047932
    61    -0.048357
    62     0.053757
    63    -0.008995
    64     0.003425
    65     0.034123
    66     0.025737
    67     0.006596
    68     0.005644
    69    -0.030826
    70    -0.009798
    71    -0.015290
    72     0.010373
Sym=    22a
Ene=   -0.470755E-04
Spin= Alpha
Occup= 0.000003
     1     0.000034
     2    -0.000077
     3     0.000723
     4     0.002821
     5    -0.010526
     6     0.001627
     7    -0.000026
     8     0.287458
     9     0.091352
    10    -0.198131
    11    -4.340120
    12    -1.378043
    13     2.984962
    14     0.358630
    15     0.111663
    16    -0.235581
    17     0.177584
    18     0.056184
    19    -0.121053
    20     0.001581
    21     0.002176
    22     0.003331
    23    -0.000397
    24     0.001317
    25    -0.000016
    26    -0.023196
    27    -0.001635
    28     0.023808
    29    -0.010958
    30     0.030854
    31     0.000224
    32    -0.003387
    33    -0.000188
    34     0.002511
    35    -0.001499
    36     0.003942
    37     0.000153
    38     1.929862
    39     0.145125
    40    -1.308512
    41     0.268241
    42     0.526066
    43    -0.538047
    44     0.825517
    45     0.448449
    46    -0.238479
    47    -0.243609
    48     0.933839
    49     0.594403
    50    -0.658949
    51     0.790401
    52    -0.025184
    53    -0.324147
    54     0.442187
    55     0.020477
    56    -0.519386
    57     0.154439
    58    -0.025750
    59    -0.006025
    60    -0.000112
    61     0.000662
    62     0.000799
    63    -0.021634
    64    -0.003405
    65     0.002894
    66     0.001256
    67     0.006134
    68     0.006682
    69     0.004309
    70    -0.021530
    71     0.015859
    72     0.019167
Sym=    23a
Ene=   -0.112910E-02
Spin= Alpha
Occup= 0.000707
     1     0.049813
     2     0.004580
     3    -0.010046
     4    -0.062091
     5     0.051329
     6     0.067824
     7    -0.130803
     8     0.000080
     9    -0.000142
    10    -0.000433
    11    -0.000114
    12    -0.000060
    13     0.001594
    14    -0.000020
    15     0.000194
    16    -0.000257
    17     0.000012
    18     0.000012
    19    -0.000171
    20     0.010578
    21    -0.142464
    22     0.009362
    23     0.033230
    24     0.006569
    25    -0.035968
    26     0.445085
    27    -0.688971
    28     0.439334
    29     0.246314
    30     0.048523
    31    -0.267332
    32     0.095074
    33    -0.181190
    34     0.093036
    35     0.059994
    36     0.011844
    37    -0.064972
    38    -0.000007
    39     0.000241
    40    -0.000206
    41    -0.000028
    42     0.000016
    43    -0.000090
    44     0.000028
    45    -0.000152
    46    -0.000476
    47     0.000090
    48     0.000050
    49    -0.000574
    50    -0.000841
    51     0.000113
    52     0.000032
    53    -0.000384
    54    -0.000077
    55     0.000568
    56     0.000833
    57    -0.000281
    58    -0.015006
    59    -0.032015
    60    -0.054092
    61     0.063175
    62     0.085430
    63     0.005851
    64     0.010054
    65    -0.021243
    66    -0.058209
    67    -0.007775
    68    -0.011649
    69    -0.056957
    70     0.005960
    71     0.030134
    72    -0.013252
Sym=    24a
Ene=   -0.487263E-04
Spin= Alpha
Occup= 0.000004
     1     0.000010
     2    -0.000012
     3     0.000008
     4     0.000030
     5    -0.000104
     6     0.000018
     7    -0.000006
     8    -0.001901
     9     0.000061
    10    -0.002066
    11     0.028949
    12    -0.000927
    13     0.031418
    14    -0.002447
    15     0.000058
    16    -0.002550
    17    -0.001187
    18     0.000036
    19    -0.001277
    20     0.000058
    21    -0.000052
    22     0.000060
    23    -0.000094
    24    -0.000036
    25     0.000111
    26    -0.000064
    27     0.000303
    28    -0.000244
    29     0.000390
    30     0.000318
    31    -0.000434
    32     0.000023
    33    -0.000029
    34    -0.000001
    35    -0.000053
    36     0.000000
    37     0.000040
    38    -0.012871
    39     0.000193
    40    -0.013777
    41    -0.001234
    42    -0.001595
    43    -0.006559
    44    -0.006102
    45     0.002123
    46    -0.001653
    47     0.000039
    48    -0.006208
    49     0.000377
    50    -0.006907
    51    -0.005598
    52     0.001222
    53    -0.002829
    54    -0.002548
    55    -0.001167
    56    -0.005961
    57    -0.000005
    58     0.199116
    59     0.272200
    60    -0.408933
    61     0.131118
    62    -0.010475
    63    -0.425484
    64    -0.740402
    65     0.107116
    66     0.078951
    67     0.059535
    68    -0.540596
    69     0.427000
    70     0.345301
    71     0.472575
    72    -0.276937
Sym=    25a
Ene=   -0.200946E-03
Spin= Alpha
Occup= 0.000077
     1     0.000006
     2    -0.000002
     3     0.000002
     4    -0.000023
     5     0.000026
     6    -0.000015
     7     0.000019
     8     0.175502
     9    -0.964900
    10    -0.190548
    11    -0.224153
    12     1.232419
    13     0.243289
    14    -0.082363
    15     0.452767
    16     0.089653
    17     0.037806
    18    -0.207875
    19    -0.041011
    20    -0.000015
    21     0.000502
    22    -0.000471
    23    -0.000008
    24     0.000275
    25    -0.001364
    26     0.000028
    27    -0.000792
    28     0.000754
    29     0.000049
    30    -0.000428
    31     0.002155
    32     0.000020
    33    -0.000137
    34     0.000124
    35    -0.000027
    36    -0.000076
    37     0.000342
    38    -0.156281
    39     0.511874
    40     0.169523
    41     0.016813
    42     0.373654
    43     0.073672
    44    -0.067695
    45     0.372100
    46    -0.018266
    47     0.019908
    48     0.310698
    49    -1.029075
    50    -0.337431
    51    -0.030626
    52    -0.743106
    53    -0.146922
    54     0.134422
    55    -0.738661
    56     0.034210
    57    -0.039150
    58    -0.000358
    59    -0.000671
    60    -0.000104
    61    -0.000859
    62     0.000487
    63     0.000139
    64     0.000026
    65     0.000110
    66    -0.000032
    67    -0.000117
    68    -0.000297
    69     0.000106
    70     0.000134
    71     0.000007
    72    -0.000036
Sym=    26a
Ene=   -0.367467E-04
Spin= Alpha
Occup= 0.000003
     1     0.000349
     2    -0.000436
     3     0.000285
     4     0.000274
     5    -0.001113
     6    -0.000509
     7    -0.000066
     8     0.000071
     9    -0.000010
    10     0.000112
    11    -0.001346
    12     0.000061
    13    -0.001509
    14    -0.000026
    15    -0.000010
    16     0.000020
    17    -0.000013
    18    -0.000009
    19     0.000036
    20    -0.002793
    21    -0.000724
    22     0.004394
    23    -0.003894
    24     0.016517
    25     0.002057
    26    -0.369406
    27    -0.112341
    28     0.482801
    29    -0.456534
    30     1.921093
    31     0.239553
    32    -0.040855
    33    -0.012453
    34     0.053437
    35    -0.050630
    36     0.213159
    37     0.026614
    38     0.000029
    39     0.000216
    40     0.000471
    41     0.000954
    42    -0.000416
    43     0.000146
    44     0.000186
    45     0.000086
    46     0.000476
    47     0.000153
    48     0.000873
    49    -0.000188
    50     0.000555
    51    -0.000358
    52     0.000320
    53     0.000294
    54     0.000226
    55    -0.000093
    56     0.000022
    57    -0.000114
    58    -0.314498
    59    -0.229423
    60    -0.398174
    61    -0.343850
    62     0.268019
    63    -0.794003
    64    -0.249945
    65    -1.198672
    66     0.681233
    67     0.105580
    68     0.349277
    69     0.124888
    70    -0.821726
    71     0.101287
    72     0.237457
Sym=    27a
Ene=   -0.238221E-03
Spin= Alpha
Occup= 0.000105
     1    -0.000000
     2     0.000000
     3    -0.000000
     4    -0.000000
     5    -0.000000
     6     0.000003
     7    -0.000000
     8    -0.000012
     9     0.000066
    10     0.000013
    11     0.000096
    12    -0.000535
    13    -0.000108
    14     0.000006
    15    -0.000032
    16    -0.000005
    17    -0.000004
    18     0.000019
    19     0.000004
    20     0.000415
    21    -0.000040
    22    -0.000376
    23    -0.000137
    24     0.000076
    25     0.000006
    26    -0.000728
    27     0.000041
    28     0.000682
    29     0.000098
    30    -0.000163
    31    -0.000073
    32    -0.000148
    33    -0.000001
    34     0.000148
    35     0.000002
    36    -0.000041
    37    -0.000006
    38     0.044455
    39    -0.052026
    40     0.058575
    41    -0.172341
    42    -0.077199
    43    -0.147705
    44     0.112630
    45     0.147382
    46     0.069196
    47     0.372612
    48     0.066398
    49    -0.077948
    50     0.087574
    51    -0.257454
    52    -0.115296
    53    -0.220708
    54     0.168291
    55     0.220318
    56     0.103302
    57     0.556829
    58    -0.000419
    59     0.000026
    60    -0.000129
    61     0.000051
    62    -0.000007
    63     0.000068
    64    -0.000013
    65     0.000040
    66     0.000016
    67     0.000006
    68     0.000008
    69     0.000114
    70     0.000070
    71    -0.000025
    72     0.000439
Sym=    28a
Ene=   -0.487861E-04
Spin= Alpha
Occup= 0.000004
     1     0.000152
     2    -0.000181
     3     0.000128
     4     0.000459
     5    -0.001626
     6     0.000280
     7    -0.000097
     8    -0.027669
     9     0.001309
    10    -0.032154
    11     0.421745
    12    -0.019795
    13     0.489293
    14    -0.035742
    15     0.001349
    16    -0.039792
    17    -0.017288
    18     0.000776
    19    -0.019892
    20     0.000472
    21     0.000309
    22     0.000258
    23    -0.000126
    24     0.000088
    25    -0.000074
    26     0.001351
    27    -0.000105
    28    -0.001325
    29     0.000428
    30     0.002468
    31     0.001207
    32     0.000153
    33     0.000017
    34    -0.000273
    35    -0.000074
    36     0.000309
    37     0.000068
    38    -0.188015
    39     0.003503
    40    -0.215152
    41    -0.017258
    42    -0.021012
    43    -0.101609
    44    -0.088994
    45     0.033117
    46    -0.025543
    47    -0.000128
    48    -0.089974
    49     0.008202
    50    -0.106996
    51    -0.082075
    52     0.017535
    53    -0.044451
    54    -0.037097
    55    -0.016739
    56    -0.093047
    57     0.000355
    58    -0.316641
    59    -0.582289
    60     0.121897
    61     0.070169
    62    -0.033182
    63    -0.127248
    64    -0.449993
    65     0.479685
    66    -0.126503
    67     0.437280
    68     0.685175
    69    -0.062974
    70    -0.233545
    71     0.461571
    72    -0.214237
Sym=    29a
Ene=   -0.169053E-03
Spin= Alpha
Occup= 0.000075
     1    -0.006133
     2     0.001772
     3    -0.003665
     4     0.026157
     5    -0.014976
     6    -0.005671
     7    -0.013783
     8    -0.001927
     9    -0.056332
    10     0.279248
    11     0.002929
    12     0.055425
    13    -0.272477
    14     0.002222
    15     0.075488
    16    -0.378393
    17    -0.000217
    18    -0.004167
    19     0.019924
    20    -0.007600
    21    -0.011551
    22    -0.006918
    23     0.000832
    24     0.000307
    25    -0.001071
    26     0.003373
    27     0.027439
    28     0.002699
    29    -0.005178
    30    -0.001270
    31     0.005813
    32    -0.007164
    33     0.004158
    34    -0.006938
    35    -0.002453
    36    -0.000491
    37     0.002627
    38    -0.001410
    39     0.210308
    40     0.040232
    41    -0.032841
    42    -0.005705
    43     0.020814
    44     0.036033
    45    -0.204415
    46    -0.432090
    47     0.104002
    48    -0.005975
    49     0.216157
    50     0.782539
    51    -0.058550
    52    -0.074043
    53     0.354398
    54     0.059874
    55    -0.414124
    56    -0.419327
    57     0.177576
    58     0.014028
    59    -0.004426
    60     0.000234
    61    -0.002087
    62    -0.007043
    63     0.000868
    64     0.001725
    65    -0.000164
    66     0.001904
    67     0.008235
    68    -0.001895
    69     0.000163
    70     0.000867
    71     0.004053
    72     0.014019
Sym=    30a
Ene=   -0.385228E-04
Spin= Alpha
Occup= 0.000003
     1    -0.000042
     2     0.000052
     3    -0.000027
     4    -0.000015
     5     0.000075
     6     0.000040
     7     0.000004
     8     0.000025
     9    -0.000122
    10    -0.000030
    11    -0.000370
    12     0.001793
    13     0.000424
    14    -0.000046
    15     0.000274
    16     0.000058
    17     0.000013
    18    -0.000063
    19    -0.000013
    20     0.000337
    21    -0.000118
    22    -0.000280
    23    -0.000364
    24     0.000003
    25    -0.000037
    26     0.021395
    27    -0.000209
    28    -0.021257
    29     0.004603
    30     0.006419
    31     0.006185
    32     0.002451
    33    -0.000047
    34    -0.002413
    35     0.000394
    36     0.000709
    37     0.000649
    38     0.063803
    39    -0.132939
    40     0.095175
    41    -0.387640
    42    -0.084381
    43    -0.345973
    44     0.302370
    45     0.261129
    46     0.217906
    47     0.930647
    48    -0.056403
    49     0.116556
    50    -0.084760
    51     0.344293
    52     0.074382
    53     0.306999
    54    -0.268311
    55    -0.232331
    56    -0.193648
    57    -0.826128
    58     0.013726
    59     0.003232
    60     0.012902
    61    -0.009433
    62     0.000971
    63    -0.003771
    64    -0.004401
    65    -0.004012
    66    -0.005997
    67     0.000352
    68    -0.002370
    69    -0.014146
    70    -0.001578
    71     0.003725
    72    -0.013691
Sym=    31a
Ene=   -0.823055E-04
Spin= Alpha
Occup= 0.000025
     1     0.000003
     2    -0.000001
     3    -0.000002
     4    -0.000019
     5     0.000042
     6    -0.000000
     7     0.000007
     8     0.000000
     9     0.000000
    10    -0.000000
    11    -0.000002
    12     0.000001
    13    -0.000008
    14     0.000000
    15    -0.000000
    16     0.000003
    17    -0.000000
    18    -0.000000
    19     0.000000
    20     0.000123
    21    -0.000022
    22    -0.000119
    23     0.000039
    24    -0.000038
    25     0.000014
    26     0.000017
    27     0.000024
    28    -0.000037
    29    -0.000002
    30     0.000000
    31     0.000015
    32     0.000137
    33     0.000002
    34    -0.000132
    35     0.000035
    36    -0.000034
    37     0.000024
    38    -0.000055
    39     0.000002
    40     0.000061
    41     0.000005
    42    -0.000001
    43    -0.000068
    44     0.000070
    45    -0.000003
    46    -0.000005
    47    -0.000030
    48     0.000044
    49    -0.000001
    50    -0.000030
    51    -0.000002
    52     0.000004
    53     0.000036
    54    -0.000056
    55    -0.000003
    56     0.000005
    57     0.000020
    58     0.678425
    59    -0.165972
    60    -0.009449
    61     0.014661
    62    -0.003347
    63     0.199771
    64    -0.301072
    65     0.096265
    66    -0.011729
    67    -1.181982
    68     0.202938
    69     0.015275
    70    -0.271464
    71     0.236077
    72     0.663980
Sym=    32a
Ene=   -0.369642E-04
Spin= Alpha
Occup= 0.000003
     1    -0.000273
     2     0.000426
     3    -0.001230
     4    -0.001569
     5     0.006431
     6     0.003277
     7     0.000241
     8     0.000073
     9     0.000029
    10    -0.000071
    11    -0.001020
    12    -0.000480
    13     0.001375
    14     0.000023
    15    -0.000006
    16     0.000036
    17     0.000021
    18     0.000002
    19     0.000012
    20     0.013321
    21    -0.001992
    22    -0.016916
    23     0.002264
    24     0.004447
    25     0.004293
    26     1.675172
    27    -0.042086
    28    -1.640008
    29     0.257872
    30     0.480590
    31     0.459915
    32     0.186471
    33    -0.004710
    34    -0.182757
    35     0.028673
    36     0.053675
    37     0.051271
    38    -0.000514
    39     0.002346
    40    -0.001499
    41     0.005348
    42     0.001048
    43     0.004641
    44    -0.003805
    45    -0.003779
    46    -0.003836
    47    -0.012050
    48     0.001108
    49    -0.001713
    50     0.000429
    51    -0.004471
    52    -0.000791
    53    -0.004540
    54     0.003688
    55     0.003449
    56     0.002892
    57     0.010736
    58     1.064152
    59     0.244758
    60     0.983697
    61    -0.708570
    62     0.093139
    63    -0.283725
    64    -0.314611
    65    -0.303751
    66    -0.410028
    67     0.019456
    68    -0.184336
    69    -1.077080
    70    -0.118280
    71     0.307607
    72    -1.071944
Sym=    33a
Ene=   -0.990401E-03
Spin= Alpha
Occup= 0.000349
     1    -0.000009
     2    -0.000033
     3     0.000377
     4    -0.000576
     5    -0.000496
     6     0.000407
     7     0.000668
     8     1.570926
     9     0.322546
    10    -0.186786
    11    -2.392888
    12    -0.492086
    13     0.288414
    14    -0.371815
    15    -0.076382
    16     0.044290
    17     0.405990
    18     0.083352
    19    -0.048150
    20     0.000345
    21     0.000491
    22     0.000354
    23    -0.000014
    24    -0.000103
    25     0.000012
    26    -0.000249
    27    -0.000814
    28    -0.000202
    29     0.000065
    30     0.000323
    31    -0.000065
    32     0.000004
    33    -0.000203
    34     0.000011
    35     0.000042
    36     0.000039
    37    -0.000054
    38    -0.411337
    39    -0.043719
    40     0.047420
    41    -0.103382
    42    -0.070523
    43     0.014791
    44    -0.182619
    45    -0.042109
    46     0.017472
    47     0.022238
    48     1.233376
    49     0.298274
    50    -0.149399
    51     0.643963
    52     0.075924
    53    -0.074181
    54     0.552759
    55     0.109991
    56    -0.067474
    57     0.024603
    58    -0.000219
    59     0.000087
    60     0.000057
    61    -0.000002
    62     0.000276
    63    -0.000149
    64    -0.000036
    65    -0.000091
    66    -0.000003
    67    -0.000126
    68     0.000031
    69     0.000057
    70    -0.000146
    71    -0.000073
    72    -0.000191
Sym=    34a
Ene=   -0.775017E-04
Spin= Alpha
Occup= 0.000002
     1     4.489700
     2    -5.738043
     3     3.425761
     4    -2.017393
     5    -3.457784
     6     2.381343
     7     0.113073
     8    -0.003034
     9    -0.057093
    10     0.286741
    11     0.033803
    12     0.634921
    13    -3.186632
    14     0.000651
    15     0.014918
    16    -0.074788
    17    -0.000948
    18    -0.018086
    19     0.090880
    20     1.241572
    21     0.996382
    22     1.240558
    23     0.053248
    24     0.010520
    25    -0.057855
    26    -2.326424
    27    -1.283188
    28    -2.337067
    29    -0.226677
    30    -0.044611
    31     0.249725
    32    -0.341883
    33    -0.241225
    34    -0.342682
    35    -0.021872
    36    -0.004266
    37     0.024040
    38    -0.008918
    39    -0.486430
    40     0.848298
    41     0.042132
    42    -0.071480
    43     0.375339
    44    -0.057203
    45     0.216656
    46     1.032439
    47    -0.151165
    48    -0.014386
    49     0.025312
    50     1.359010
    51    -0.049495
    52    -0.124884
    53     0.611521
    54     0.043221
    55    -0.393764
    56    -0.001633
    57     0.141039
    58     1.565202
    59    -0.191377
    60     0.585244
    61    -0.003225
    62     0.937825
    63     0.034302
    64     0.071833
    65    -0.031508
    66     0.001617
    67     0.915456
    68    -0.080079
    69     0.577765
    70     0.034387
    71     0.174897
    72     1.558398
Sym=    35a
Ene=   -0.260572E-03
Spin= Alpha
Occup= 0.000102
     1    -0.000049
     2     0.000004
     3     0.000059
     4     0.000442
     5    -0.000914
     6    -0.000282
     7    -0.000052
     8    -0.000100
     9    -0.000008
    10    -0.000042
    11     0.000659
    12     0.000162
    13    -0.000229
    14     0.000046
    15    -0.000014
    16     0.000113
    17     0.000026
    18     0.000007
    19    -0.000012
    20     0.538798
    21    -0.065132
    22    -0.473241
    23    -0.091671
    24     1.038629
    25     0.296649
    26    -0.999091
    27     0.121389
    28     0.878376
    29     0.170038
    30    -1.926794
    31    -0.550295
    32    -0.196078
    33     0.023853
    34     0.172173
    35     0.033317
    36    -0.377938
    37    -0.107900
    38    -0.000270
    39    -0.000015
    40     0.000085
    41     0.000025
    42    -0.000064
    43     0.000159
    44    -0.000089
    45    -0.000057
    46     0.000042
    47    -0.000072
    48    -0.000540
    49     0.000163
    50    -0.000055
    51     0.000345
    52    -0.000229
    53     0.000047
    54    -0.000264
    55    -0.000096
    56    -0.000004
    57     0.000014
    58    -0.535950
    59     0.224842
    60    -0.173494
    61     0.207379
    62    -0.069461
    63     0.769266
    64    -0.040582
    65     0.326425
    66    -0.064386
    67     0.024386
    68     0.103651
    69     0.145056
    70     0.771474
    71    -0.062763
    72     0.610410
Sym=    36a
Ene=   -0.475888E-04
Spin= Alpha
Occup= 0.000004
     1    -0.001387
     2     0.001655
     3    -0.001187
     4    -0.004199
     5     0.014934
     6    -0.002575
     7     0.000826
     8     0.198902
     9    -0.022163
    10     0.295836
    11    -3.025525
    12     0.335329
    13    -4.490587
    14     0.254974
    15    -0.025171
    16     0.362679
    17     0.124011
    18    -0.013417
    19     0.182492
    20    -0.004009
    21    -0.002894
    22    -0.002671
    23     0.000023
    24    -0.001333
    25    -0.000326
    26    -0.015402
    27     0.002013
    28     0.014231
    29     0.003426
    30    -0.033162
    31    -0.009239
    32    -0.001446
    33     0.000018
    34     0.002427
    35     0.000587
    36    -0.004199
    37    -0.001406
    38     1.347988
    39    -0.047015
    40     1.973210
    41     0.113775
    42     0.112402
    43     0.922307
    44     0.648583
    45    -0.334014
    46     0.244833
    47     0.030353
    48     0.646759
    49    -0.141846
    50     0.984217
    51     0.595767
    52    -0.144619
    53     0.414884
    54     0.259966
    55     0.138804
    56     0.848606
    57    -0.021325
    58    -0.050919
    59    -0.060256
    60     0.006848
    61     0.012116
    62    -0.005832
    63     0.001883
    64    -0.062792
    65     0.062065
    66    -0.015461
    67     0.052615
    68     0.081220
    69    -0.004222
    70    -0.004205
    71     0.057706
    72    -0.014422
Sym=    37a
Ene=   -0.238224E-03
Spin= Alpha
Occup= 0.000105
     1    -0.000000
     2     0.000000
     3    -0.000000
     4     0.000002
     5    -0.000005
     6     0.000002
     7    -0.000001
     8    -0.000044
     9     0.000246
    10     0.000049
    11    -0.000264
    12     0.001438
    13     0.000285
    14     0.000059
    15    -0.000333
    16    -0.000066
    17    -0.000008
    18     0.000045
    19     0.000009
    20     0.000053
    21    -0.000088
    22     0.000038
    23    -0.000062
    24    -0.000080
    25     0.000184
    26    -0.000079
    27     0.000094
    28    -0.000014
    29     0.000073
    30     0.000110
    31    -0.000190
    32    -0.000021
    33     0.000017
    34     0.000004
    35     0.000026
    36     0.000020
    37    -0.000022
    38    -0.142860
    39    -0.023912
    40    -0.150772
    41     0.082057
    42     0.336726
    43     0.025201
    44     0.109976
    45    -0.306648
    46     0.176683
    47     0.130271
    48    -0.213671
    49    -0.034348
    50    -0.225124
    51     0.122448
    52     0.503659
    53     0.037753
    54     0.164267
    55    -0.457815
    56     0.264234
    57     0.194646
    58     0.000002
    59     0.000060
    60    -0.000033
    61     0.000030
    62    -0.000024
    63    -0.000041
    64    -0.000008
    65    -0.000007
    66    -0.000022
    67     0.000012
    68     0.000022
    69    -0.000003
    70    -0.000041
    71    -0.000034
    72     0.000051
Sym=    38a
Ene=   -0.629803E-04
Spin= Alpha
Occup= 0.000005
     1    -0.000031
     2     0.000033
     3     0.000009
     4    -0.000012
     5    -0.000005
     6    -0.000019
     7    -0.000002
     8     0.000000
     9     0.000001
    10     0.000000
    11    -0.000003
    12    -0.000006
    13    -0.000004
    14    -0.000001
    15    -0.000001
    16     0.000000
    17    -0.000000
    18     0.000000
    19     0.000000
    20    -0.000012
    21     0.000013
    22     0.000018
    23     0.000000
    24    -0.000026
    25    -0.000006
    26    -0.000005
    27     0.000021
    28     0.000047
    29     0.000060
    30    -0.000308
    31    -0.000067
    32    -0.000011
    33     0.000005
    34     0.000013
    35     0.000010
    36    -0.000062
    37    -0.000014
    38     0.000093
    39     0.000000
    40     0.000095
    41     0.000013
    42     0.000052
    43    -0.000133
    44    -0.000137
    45    -0.000047
    46     0.000010
    47     0.000003
    48    -0.000056
    49     0.000003
    50    -0.000079
    51    -0.000008
    52    -0.000036
    53     0.000113
    54     0.000087
    55     0.000038
    56    -0.000006
    57     0.000004
    58     0.108281
    59    -0.218123
    60     0.083493
    61    -0.012201
    62    -0.000239
    63    -1.021772
    64     0.212880
    65     0.014319
    66    -0.015131
    67    -0.273805
    68     0.309144
    69    -0.083118
    70     1.011546
    71    -0.143621
    72     0.203213
Sym=    39a
Ene=   -0.378730E-03
Spin= Alpha
Occup= 0.000165
     1    -0.000000
     2     0.000000
     3    -0.000000
     4     0.000002
     5    -0.000001
     6    -0.000003
     7    -0.000001
     8     0.000123
     9     0.000030
    10    -0.000037
    11    -0.000032
    12    -0.000005
    13    -0.000004
    14    -0.000143
    15    -0.000034
    16     0.000038
    17     0.000038
    18     0.000009
    19    -0.000011
    20     0.000039
    21     0.000002
    22    -0.000043
    23     0.000019
    24    -0.000052
    25     0.000000
    26    -0.000049
    27    -0.000007
    28     0.000061
    29    -0.000045
    30     0.000162
    31     0.000016
    32    -0.000015
    33    -0.000005
    34     0.000020
    35    -0.000022
    36     0.000091
    37     0.000011
    38    -0.342886
    39     0.004186
    40    -0.050013
    41    -0.004357
    42    -0.103328
    43     0.099782
    44     0.464153
    45     0.097652
    46    -0.032597
    47    -0.084752
    48    -0.487220
    49     0.005970
    50    -0.071059
    51    -0.006137
    52    -0.146800
    53     0.141626
    54     0.660105
    55     0.138859
    56    -0.046364
    57    -0.120585
    58    -0.000033
    59    -0.000022
    60    -0.000004
    61    -0.000002
    62     0.000003
    63    -0.000137
    64     0.000030
    65    -0.000023
    66     0.000016
    67    -0.000013
    68    -0.000004
    69     0.000015
    70    -0.000068
    71     0.000018
    72     0.000033
Sym=    40a
Ene=   -0.587887E-04
Spin= Alpha
Occup= 0.000001
     1    -4.703741
     2     6.402242
     3    -6.207688
     4     2.997980
     5    11.251569
     6    -4.897316
     7    -0.429520
     8    -0.003566
     9    -0.065123
    10     0.326960
    11     0.038707
    12     0.704078
    13    -3.532648
    14     0.000896
    15     0.020762
    16    -0.104143
    17    -0.001123
    18    -0.020295
    19     0.101911
    20    -3.768954
    21    -3.633436
    22    -3.767784
    23    -0.029443
    24    -0.005767
    25     0.031836
    26     3.803948
    27     3.408988
    28     3.798578
    29     0.085960
    30     0.016334
    31    -0.092418
    32     0.538240
    33     0.516406
    34     0.538198
    35     0.004756
    36     0.000917
    37    -0.005178
    38    -0.010372
    39    -0.530562
    40     0.938862
    41     0.045440
    42    -0.079318
    43     0.415506
    44    -0.062225
    45     0.232547
    46     1.126610
    47    -0.163553
    48    -0.016455
    49     0.023726
    50     1.523226
    51    -0.055094
    52    -0.139897
    53     0.685355
    54     0.047535
    55    -0.437190
    56     0.007493
    57     0.155899
    58    -2.609724
    59     0.093231
    60    -1.373728
    61    -0.041817
    62    -2.444336
    63    -0.016689
    64    -0.034090
    65     0.026201
    66     0.037768
    67    -1.530355
    68     0.037696
    69    -1.371437
    70    -0.016740
    71    -0.086473
    72    -2.615041
Sym=    41a
Ene=   -0.991957E-03
Spin= Alpha
Occup= 0.000350
     1    -0.000093
     2    -0.000245
     3     0.002398
     4    -0.002859
     5    -0.004117
     6     0.003095
     7     0.001632
     8    -0.240871
     9     0.267465
    10    -1.578445
    11     0.367196
    12    -0.412728
    13     2.431556
    14     0.056570
    15    -0.062910
    16     0.371238
    17    -0.062365
    18     0.069081
    19    -0.407859
    20     0.002010
    21     0.003124
    22     0.002148
    23    -0.000242
    24    -0.000037
    25     0.000234
    26    -0.000276
    27    -0.004797
    28    -0.000663
    29     0.000973
    30     0.000196
    31    -0.000989
    32     0.000625
    33    -0.000532
    34     0.000601
    35     0.000249
    36     0.000058
    37    -0.000263
    38     0.062804
    39    -0.032892
    40     0.401670
    41     0.008951
    42    -0.025447
    43     0.181144
    44     0.034828
    45    -0.067809
    46     0.094717
    47     0.016162
    48    -0.188611
    49     0.243103
    50    -1.254273
    51    -0.105166
    52     0.101116
    53    -0.559328
    54    -0.078281
    55     0.061323
    56    -0.638117
    57     0.013775
    58    -0.001349
    59     0.000658
    60     0.000413
    61     0.000308
    62     0.001764
    63    -0.000131
    64    -0.000278
    65     0.000040
    66    -0.000344
    67    -0.000856
    68     0.000279
    69     0.000289
    70    -0.000126
    71    -0.000601
    72    -0.001596
Sym=    42a
Ene=   -0.537999E-02
Spin= Alpha
Occup= 0.000273
     1    -1.537619
     2     0.062828
     3     2.256269
     4     0.440203
     5    -4.795732
     6     2.055907
     7     0.399026
     8     0.000032
     9    -0.000209
    10     0.001070
    11    -0.000010
    12     0.000260
    13    -0.001303
    14    -0.000021
    15     0.000130
    16    -0.000639
    17    -0.000003
    18    -0.000047
    19     0.000209
    20     0.973453
    21     1.046576
    22     0.973867
    23    -0.015882
    24    -0.003128
    25     0.017228
    26    -1.127359
    27    -1.367412
    28    -1.128652
    29     0.052136
    30     0.010278
    31    -0.056576
    32    -0.136129
    33    -0.200530
    34    -0.136572
    35     0.013986
    36     0.002758
    37    -0.015152
    38     0.000002
    39     0.000189
    40    -0.000281
    41    -0.000021
    42     0.000024
    43    -0.000124
    44     0.000024
    45    -0.000099
    46    -0.000402
    47     0.000063
    48    -0.000014
    49    -0.000260
    50     0.001013
    51     0.000002
    52    -0.000092
    53     0.000453
    54    -0.000015
    55    -0.000043
    56     0.000563
    57    -0.000025
    58     0.775970
    59     0.015934
    60     0.485797
    61     0.024501
    62     0.906304
    63    -0.002897
    64    -0.006853
    65    -0.003440
    66    -0.022585
    67     0.454239
    68     0.007366
    69     0.485330
    70    -0.002887
    71    -0.014639
    72     0.775400
Sym=    43a
Ene=   -0.378737E-03
Spin= Alpha
Occup= 0.000165
     1    -0.000000
     2     0.000000
     3    -0.000001
     4     0.000005
     5    -0.000005
     6    -0.000003
     7    -0.000001
     8    -0.000031
     9     0.000014
    10    -0.000101
    11     0.000013
    12     0.000001
    13     0.000008
    14     0.000034
    15    -0.000017
    16     0.000121
    17    -0.000009
    18     0.000005
    19    -0.000035
    20    -0.000047
    21     0.000003
    22     0.000044
    23    -0.000001
    24    -0.000046
    25    -0.000019
    26     0.000145
    27     0.000000
    28    -0.000138
    29     0.000019
    30     0.000062
    31     0.000046
    32     0.000079
    33    -0.000001
    34    -0.000079
    35     0.000012
    36     0.000019
    37     0.000022
    38     0.086407
    39    -0.004894
    40    -0.346982
    41    -0.032575
    42    -0.070134
    43     0.462536
    44    -0.083297
    45     0.076669
    46     0.003198
    47     0.116097
    48     0.122858
    49    -0.006934
    50    -0.493360
    51    -0.046278
    52    -0.099629
    53     0.657166
    54    -0.118631
    55     0.108963
    56     0.004516
    57     0.165025
    58     0.000154
    59    -0.000043
    60     0.000020
    61    -0.000015
    62     0.000002
    63    -0.000016
    64    -0.000012
    65    -0.000012
    66    -0.000002
    67    -0.000029
    68    -0.000000
    69    -0.000020
    70    -0.000033
    71    -0.000020
    72    -0.000119
Sym=    44a
Ene=   -0.460584E-04
Spin= Alpha
Occup= 0.000003
     1    -0.004401
     2     0.005089
     3    -0.000434
     4    -0.000937
     5     0.000509
     6    -0.000145
     7     0.000195
     8     0.001369
     9    -0.000601
    10     0.004307
    11    -0.018140
    12     0.009598
    13    -0.065368
    14     0.000767
    15    -0.000907
    16     0.005300
    17     0.000584
    18    -0.000427
    19     0.002704
    20     0.046882
    21    -0.006927
    22    -0.038949
    23    -0.013196
    24     0.116523
    25     0.030127
    26     1.224202
    27    -0.190698
    28    -1.031607
    29    -0.347175
    30     3.064864
    31     0.792135
    32     0.154637
    33    -0.024125
    34    -0.130062
    35    -0.043740
    36     0.386660
    37     0.099897
    38     0.006535
    39    -0.000171
    40     0.028683
    41     0.001871
    42    -0.002028
    43     0.013471
    44     0.004377
    45    -0.005967
    46     0.003572
    47     0.002058
    48     0.005580
    49    -0.004667
    50     0.014380
    51     0.003018
    52    -0.000689
    53     0.005841
    54     0.001306
    55     0.001696
    56     0.012397
    57    -0.001364
    58     0.962445
    59    -0.574678
    60     0.256902
    61    -0.206785
    62     0.069496
    63    -1.857110
    64     0.331445
    65    -0.399909
    66     0.098120
    67    -0.117521
    68    -0.357647
    69    -0.041632
    70    -1.899791
    71     0.114121
    72    -1.147262
Sym=    45a
Ene=   -0.260569E-03
Spin= Alpha
Occup= 0.000102
     1     0.000065
     2    -0.000010
     3    -0.000056
     4    -0.000803
     5     0.001678
     6     0.000376
     7     0.000105
     8    -0.000018
     9     0.000016
    10    -0.000045
    11     0.000410
    12    -0.000027
    13     0.000428
    14    -0.000053
    15    -0.000015
    16     0.000012
    17     0.000009
    18    -0.000003
    19     0.000033
    20    -0.884829
    21    -0.030127
    22     0.914156
    23    -0.301148
    24     0.584916
    25    -0.101809
    26     1.640093
    27     0.054930
    28    -1.696139
    29     0.558503
    30    -1.084725
    31     0.188782
    32     0.321100
    33     0.010668
    34    -0.331682
    35     0.109339
    36    -0.212232
    37     0.036872
    38    -0.000222
    39    -0.000016
    40    -0.000112
    41    -0.000076
    42    -0.000034
    43    -0.000156
    44     0.000015
    45     0.000042
    46    -0.000013
    47     0.000092
    48    -0.000230
    49    -0.000014
    50    -0.000274
    51     0.000102
    52    -0.000095
    53    -0.000204
    54    -0.000029
    55     0.000179
    56     0.000179
    57     0.000133
    58     1.034314
    59    -0.084803
    60     0.276469
    61    -0.070714
    62    -0.031712
    63     0.434997
    64    -0.100819
    65     0.183755
    66    -0.210084
    67     0.011369
    68    -0.025623
    69    -0.289506
    70     0.431749
    71    -0.231632
    72    -1.001311
Sym=    46a
Ene=   -0.335587E-04
Spin= Alpha
Occup= 0.000003
     1     0.000003
     2    -0.000004
     3     0.000004
     4    -0.000007
     5     0.000006
     6     0.000003
     7     0.000003
     8     0.000056
     9    -0.000314
    10    -0.000064
    11    -0.000379
    12     0.002169
    13     0.000455
    14    -0.000046
    15     0.000238
    16     0.000047
    17     0.000008
    18    -0.000050
    19    -0.000011
    20    -0.010773
    21    -0.010333
    22     0.021107
    23     0.035300
    24    -0.004490
    25     0.060608
    26     0.081784
    27     0.080802
    28    -0.162609
    29    -0.268237
    30     0.035333
    31    -0.466769
    32     0.010112
    33     0.010092
    34    -0.020204
    35    -0.033172
    36     0.004423
    37    -0.057993
    38     0.000226
    39    -0.000236
    40    -0.000285
    41    -0.000146
    42    -0.000552
    43    -0.000104
    44     0.000096
    45    -0.000592
    46     0.000176
    47    -0.000092
    48     0.000117
    49    -0.001146
    50    -0.000100
    51     0.000157
    52    -0.000297
    53    -0.000076
    54     0.000052
    55    -0.000219
    56    -0.000215
    57     0.000075
    58     0.470117
    59     0.756053
    60    -0.662153
    61    -0.596640
    62     0.175252
    63    -0.043986
    64     0.352105
    65     0.116318
    66    -0.436560
    67     0.063282
    68     0.437569
    69     0.241363
    70    -0.079545
    71     0.452776
    72    -0.238314
Sym=    47a
Ene=   -0.135058E-03
Spin= Alpha
Occup= 0.000055
     1     0.000009
     2    -0.000003
     3     0.000000
     4    -0.000028
     5     0.000020
     6     0.000009
     7     0.000021
     8    -0.001334
     9     0.007370
    10     0.001518
    11     0.024474
    12    -0.134654
    13    -0.026334
    14     0.024859
    15    -0.136710
    16    -0.027142
    17    -0.001011
    18     0.005572
    19     0.001095
    20     0.000022
    21    -0.000146
    22     0.000149
    23    -0.000024
    24    -0.000085
    25     0.000400
    26    -0.000032
    27     0.000264
    28    -0.000276
    29     0.000057
    30     0.000164
    31    -0.000763
    32    -0.000000
    33     0.000028
    34    -0.000022
    35     0.000018
    36     0.000019
    37    -0.000080
    38    -0.167514
    39    -0.354412
    40     0.179595
    41     0.243434
    42     0.372907
    43     0.073540
    44    -0.065802
    45     0.361636
    46    -0.263776
    47     0.073149
    48    -0.137207
    49    -0.420644
    50     0.147511
    51     0.231881
    52     0.301492
    53     0.059487
    54    -0.053073
    55     0.291972
    56    -0.251464
    57     0.067588
    58     0.000241
    59     0.000440
    60    -0.000201
    61     0.000099
    62    -0.000040
    63    -0.000090
    64     0.000031
    65     0.000057
    66    -0.000060
    67     0.000068
    68     0.000199
    69    -0.000076
    70    -0.000101
    71    -0.000023
    72     0.000003
Sym=    48a
Ene=   -0.132386E-03
Spin= Alpha
Occup= 0.000009
     1     1.242755
     2    -1.160348
     3    -0.859887
     4     0.635986
     5     1.704431
     6    -0.643461
     7    -0.171063
     8     0.000047
     9     0.000713
    10    -0.003582
    11    -0.000600
    12    -0.011281
    13     0.056596
    14     0.000032
    15     0.000405
    16    -0.002045
    17     0.000014
    18     0.000295
    19    -0.001462
    20    -1.208703
    21     0.480248
    22    -1.199370
    23    -0.366826
    24    -0.072265
    25     0.397940
    26     0.980031
    27    -0.331343
    28     0.971837
    29     0.284784
    30     0.056234
    31    -0.308734
    32     0.099651
    33    -0.008768
    34     0.098575
    35     0.023537
    36     0.004676
    37    -0.025426
    38     0.000135
    39     0.009870
    40    -0.015570
    41    -0.000882
    42     0.001285
    43    -0.006882
    44     0.001192
    45    -0.004827
    46    -0.020856
    47     0.003225
    48     0.000225
    49    -0.001132
    50    -0.021467
    51     0.000899
    52     0.001976
    53    -0.009670
    54    -0.000807
    55     0.006897
    56     0.001546
    57    -0.002577
    58    -0.401043
    59     0.014948
    60    -0.200223
    61     0.054994
    62    -0.175521
    63    -0.002825
    64    -0.007558
    65    -0.011211
    66    -0.050606
    67    -0.235146
    68     0.007922
    69    -0.201654
    70    -0.002843
    71    -0.013986
    72    -0.402770
Sym=    49a
Ene=   -0.168092E-03
Spin= Alpha
Occup= 0.000071
     1    -0.000004
     2     0.000003
     3    -0.000017
     4     0.000014
     5     0.000034
     6    -0.000055
     7     0.000143
     8    -0.294072
     9    -0.050885
    10    -0.013159
    11     0.097449
    12     0.017077
    13     0.003238
    14     0.454186
    15     0.078470
    16     0.020880
    17    -0.016469
    18    -0.002864
    19    -0.000622
    20    -0.000083
    21    -0.000015
    22     0.000048
    23     0.000165
    24    -0.000870
    25    -0.000184
    26     0.000059
    27     0.000042
    28    -0.000175
    29    -0.000198
    30     0.000994
    31     0.000249
    32    -0.000055
    33    -0.000005
    34    -0.000072
    35     0.000017
    36    -0.000120
    37    -0.000012
    38     0.021528
    39     0.218250
    40     0.002337
    41     0.527175
    42    -0.206672
    43    -0.040231
    44     0.011548
    45     0.011857
    46     0.063660
    47     0.121055
    48    -0.773695
    49     0.168182
    50    -0.033849
    51     0.382817
    52    -0.353183
    53    -0.073148
    54    -0.343991
    55    -0.045304
    56     0.073611
    57     0.170523
    58     0.000131
    59    -0.000033
    60    -0.000000
    61    -0.000078
    62    -0.000038
    63    -0.000134
    64     0.000011
    65    -0.000142
    66     0.000058
    67     0.000025
    68    -0.000034
    69    -0.000038
    70    -0.000132
    71     0.000022
    72     0.000013
Sym=    50a
Ene=   -0.385252E-04
Spin= Alpha
Occup= 0.000003
     1     0.000011
     2    -0.000013
     3     0.000005
     4    -0.000004
     5     0.000000
     6     0.000003
     7     0.000002
     8    -0.000233
     9     0.001296
    10     0.000255
    11     0.002870
    12    -0.015941
    13    -0.003122
    14     0.000212
    15    -0.001145
    16    -0.000230
    17    -0.000065
    18     0.000363
    19     0.000070
    20     0.000024
    21    -0.000163
    22     0.000139
    23    -0.000059
    24    -0.000089
    25     0.000389
    26    -0.000016
    27     0.000486
    28    -0.000481
    29     0.000074
    30     0.000287
    31    -0.001232
    32     0.000011
    33    -0.000003
    34    -0.000011
    35    -0.000028
    36     0.000000
    37    -0.000017
    38    -0.356408
    39    -0.032768
    40    -0.377008
    41     0.246724
    42     0.832072
    43     0.104996
    44     0.229049
    45    -0.774793
    46     0.403419
    47     0.200494
    48     0.314458
    49     0.040500
    50     0.336761
    51    -0.220062
    52    -0.733831
    53    -0.092263
    54    -0.204191
    55     0.692579
    56    -0.356976
    57    -0.178024
    58     0.000290
    59     0.000485
    60     0.000030
    61     0.000549
    62    -0.000325
    63    -0.000139
    64    -0.000073
    65    -0.000076
    66    -0.000014
    67     0.000081
    68     0.000153
    69    -0.000045
    70    -0.000070
    71     0.000056
    72    -0.000030
Sym=    51a
Ene=    0.000000E+00
Spin= Alpha
Occup= 0.000000
     1     0.062386
     2    -0.054925
     3    -0.721073
     4    -2.678254
     5    12.474967
     6    -4.459366
     7    -2.516813
     8    -1.048446
     9    -0.099341
    10     0.310912
    11     6.509796
    12    -0.178989
    13    -2.277450
    14     1.666346
    15     1.791592
    16     0.033161
    17     0.078850
    18    -0.692626
    19    -0.243537
    20    -2.254700
    21    -3.714366
    22    -2.983445
    23     0.844665
    24    -0.051827
    25     0.304850
    26    -0.118923
    27     8.333627
    28     3.838322
    29    -4.938280
    30     0.425397
    31    -2.505377
    32     1.895303
    33     0.653140
    34     1.239247
    35     0.679060
    36     0.022525
    37    -0.102093
    38    -1.893754
    39    -0.031157
    40     0.676039
    41    -0.561447
    42     0.044218
    43     0.285157
    44    -0.845587
    45     0.130738
    46     0.243820
    47     0.060329
    48    -3.494138
    49    -0.687188
    50     0.933105
    51    -1.901205
    52    -0.323234
    53     0.438897
    54    -1.564991
    55    -0.428835
    56     0.477032
    57    -0.075729
    58    -2.877456
    59     1.181180
    60    -2.461293
    61     1.227285
    62    -5.637141
    63    -0.202235
    64     0.868577
    65    -0.102395
    66     1.959629
    67    -1.006810
    68     0.526746
    69    -1.813353
    70    -0.201046
    71     1.955637
    72    -0.563086
Sym=    52a
Ene=    0.000000E+00
Spin= Alpha
Occup= 0.000000
     1    -0.972262
     2     1.759608
     3    -5.356489
     4    -5.188185
     5    27.164191
     6     5.841545
     7     1.597333
     8     0.154208
     9     0.225192
    10    -0.301102
    11    -1.393765
    12    -1.944734
    13     1.663329
    14    -0.592080
    15    -0.055002
    16     1.423311
    17     0.359425
    18    -0.123197
    19    -0.544474
    20    -8.613141
    21    -8.167789
    22    -9.408340
    23    -0.073863
    24     0.761953
    25     0.564328
    26     1.423476
    27    -1.709015
    28     6.317773
    29     0.413171
    30    -4.595837
    31    -2.424034
    32    -1.528922
    33    -1.197877
    34    -1.998469
    35    -0.100868
    36     0.491044
    37     0.868130
    38     0.422092
    39     0.932016
    40    -0.538845
    41     0.395754
    42     0.024374
    43    -0.264081
    44     0.191584
    45     0.138693
    46    -0.140443
    47     0.063930
    48     0.775075
    49     0.471750
    50    -1.239556
    51     0.121348
    52     0.610175
    53    -0.529875
    54     0.343804
    55     0.488403
    56    -0.656099
    57    -0.067960
    58    -7.843821
    59     0.730584
    60    -3.150914
    61     0.687635
    62    -2.713478
    63     1.875128
    64    -0.058019
    65     0.850495
    66    -0.162048
    67    -3.691367
    68     0.327694
    69    -2.218951
    70     1.874270
    71    -0.141972
    72    -4.763195
Sym=    53a
Ene=    0.000000E+00
Spin= Alpha
Occup= 0.000000
     1    -0.373015
     2     0.709054
     3    -2.900830
     4     1.501091
     5    26.684792
     6   -37.565896
     7    -5.184640
     8     0.143583
     9    -0.183384
    10     0.485526
    11    -1.552241
    12     0.543474
    13    -3.111295
    14     0.922940
    15     1.120079
    16    -0.934898
    17    -0.580398
    18    -0.295526
    19     0.102693
    20    -6.298407
    21    -6.182703
    22    -4.927665
    23     0.809452
    24    -0.133703
    25    -0.154318
    26    24.293924
    27    25.364711
    28    16.358129
    29    -5.218250
    30     0.647426
    31     1.437324
    32     4.475047
    33     5.284465
    34     5.537923
    35     0.438170
    36    -0.148681
    37     0.119037
    38     0.422870
    39     0.170798
    40     0.836576
    41     0.241712
    42    -0.238523
    43     0.362703
    44     0.188385
    45    -0.171059
    46     0.500833
    47     0.019559
    48     0.294260
    49    -1.086021
    50     1.781110
    51     0.088095
    52    -0.171758
    53     0.807249
    54     0.130962
    55    -0.228286
    56     0.688208
    57    -0.021713
    58    -6.002131
    59    -0.691064
    60    -5.287744
    61    -0.757792
    62   -12.195798
    63    -0.231531
    64     0.975952
    65    -0.083627
    66     2.235767
    67    -4.923103
    68    -0.311019
    69    -6.689676
    70    -0.231943
    71     2.173155
    72   -10.811451
Sym=    54a
Ene=    0.000000E+00
Spin= Alpha
Occup= 0.000000
     1    -0.865430
     2     1.464264
     3    -2.860324
     4     0.279324
     5     0.809557
     6    13.569955
     7    -0.082950
     8    -0.408238
     9    -0.026150
    10     0.570123
    11     2.668665
    12     0.034999
    13    -2.978895
    14     1.727432
    15     1.162302
    16    -2.265733
    17    -0.708548
    18    -0.715287
    19     0.667751
    20    -1.752290
    21    -0.755461
    22    -1.406267
    23     0.166451
    24    -0.810047
    25     0.398638
    26    -4.684614
    27   -10.876096
    28    -6.832129
    29    -1.325678
    30     4.626747
    31    -2.390126
    32    -1.614828
    33    -0.685041
    34    -1.401795
    35    -0.098722
    36    -0.662971
    37     0.370350
    38    -0.837328
    39    -0.390046
    40     0.962539
    41    -0.461959
    42     0.213161
    43     0.447049
    44    -0.360596
    45     0.050717
    46     0.101444
    47     0.009409
    48    -1.763089
    49    -0.088429
    50     2.142659
    51    -0.686334
    52    -0.428046
    53     0.940567
    54    -0.803426
    55    -0.254295
    56     1.301030
    57    -0.009514
    58     2.046988
    59     0.926294
    60     1.883281
    61     0.960040
    62     4.475073
    63    -1.816285
    64     0.288846
    65    -0.809657
    66     0.645072
    67     0.802899
    68     0.411391
    69     1.474001
    70    -1.815998
    71     0.645333
    72     0.697165
Sym=    55a
Ene=    0.000000E+00
Spin= Alpha
Occup= 0.000000
     1     0.376912
     2    -0.682146
     3     2.150104
     4     3.232431
     5   -10.737975
     6    -7.113809
     7    -3.403978
     8     0.338973
     9    -0.564101
    10    -0.253354
    11    -2.202050
    12     4.105978
    13     1.263603
    14     0.113714
    15     1.622519
    16     1.862096
    17    -0.402357
    18    -0.779510
    19    -0.875386
    20     4.001379
    21     4.357790
    22     4.096317
    23     0.556279
    24     1.176863
    25     0.893085
    26     0.644940
    27    -2.158618
    28     0.006496
    29    -3.422836
    30    -6.868611
    31    -5.265517
    32     2.324943
    33     2.226843
    34     2.383216
    35     0.394607
    36     0.879382
    37     0.657592
    38     0.614427
    39    -1.448398
    40    -0.419265
    41     0.125610
    42    -0.476591
    43    -0.173500
    44     0.273238
    45    -0.545539
    46    -0.221279
    47    -0.041206
    48     0.931027
    49    -2.045951
    50    -1.237742
    51     0.598341
    52    -1.103893
    53    -0.570155
    54     0.417658
    55    -1.019438
    56    -0.511929
    57     0.047861
    58     2.432292
    59     2.108876
    60     1.886338
    61     2.114749
    62     4.061253
    63     2.740837
    64     0.621296
    65     1.227425
    66     1.400685
    67     1.304969
    68     0.942223
    69     1.759028
    70     2.741173
    71     1.391723
    72     2.024564
Sym=    56a
Ene=    0.000000E+00
Spin= Alpha
Occup= 0.000000
     1    -0.451005
     2     0.786547
     3    -2.053582
     4     6.246664
     5     9.300626
     6   -33.739838
     7    -4.467884
     8     0.620730
     9    -0.222319
    10     0.470291
    11    -3.901063
    12     0.829451
    13    -2.741596
    14    -2.066959
    15     1.693833
    16    -1.409338
    17     0.690522
    18    -0.830656
    19     0.311548
    20    -0.863402
    21    -1.154842
    22    -2.344657
    23    -0.668024
    24    -0.298693
    25     0.469502
    26    13.768162
    27    15.690344
    28    22.383143
    29     4.666322
    30     2.001319
    31    -3.355681
    32     4.883222
    33     4.926632
    34     3.763227
    35    -0.234225
    36    -0.124782
    37     0.129229
    38     1.184715
    39     0.075057
    40     0.732958
    41     0.523352
    42    -0.315297
    43     0.319664
    44     0.531522
    45    -0.277635
    46     0.438675
    47     0.015699
    48     2.445861
    49    -1.347082
    50     1.836204
    51     1.107683
    52    -0.258012
    53     0.828621
    54     1.091013
    55    -0.286308
    56     0.726436
    57    -0.017298
    58    -8.374668
    59     1.465661
    60    -3.747608
    61     1.518158
    62    -4.486461
    63    -0.854118
    64    -0.907843
    65    -0.412055
    66    -2.081436
    67    -3.368360
    68     0.660424
    69    -2.213763
    70    -0.853763
    71    -2.016042
    72    -3.134528
Sym=    57a
Ene=    0.000000E+00
Spin= Alpha
Occup= 0.000000
     1    -0.448156
     2     0.747383
     3    -1.317031
     4     1.542687
     5    -2.740690
     6     3.440759
     7     3.634631
     8    -0.263305
     9     0.465096
    10    -0.089709
    11     0.920261
    12    -3.184292
    13     0.687489
    14     1.776049
    15    -1.348191
    16    -0.142131
    17    -0.707821
    18     0.759840
    19     0.217942
    20     0.150307
    21     0.174890
    22    -0.560138
    23     0.595882
    24     0.904387
    25     0.603117
    26    -3.385627
    27    -3.108666
    28     0.530812
    29    -3.424143
    30    -5.110432
    31    -4.096269
    32    -1.656264
    33    -1.302772
    34    -2.266738
    35     0.478063
    36     0.746040
    37     0.237701
    38    -0.410362
    39     0.820046
    40    -0.084532
    41     0.216079
    42     0.510327
    43    -0.059548
    44    -0.173485
    45     0.577953
    46    -0.251747
    47     0.105972
    48    -0.998871
    49     1.884542
    50    -0.368203
    51    -0.853713
    52     0.710416
    53    -0.142128
    54    -0.456197
    55     0.635615
    56     0.038162
    57    -0.106280
    58    -0.490049
    59     1.758109
    60     0.292321
    61     1.800285
    62     1.386756
    63     2.000674
    64     0.599180
    65     0.877696
    66     1.347973
    67     0.391608
    68     0.787196
    69     0.948115
    70     2.001638
    71     1.354812
    72     1.824455
Sym=    58a
Ene=    0.000000E+00
Spin= Alpha
Occup= 0.000000
     1    -0.189437
     2     0.382740
     3    -1.893699
     4     1.808202
     5    18.431526
     6   -29.840144
     7    -4.207374
     8     0.159255
     9    -0.228287
    10    -0.784368
    11    -0.990943
    12     2.377524
    13     5.294315
    14    -0.881394
    15    -0.852577
    16     0.670847
    17     0.424988
    18     0.389149
    19     0.293708
    20    -3.354136
    21    -3.624962
    22    -4.673636
    23     0.839775
    24    -0.631092
    25     0.617070
    26    14.575447
    27    15.562815
    28    21.793881
    29    -5.992011
    30     3.464315
    31    -3.790364
    32     4.579867
    33     4.134642
    34     3.404629
    35     0.170087
    36    -0.563706
    37     0.399727
    38     0.331866
    39    -0.696249
    40    -1.501576
    41     0.166223
    42    -0.375658
    43    -0.674458
    44     0.145400
    45    -0.343394
    46    -0.605179
    47    -0.003325
    48     0.721760
    49    -0.552392
    50    -2.573302
    51     0.292176
    52    -0.188215
    53    -1.147000
    54     0.328250
    55    -0.237709
    56    -1.247069
    57     0.008073
    58    -9.905436
    59     1.553365
    60    -4.664848
    61     1.568457
    62    -6.038351
    63    -1.332617
    64     1.182799
    65    -0.574004
    66     2.723257
    67    -4.560678
    68     0.684016
    69    -3.473286
    70    -1.330892
    71     2.646799
    72    -5.668204
Sym=    59a
Ene=    0.000000E+00
Spin= Alpha
Occup= 0.000000
     1     0.000994
     2    -0.001153
     3    -0.033012
     4     1.051203
     5     2.999957
     6    -8.269376
     7    -5.240819
     8    -0.370951
     9     1.040834
    10    -0.564330
    11     2.946014
    12    -7.482522
    13     3.117619
    14     1.217619
    15    -2.381175
    16     1.861294
    17    -0.600842
    18     0.837635
    19    -0.437796
    20     0.365445
    21     0.174358
    22    -0.384161
    23    -0.485462
    24     0.208123
    25     0.250734
    26     1.548235
    27     3.017171
    28     5.740809
    29     2.798053
    30    -1.115725
    31    -1.874760
    32     2.990332
    33     3.057319
    34     2.346233
    35    -0.415465
    36     0.189383
    37     0.021552
    38    -0.797283
    39     2.480183
    40    -0.941697
    41    -0.842623
    42     1.022862
    43    -0.392323
    44    -0.363619
    45     0.899548
    46    -0.269704
    47    -0.115848
    48    -1.746183
    49     3.766593
    50    -2.100287
    51    -0.280247
    52     1.753004
    53    -0.969370
    54    -0.772489
    55     1.876481
    56    -1.102930
    57     0.123423
    58    -2.078887
    59     0.844583
    60    -0.776734
    61     0.870315
    62    -0.665989
    63     0.424067
    64    -0.494980
    65     0.180973
    66    -1.090821
    67    -0.488380
    68     0.377295
    69    -0.067131
    70     0.424834
    71    -1.097052
    72     0.409141
Sym=    60a
Ene=    0.000000E+00
Spin= Alpha
Occup= 0.000000
     1     0.072930
     2    -0.180393
     3     1.381345
     4    -1.617241
     5   -15.224098
     6    25.765850
     7     4.192873
     8     0.178378
     9    -0.070815
    10     0.901557
    11    -0.771504
    12     0.207511
    13    -5.614059
    14    -1.229976
    15     0.326982
    16    -1.980089
    17     0.516963
    18    -0.137221
    19     0.268478
    20     3.627872
    21     2.930735
    22     3.205821
    23    -0.439535
    24     0.833057
    25    -0.138523
    26   -17.775588
    27   -13.488948
    28   -15.867438
    29     1.214785
    30    -5.002605
    31     0.470526
    32    -3.229819
    33    -3.695303
    34    -3.803531
    35    -0.944296
    36     0.555250
    37    -0.277928
    38     0.289628
    39     0.132919
    40     1.556697
    41     0.002080
    42    -0.097192
    43     0.700541
    44     0.129583
    45    -0.120826
    46     0.762522
    47    -0.020278
    48     0.776058
    49    -0.421563
    50     3.307391
    51     0.476002
    52    -0.028946
    53     1.474522
    54     0.344595
    55     0.008070
    56     1.443939
    57     0.013434
    58     6.840563
    59    -0.093009
    60     3.526414
    61    -0.076391
    62     5.089382
    63     2.029693
    64    -0.073893
    65     0.927164
    66    -0.047199
    67     4.284911
    68    -0.051483
    69     3.745344
    70     2.031604
    71    -0.157179
    72     7.797285
Sym=    61a
Ene=    0.000000E+00
Spin= Alpha
Occup= 0.000000
     1    -0.322061
     2     0.494736
     3    -0.197543
     4     3.630446
     5   -10.070669
     6     2.166262
     7    -0.912374
     8    -0.202188
     9    -0.453407
    10     0.393191
    11     0.900209
    12     3.456787
    13    -2.604269
    14     1.339917
    15    -0.331904
    16     0.228263
    17    -0.542470
    18     0.538479
    19    -0.546865
    20     4.028872
    21     1.733631
    22     1.752919
    23     0.379440
    24    -0.402552
    25    -0.740708
    26   -11.900994
    27     1.189052
    28     1.496415
    29    -2.109348
    30     2.242849
    31     4.827868
    32     1.325211
    33    -0.416419
    34    -0.326882
    35     0.295894
    36    -0.346402
    37    -0.335294
    38    -0.262027
    39    -0.860062
    40     0.673077
    41    -0.147929
    42    -0.491352
    43     0.301032
    44    -0.110387
    45    -0.524582
    46     0.254066
    47     0.017068
    48    -0.944941
    49    -1.489776
    50     1.126798
    51    -0.394265
    52    -0.551413
    53     0.504041
    54    -0.432000
    55    -0.505766
    56     0.583079
    57    -0.025535
    58    -0.006249
    59    -2.053599
    60     0.052474
    61    -2.070037
    62     0.317780
    63    -0.868516
    64     0.376512
    65    -0.383517
    66     0.805786
    67     2.398420
    68    -0.918723
    69     2.471762
    70    -0.868751
    71     0.835138
    72     8.199973
Sym=    62a
Ene=    0.000000E+00
Spin= Alpha
Occup= 0.000000
     1    -1.434489
     2     2.568921
     3    -7.194663
     4    -3.367902
     5    35.130769
     6    -5.931424
     7    -2.430162
     8    -0.047219
     9     0.190242
    10    -0.078214
    11     0.091576
    12    -1.380189
    13     0.802497
    14     0.292792
    15    -0.395214
    16    -0.597864
    17    -0.083910
    18     0.137767
    19     0.398821
    20    -8.904189
    21    -9.484500
    22    -8.764059
    23    -0.265692
    24    -0.014394
    25    -0.321139
    26    -0.303419
    27     2.545132
    28    -1.023458
    29     1.719599
    30     0.078907
    31     1.952357
    32     2.058507
    33     1.373913
    34     2.196835
    35    -0.141394
    36    -0.015213
    37    -0.213239
    38    -0.044900
    39     0.478875
    40    -0.191254
    41     0.073871
    42     0.147004
    43    -0.092980
    44    -0.015625
    45     0.165682
    46    -0.125191
    47     0.034517
    48    -0.152844
    49     0.655238
    50    -0.135264
    51    -0.169059
    52     0.359899
    53    -0.052499
    54    -0.071572
    55     0.332071
    56    -0.036785
    57    -0.032288
    58    -1.927457
    59    -0.803579
    60    -1.715458
    61    -0.795919
    62    -3.843204
    63    -0.028045
    64    -0.318514
    65    -0.015011
    66    -0.738117
    67    -1.248060
    68    -0.357986
    69    -1.825274
    70    -0.028448
    71    -0.714714
    72    -2.335479
Sym=    63a
Ene=    0.000000E+00
Spin= Alpha
Occup= 0.000000
     1     0.437675
     2    -0.773195
     3     2.156648
     4    -0.208327
     5   -13.049707
     6    10.786784
     7     4.544495
     8    -0.541192
     9     0.387145
    10     0.265252
    11     3.358200
    12    -3.735095
    13    -1.834319
    14     2.126763
    15     0.435602
    16    -0.814598
    17    -0.778736
    18    -0.338405
    19     0.288536
    20     2.890734
    21     3.347650
    22     2.797474
    23     0.665444
    24    -0.484688
    25     0.096799
    26    -5.038149
    27    -9.125993
    28    -4.557942
    29    -4.078623
    30     2.709366
    31    -0.558100
    32    -2.480957
    33    -2.844421
    34    -2.566550
    35     0.460632
    36    -0.403274
    37     0.060216
    38    -0.904579
    39     1.584034
    40     0.440819
    41    -0.723532
    42     0.310537
    43     0.206904
    44    -0.415951
    45     0.315175
    46     0.517703
    47    -0.083987
    48    -2.362776
    49     0.848511
    50     1.191242
    51    -0.742641
    52     0.772683
    53     0.523215
    54    -1.045143
    55     0.766372
    56     0.213267
    57     0.083365
    58     1.911385
    59     0.221681
    60     2.080372
    61     0.233276
    62     5.322520
    63    -1.055770
    64     0.745694
    65    -0.463250
    66     1.664955
    67     1.199223
    68     0.095796
    69     2.154582
    70    -1.055592
    71     1.663036
    72     2.187156
Sym=    64a
Ene=    0.000000E+00
Spin= Alpha
Occup= 0.000000
     1    -0.150596
     2     0.275608
     3    -0.977681
     4     1.483263
     5     7.007868
     6   -13.864822
     7    -1.264801
     8    -0.090522
     9     1.687787
    10     0.390705
    11     0.459928
    12   -10.053961
    13    -2.370689
    14     0.388611
    15    -5.217647
    16    -0.988270
    17    -0.007894
    18     0.752261
    19     0.064818
    20    -1.428871
    21    -2.080037
    22    -1.306159
    23     0.316010
    24     0.177191
    25    -0.156246
    26     7.355976
    27    11.232923
    28     6.659097
    29    -1.807228
    30    -1.022320
    31     0.927402
    32     1.657842
    33     1.194526
    34     1.761091
    35     0.265843
    36     0.139691
    37    -0.112911
    38    -0.129489
    39     2.844975
    40     0.668788
    41    -0.030727
    42     1.269513
    43     0.297389
    44    -0.056274
    45     1.270743
    46     0.277119
    47     0.010353
    48    -0.404228
    49     6.800128
    50     1.489491
    51    -0.212714
    52     3.022064
    53     0.667522
    54    -0.183055
    55     3.025700
    56     0.704897
    57    -0.012375
    58    -2.330000
    59    -0.373790
    60    -2.186516
    61    -0.373040
    62    -5.135250
    63     0.404681
    64     0.316837
    65     0.179332
    66     0.704089
    67    -1.486110
    68    -0.166543
    69    -2.306300
    70     0.404612
    71     0.708767
    72    -2.746354
Sym=    65a
Ene=    0.000000E+00
Spin= Alpha
Occup= 0.000000
     1     0.306399
     2    -0.492013
     3     0.460742
     4     2.642905
     5     8.158286
     6   -28.516148
     7    -4.317523
     8     0.128506
     9     0.443993
    10     1.172713
    11     0.116230
    12    -3.356371
    13    -7.223818
    14    -1.590376
    15    -0.683305
    16    -3.320798
    17     0.555078
    18     0.491149
    19     0.905134
    20    -0.530497
    21    -0.587281
    22    -1.183944
    23     0.001803
    24     0.395358
    25     0.257545
    26    14.242734
    27    14.037753
    28    18.290665
    29    -0.024232
    30    -2.453233
    31    -0.725363
    32     4.311871
    33     3.958678
    34     3.933457
    35     0.017696
    36     0.232116
    37     0.522663
    38    -0.064876
    39     0.695590
    40     2.182892
    41    -0.089664
    42     0.735414
    43     0.990855
    44    -0.026540
    45     0.639889
    46     0.781497
    47    -0.019288
    48     0.702442
    49     1.822069
    50     4.353027
    51     0.393254
    52     0.397032
    53     1.930910
    54     0.309804
    55     0.508417
    56     2.162761
    57     0.017396
    58    -7.140256
    59     0.107568
    60    -3.355604
    61     0.050102
    62    -4.183354
    63     1.013426
    64     0.008066
    65     0.469691
    66     0.003600
    67    -3.433562
    68     0.047999
    69    -2.580081
    70     1.012639
    71     0.004666
    72    -4.585536
Sym=    66a
Ene=    0.000000E+00
Spin= Alpha
Occup= 0.000000
     1    -0.019889
     2     0.055794
     3    -0.422130
     4    -5.033255
     5     3.111432
     6    20.173696
     7     2.778622
     8     1.745520
     9     0.269925
    10     0.095629
    11   -10.954412
    12    -2.056225
    13    -0.478044
    14    -3.655618
    15     0.118737
    16    -0.786056
    17     0.424401
    18    -0.155848
    19     0.395699
    20    -1.005578
    21    -2.605486
    22    -1.979044
    23     0.699146
    24    -0.114649
    25    -0.039641
    26   -13.528181
    27    -4.152300
    28    -7.960145
    29    -3.987242
    30     0.728977
    31    -0.041979
    32    -2.255710
    33    -3.517924
    34    -3.021244
    35     0.598147
    36    -0.052303
    37    -0.165446
    38     3.088375
    39     0.537964
    40     0.177042
    41     1.391326
    42     0.299835
    43     0.079864
    44     1.380144
    45     0.300770
    46     0.069003
    47    -0.002891
    48     6.310412
    49     0.869927
    50     0.477608
    51     2.887907
    52     0.287776
    53     0.206967
    54     2.823978
    55     0.315110
    56     0.223616
    57     0.022406
    58     0.853382
    59     0.089632
    60    -0.169387
    61     0.105937
    62    -1.480109
    63    -0.307802
    64     0.693946
    65    -0.144051
    66     1.551249
    67     1.483183
    68     0.039680
    69     0.804226
    70    -0.307250
    71     1.557584
    72     4.211941
Sym=    67a
Ene=    0.000000E+00
Spin= Alpha
Occup= 0.000000
     1     0.527437
     2    -0.898417
     3     2.001400
     4    -3.722954
     5    -4.685152
     6    15.284429
     7     0.047819
     8    -0.316802
     9    -0.511816
    10     1.036832
    11     1.317711
    12     4.173315
    13    -5.916629
    14     1.875418
    15    -0.599736
    16    -4.065515
    17    -0.626843
    18     0.412569
    19     1.284612
    20     1.189155
    21     1.763360
    22     0.880455
    23    -0.066888
    24     0.383655
    25     0.485935
    26    -7.805122
    27   -11.055127
    28    -5.952360
    29     0.819701
    30    -2.101625
    31    -3.033229
    32    -1.273700
    33    -0.881177
    34    -1.474615
    35     0.167166
    36     0.349236
    37     0.264962
    38    -0.343076
    39    -0.978177
    40     1.652600
    41    -0.172094
    42    -0.739339
    43     0.732237
    44    -0.160749
    45    -0.662952
    46     0.956160
    47    -0.015231
    48    -1.418791
    49    -1.654533
    50     4.297397
    51    -0.633697
    52    -0.434956
    53     1.929778
    54    -0.629002
    55    -0.508130
    56     1.728991
    57     0.006146
    58     1.293842
    59     1.266281
    60     1.689445
    61     1.268119
    62     4.420216
    63     0.804495
    64    -0.200313
    65     0.348531
    66    -0.464660
    67     1.095267
    68     0.569378
    69     2.033132
    70     0.804464
    71    -0.442973
    72     2.444959
Sym=    68a
Ene=    0.000000E+00
Spin= Alpha
Occup= 0.000000
     1    -0.003258
     2     0.018747
     3    -0.233534
     4    -0.031081
     5     3.493617
     6    -4.201023
     7    -1.682739
     8     0.060216
     9     0.017965
    10    -0.036305
    11    -0.250489
    12    -0.240505
    13     0.261077
    14    -0.445860
    15     0.442438
    16    -0.063626
    17     0.192273
    18    -0.300534
    19     0.066569
    20    -0.927210
    21     0.947175
    22    -1.692125
    23     0.802984
    24     0.549135
    25    -1.803993
    26     4.062968
    27    -7.044425
    28     8.520974
    29    -4.775119
    30    -3.247841
    31    10.637232
    32     0.786389
    33     2.214124
    34     0.192290
    35     0.604684
    36     0.422096
    37    -1.402175
    38     0.077817
    39     0.013219
    40    -0.062534
    41     0.033723
    42     0.043096
    43    -0.027000
    44     0.034362
    45     0.039890
    46    -0.036063
    47    -0.002811
    48     0.286847
    49    -0.009049
    50    -0.098495
    51     0.130323
    52    -0.042249
    53    -0.045081
    54     0.129038
    55    -0.040292
    56    -0.039864
    57     0.003976
    58    -4.785713
    59    -4.238261
    60    -0.026133
    61    -4.243408
    62     4.711687
    63     1.296500
    64     0.855973
    65     0.583188
    66     1.917802
    67    -2.010258
    68    -1.896328
    69     0.765160
    70     1.296608
    71     1.912935
    72    -2.080080
Sym=    69a
Ene=    0.000000E+00
Spin= Alpha
Occup= 0.000000
     1    -0.736365
     2     1.262193
     3    -2.863121
     4     3.751955
     5     6.206251
     6   -11.874481
     7    -2.632823
     8     0.165593
     9    -0.243453
    10     0.068140
    11    -0.519902
    12     1.564003
    13    -0.062846
    14    -1.474867
    15    -0.040642
    16    -0.827262
    17     0.621027
    18     0.324044
    19     0.364651
    20    -2.848896
    21    -2.389908
    22    -0.696711
    23     0.711613
    24     0.705483
    25    -0.140988
    26    12.791975
    27     9.095894
    28     0.170817
    29    -4.110065
    30    -4.040980
    31     0.349579
    32     1.124549
    33     1.270601
    34     2.715159
    35     0.544481
    36     0.555491
    37    -0.250801
    38     0.249964
    39    -0.158075
    40    -0.008155
    41    -0.111373
    42    -0.276674
    43     0.006106
    44     0.115600
    45    -0.348285
    46     0.037267
    47    -0.027173
    48     0.750320
    49    -0.982444
    50     0.404238
    51     0.554935
    52    -0.232178
    53     0.171291
    54     0.331372
    55    -0.160098
    56     0.144603
    57     0.025288
    58     1.605058
    59    -0.062596
    60    -0.598778
    61     0.013492
    62    -3.519561
    63     1.598780
    64     0.732600
    65     0.698129
    66     1.607033
    67    -1.316853
    68    -0.025945
    69    -2.867164
    70     1.598772
    71     1.645372
    72    -6.104747
Sym=    70a
Ene=    0.000000E+00
Spin= Alpha
Occup= 0.000000
     1     0.746116
     2    -1.450497
     3     6.144275
     4     1.876841
     5   -47.506734
     6    41.015421
     7     2.405285
     8     0.311519
     9     0.455562
    10    -0.008217
    11    -1.716768
    12    -3.182951
    13    -0.102098
    14    -2.050397
    15    -1.191755
    16     0.179177
    17     0.926740
    18     0.380477
    19    -0.061620
    20    12.310931
    21    12.886301
    22    12.627670
    23     0.860541
    24    -0.529475
    25     0.499507
    26   -28.453940
    27   -31.033451
    28   -30.166516
    29    -4.919188
    30     3.052973
    31    -2.581639
    32    -4.045656
    33    -3.277584
    34    -3.724253
    35     0.737238
    36    -0.404559
    37     0.545407
    38     0.539061
    39     1.121342
    40     0.011068
    41     0.345608
    42     0.324147
    43    -0.006540
    44     0.239131
    45     0.397318
    46     0.091707
    47     0.021912
    48     1.523558
    49     1.621564
    50    -0.021664
    51     0.565090
    52     0.906582
    53     0.002676
    54     0.683309
    55     0.828624
    56    -0.097279
    57    -0.024457
    58    16.370261
    59     0.947317
    60     9.674651
    61     0.908144
    62    16.627712
    63    -1.212420
    64     0.860391
    65    -0.536455
    66     1.920943
    67     9.297312
    68     0.424524
    69     9.403658
    70    -1.212939
    71     1.917590
    72    15.386842
Sym=    71a
Ene=    0.000000E+00
Spin= Alpha
Occup= 0.000000
     1     0.005033
     2     0.036629
     3    -0.746782
     4    -0.507218
     5     8.920803
     6    -8.509234
     7    -1.961145
     8     0.681641
     9     0.357706
    10     0.532287
    11    -5.009794
    12    -2.247960
    13    -3.888001
    14    -0.994770
    15    -1.579234
    16     0.406424
    17     0.090658
    18     0.757661
    19    -0.671252
    20    -3.023668
    21    -1.062311
    22    -1.872489
    23    -0.225409
    24    -0.763722
    25     0.142245
    26    11.631559
    27    -0.975655
    28     4.661636
    29     1.062774
    30     4.451212
    31    -1.498988
    32     0.853711
    33     1.851486
    34     1.597955
    35    -0.291425
    36    -0.571809
    37    -0.175021
    38     1.345540
    39     0.730869
    40     1.081024
    41     1.016483
    42     0.235812
    43     0.454294
    44     0.605219
    45     0.378228
    46     0.447340
    47     0.097810
    48     2.622318
    49     1.466383
    50     1.539182
    51     0.772013
    52     0.748188
    53     0.716429
    54     1.166983
    55     0.623194
    56     0.753747
    57    -0.101685
    58    -2.340397
    59     0.749490
    60    -0.263614
    61     0.813043
    62     1.472480
    63    -1.774729
    64    -0.161541
    65    -0.797477
    66    -0.347259
    67    -2.641556
    68     0.331880
    69    -1.565327
    70    -1.774022
    71    -0.355199
    72    -6.681372
Sym=    72a
Ene=    0.000000E+00
Spin= Alpha
Occup= 0.000000
     1     0.792342
     2    -1.467402
     3     4.931576
     4     5.546749
     5   -29.380307
     6    -0.209608
     7    -3.247377
     8     0.130423
     9     0.242567
    10    -0.263658
    11    -2.090967
    12    -2.132247
    13     1.845727
    14     0.953291
    15     0.500131
    16    -0.461804
    17    -0.400405
    18    -0.338340
    19     0.552336
    20     8.958449
    21     8.404083
    22     9.030397
    23    -0.560569
    24     0.371094
    25    -0.425963
    26    -4.364311
    27    -1.695322
    28    -4.763149
    29     2.967910
    30    -2.282038
    31     2.771196
    32     1.685295
    33     0.986250
    34     1.730896
    35    -0.578334
    36     0.222887
    37    -0.214939
    38     0.479509
    39     0.699653
    40    -0.453475
    41     0.796462
    42     0.111869
    43    -0.245891
    44     0.214612
    45     0.347981
    46    -0.161861
    47     0.125904
    48     0.555733
    49     0.578967
    50    -0.702504
    51    -0.347698
    52     0.466518
    53    -0.269849
    54     0.250033
    55     0.215318
    56    -0.378848
    57    -0.124205
    58     6.163158
    59    -1.168689
    60     3.113719
    61    -1.180151
    62     4.567864
    63     0.939549
    64    -0.490718
    65     0.431266
    66    -1.086998
    67     3.536978
    68    -0.524564
    69     3.042854
    70     0.939411
    71    -1.102779
    72     5.919491
