[Molden Format]
p30-5 set                                                                       
[Atoms] AU
 F        1     9       -1.9109       -1.3347        0.0000
 O        2     8        0.0000        1.0870        0.0000
 O        3     8        2.1497        0.4145        0.0000
[GTO]
    1 0
s    5 1.00
    2894.832599000000 -0.534932117607E-02
     435.419391200000 -0.399677343716E-01
      98.843328866000 -0.179412617888E+00
      27.485198001000 -0.468324686869E+00
       8.540549817100 -0.447241605328E+00
s    1 1.00
       1.065457803800  0.100000000000E+01
s    1 1.00
       0.332473467480  0.100000000000E+01
p    3 1.00
      22.696633924000 -0.647821482412E-01
       4.987233925700 -0.340357853553E+00
       1.349161395400 -0.734858153660E+00
p    1 1.00
       0.348298819770  0.100000000000E+01
d    1 1.00
       1.400000000000  0.100000000000E+01

    2 0
s    5 1.00
    2266.176778500000 -0.538935039217E-02
     340.870101910000 -0.402347213890E-01
      77.363135167000 -0.180081842055E+00
      21.479644940000 -0.468288576577E+00
       6.658943312400 -0.446926171602E+00
s    1 1.00
       0.809759756680  0.100000000000E+01
s    1 1.00
       0.255307722340  0.100000000000E+01
p    3 1.00
      17.721504317000  0.626302487632E-01
       3.863550544000  0.333311384824E+00
       1.048092088300  0.741486383081E+00
p    1 1.00
       0.276415444110  0.100000000000E+01
d    1 1.00
       1.200000000000  0.100000000000E+01

    3 0
s    5 1.00
    2266.176778500000 -0.538935039217E-02
     340.870101910000 -0.402347213890E-01
      77.363135167000 -0.180081842055E+00
      21.479644940000 -0.468288576577E+00
       6.658943312400 -0.446926171602E+00
s    1 1.00
       0.809759756680  0.100000000000E+01
s    1 1.00
       0.255307722340  0.100000000000E+01
p    3 1.00
      17.721504317000  0.626302487632E-01
       3.863550544000  0.333311384824E+00
       1.048092088300  0.741486383081E+00
p    1 1.00
       0.276415444110  0.100000000000E+01
d    1 1.00
       1.200000000000  0.100000000000E+01

[MO]
Sym=     1a
Ene=   -0.238783E+02
Spin= Alpha
Occup= 1.999892
     1     0.734159
     2    -0.030606
     3     0.005733
     4     0.000267
     5     0.000381
     6    -0.000272
     7     0.000683
     8     0.000969
     9     0.000282
    10     0.004544
    11     0.004629
    12     0.004386
    13     0.000280
    14     0.000004
    15     0.000002
    16    -0.325373
    17     0.013218
    18    -0.008812
    19     0.001664
    20    -0.000969
    21     0.000018
    22    -0.000718
    23     0.001507
    24     0.000031
    25    -0.000488
    26    -0.001533
    27    -0.001311
    28    -0.000511
    29    -0.000005
    30    -0.000007
    31     0.575752
    32    -0.022899
    33     0.009718
    34     0.002009
    35    -0.000244
    36     0.000005
    37    -0.001596
    38     0.000675
    39    -0.000003
    40     0.002278
    41     0.002803
    42     0.003127
    43     0.000322
    44    -0.000001
    45    -0.000004
Sym=     2a
Ene=   -0.229972E+02
Spin= Alpha
Occup= 1.999866
     1     0.617814
     2    -0.025711
     3     0.002648
     4     0.000062
     5     0.000239
     6    -0.000214
     7     0.000128
     8    -0.000052
     9     0.000279
    10     0.003853
    11     0.004028
    12     0.003732
    13     0.000169
    14     0.000000
    15     0.000002
    16     0.641363
    17    -0.026087
    18     0.010896
    19    -0.001893
    20     0.001245
    21    -0.000066
    22     0.002095
    23    -0.001201
    24    -0.000092
    25     0.002220
    26     0.003164
    27     0.002997
    28     0.000421
    29    -0.000013
    30    -0.000003
    31    -0.428237
    32     0.016974
    33    -0.009726
    34    -0.002216
    35     0.000584
    36    -0.000032
    37     0.002059
    38    -0.000450
    39    -0.000049
    40    -0.001017
    41    -0.001930
    42    -0.002098
    43    -0.000403
    44     0.000009
    45    -0.000004
Sym=     3a
Ene=   -0.211196E+02
Spin= Alpha
Occup= 1.999856
     1    -0.232357
     2     0.009896
     3    -0.003395
     4    -0.000191
     5    -0.000273
     6     0.000094
     7    -0.000990
     8    -0.000571
     9    -0.000066
    10    -0.001344
    11    -0.001211
    12    -0.001176
    13    -0.000116
    14     0.000001
    15     0.000001
    16     0.678218
    17    -0.028278
    18     0.007355
    19     0.000223
    20     0.000794
    21    -0.000121
    22     0.000490
    23    -0.001546
    24    -0.000114
    25     0.004197
    26     0.003758
    27     0.003160
    28    -0.000036
    29    -0.000008
    30     0.000006
    31     0.680469
    32    -0.027574
    33     0.005316
    34     0.000388
    35     0.000217
    36    -0.000056
    37    -0.000099
    38     0.000572
    39    -0.000042
    40     0.004287
    41     0.003712
    42     0.003842
    43    -0.000338
    44     0.000010
    45    -0.000004
Sym=     4a
Ene=   -0.146074E+01
Spin= Alpha
Occup= 1.990785
     1    -0.004504
     2    -0.015023
     3    -0.025989
     4    -0.030043
     5    -0.030521
     6    -0.004089
     7     0.013768
     8     0.011443
     9     0.002814
    10     0.001044
    11     0.005121
    12    -0.002670
    13     0.006299
    14     0.000148
    15     0.000173
    16     0.300014
    17     0.635002
    18     0.400017
    19    -0.063617
    20     0.068065
    21     0.026612
    22    -0.040009
    23     0.048372
    24     0.016211
    25     0.019416
    26     0.011161
    27     0.010053
    28    -0.000396
    29     0.001275
    30    -0.000692
    31     0.026460
    32     0.041249
    33    -0.049465
    34    -0.097678
    35     0.024061
    36     0.012663
    37    -0.007567
    38    -0.005795
    39     0.006763
    40     0.012584
    41    -0.003133
    42    -0.005785
    43    -0.007763
    44    -0.001427
    45     0.000429
Sym=     5a
Ene=   -0.151844E+01
Spin= Alpha
Occup= 1.989801
     1     0.310060
     2     0.624462
     3     0.454003
     4     0.053648
     5     0.010655
     6     0.094604
     7    -0.033570
     8    -0.004823
     9    -0.065303
    10     0.005750
    11     0.006140
    12     0.004622
    13     0.001271
    14    -0.000694
    15    -0.000733
    16    -0.010399
    17    -0.028750
    18    -0.024392
    19    -0.005794
    20    -0.012790
    21    -0.001901
    22     0.001505
    23    -0.001829
    24    -0.002660
    25     0.000120
    26     0.003279
    27    -0.003174
    28     0.005772
    29     0.000645
    30     0.000851
    31    -0.001710
    32    -0.002949
    33     0.003291
    34     0.005735
    35     0.000592
    36     0.002550
    37    -0.000098
    38     0.001539
    39     0.002085
    40    -0.001051
    41     0.000646
    42     0.000274
    43     0.000106
    44    -0.000045
    45     0.000148
Sym=     6a
Ene=   -0.130129E+01
Spin= Alpha
Occup= 1.989040
     1    -0.001929
     2    -0.002711
     3    -0.008897
     4     0.019123
     5     0.021505
     6     0.001241
     7    -0.018070
     8    -0.019400
     9    -0.000857
    10     0.000677
    11    -0.001272
    12     0.000578
    13    -0.001342
    14    -0.000021
    15    -0.000026
    16    -0.020901
    17    -0.060745
    18    -0.104473
    19     0.107368
    20    -0.131103
    21    -0.002809
    22     0.011250
    23    -0.059431
    24    -0.001728
    25     0.005101
    26    -0.000128
    27    -0.008808
    28    -0.018011
    29    -0.000134
    30     0.000092
    31     0.280518
    32     0.591136
    33     0.394236
    34     0.009212
    35    -0.200423
    36    -0.001421
    37     0.011745
    38    -0.128508
    39    -0.000761
    40     0.022750
    41     0.006929
    42     0.009009
    43     0.006228
    44     0.000143
    45    -0.000034
Sym=     7a
Ene=   -0.800658E+00
Spin= Alpha
Occup= 1.984551
     1    -0.015868
     2    -0.032348
     3    -0.061531
     4     0.035218
     5     0.028737
     6    -0.002825
     7    -0.044853
     8    -0.044331
     9     0.002119
    10     0.002893
    11     0.001224
    12    -0.000268
    13     0.002217
    14     0.000021
    15     0.000021
    16     0.022780
    17     0.052926
    18     0.075918
    19    -0.056560
    20    -0.234560
    21     0.000188
    22    -0.022553
    23    -0.136677
    24     0.000119
    25    -0.016460
    26     0.019737
    27     0.000624
    28    -0.026973
    29    -0.000024
    30    -0.000016
    31    -0.096432
    32    -0.199571
    33    -0.186520
    34    -0.245163
    35    -0.518378
    36    -0.000286
    37    -0.135745
    38    -0.342815
    39    -0.000306
    40     0.015524
    41    -0.019458
    42    -0.003413
    43     0.022406
    44     0.000008
    45    -0.000012
Sym=     8a
Ene=   -0.710401E+00
Spin= Alpha
Occup= 1.982654
     1     0.045630
     2     0.091334
     3     0.074059
     4    -0.209801
     5     0.172991
     6    -0.610554
     7     0.149029
     8    -0.119329
     9     0.428624
    10     0.002903
    11    -0.002357
    12     0.000006
    13     0.000682
    14     0.004470
    15     0.004685
    16    -0.002797
    17    -0.008645
    18     0.004917
    19     0.004145
    20     0.001095
    21    -0.006989
    22     0.014420
    23    -0.000253
    24     0.004498
    25    -0.002619
    26     0.002474
    27    -0.000841
    28     0.000714
    29    -0.005483
    30    -0.005313
    31    -0.003637
    32    -0.010951
    33    -0.007652
    34     0.008142
    35     0.009094
    36    -0.025666
    37     0.006102
    38     0.000868
    39    -0.019698
    40    -0.001440
    41    -0.000191
    42    -0.001086
    43     0.000537
    44     0.001509
    45    -0.001441
Sym=     9a
Ene=   -0.793528E+00
Spin= Alpha
Occup= 1.982034
     1     0.002125
     2     0.004813
     3     0.004128
     4     0.002885
     5     0.000984
     6     0.022581
     7    -0.001773
     8     0.000130
     9    -0.025619
    10     0.000071
    11    -0.000239
    12     0.000263
    13    -0.000360
    14     0.002565
    15     0.002920
    16    -0.013338
    17    -0.028239
    18    -0.024385
    19     0.018885
    20    -0.010124
    21     0.590078
    22     0.008766
    23    -0.006021
    24     0.366824
    25     0.000474
    26    -0.000586
    27    -0.000872
    28    -0.000655
    29     0.029134
    30    -0.014364
    31    -0.000230
    32     0.000453
    33    -0.002237
    34    -0.009717
    35     0.006178
    36     0.284797
    37    -0.005467
    38     0.004389
    39     0.157858
    40     0.000720
    41    -0.000019
    42    -0.000129
    43    -0.000242
    44    -0.032374
    45     0.009985
Sym=    10a
Ene=   -0.691544E+00
Spin= Alpha
Occup= 1.982023
     1    -0.003100
     2    -0.008650
     3     0.002500
     4    -0.487003
     5     0.377657
     6     0.274377
     7     0.344835
     8    -0.262112
     9    -0.192964
    10     0.005614
    11    -0.006117
    12    -0.001020
    13     0.001382
    14    -0.001949
    15    -0.002155
    16     0.003628
    17     0.004689
    18     0.027726
    19     0.006061
    20     0.003735
    21     0.003429
    22     0.030325
    23    -0.002134
    24    -0.001861
    25    -0.005646
    26     0.005115
    27    -0.000387
    28    -0.000544
    29     0.002493
    30     0.002389
    31    -0.009366
    32    -0.027375
    33    -0.023292
    34     0.013285
    35     0.016380
    36     0.011742
    37     0.013545
    38    -0.000857
    39     0.009013
    40    -0.002562
    41    -0.000933
    42    -0.002573
    43     0.001388
    44    -0.000703
    45     0.000658
Sym=    11a
Ene=   -0.905450E+00
Spin= Alpha
Occup= 1.967265
     1    -0.009250
     2    -0.023864
     3    -0.022762
     4    -0.031850
     5     0.003935
     6     0.000104
     7     0.025213
     8    -0.014125
     9    -0.000202
    10    -0.000975
    11     0.002487
    12    -0.002441
    13     0.002908
    14     0.000092
    15     0.000098
    16     0.003427
    17    -0.001878
    18     0.149253
    19    -0.471778
    20     0.190497
    21     0.019610
    22    -0.203604
    23     0.103572
    24     0.011949
    25    -0.034717
    26     0.008549
    27     0.013154
    28     0.018255
    29     0.000999
    30    -0.000492
    31     0.013960
    32     0.017831
    33     0.190926
    34     0.431055
    35    -0.250137
    36     0.009580
    37     0.181678
    38    -0.138265
    39     0.005164
    40    -0.034416
    41     0.006612
    42     0.013558
    43     0.019110
    44    -0.001080
    45     0.000333
Sym=    12a
Ene=   -0.647734E+00
Spin= Alpha
Occup= 1.952228
     1    -0.001752
     2    -0.010831
     3    -0.033257
     4    -0.306040
     5    -0.400313
     6    -0.002091
     7     0.214426
     8     0.284152
     9     0.001304
    10     0.005177
    11     0.008912
    12    -0.006034
    13     0.015609
    14     0.000039
    15     0.000046
    16    -0.024633
    17    -0.070059
    18    -0.045903
    19    -0.110415
    20    -0.363412
    21    -0.000316
    22    -0.050568
    23    -0.253858
    24    -0.000149
    25    -0.002271
    26     0.013998
    27    -0.011093
    28     0.014824
    29    -0.000009
    30     0.000011
    31     0.001744
    32     0.006199
    33    -0.005432
    34     0.070912
    35     0.164411
    36    -0.000083
    37     0.066019
    38     0.154912
    39     0.000004
    40     0.001853
    41    -0.001715
    42     0.001664
    43     0.007395
    44     0.000013
    45    -0.000008
Sym=    13a
Ene=   -0.322905E+00
Spin= Alpha
Occup= 1.000000
     1    -0.000014
     2    -0.000050
     3     0.000036
     4    -0.000204
     5    -0.000142
     6     0.046521
     7     0.000138
     8     0.000117
     9    -0.036052
    10     0.000024
    11     0.000015
    12    -0.000012
    13     0.000003
    14     0.001177
    15     0.002398
    16    -0.000013
    17     0.000025
    18     0.000032
    19     0.000133
    20     0.000143
    21     0.391429
    22     0.000196
    23     0.000018
    24     0.295737
    25     0.000071
    26     0.000082
    27     0.000025
    28     0.000019
    29    -0.013035
    30     0.001200
    31    -0.000024
    32    -0.000020
    33    -0.000244
    34     0.000262
    35     0.000134
    36    -0.664338
    37     0.000310
    38     0.000037
    39    -0.424466
    40     0.000018
    41    -0.000001
    42     0.000002
    43    -0.000021
    44     0.002953
    45    -0.000948
Sym=    14a
Ene=   -0.878288E-01
Spin= Alpha
Occup= 0.047772
     1     0.049190
     2     0.137609
     3     0.044363
     4    -0.389947
     5    -0.500139
     6     0.001350
     7     0.043131
     8     0.051605
     9     0.001167
    10    -0.016251
    11    -0.026898
    12    -0.003482
    13    -0.019969
    14     0.000240
    15     0.000207
    16    -0.046117
    17    -0.111129
    18    -0.063668
    19     0.262266
    20     0.566915
    21    -0.001327
    22     0.075108
    23     0.150880
    24     0.001151
    25     0.011581
    26     0.018942
    27    -0.000846
    28    -0.000607
    29    -0.000098
    30    -0.000171
    31     0.006732
    32     0.027200
    33    -0.019320
    34    -0.147618
    35    -0.299180
    36    -0.000184
    37    -0.038961
    38    -0.095983
    39     0.000107
    40    -0.008102
    41     0.008044
    42    -0.001543
    43    -0.023428
    44    -0.000070
    45     0.000018
Sym=    15a
Ene=   -0.577577E-01
Spin= Alpha
Occup= 0.030847
     1    -0.005004
     2    -0.016007
     3    -0.000595
     4    -0.026204
     5     0.027760
     6    -0.001714
     7    -0.001318
     8    -0.001240
     9    -0.001844
    10    -0.002114
    11     0.008195
    12     0.001573
    13    -0.000733
    14    -0.000100
    15    -0.000100
    16    -0.152751
    17    -0.470792
    18    -0.149758
    19    -0.698088
    20     0.224317
    21     0.001250
    22    -0.117257
    23     0.022588
    24    -0.001112
    25     0.079034
    26     0.068821
    27     0.022168
    28    -0.012666
    29     0.000562
    30    -0.000009
    31     0.147317
    32     0.442533
    33     0.157040
    34    -0.707150
    35     0.231818
    36    -0.000719
    37    -0.136885
    38     0.025311
    39     0.000925
    40    -0.076747
    41    -0.031050
    42    -0.044370
    43     0.021880
    44     0.000297
    45    -0.000127
Sym=    16a
Ene=   -0.200300E-01
Spin= Alpha
Occup= 0.013423
     1     0.009601
     2     0.036009
     3    -0.004099
     4     0.655027
     5    -0.508644
     6    -0.371080
     7     0.722290
     8    -0.552321
     9    -0.419784
    10     0.021446
    11    -0.042464
    12    -0.011847
    13     0.008390
    14    -0.005170
    15    -0.006386
    16     0.009307
    17     0.016628
    18     0.034021
    19    -0.108136
    20     0.080442
    21     0.025795
    22     0.103044
    23    -0.029342
    24     0.018900
    25    -0.078795
    26     0.044598
    27    -0.004250
    28     0.002916
    29     0.024566
    30     0.027588
    31    -0.023383
    32    -0.103130
    33     0.001578
    34     0.029404
    35     0.062454
    36    -0.027872
    37    -0.013394
    38    -0.014041
    39     0.025843
    40     0.007420
    41     0.027811
    42     0.013063
    43     0.024206
    44    -0.006532
    45     0.008799
Sym=    17a
Ene=   -0.156083E-01
Spin= Alpha
Occup= 0.012391
     1     0.030440
     2     0.118737
     3    -0.042968
     4    -0.003526
     5    -0.018250
     6     0.003921
     7     0.003693
     8    -0.009287
     9    -0.139221
    10    -0.024252
    11    -0.028661
    12    -0.019381
    13    -0.007332
    14     0.055536
    15     0.065177
    16     0.060308
    17     0.253502
    18    -0.114183
    19    -0.037016
    20     0.000632
    21    -0.842464
    22     0.014892
    23    -0.006800
    24     0.926598
    25    -0.059327
    26    -0.066724
    27    -0.060557
    28    -0.012204
    29     0.058674
    30    -0.023763
    31     0.010649
    32     0.041522
    33     0.003377
    34    -0.009621
    35    -0.001248
    36    -0.416368
    37    -0.000603
    38     0.011661
    39     0.220349
    40     0.001860
    41    -0.015386
    42    -0.009429
    43    -0.000576
    44    -0.112859
    45     0.051698
Sym=    18a
Ene=   -0.201082E-01
Spin= Alpha
Occup= 0.012914
     1     0.153884
     2     0.610290
     3    -0.258990
     4    -0.278766
     5     0.216329
     6    -0.802622
     7    -0.303394
     8     0.238191
     9    -0.908564
    10    -0.163128
    11    -0.139355
    12    -0.132612
    13    -0.018653
    14    -0.007862
    15    -0.015608
    16     0.038000
    17     0.157893
    18    -0.061989
    19     0.002764
    20    -0.067755
    21     0.054029
    22    -0.033597
    23     0.015511
    24     0.042832
    25    -0.004136
    26    -0.065531
    27    -0.022259
    28    -0.020540
    29     0.053737
    30     0.060590
    31     0.013839
    32     0.058865
    33    -0.001676
    34    -0.020815
    35    -0.039523
    36    -0.061032
    37     0.012359
    38     0.018602
    39     0.056177
    40     0.004632
    41    -0.023313
    42    -0.005541
    43    -0.008221
    44    -0.014516
    45     0.019251
Sym=    19a
Ene=   -0.926175E-02
Spin= Alpha
Occup= 0.004677
     1     0.010115
     2     0.030370
     3     0.035600
     4     0.073563
     5    -0.058171
     6     0.000295
     7     0.138811
     8    -0.069238
     9     0.000626
    10    -0.096156
    11     0.093837
    12    -0.045304
    13     0.026696
    14    -0.001603
    15    -0.003406
    16    -0.015162
    17    -0.008861
    18    -0.024462
    19    -0.067887
    20    -0.142034
    21    -0.001446
    22    -0.010371
    23     0.143483
    24     0.002236
    25     0.315642
    26    -0.291659
    27     0.043888
    28     0.247298
    29     0.001161
    30     0.009604
    31    -0.026522
    32    -0.068552
    33    -0.050167
    34    -0.093623
    35     0.075128
    36     0.001045
    37     0.124829
    38    -0.243054
    39    -0.001527
    40    -0.066905
    41     0.057933
    42     0.156334
    43    -0.754844
    44     0.003474
    45     0.013237
Sym=    20a
Ene=   -0.170216E-01
Spin= Alpha
Occup= 0.007387
     1    -0.014391
     2    -0.082168
     3     0.111496
     4     0.104898
     5    -0.027645
     6     0.011767
     7     0.208831
     8    -0.029312
     9     0.015806
    10    -0.020793
    11     0.056927
    12     0.017336
    13     0.015361
    14    -0.003927
    15     0.000412
    16     0.023765
    17     0.093237
    18    -0.003418
    19     0.023144
    20    -0.217865
    21     0.013257
    22     0.060567
    23     0.121059
    24    -0.016331
    25     0.060616
    26    -0.024740
    27    -0.036918
    28     0.086194
    29    -0.002570
    30    -0.001153
    31     0.518800
    32     2.069083
    33    -0.591371
    34     0.048068
    35    -0.574655
    36     0.006685
    37     0.025683
    38     0.610244
    39    -0.002933
    40    -0.684682
    41    -0.605082
    42    -0.687819
    43    -0.001388
    44     0.003144
    45    -0.002081
Sym=    21a
Ene=   -0.924463E-02
Spin= Alpha
Occup= 0.002985
     1     0.002498
     2     0.005106
     3     0.010378
     4     0.021271
     5     0.028364
     6     0.000294
     7     0.030426
     8     0.038713
     9     0.000567
    10     0.414001
    11     0.246648
    12    -0.676250
    13    -0.362244
    14     0.504664
    15    -0.388603
    16     0.001255
    17     0.015358
    18    -0.078040
    19     0.010261
    20     0.019953
    21     0.005424
    22    -0.030079
    23    -0.000082
    24    -0.007904
    25     0.000329
    26     0.000403
    27    -0.003213
    28     0.015749
    29    -0.005188
    30     0.000696
    31     0.009929
    32     0.026864
    33     0.065225
    34     0.001448
    35    -0.015887
    36    -0.008480
    37    -0.036349
    38     0.031857
    39     0.011910
    40    -0.019666
    41    -0.029821
    42    -0.010008
    43    -0.000087
    44     0.010444
    45    -0.001659
Sym=    22a
Ene=   -0.862292E-02
Spin= Alpha
Occup= 0.003440
     1    -0.018087
     2    -0.038546
     3    -0.101372
     4    -0.061827
     5     0.033972
     6    -0.000412
     7    -0.146335
     8     0.038199
     9    -0.000679
    10     0.106762
    11    -0.081159
    12     0.086134
    13    -0.058346
    14    -0.005220
    15     0.006033
    16     0.038490
    17     0.048753
    18     0.336255
    19    -0.084473
    20     0.132355
    21    -0.001592
    22     0.261935
    23    -0.292481
    24     0.001555
    25    -0.543235
    26    -0.406582
    27     0.685049
    28     0.214546
    29     0.003376
    30    -0.001805
    31     0.095588
    32     0.322536
    33    -0.169275
    34    -0.053358
    35     0.042763
    36    -0.001194
    37     0.010417
    38    -0.010923
    39     0.000134
    40    -0.370507
    41    -0.243145
    42     0.219713
    43    -0.019167
    44    -0.001483
    45     0.000899
Sym=    23a
Ene=   -0.177080E-02
Spin= Alpha
Occup= 0.000082
     1    -0.001492
     2    -0.002322
     3    -0.002262
     4    -0.025118
     5    -0.018728
     6    -0.023620
     7    -0.029036
     8    -0.019754
     9    -0.026120
    10     0.244673
    11    -0.240756
    12     0.012478
    13     0.062176
    14     0.448398
    15     0.578684
    16    -0.001300
    17    -0.008698
    18     0.003796
    19    -0.025026
    20    -0.041865
    21     0.076162
    22     0.014590
    23     0.034462
    24    -0.112608
    25     0.021980
    26     0.047164
    27    -0.055015
    28    -0.020188
    29    -0.011951
    30    -0.295639
    31     0.004282
    32     0.009714
    33     0.013418
    34     0.009389
    35    -0.017034
    36     0.062650
    37    -0.003814
    38     0.015915
    39    -0.058188
    40    -0.028401
    41    -0.042707
    42     0.032630
    43    -0.048281
    44     0.144263
    45     0.510566
Sym=    24a
Ene=   -0.179109E-02
Spin= Alpha
Occup= 0.000077
     1     0.016741
     2     0.046680
     3     0.018786
     4     0.052751
     5     0.031073
     6    -0.002971
     7     0.055211
     8     0.022558
     9     0.001745
    10    -0.797914
    11     0.772907
    12    -0.096724
    13    -0.119547
    14     0.179438
    15     0.226413
    16     0.038477
    17     0.136734
    18     0.059096
    19     0.110103
    20     0.078542
    21     0.025205
    22    -0.050466
    23    -0.063656
    24    -0.042649
    25    -0.138790
    26    -0.105265
    27     0.016720
    28     0.047518
    29     0.026169
    30    -0.019896
    31     0.001162
    32     0.015463
    33    -0.021238
    34    -0.027029
    35     0.063578
    36     0.022780
    37     0.019105
    38    -0.067090
    39    -0.021392
    40    -0.045549
    41     0.031929
    42     0.029941
    43     0.149030
    44     0.019722
    45     0.117486
Sym=    25a
Ene=   -0.154545E-02
Spin= Alpha
Occup= 0.000064
     1    -0.047092
     2    -0.126318
     3    -0.125972
     4     0.145988
     5     0.176043
     6     0.007306
     7     0.169652
     8     0.211283
     9     0.012737
    10    -0.040953
    11    -0.224755
    12     0.558068
    13    -0.797657
    14     0.043866
    15     0.058476
    16    -0.068804
    17    -0.265129
    18    -0.024971
    19     0.048690
    20     0.060390
    21     0.005401
    22    -0.006901
    23    -0.116697
    24    -0.012506
    25     0.246284
    26     0.101975
    27     0.073187
    28    -0.013319
    29     0.023865
    30     0.049546
    31     0.001449
    32     0.017528
    33    -0.045077
    34     0.070030
    35    -0.016927
    36     0.006061
    37    -0.000373
    38     0.010692
    39    -0.005398
    40    -0.110664
    41     0.191898
    42    -0.133079
    43    -0.014949
    44    -0.014013
    45    -0.010440
Sym=    26a
Ene=   -0.727233E-05
Spin= Alpha
Occup= 0.000000
     1     0.009773
     2     0.045079
     3    -0.010583
     4    -0.064209
     5     0.031145
     6     0.000584
     7    -0.124505
     8     0.034945
     9     0.001307
    10    -0.086153
    11     0.001693
    12     0.027001
    13    -0.104633
    14    -0.000437
    15     0.001201
    16     0.033908
    17     0.124499
    18    -0.084012
    19    -0.326450
    20     0.009841
    21     0.003045
    22    -0.047377
    23     0.069717
    24    -0.002320
    25    -1.019554
    26     0.571747
    27    -0.058390
    28     0.362052
    29     0.015677
    30    -0.000437
    31     0.033754
    32     0.068795
    33     0.260581
    34    -0.370060
    35     0.142785
    36    -0.009859
    37    -0.020725
    38    -0.001186
    39     0.009343
    40     0.606978
    41    -0.178412
    42    -0.350789
    43    -0.481965
    44     0.018268
    45    -0.008236
Sym=    27a
Ene=   -0.557798E-02
Spin= Alpha
Occup= 0.001888
     1    -0.000340
     2     0.000208
     3    -0.003289
     4    -0.000829
     5    -0.001637
     6    -0.088227
     7    -0.000916
     8    -0.002035
     9    -0.140033
    10     0.005981
    11    -0.001257
    12    -0.000118
    13     0.001701
    14     0.181798
    15     0.241441
    16    -0.001359
    17    -0.004611
    18    -0.000693
    19    -0.002752
    20    -0.004114
    21     0.009733
    22     0.002185
    23     0.003163
    24     0.017096
    25     0.008834
    26    -0.002990
    27     0.002319
    28     0.007225
    29    -0.196420
    30    -0.526686
    31    -0.001530
    32    -0.005297
    33    -0.001666
    34     0.001467
    35     0.002263
    36     0.003504
    37    -0.002040
    38    -0.006655
    39     0.000554
    40    -0.003389
    41     0.013656
    42    -0.002439
    43    -0.012017
    44    -0.104441
    45    -0.727821
Sym=    28a
Ene=   -0.953456E-02
Spin= Alpha
Occup= 0.004555
     1     0.068306
     2     0.229364
     3    -0.027932
     4     0.292225
     5     0.406089
     6     0.003835
     7     0.310890
     8     0.472332
     9     0.002912
    10    -0.278162
    11    -0.270287
    12     0.204414
    13     0.388809
    14     0.405705
    15    -0.308859
    16    -0.028848
    17    -0.105028
    18     0.046232
    19     0.145463
    20     0.410894
    21    -0.005972
    22     0.044544
    23    -0.371571
    24     0.002940
    25     0.038001
    26     0.065358
    27    -0.073865
    28     0.133956
    29    -0.000264
    30    -0.002545
    31     0.014712
    32     0.079458
    33    -0.172289
    34    -0.024392
    35    -0.048050
    36    -0.013890
    37     0.121000
    38     0.082494
    39     0.014380
    40    -0.020742
    41    -0.010993
    42    -0.007858
    43    -0.009770
    44     0.004075
    45    -0.000620
Sym=    29a
Ene=   -0.996146E-02
Spin= Alpha
Occup= 0.005575
     1    -0.002339
     2    -0.010901
     3     0.008371
     4     0.000645
     5    -0.001236
     6     0.057211
     7     0.003127
     8    -0.000192
     9     0.121455
    10     0.001975
    11     0.003846
    12    -0.000246
    13    -0.004170
    14    -0.055405
    15    -0.082736
    16     0.013605
    17     0.054810
    18    -0.017706
    19    -0.000618
    20     0.001904
    21     0.129540
    22    -0.005918
    23    -0.000080
    24    -0.322716
    25    -0.014517
    26    -0.021737
    27    -0.020803
    28    -0.001382
    29     0.671688
    30    -0.359208
    31    -0.000484
    32    -0.002180
    33     0.008134
    34    -0.005022
    35    -0.001183
    36    -0.176561
    37     0.001336
    38     0.003951
    39     0.130918
    40     0.003136
    41     0.000052
    42     0.000847
    43    -0.002079
    44    -0.436625
    45     0.068274
Sym=    30a
Ene=   -0.949983E-02
Spin= Alpha
Occup= 0.004431
     1    -0.067136
     2    -0.221393
     3     0.009779
     4    -0.278778
     5    -0.389824
     6     0.002204
     7    -0.306556
     8    -0.460292
     9     0.004462
    10    -0.201589
    11    -0.032681
    12     0.574668
    13     0.052411
    14     0.451497
    15    -0.359974
    16     0.023888
    17     0.071197
    18     0.069121
    19    -0.140730
    20    -0.382522
    21     0.016598
    22     0.006067
    23     0.319174
    24    -0.020627
    25    -0.039690
    26    -0.063710
    27     0.077363
    28    -0.134524
    29    -0.005986
    30    -0.002945
    31    -0.019823
    32    -0.082616
    33     0.060463
    34     0.016303
    35     0.055792
    36    -0.003927
    37    -0.051703
    38    -0.104699
    39     0.010124
    40     0.033877
    41     0.029461
    42     0.019560
    43     0.008728
    44     0.010419
    45    -0.004250
Sym=    31a
Ene=   -0.178907E-01
Spin= Alpha
Occup= 0.010772
     1    -0.007696
     2    -0.048957
     3     0.087982
     4     0.070034
     5     0.052847
     6    -0.007365
     7     0.134254
     8     0.068477
     9    -0.012697
    10    -0.022578
    11     0.036550
    12     0.002590
    13     0.006814
    14     0.000592
    15     0.002239
    16    -0.136579
    17    -0.537028
    18    -0.039519
    19    -0.106726
    20    -0.208132
    21    -0.025906
    22     0.006440
    23     0.144508
    24     0.027927
    25     0.120727
    26     0.106218
    27     0.151610
    28     0.135312
    29     0.003607
    30    -0.000719
    31    -0.357867
    32    -1.504600
    33     0.689073
    34    -0.314402
    35    -0.607520
    36    -0.016848
    37     0.179657
    38     0.706262
    39     0.011483
    40     0.314068
    41     0.444643
    42     0.414346
    43     0.028929
    44    -0.005009
    45     0.002212
Sym=    32a
Ene=   -0.820966E-02
Spin= Alpha
Occup= 0.003573
     1    -0.046054
     2    -0.164475
     3    -0.033256
     4     0.105445
     5     0.025598
     6     0.003410
     7     0.142178
     8     0.000111
     9     0.004531
    10     0.016269
    11     0.069179
    12     0.131808
    13    -0.117792
    14    -0.002694
    15     0.005243
    16    -0.053322
    17    -0.194694
    18     0.157222
    19    -0.012749
    20     0.166890
    21     0.006706
    22    -0.049041
    23    -0.192600
    24    -0.006732
    25     0.104627
    26    -0.088351
    27     0.147297
    28    -0.226774
    29    -0.005012
    30    -0.004516
    31    -0.006957
    32     0.014590
    33    -0.167379
    34    -0.146753
    35    -0.116940
    36     0.005002
    37     0.337430
    38     0.210857
    39    -0.003260
    40     0.516793
    41    -0.819981
    42     0.369730
    43    -0.085035
    44     0.001547
    45    -0.010883
Sym=    33a
Ene=   -0.226437E-01
Spin= Alpha
Occup= 0.007214
     1     0.571224
     2     2.152816
     3    -0.588634
     4     0.075445
     5    -0.056864
     6     0.247983
     7     0.092957
     8    -0.060652
     9     0.292700
    10    -0.666048
    11    -0.675469
    12    -0.627272
    13    -0.053383
    14    -0.001776
    15    -0.004221
    16     0.061636
    17     0.216198
    18    -0.004688
    19    -0.115511
    20    -0.123586
    21     0.047217
    22     0.025980
    23     0.059857
    24    -0.084023
    25    -0.076024
    26    -0.081195
    27    -0.000493
    28    -0.064394
    29    -0.020448
    30    -0.019866
    31    -0.011509
    32    -0.048778
    33     0.011861
    34    -0.014028
    35    -0.003893
    36     0.049461
    37     0.006530
    38    -0.003485
    39    -0.033254
    40     0.039454
    41    -0.007418
    42     0.025268
    43     0.008948
    44     0.012780
    45    -0.010079
Sym=    34a
Ene=   -0.173007E-01
Spin= Alpha
Occup= 0.005775
     1     0.066173
     2     0.290756
     3    -0.188605
     4     0.010927
     5     0.000673
     6    -0.033451
     7    -0.049373
     8    -0.095625
     9    -0.050413
    10    -0.090031
    11    -0.068782
    12    -0.114780
    13     0.026889
    14     0.005572
    15     0.005856
    16    -0.640214
    17    -2.567352
    18     0.811997
    19     0.226687
    20    -0.164148
    21    -0.073326
    22    -0.079195
    23     0.156828
    24     0.082000
    25     0.820748
    26     0.867728
    27     0.896929
    28    -0.047198
    29     0.021052
    30    -0.005148
    31     0.078123
    32     0.351928
    33    -0.292908
    34     0.227930
    35     0.109461
    36    -0.042809
    37    -0.055131
    38    -0.247572
    39     0.023204
    40    -0.157965
    41    -0.137250
    42    -0.119863
    43     0.004671
    44    -0.021584
    45     0.008793
Sym=    35a
Ene=   -0.132888E-02
Spin= Alpha
Occup= 0.000062
     1    -0.028123
     2    -0.104813
     3     0.006335
     4     0.024358
     5    -0.005736
     6    -0.010744
     7     0.062971
     8     0.027818
     9    -0.020723
    10     0.086081
    11     0.096025
    12    -0.004974
    13     0.084601
    14    -0.030628
    15    -0.036983
    16    -0.069080
    17    -0.192397
    18    -0.229193
    19    -0.220048
    20     0.172525
    21     0.002480
    22     0.040294
    23    -0.099933
    24     0.006612
    25     0.040226
    26    -0.378002
    27     0.619042
    28     0.032542
    29    -0.046507
    30    -0.142610
    31    -0.077114
    32    -0.253252
    33    -0.104101
    34    -0.074865
    35    -0.045117
    36    -0.007694
    37    -0.026103
    38     0.091222
    39     0.007984
    40     0.796996
    41     0.393926
    42    -0.595760
    43     0.017601
    44     0.063648
    45     0.095464
Sym=    36a
Ene=   -0.132542E-02
Spin= Alpha
Occup= 0.000057
     1     0.000801
     2    -0.003699
     3     0.019649
     4    -0.014694
     5    -0.023512
     6     0.079603
     7    -0.009315
     8    -0.020981
     9     0.145957
    10     0.097791
    11    -0.058509
    12    -0.044089
    13     0.097933
    14     0.320318
    15     0.401273
    16    -0.006424
    17    -0.012613
    18    -0.039029
    19    -0.054212
    20     0.013179
    21     0.053543
    22     0.009551
    23     0.004215
    24    -0.120631
    25    -0.004519
    26    -0.079027
    27     0.096628
    28     0.001907
    29     0.296116
    30     0.684791
    31    -0.013295
    32    -0.045878
    33    -0.010432
    34    -0.019036
    35    -0.013665
    36     0.045271
    37    -0.004821
    38     0.022066
    39    -0.037354
    40     0.157787
    41     0.049972
    42    -0.102705
    43    -0.009023
    44    -0.219632
    45    -0.352840
Sym=    37a
Ene=   -0.104147E-02
Spin= Alpha
Occup= 0.000043
     1     0.000510
     2     0.000799
     3     0.002953
     4    -0.000131
     5     0.000710
     6    -0.041217
     7    -0.000166
     8     0.000806
     9    -0.068784
    10    -0.001357
    11    -0.002609
    12    -0.001162
    13    -0.000540
    14     0.000038
    15    -0.033123
    16     0.004059
    17     0.013306
    18     0.006835
    19    -0.009738
    20     0.000918
    21    -0.139878
    22    -0.001842
    23     0.003443
    24     0.120895
    25    -0.033709
    26    -0.003791
    27    -0.000321
    28     0.010627
    29    -0.525937
    30     0.067341
    31     0.000835
    32     0.002202
    33     0.003244
    34    -0.015009
    35     0.002712
    36     0.423274
    37     0.004633
    38     0.000379
    39    -0.435568
    40     0.026911
    41    -0.000799
    42    -0.020775
    43    -0.009591
    44    -0.818271
    45     0.223546
Sym=    38a
Ene=    0.000000E+00
Spin= Alpha
Occup= 0.000000
     1    -0.046864
     2    -0.306009
     3     0.455597
     4     0.120762
     5     0.237671
     6    -0.010795
     7     0.305787
     8     0.624579
     9    -0.033225
    10    -0.009943
    11     0.211030
    12    -0.047011
    13     0.127864
    14    -0.008507
    15    -0.017662
    16     0.053847
    17     0.112319
    18     0.605107
    19    -0.235162
    20    -0.046120
    21    -0.071790
    22     1.073075
    23     0.096985
    24     0.197771
    25    -0.313275
    26    -0.108185
    27    -0.057049
    28    -0.852330
    29     0.113256
    30    -0.031881
    31    -0.051804
    32    -0.108918
    33    -1.021646
    34     0.190286
    35    -0.087330
    36     0.154217
    37     0.299970
    38    -0.021018
    39    -0.274174
    40    -0.146186
    41     0.361268
    42     0.130024
    43    -0.364310
    44     0.086193
    45    -0.032141
Sym=    39a
Ene=    0.000000E+00
Spin= Alpha
Occup= 0.000000
     1     0.057053
     2     0.367498
     3    -0.623065
     4    -0.249622
     5    -0.165198
     6    -0.000500
     7    -0.767448
     8    -0.545139
     9     0.002522
    10    -0.215644
    11    -0.025106
    12    -0.024100
    13    -0.158249
    14     0.002220
    15     0.002444
    16    -0.031976
    17    -0.656176
    18     1.884208
    19    -0.388825
    20     0.431496
    21     0.010674
    22     0.803938
    23    -1.381372
    24    -0.027011
    25     0.205945
    26     0.007910
    27    -0.465841
    28     0.046643
    29    -0.013506
    30     0.006219
    31    -0.061214
    32    -0.244766
    33    -1.161627
    34     0.480050
    35    -0.192071
    36    -0.016613
    37     0.121077
    38     0.318350
    39     0.031632
    40     0.129747
    41     0.045643
    42     0.087502
    43    -0.186944
    44    -0.015948
    45     0.005144
Sym=    40a
Ene=    0.000000E+00
Spin= Alpha
Occup= 0.000000
     1    -0.001695
     2    -0.026086
     3     0.041260
     4     0.035071
     5     0.042486
     6     0.055429
     7     0.061534
     8     0.059868
     9     0.151055
    10    -0.009456
    11     0.006109
    12    -0.024705
    13     0.025434
    14     0.033834
    15     0.071029
    16     0.047507
    17     0.157638
    18    -0.158584
    19     0.016164
    20     0.007392
    21     0.298933
    22    -0.207618
    23     0.027468
    24    -0.820898
    25    -0.238369
    26    -0.092909
    27    -0.063075
    28    -0.213861
    29    -0.467904
    30     0.142581
    31     0.001395
    32    -0.046113
    33     0.301583
    34     0.024516
    35    -0.025013
    36    -0.630545
    37    -0.212950
    38     0.152439
    39     1.126478
    40    -0.036979
    41     0.058433
    42    -0.050040
    43    -0.157373
    44    -0.366063
    45     0.120860
Sym=    41a
Ene=    0.000000E+00
Spin= Alpha
Occup= 0.000000
     1    -0.027969
     2    -0.308205
     3     0.864507
     4     0.070072
     5     0.192516
     6     0.006593
     7     0.448903
     8     0.792772
     9     0.014973
    10    -0.014855
    11     0.091863
    12    -0.025427
    13     0.101488
    14     0.003084
    15     0.005537
    16     0.039412
    17     0.291936
    18    -1.060370
    19    -0.459289
    20    -0.277050
    21     0.024432
    22     0.833183
    23     1.273783
    24    -0.068876
    25     0.144418
    26    -0.332361
    27    -0.095805
    28     0.236921
    29    -0.037931
    30     0.012029
    31    -0.001151
    32    -0.182883
    33     0.489536
    34     0.319134
    35     0.073694
    36    -0.053834
    37    -0.891341
    38    -0.510686
    39     0.095353
    40     0.355835
    41    -0.434364
    42    -0.056747
    43     0.245449
    44    -0.031666
    45     0.010282
Sym=    42a
Ene=    0.000000E+00
Spin= Alpha
Occup= 0.000000
     1     0.047126
     2     0.256491
     3    -0.406266
     4     0.018816
     5    -0.013680
     6    -0.022732
     7    -0.183977
     8    -0.318911
     9    -0.040664
    10    -0.073079
    11    -0.196614
    12    -0.049106
    13    -0.073430
    14    -0.006879
    15    -0.011766
    16     0.354171
    17     0.709595
    18     1.608389
    19     0.160997
    20     0.032386
    21    -0.053328
    22    -0.561561
    23    -0.217204
    24     0.122809
    25    -0.972920
    26    -1.134184
    27    -1.052179
    28     0.017927
    29     0.058958
    30    -0.020713
    31     0.144523
    32     0.286135
    33     0.634848
    34    -0.031278
    35     0.042912
    36     0.064184
    37    -0.224812
    38     0.112357
    39    -0.128971
    40    -0.112469
    41    -0.405800
    42    -0.580718
    43    -0.124788
    44     0.050330
    45    -0.015397
Sym=    43a
Ene=    0.000000E+00
Spin= Alpha
Occup= 0.000000
     1    -0.048974
     2    -0.030685
     3    -0.494529
     4    -0.013198
     5     0.014160
     6     0.009525
     7    -0.245125
     8    -0.031081
     9     0.020158
    10     0.127257
    11     0.182115
    12     0.150684
    13    -0.081843
    14     0.001434
    15     0.008373
    16     0.086168
    17    -0.407758
    18     5.244572
    19    -0.021892
    20    -0.036820
    21     0.030512
    22     2.800426
    23    -0.931567
    24    -0.085952
    25     0.101426
    26    -0.471168
    27    -0.599729
    28    -0.062281
    29    -0.048067
    30     0.014174
    31    -0.011907
    32     0.576010
    33    -4.797249
    34    -0.216651
    35     0.099690
    36    -0.067887
    37     3.083056
    38    -1.050233
    39     0.120026
    40    -0.214611
    41     0.305965
    42     0.316387
    43     0.341820
    44    -0.036857
    45     0.012597
Sym=    44a
Ene=    0.000000E+00
Spin= Alpha
Occup= 0.000000
     1     0.069414
     2     0.047541
     3     0.666130
     4    -0.056840
     5     0.018828
     6    -0.001542
     7    -0.015109
     8     0.227609
     9     0.000529
    10    -0.263180
    11    -0.157489
    12    -0.248016
    13     0.047749
    14     0.000484
    15     0.002079
    16    -0.137534
    17    -0.326627
    18    -0.895283
    19    -0.033450
    20     0.018099
    21     0.009897
    22     0.422512
    23     0.037744
    24    -0.020120
    25     0.681209
    26     0.313299
    27     0.336694
    28    -0.256761
    29    -0.009316
    30     0.001951
    31     0.398068
    32     1.000896
    33     1.502112
    34     0.005356
    35     0.018675
    36    -0.010023
    37     0.173495
    38    -0.095876
    39     0.020398
    40    -1.214830
    41    -1.030012
    42    -1.151458
    43     0.050111
    44    -0.006733
    45     0.002596
Sym=    45a
Ene=    0.000000E+00
Spin= Alpha
Occup= 0.000000
     1     0.361429
     2     0.473475
     3     2.478971
     4     0.043730
     5     0.052276
     6    -0.031095
     7     0.280412
     8     0.342562
     9    -0.037904
    10    -1.121680
    11    -1.163656
    12    -1.149859
    13     0.001538
    14    -0.000513
    15    -0.001970
    16     0.002615
    17     0.166008
    18    -0.048267
    19    -0.000339
    20    -0.049936
    21    -0.006484
    22     0.621287
    23     0.397247
    24     0.011094
    25    -0.011552
    26    -0.087744
    27     0.112102
    28    -0.071087
    29    -0.000156
    30    -0.001814
    31    -0.096705
    32    -0.120202
    33    -0.984461
    34    -0.082100
    35    -0.015073
    36    -0.008595
    37     0.404831
    38    -0.177262
    39     0.007319
    40     0.262858
    41     0.291249
    42     0.344739
    43     0.081932
    44     0.001041
    45     0.001930
