[Molden Format]
p30-5 set                                                                       
[Atoms] AU
 O        1     8        2.1617        0.1424        0.0000
 O        2     8        0.0000        1.0903        0.0000
 O        3     8       -2.0449       -0.9333        0.0000
 H        4     1       -0.9347       -2.3951        0.0000
[GTO]
    1 0
s    5 1.00
    2266.176778500000 -0.538935039217E-02
     340.870101910000 -0.402347213890E-01
      77.363135167000 -0.180081842055E+00
      21.479644940000 -0.468288576577E+00
       6.658943312400 -0.446926171602E+00
s    1 1.00
       0.809759756680  0.100000000000E+01
s    1 1.00
       0.255307722340  0.100000000000E+01
p    3 1.00
      17.721504317000  0.626302487632E-01
       3.863550544000  0.333311384824E+00
       1.048092088300  0.741486383081E+00
p    1 1.00
       0.276415444110  0.100000000000E+01
d    1 1.00
       1.200000000000  0.100000000000E+01

    2 0
s    5 1.00
    2266.176778500000 -0.538935039217E-02
     340.870101910000 -0.402347213890E-01
      77.363135167000 -0.180081842055E+00
      21.479644940000 -0.468288576577E+00
       6.658943312400 -0.446926171602E+00
s    1 1.00
       0.809759756680  0.100000000000E+01
s    1 1.00
       0.255307722340  0.100000000000E+01
p    3 1.00
      17.721504317000  0.626302487632E-01
       3.863550544000  0.333311384824E+00
       1.048092088300  0.741486383081E+00
p    1 1.00
       0.276415444110  0.100000000000E+01
d    1 1.00
       1.200000000000  0.100000000000E+01

    3 0
s    5 1.00
    2266.176778500000 -0.538935039217E-02
     340.870101910000 -0.402347213890E-01
      77.363135167000 -0.180081842055E+00
      21.479644940000 -0.468288576577E+00
       6.658943312400 -0.446926171602E+00
s    1 1.00
       0.809759756680  0.100000000000E+01
s    1 1.00
       0.255307722340  0.100000000000E+01
p    3 1.00
      17.721504317000  0.626302487632E-01
       3.863550544000  0.333311384824E+00
       1.048092088300  0.741486383081E+00
p    1 1.00
       0.276415444110  0.100000000000E+01
d    1 1.00
       1.200000000000  0.100000000000E+01

    4 0
s    3 1.00
      13.010701000000  0.334854848130E-01
       1.962257200000  0.234721870881E+00
       0.444537960000  0.813770285260E+00
s    1 1.00
       0.121949620000  0.100000000000E+01
p    1 1.00
       0.800000000000  0.100000000000E+01

[MO]
Sym=     1a
Ene=   -0.207480E+02
Spin= Alpha
Occup= 1.999953
     1    -0.720574
     2     0.028794
     3    -0.013365
     4    -0.002437
     5     0.000591
     6     0.000007
     7     0.002493
     8    -0.000938
     9    -0.000012
    10    -0.002813
    11    -0.003286
    12    -0.003799
    13    -0.000432
    14    -0.000003
    15     0.000001
    16     0.650778
    17    -0.026842
    18     0.014194
    19    -0.001624
    20     0.001808
    21    -0.000000
    22     0.001317
    23    -0.002611
    24     0.000000
    25     0.002096
    26     0.002958
    27     0.002838
    28     0.000636
    29    -0.000001
    30    -0.000000
    31    -0.187225
    32     0.008054
    33    -0.005201
    34     0.000551
    35    -0.000021
    36    -0.000003
    37    -0.001142
    38    -0.000578
    39    -0.000007
    40    -0.000806
    41    -0.000671
    42    -0.000787
    43    -0.000014
    44     0.000001
    45     0.000001
    46     0.000039
    47     0.000916
    48     0.000273
    49    -0.000122
    50     0.000001
Sym=     2a
Ene=   -0.207294E+02
Spin= Alpha
Occup= 1.999946
     1     0.401550
     2    -0.016428
     3     0.002050
     4     0.000141
     5     0.000364
     6     0.000000
     7     0.000444
     8     0.000189
     9    -0.000010
    10     0.002804
    11     0.002322
    12     0.002358
    13    -0.000407
    14    -0.000001
    15     0.000000
    16     0.630361
    17    -0.026566
    18     0.006690
    19    -0.000255
    20     0.000867
    21    -0.000011
    22     0.000995
    23    -0.001489
    24    -0.000007
    25     0.003818
    26     0.003510
    27     0.003005
    28     0.000102
    29    -0.000000
    30     0.000001
    31     0.646211
    32    -0.027692
    33     0.005829
    34    -0.000859
    35     0.000602
    36     0.000010
    37     0.000232
    38     0.000128
    39     0.000014
    40     0.003353
    41     0.003300
    42     0.003258
    43     0.000559
    44     0.000000
    45    -0.000001
    46     0.001306
    47    -0.001714
    48    -0.000843
    49     0.000533
    50     0.000003
Sym=     3a
Ene=   -0.207114E+02
Spin= Alpha
Occup= 1.999944
     1     0.545242
     2    -0.022225
     3     0.005283
     4     0.000731
     5    -0.000163
     6    -0.000002
     7    -0.000604
     8     0.000381
     9    -0.000002
    10     0.003219
    11     0.002915
    12     0.002916
    13    -0.000279
    14     0.000002
    15    -0.000001
    16     0.395090
    17    -0.016730
    18     0.006015
    19     0.000378
    20     0.000668
    21    -0.000009
    22    -0.000883
    23    -0.001780
    24    -0.000005
    25     0.002468
    26     0.002034
    27     0.001716
    28    -0.000329
    29     0.000002
    30     0.000003
    31    -0.723325
    32     0.031147
    33    -0.010058
    34     0.001457
    35    -0.000250
    36    -0.000015
    37    -0.002083
    38    -0.001018
    39    -0.000011
    40    -0.003488
    41    -0.003277
    42    -0.003308
    43    -0.000543
    44     0.000003
    45     0.000000
    46    -0.001010
    47     0.000785
    48     0.000701
    49    -0.001068
    50    -0.000002
Sym=     4a
Ene=   -0.137974E+01
Spin= Alpha
Occup= 1.988581
     1     0.019202
     2     0.029034
     3    -0.044563
     4    -0.075119
     5     0.030032
     6     0.001887
     7    -0.006464
     8    -0.006617
     9     0.001133
    10     0.008501
    11    -0.000426
    12    -0.004725
    13    -0.009865
    14    -0.000199
    15     0.000073
    16     0.297722
    17     0.624745
    18     0.414233
    19    -0.041155
    20     0.121098
    21     0.004188
    22    -0.028263
    23     0.084315
    24     0.002718
    25     0.021605
    26     0.010837
    27     0.010837
    28     0.000940
    29     0.000149
    30    -0.000177
    31    -0.006346
    32    -0.019521
    33    -0.045261
    34     0.034053
    35     0.026925
    36     0.000279
    37     0.009965
    38     0.000054
    39     0.000103
    40     0.003253
    41     0.004692
    42    -0.003418
    43     0.008344
    44     0.000052
    45     0.000033
    46    -0.004211
    47     0.011071
    48     0.000209
    49    -0.001354
    50     0.000014
Sym=     5a
Ene=   -0.129634E+01
Spin= Alpha
Occup= 1.988488
     1    -0.001481
     2     0.000060
     3    -0.003146
     4     0.001449
     5    -0.003152
     6     0.000041
     7     0.002462
     8     0.002919
     9    -0.000013
    10    -0.000853
    11     0.001016
    12     0.001268
    13     0.000954
    14     0.000008
    15     0.000005
    16    -0.008428
    17    -0.028150
    18    -0.027314
    19    -0.028250
    20    -0.037344
    21    -0.000554
    22    -0.003772
    23    -0.019393
    24    -0.000287
    25     0.003758
    26     0.003301
    27    -0.005073
    28     0.009064
    29     0.000046
    30     0.000063
    31     0.297506
    32     0.608614
    33     0.398995
    34    -0.105573
    35     0.023948
    36    -0.003870
    37    -0.101116
    38     0.031515
    39    -0.002792
    40     0.011099
    41     0.017307
    42     0.010970
    43     0.002067
    44    -0.000112
    45     0.000024
    46     0.089229
    47    -0.013206
    48    -0.015196
    49     0.014644
    50    -0.000174
Sym=     6a
Ene=   -0.127735E+01
Spin= Alpha
Occup= 1.985821
     1    -0.288268
     2    -0.599172
     3    -0.429678
     4    -0.012033
     5     0.165959
     6     0.001133
     7    -0.005966
     8     0.114038
     9     0.000602
    10    -0.019612
    11    -0.008355
    12    -0.008619
    13    -0.002825
    14    -0.000145
    15     0.000044
    16     0.018809
    17     0.053451
    18     0.095667
    19    -0.075996
    20     0.090107
    21     0.002606
    22    -0.002173
    23     0.033158
    24     0.001752
    25    -0.002593
    26    -0.001259
    27     0.007381
    28     0.014280
    29     0.000093
    30    -0.000088
    31     0.001524
    32     0.001811
    33     0.012927
    34     0.017389
    35     0.009741
    36    -0.000054
    37     0.015946
    38     0.001019
    39    -0.000116
    40     0.000206
    41     0.001275
    42    -0.000710
    43     0.001711
    44     0.000026
    45     0.000025
    46    -0.007423
    47    -0.016098
    48    -0.000976
    49    -0.001234
    50    -0.000001
Sym=     7a
Ene=   -0.703429E+00
Spin= Alpha
Occup= 1.980506
     1     0.073026
     2     0.156759
     3     0.126968
     4     0.310369
     5     0.543173
     6    -0.000943
     7     0.206078
     8     0.379147
     9    -0.000731
    10    -0.014975
    11     0.017318
    12     0.005399
    13    -0.015064
    14     0.000061
    15    -0.000020
    16    -0.023744
    17    -0.050145
    18    -0.074690
    19     0.034806
    20     0.125322
    21    -0.000845
    22     0.021657
    23     0.068730
    24    -0.000429
    25     0.017824
    26    -0.019445
    27     0.000148
    28     0.018843
    29    -0.000051
    30     0.000035
    31     0.020332
    32     0.042683
    33     0.083662
    34     0.042199
    35     0.024753
    36     0.000092
    37     0.055973
    38     0.032943
    39     0.000074
    40    -0.001195
    41     0.000942
    42     0.000764
    43    -0.000986
    44    -0.000007
    45    -0.000007
    46    -0.005477
    47    -0.036440
    48    -0.002935
    49     0.000765
    50    -0.000003
Sym=     8a
Ene=   -0.730229E+00
Spin= Alpha
Occup= 1.978779
     1     0.001173
     2     0.002562
     3     0.000860
     4    -0.001365
     5     0.002739
     6     0.262017
     7    -0.000350
     8     0.002061
     9     0.156355
    10     0.000301
    11    -0.000009
    12    -0.000007
    13    -0.000057
    14    -0.028094
    15     0.011117
    16    -0.002119
    17    -0.004577
    18    -0.004389
    19     0.002768
    20    -0.005615
    21     0.594394
    22     0.001327
    23    -0.003635
    24     0.392960
    25     0.000091
    26     0.000049
    27    -0.000286
    28    -0.000115
    29     0.021464
    30    -0.020142
    31     0.000444
    32     0.000917
    33     0.000971
    34     0.001203
    35     0.000876
    36    -0.025421
    37     0.000899
    38     0.000677
    39    -0.036818
    40     0.000131
    41    -0.000055
    42     0.000010
    43     0.000014
    44     0.005425
    45     0.005634
    46    -0.000110
    47    -0.000719
    48     0.000033
    49     0.000044
    50    -0.000924
Sym=     9a
Ene=   -0.602513E+00
Spin= Alpha
Occup= 1.978661
     1    -0.000158
     2    -0.000426
     3    -0.000558
     4     0.000353
     5     0.000645
     6     0.048394
     7     0.000466
     8     0.000344
     9     0.034329
    10    -0.000025
    11    -0.000013
    12    -0.000041
    13     0.000016
    14    -0.002128
    15     0.002191
    16     0.000291
    17     0.000593
    18     0.000871
    19     0.000058
    20    -0.000207
    21     0.010335
    22     0.000247
    23    -0.000312
    24     0.016532
    25    -0.000106
    26     0.000127
    27     0.000008
    28    -0.000004
    29     0.010301
    30     0.007688
    31    -0.001633
    32    -0.003499
    33    -0.004197
    34     0.005942
    35    -0.004225
    36    -0.656413
    37     0.003684
    38    -0.002147
    39    -0.483563
    40     0.000150
    41    -0.000065
    42    -0.000166
    43    -0.000196
    44    -0.017458
    45     0.004939
    46     0.004430
    47     0.000634
    48    -0.000166
    49     0.000437
    50    -0.030093
Sym=    10a
Ene=   -0.783311E+00
Spin= Alpha
Occup= 1.972339
     1    -0.012549
     2    -0.031935
     3    -0.035405
     4     0.026294
     5     0.021620
     6    -0.000743
     7     0.026547
     8     0.006990
     9    -0.000464
    10    -0.003216
    11     0.000791
    12    -0.001990
    13     0.001537
    14     0.000044
    15    -0.000038
    16     0.002078
    17    -0.000470
    18     0.040129
    19     0.017009
    20     0.026562
    21    -0.000403
    22     0.025597
    23     0.008350
    24    -0.000398
    25    -0.009035
    26     0.007184
    27    -0.000768
    28     0.000710
    29    -0.000142
    30    -0.000083
    31     0.006249
    32     0.006198
    33    -0.150990
    34     0.383998
    35    -0.379799
    36     0.008018
    37     0.209020
    38    -0.180614
    39     0.005867
    40     0.011736
    41     0.001927
    42    -0.007807
    43    -0.019753
    44     0.000213
    45    -0.000069
    46     0.424844
    47     0.064642
    48    -0.023308
    49     0.041988
    50     0.000379
Sym=    11a
Ene=   -0.847954E+00
Spin= Alpha
Occup= 1.965552
     1     0.006432
     2     0.003316
     3     0.181399
     4     0.389913
     5    -0.277848
     6     0.002229
     7     0.173446
     8    -0.157094
     9     0.001492
    10    -0.034638
    11     0.004165
    12     0.011424
    13     0.021783
    14    -0.000204
    15     0.000089
    16    -0.005664
    17    -0.014680
    18     0.106730
    19    -0.414688
    20     0.283997
    21     0.004605
    22    -0.198007
    23     0.175626
    24     0.002970
    25    -0.026078
    26    -0.001325
    27     0.012958
    28     0.026239
    29     0.000178
    30    -0.000162
    31    -0.009810
    32    -0.023460
    33    -0.046181
    34     0.031608
    35     0.009783
    36    -0.000390
    37     0.027781
    38     0.000013
    39    -0.000410
    40    -0.001057
    41     0.005339
    42    -0.002293
    43     0.003362
    44     0.000031
    45     0.000037
    46     0.015487
    47     0.037817
    48     0.001679
    49     0.001135
    50    -0.000006
Sym=    12a
Ene=   -0.690462E+00
Spin= Alpha
Occup= 1.958614
     1     0.003383
     2     0.005369
     3     0.016014
     4    -0.086638
     5    -0.095750
     6     0.001620
     7    -0.085214
     8    -0.100629
     9     0.001175
    10    -0.002166
    11     0.005563
    12    -0.001500
    13    -0.008821
    14    -0.000117
    15     0.000046
    16    -0.001649
    17     0.012389
    18     0.025414
    19     0.218693
    20     0.415276
    21     0.002959
    22     0.095926
    23     0.285347
    24     0.001902
    25     0.000045
    26    -0.023109
    27     0.011744
    28    -0.022472
    29     0.000117
    30    -0.000096
    31    -0.000125
    32     0.010546
    33     0.023527
    34    -0.338322
    35    -0.276402
    36    -0.001381
    37    -0.237768
    38    -0.153523
    39    -0.001052
    40    -0.024017
    41     0.000249
    42     0.009691
    43    -0.023058
    44     0.000001
    45     0.000034
    46     0.062549
    47     0.059654
    48    -0.015081
    49    -0.002156
    50    -0.000053
Sym=    13a
Ene=   -0.312174E+00
Spin= Alpha
Occup= 1.000000
     1     0.000035
     2    -0.000024
     3     0.000562
     4     0.000071
     5     0.000679
     6     0.652422
     7    -0.000408
     8     0.000152
     9     0.443210
    10    -0.000251
    11     0.000193
    12    -0.000008
    13    -0.000179
    14    -0.004063
    15    -0.000467
    16    -0.000099
    17    -0.000057
    18    -0.001259
    19    -0.000010
    20    -0.000144
    21    -0.363025
    22     0.000372
    23     0.000779
    24    -0.290547
    25     0.000122
    26    -0.000077
    27     0.000014
    28     0.000154
    29     0.011883
    30     0.000058
    31     0.000068
    32     0.000147
    33     0.000459
    34     0.000298
    35     0.000328
    36     0.065267
    37     0.000633
    38     0.000594
    39     0.059583
    40     0.000016
    41     0.000039
    42    -0.000001
    43     0.000066
    44    -0.001988
    45    -0.005008
    46    -0.000086
    47     0.000164
    48    -0.000011
    49    -0.000036
    50     0.005421
Sym=    14a
Ene=   -0.708012E-01
Spin= Alpha
Occup= 0.039894
     1    -0.005831
     2    -0.023852
     3     0.019912
     4     0.146283
     5     0.159072
     6    -0.000015
     7     0.021061
     8     0.035983
     9     0.000150
    10     0.014952
    11    -0.014204
    12     0.002566
    13     0.017918
    14    -0.000246
    15     0.000019
    16     0.092965
    17     0.266069
    18     0.082078
    19    -0.383021
    20    -0.535696
    21    -0.001065
    22    -0.073350
    23    -0.080430
    24     0.000470
    25    -0.047615
    26    -0.038800
    27    -0.007297
    28    -0.017022
    29     0.000366
    30    -0.000278
    31    -0.081741
    32    -0.231847
    33    -0.077680
    34    -0.466534
    35    -0.456154
    36    -0.000284
    37    -0.112366
    38    -0.115625
    39     0.000217
    40     0.025558
    41     0.042171
    42     0.006962
    43     0.015859
    44     0.000110
    45    -0.000007
    46     0.036829
    47     0.005740
    48    -0.016434
    49    -0.007521
    50     0.000060
Sym=    15a
Ene=   -0.592162E-01
Spin= Alpha
Occup= 0.032311
     1    -0.136314
     2    -0.407861
     3    -0.133115
     4     0.654094
     5    -0.306719
     6    -0.000999
     7     0.145748
     8    -0.047528
     9     0.001378
    10     0.064938
    11     0.032964
    12     0.043619
    13    -0.029406
    14     0.000014
    15    -0.000498
    16     0.139925
    17     0.425079
    18     0.131025
    19     0.648520
    20    -0.285715
    21    -0.000384
    22     0.132199
    23    -0.037874
    24    -0.000183
    25    -0.078147
    26    -0.056458
    27    -0.019497
    28     0.018655
    29    -0.000205
    30    -0.000157
    31     0.015532
    32     0.049940
    33     0.015172
    34    -0.022644
    35     0.020756
    36    -0.000137
    37     0.004418
    38    -0.000047
    39     0.000155
    40     0.002460
    41    -0.021033
    42    -0.002882
    43     0.000341
    44    -0.000060
    45    -0.000111
    46    -0.030471
    47    -0.001008
    48     0.003498
    49    -0.001584
    50     0.000037
Sym=    16a
Ene=   -0.332624E-01
Spin= Alpha
Occup= 0.022462
     1    -0.029990
     2    -0.113814
     3     0.040940
     4     0.035680
     5     0.094885
     6    -0.000709
     7    -0.006118
     8    -0.026641
     9     0.000793
    10     0.016726
    11     0.019931
    12     0.007763
    13     0.012617
    14     0.000095
    15    -0.000067
    16    -0.012753
    17    -0.052406
    18     0.022583
    19     0.005644
    20    -0.013885
    21    -0.000289
    22     0.000688
    23     0.018385
    24    -0.000402
    25     0.004650
    26     0.010367
    27     0.005698
    28     0.003115
    29     0.000023
    30     0.000093
    31    -0.173502
    32    -0.620188
    33    -0.155095
    34    -0.509844
    35     0.682537
    36    -0.003027
    37     0.056584
    38    -0.013688
    39     0.003068
    40     0.110286
    41     0.128833
    42     0.029903
    43    -0.048277
    44     0.000261
    45     0.000035
    46     0.867193
    47     0.070616
    48    -0.067320
    49     0.116668
    50     0.000648
Sym=    17a
Ene=   -0.171069E-01
Spin= Alpha
Occup= 0.012447
     1    -0.000329
     2    -0.001374
     3    -0.000531
     4    -0.000223
     5    -0.000490
     6    -0.030896
     7     0.001498
     8     0.001748
     9     0.024704
    10     0.001455
    11    -0.000959
    12     0.000391
    13     0.001037
    14    -0.010860
    15     0.028611
    16     0.001382
    17     0.004931
    18    -0.000089
    19    -0.001637
    20     0.002284
    21     0.081364
    22     0.000922
    23    -0.003211
    24     0.092644
    25    -0.002786
    26    -0.000011
    27    -0.001175
    28    -0.000729
    29     0.062222
    30     0.056766
    31     0.005242
    32     0.021849
    33    -0.011140
    34    -0.008595
    35     0.003514
    36     0.942614
    37     0.006953
    38    -0.001845
    39    -1.019120
    40    -0.005333
    41    -0.006769
    42    -0.004626
    43    -0.000536
    44    -0.047157
    45     0.040679
    46     0.002971
    47    -0.000075
    48    -0.000342
    49     0.001512
    50    -0.090712
Sym=    18a
Ene=   -0.143840E-01
Spin= Alpha
Occup= 0.010274
     1     0.003654
     2     0.014953
     3    -0.008109
     4     0.002889
     5     0.004373
     6    -0.368714
     7     0.001108
     8     0.001048
     9     0.151261
    10     0.006072
    11    -0.012670
    12    -0.004003
    13     0.007719
    14    -0.116323
    15     0.060398
    16     0.007026
    17     0.026625
    18    -0.001876
    19     0.001570
    20     0.015643
    21    -0.872046
    22    -0.003397
    23    -0.019615
    24     0.995107
    25    -0.014493
    26    -0.002290
    27    -0.007514
    28    -0.008194
    29     0.064896
    30    -0.040960
    31     0.001742
    32     0.006450
    33    -0.005490
    34    -0.003483
    35     0.000315
    36     0.035190
    37     0.000286
    38    -0.002925
    39    -0.232850
    40    -0.000615
    41    -0.004112
    42    -0.000162
    43    -0.002065
    44     0.051912
    45     0.068570
    46    -0.001139
    47    -0.002501
    48     0.000822
    49     0.001049
    50    -0.019621
Sym=    19a
Ene=   -0.167462E-01
Spin= Alpha
Occup= 0.010957
     1    -0.240715
     2    -1.002642
     3     0.466617
     4    -0.458435
     5    -0.689107
     6    -0.015314
     7     0.419809
     8     0.792034
     9     0.016260
    10     0.225353
    11     0.276444
    12     0.284699
    13    -0.022640
    14     0.003795
    15    -0.002375
    16    -0.051767
    17    -0.167318
    18    -0.114429
    19    -0.122969
    20    -0.235968
    21    -0.008824
    22     0.005212
    23     0.141526
    24     0.006886
    25     0.104422
    26    -0.029977
    27     0.062084
    28     0.087590
    29     0.000120
    30    -0.001008
    31    -0.014700
    32    -0.063997
    33     0.031267
    34    -0.019640
    35     0.027802
    36     0.000492
    37     0.074710
    38     0.054795
    39    -0.002421
    40    -0.016614
    41     0.067369
    42    -0.003855
    43     0.001472
    44     0.000473
    45     0.000421
    46     0.142756
    47    -0.001586
    48    -0.041624
    49     0.016465
    50    -0.000145
Sym=    20a
Ene=   -0.192424E-01
Spin= Alpha
Occup= 0.007925
     1    -0.555521
     2    -2.260136
     3     0.853334
     4    -0.101722
     5     0.455688
     6    -0.000113
     7     0.006069
     8    -0.453438
     9    -0.000854
    10     0.656512
    11     0.606715
    12     0.676950
    13    -0.000343
    14    -0.001977
    15    -0.000906
    16    -0.063413
    17    -0.230828
    18    -0.028968
    19     0.011879
    20     0.117615
    21    -0.002057
    22    -0.125419
    23     0.005863
    24     0.002655
    25    -0.006001
    26     0.054451
    27     0.066171
    28    -0.029279
    29     0.000106
    30    -0.001652
    31     0.019441
    32     0.074489
    33     0.015050
    34     0.020214
    35    -0.085261
    36     0.000068
    37    -0.014156
    38    -0.008653
    39    -0.000696
    40    -0.004520
    41    -0.053754
    42    -0.004338
    43     0.009949
    44    -0.000637
    45    -0.000924
    46    -0.173064
    47     0.020925
    48     0.042855
    49    -0.028154
    50     0.000013
Sym=    21a
Ene=   -0.636224E-02
Spin= Alpha
Occup= 0.002519
     1    -0.049587
     2    -0.211383
     3    -0.007246
     4     0.175004
     5    -0.028196
     6     0.008794
     7    -0.272994
     8    -0.055843
     9    -0.011427
    10     0.052255
    11     0.107707
    12     0.065816
    13    -0.054379
    14    -0.003267
    15     0.000738
    16    -0.001185
    17    -0.010248
    18    -0.106806
    19    -0.338588
    20    -0.329915
    21    -0.002830
    22     0.375783
    23     0.406704
    24     0.005890
    25    -0.062863
    26     0.043502
    27     0.109771
    28    -0.287386
    29    -0.006288
    30    -0.006692
    31     0.008341
    32     0.013205
    33     0.204309
    34     0.282575
    35     0.170914
    36     0.001398
    37    -0.246462
    38     0.000011
    39    -0.002505
    40    -0.110755
    41    -0.444550
    42     0.532829
    43    -0.461001
    44     0.001941
    45     0.008164
    46     0.057634
    47    -0.004386
    48     0.045352
    49     0.039845
    50    -0.001670
Sym=    22a
Ene=   -0.177729E-01
Spin= Alpha
Occup= 0.006251
     1    -0.068695
     2    -0.330903
     3     0.209821
     4    -0.132042
     5    -0.024631
     6     0.002276
     7     0.012899
     8     0.154948
     9     0.001912
    10     0.131181
    11     0.096220
    12     0.130560
    13     0.003857
    14     0.003604
    15    -0.003159
    16     0.611577
    17     2.461366
    18    -0.815332
    19    -0.216951
    20     0.326892
    21     0.012010
    22     0.165622
    23    -0.334164
    24    -0.014999
    25    -0.777569
    26    -0.771931
    27    -0.788166
    28     0.040734
    29    -0.001565
    30     0.002795
    31    -0.038367
    32    -0.197769
    33     0.187096
    34     0.062565
    35     0.078184
    36    -0.002977
    37    -0.035510
    38     0.038506
    39     0.006144
    40     0.075107
    41     0.034651
    42     0.087688
    43    -0.024331
    44    -0.000371
    45    -0.000371
    46     0.012238
    47    -0.045651
    48    -0.003580
    49     0.006677
    50     0.000443
Sym=    23a
Ene=   -0.189576E-03
Spin= Alpha
Occup= 0.000010
     1    -0.000076
     2    -0.000077
     3    -0.000550
     4     0.000046
     5    -0.000035
     6    -0.017975
     7     0.000227
     8     0.000008
     9     0.064986
    10     0.000074
    11     0.000289
    12     0.000174
    13     0.000045
    14    -0.021061
    15     0.006394
    16    -0.000015
    17    -0.000024
    18    -0.000219
    19     0.000051
    20    -0.000004
    21     0.026995
    22     0.000156
    23     0.000310
    24    -0.148189
    25     0.000282
    26    -0.000260
    27     0.000083
    28    -0.000267
    29     0.035533
    30     0.057304
    31    -0.000040
    32    -0.000474
    33     0.002002
    34    -0.000333
    35     0.000007
    36    -0.064330
    37     0.001729
    38    -0.001160
    39     0.525127
    40    -0.000201
    41     0.000652
    42    -0.000217
    43    -0.001165
    44     0.356507
    45    -0.421986
    46    -0.002194
    47     0.000063
    48     0.000623
    49    -0.000782
    50    -1.105600
Sym=    24a
Ene=   -0.582013E-03
Spin= Alpha
Occup= 0.000029
     1    -0.115693
     2    -0.199012
     3    -0.152449
     4    -0.136147
     5     0.029238
     6    -0.001531
     7     0.192979
     8    -0.006782
     9     0.003569
    10     0.005791
    11     0.405363
    12     0.533686
    13     0.205566
    14     0.000162
    15     0.000465
    16    -0.375233
    17    -0.827290
    18    -1.583759
    19     0.164144
    20    -0.000388
    21     0.002119
    22    -0.319515
    23     0.005671
    24    -0.003804
    25     1.039901
    26     1.090390
    27     1.116282
    28     0.071972
    29    -0.003510
    30    -0.000429
    31    -0.033731
    32    -0.101569
    33    -0.077680
    34    -0.004155
    35     0.172835
    36    -0.000479
    37     0.011740
    38    -0.125588
    39     0.000973
    40     0.137970
    41    -0.062257
    42     0.182651
    43    -0.085263
    44    -0.000297
    45    -0.000199
    46     0.085866
    47     0.003052
    48    -0.133477
    49     0.114141
    50    -0.000006
Sym=    25a
Ene=   -0.718799E-03
Spin= Alpha
Occup= 0.000036
     1     0.430032
     2     1.083725
     3     1.761479
     4     0.069319
     5    -0.017292
     6     0.000348
     7    -0.049148
     8     0.046833
     9     0.000048
    10    -1.345013
    11    -1.087504
    12    -1.145282
    13     0.092214
    14     0.000130
    15    -0.000686
    16    -0.158742
    17    -0.481890
    18    -0.818999
    19    -0.000796
    20     0.073078
    21     0.000833
    22     0.047557
    23    -0.173261
    24    -0.001106
    25     0.719771
    26     0.400370
    27     0.237954
    28    -0.257518
    29    -0.000498
    30     0.001034
    31     0.021461
    32     0.066580
    33     0.221885
    34     0.102004
    35     0.006513
    36    -0.000198
    37    -0.072658
    38    -0.082760
    39     0.000448
    40    -0.099344
    41     0.041736
    42    -0.036717
    43    -0.116725
    44     0.000609
    45     0.000724
    46    -0.179999
    47    -0.068812
    48     0.039271
    49    -0.109875
    50     0.000062
Sym=    26a
Ene=   -0.268322E-02
Spin= Alpha
Occup= 0.000842
     1     0.058721
     2     0.225751
     3    -0.313640
     4    -0.338315
     5     0.203754
     6     0.005449
     7     0.444219
     8    -0.322451
     9    -0.008810
    10     0.367009
    11    -0.080700
    12    -0.434907
    13    -0.338664
    14     0.002270
    15     0.004021
    16    -0.032767
    17    -0.078751
    18     0.176649
    19    -0.281487
    20     0.007500
    21    -0.000388
    22     0.530733
    23     0.025221
    24     0.001214
    25    -0.577618
    26     0.517837
    27     0.173381
    28     0.459375
    29     0.015016
    30     0.009539
    31    -0.045130
    32    -0.169025
    33     0.132670
    34     0.001221
    35    -0.033096
    36    -0.002607
    37     0.064135
    38     0.138750
    39     0.004446
    40    -0.130385
    41     0.320621
    42     0.098167
    43    -0.231015
    44     0.007253
    45     0.008972
    46    -0.101508
    47    -0.012989
    48    -0.055163
    49    -0.039807
    50     0.000226
Sym=    27a
Ene=   -0.416028E-02
Spin= Alpha
Occup= 0.001385
     1    -0.082955
     2    -0.263346
     3    -0.428570
     4     0.090456
     5    -0.084329
     6    -0.011289
     7     0.127548
     8     0.059184
     9     0.015085
    10     0.624647
    11     0.413809
    12    -0.552082
    13    -0.174507
    14     0.019507
    15     0.005936
    16    -0.110635
    17    -0.441088
    18     0.283185
    19    -0.248430
    20     0.263688
    21     0.001826
    22     0.248666
    23    -0.465858
    24    -0.001084
    25     0.336787
    26    -0.294107
    27     0.461301
    28    -0.161035
    29    -0.017061
    30    -0.025600
    31     0.014538
    32     0.064788
    33    -0.116787
    34     0.058658
    35     0.094169
    36     0.003428
    37    -0.184014
    38    -0.136582
    39    -0.006395
    40     0.071788
    41    -0.073183
    42    -0.076103
    43     0.113339
    44    -0.010136
    45    -0.011974
    46     0.040229
    47     0.007082
    48    -0.005600
    49     0.006382
    50    -0.000843
Sym=    28a
Ene=   -0.636893E-02
Spin= Alpha
Occup= 0.003121
     1    -0.006970
     2    -0.053440
     3     0.094416
     4     0.032726
     5     0.064403
     6     0.023030
     7    -0.138285
     8    -0.096439
     9    -0.034930
    10     0.049566
    11    -0.078825
    12     0.062579
    13     0.032285
    14    -0.015323
    15     0.006871
    16     0.019757
    17     0.102494
    18     0.031775
    19    -0.158751
    20    -0.196207
    21    -0.008802
    22     0.043779
    23     0.233818
    24     0.016680
    25    -0.092946
    26     0.044986
    27     0.008396
    28     0.022300
    29     0.013308
    30    -0.006570
    31     0.090781
    32     0.346977
    33     0.072453
    34     0.270045
    35     0.496268
    36    -0.001053
    37    -0.209999
    38    -0.696335
    39     0.001944
    40    -0.436189
    41    -0.072818
    42     0.081054
    43     0.528913
    44    -0.012772
    45     0.012189
    46    -0.153843
    47     0.081708
    48    -0.088437
    49    -0.152810
    50    -0.005136
Sym=    29a
Ene=   -0.828666E-02
Spin= Alpha
Occup= 0.004527
     1     0.031644
     2     0.178008
     3    -0.074580
     4    -0.116312
     5    -0.058235
     6    -0.021731
     7     0.209246
     8     0.131433
     9     0.031095
    10    -0.013594
    11    -0.000963
    12    -0.097978
    13    -0.030593
    14     0.010618
    15    -0.004479
    16    -0.017390
    17    -0.011763
    18    -0.307355
    19     0.176951
    20     0.190938
    21     0.008110
    22    -0.082128
    23    -0.016214
    24    -0.014665
    25     0.089043
    26    -0.012972
    27    -0.035407
    28     0.020219
    29    -0.005462
    30     0.007065
    31    -0.126675
    32    -0.628163
    33     0.537868
    34    -0.505952
    35    -0.165937
    36     0.001297
    37     0.874552
    38     0.105861
    39    -0.005832
    40    -0.234696
    41    -0.130707
    42     0.808031
    43     0.157007
    44     0.028404
    45    -0.034662
    46    -0.276560
    47     0.018829
    48     0.023175
    49    -0.029015
    50     0.013038
Sym=    30a
Ene=   -0.909464E-02
Spin= Alpha
Occup= 0.004786
     1    -0.001487
     2    -0.009079
     3     0.018921
     4     0.008368
     5     0.016042
     6     0.279979
     7    -0.035569
     8    -0.039084
     9    -0.287450
    10    -0.063041
    11     0.073038
    12    -0.005781
    13    -0.044048
    14     0.356985
    15    -0.131101
    16     0.004008
    17     0.025483
    18    -0.051390
    19    -0.015767
    20    -0.032025
    21    -0.178340
    22     0.027831
    23     0.056087
    24     0.401356
    25     0.030627
    26    -0.023618
    27    -0.015157
    28     0.049478
    29    -0.662150
    30     0.369767
    31     0.004825
    32     0.018489
    33     0.020989
    34    -0.000076
    35     0.001114
    36     0.053202
    37     0.018439
    38     0.011956
    39    -0.142294
    40    -0.008630
    41    -0.004435
    42    -0.005390
    43     0.010708
    44     0.070880
    45     0.091303
    46    -0.005062
    47     0.006682
    48    -0.000667
    49    -0.003301
    50    -0.028727
Sym=    31a
Ene=   -0.834488E-02
Spin= Alpha
Occup= 0.004847
     1     0.000118
     2    -0.018625
     3     0.063579
     4     0.053049
     5     0.080212
     6    -0.587865
     7    -0.173058
     8    -0.181965
     9     0.809786
    10    -0.393850
    11     0.390079
    12    -0.004853
    13    -0.288498
    14     0.212920
    15    -0.132956
    16     0.021579
    17     0.117894
    18    -0.202632
    19    -0.087116
    20    -0.137788
    21     0.162768
    22     0.149464
    23     0.210306
    24    -0.387448
    25     0.103807
    26    -0.147347
    27    -0.014517
    28     0.204853
    29    -0.016376
    30     0.019640
    31     0.015651
    32     0.061583
    33     0.083054
    34     0.008694
    35     0.001400
    36    -0.012135
    37     0.063117
    38     0.067816
    39     0.062229
    40    -0.021215
    41    -0.014556
    42    -0.016558
    43     0.032717
    44    -0.026086
    45    -0.031267
    46    -0.013974
    47     0.024229
    48    -0.004820
    49    -0.013143
    50     0.010710
Sym=    32a
Ene=   -0.783539E-02
Spin= Alpha
Occup= 0.003580
     1    -0.007547
     2    -0.043616
     3     0.118520
     4     0.030526
     5     0.064151
     6     0.476205
     7    -0.168562
     8    -0.143468
     9    -0.673524
    10    -0.415587
    11     0.574343
    12    -0.136122
    13    -0.142669
    14    -0.306634
    15     0.150887
    16     0.038711
    17     0.188120
    18    -0.254819
    19    -0.021395
    20    -0.152181
    21    -0.136760
    22     0.062347
    23     0.236116
    24     0.294650
    25     0.081660
    26    -0.150833
    27    -0.055330
    28     0.210744
    29     0.106178
    30    -0.063324
    31     0.021354
    32     0.074616
    33     0.100459
    34    -0.023685
    35    -0.028771
    36     0.005637
    37     0.109881
    38     0.087667
    39    -0.040145
    40    -0.039861
    41    -0.034337
    42    -0.019011
    43     0.014982
    44     0.015948
    45     0.007947
    46    -0.024165
    47     0.024287
    48     0.005194
    49    -0.006047
    50    -0.002753
Sym=    33a
Ene=   -0.192284E-01
Spin= Alpha
Occup= 0.007079
     1    -0.000488
     2    -0.007268
     3     0.024011
     4     0.021793
     5     0.006865
     6     0.005297
     7    -0.038136
     8    -0.029662
     9    -0.009588
    10    -0.015195
    11     0.004678
    12     0.012060
    13    -0.001104
    14    -0.003311
    15     0.001959
    16    -0.043714
    17    -0.137269
    18    -0.052279
    19     0.084901
    20     0.015608
    21    -0.005907
    22     0.016058
    23     0.007795
    24     0.011387
    25     0.072520
    26     0.023082
    27     0.015691
    28     0.052850
    29     0.002898
    30     0.000148
    31    -0.602554
    32    -2.420205
    33     0.852805
    34     0.396066
    35    -0.122433
    36     0.011455
    37    -0.348771
    38     0.045485
    39    -0.013804
    40     0.748372
    41     0.748924
    42     0.695932
    43     0.043972
    44     0.000904
    45     0.003192
    46    -0.160833
    47    -0.054695
    48     0.029320
    49    -0.066863
    50    -0.001767
Sym=    34a
Ene=   -0.694733E-02
Spin= Alpha
Occup= 0.002618
     1     0.121274
     2     0.466861
     3     0.115064
     4    -0.329164
     5     0.171140
     6    -0.008327
     7     0.326832
     8    -0.161659
     9     0.008556
    10    -0.277823
    11    -0.164729
    12    -0.111951
    13     0.143891
    14    -0.002586
    15    -0.001068
    16     0.114470
    17     0.412596
    18     0.254171
    19     0.289345
    20    -0.113383
    21    -0.004713
    22    -0.384526
    23     0.057827
    24     0.001228
    25    -0.480181
    26    -0.687359
    27     0.561580
    28     0.021532
    29     0.110077
    30     0.257712
    31     0.013926
    32     0.057879
    33    -0.141332
    34     0.082198
    35    -0.006957
    36    -0.026210
    37    -0.077623
    38    -0.014276
    39     0.047115
    40    -0.169022
    41     0.074088
    42     0.034322
    43    -0.059755
    44    -0.039721
    45    -0.036664
    46     0.054105
    47     0.034561
    48    -0.011528
    49    -0.022936
    50     0.014182
Sym=    35a
Ene=   -0.699496E-03
Spin= Alpha
Occup= 0.000035
     1     0.027545
     2     0.043472
     3     0.160486
     4     0.069228
     5     0.057008
     6     0.005472
     7    -0.163227
     8    -0.224401
     9    -0.009937
    10     0.028551
    11    -0.217002
    12    -0.095010
    13     0.167943
    14    -0.000011
    15    -0.000469
    16     0.040358
    17     0.116364
    18     0.216419
    19    -0.121313
    20    -0.188155
    21    -0.002597
    22     0.070532
    23     0.344863
    24     0.005494
    25     0.135304
    26    -0.320184
    27    -0.045093
    28     0.017684
    29     0.008602
    30    -0.002248
    31    -0.418999
    32    -1.081946
    33    -1.459836
    34    -0.085625
    35     0.165063
    36    -0.001906
    37     0.207470
    38    -0.348553
    39     0.001703
    40     1.179477
    41     1.163934
    42     1.028772
    43    -0.070638
    44     0.000841
    45     0.001639
    46    -0.309351
    47     0.183304
    48     0.009563
    49     0.028467
    50     0.000202
Sym=    36a
Ene=   -0.281299E-03
Spin= Alpha
Occup= 0.000014
     1     0.015348
     2    -0.021252
     3     0.171594
     4     0.053427
     5    -0.002960
     6     0.004032
     7    -0.157049
     8    -0.034122
     9    -0.006645
    10    -0.026299
    11    -0.064851
    12    -0.083219
    13     0.001683
    14     0.000889
    15    -0.000386
    16    -0.048528
    17    -0.043273
    18    -0.456026
    19    -0.120338
    20    -0.044383
    21    -0.001672
    22     0.330483
    23     0.029985
    24     0.004323
    25    -0.027995
    26     0.274748
    27     0.252021
    28    -0.103687
    29     0.002554
    30    -0.001463
    31    -0.078831
    32     0.085697
    33    -1.386560
    34     0.150548
    35    -0.259564
    36     0.000341
    37    -0.808173
    38     1.247393
    39    -0.000699
    40     0.112480
    41     0.207157
    42     0.568342
    43     0.643517
    44     0.000640
    45    -0.001145
    46     1.506014
    47     0.079700
    48     0.148248
    49     0.203380
    50    -0.000884
Sym=    37a
Ene=   -0.866387E-04
Spin= Alpha
Occup= 0.000004
     1    -0.039140
     2     0.522730
     3    -4.532076
     4    -0.097748
     5     0.058222
     6    -0.001792
     7     2.771905
     8    -1.218786
     9     0.002899
    10    -0.310634
    11     0.374164
    12     0.497510
    13     0.420812
    14     0.000467
    15     0.000942
    16     0.041218
    17    -0.592545
    18     4.759524
    19    -0.092860
    20     0.047000
    21     0.000551
    22     2.715842
    23    -1.395038
    24    -0.001588
    25     0.258370
    26    -0.307178
    27    -0.567691
    28    -0.372707
    29    -0.001141
    30     0.000676
    31     0.003536
    32     0.092654
    33    -0.402690
    34     0.012293
    35    -0.065127
    36    -0.000125
    37    -0.422471
    38     0.223549
    39     0.000321
    40    -0.148795
    41     0.121087
    42     0.017420
    43    -0.013439
    44    -0.000165
    45     0.000120
    46     0.266303
    47     0.049337
    48     0.071684
    49    -0.039334
    50     0.000133
Sym=    38a
Ene=   -0.223854E-02
Spin= Alpha
Occup= 0.000650
     1     0.022286
     2     0.063950
     3     0.043895
     4     0.019121
     5     0.083712
     6    -0.008710
     7    -0.144188
     8    -0.313660
     9     0.013344
    10     0.358641
    11    -0.443211
    12    -0.052588
    13     0.369700
    14    -0.020171
    15     0.007995
    16    -0.034432
    17    -0.107666
    18    -0.095156
    19    -0.084594
    20    -0.095364
    21     0.001958
    22     0.186531
    23     0.262114
    24    -0.010728
    25     0.575789
    26    -0.285996
    27    -0.032181
    28     0.704718
    29    -0.001955
    30    -0.000614
    31     0.135360
    32     0.519575
    33     0.113069
    34     0.119494
    35    -0.079288
    36     0.000041
    37    -0.226101
    38     0.150479
    39     0.001457
    40    -0.293665
    41    -0.464367
    42    -0.092761
    43    -0.145758
    44    -0.000616
    45    -0.001460
    46     0.166586
    47     0.048509
    48     0.076908
    49    -0.038997
    50     0.000445
Sym=    39a
Ene=   -0.244638E-02
Spin= Alpha
Occup= 0.000752
     1     0.000134
     2     0.000075
     3     0.000176
     4    -0.003608
     5    -0.003876
     6    -0.231593
     7     0.006908
     8     0.010236
     9     0.550088
    10     0.019728
    11    -0.017223
    12    -0.002872
    13     0.002889
    14    -0.777515
    15     0.359090
    16    -0.000690
    17    -0.000619
    18    -0.003998
    19    -0.001790
    20     0.006188
    21     0.153406
    22     0.001971
    23    -0.002749
    24    -0.529667
    25    -0.018636
    26     0.010520
    27     0.008513
    28    -0.022104
    29    -0.623138
    30     0.274723
    31    -0.006009
    32    -0.022500
    33    -0.001015
    34     0.000118
    35     0.002758
    36    -0.014844
    37     0.005586
    38    -0.001084
    39     0.084119
    40     0.013982
    41     0.020068
    42     0.004458
    43     0.005925
    44     0.047389
    45     0.055842
    46    -0.004854
    47     0.000104
    48    -0.001071
    49    -0.000135
    50     0.010643
Sym=    40a
Ene=   -0.500174E-02
Spin= Alpha
Occup= 0.002078
     1    -0.116622
     2    -0.475584
     3     0.019544
     4     0.360726
     5    -0.074673
     6     0.001834
     7    -0.492958
     8     0.108068
     9    -0.006065
    10     0.150400
    11     0.182637
    12     0.229141
    13     0.086406
    14    -0.001030
    15    -0.000026
    16    -0.053785
    17    -0.247687
    18    -0.183334
    19    -0.099577
    20     0.165022
    21    -0.009585
    22     0.124753
    23    -0.264193
    24     0.021614
    25     0.249209
    26     0.005241
    27     0.039009
    28    -0.071603
    29    -0.023935
    30    -0.024719
    31    -0.008431
    32     0.003408
    33    -0.140451
    34     0.040985
    35    -0.100633
    36     0.006364
    37    -0.093827
    38     0.261119
    39    -0.014946
    40    -0.667783
    41     0.654747
    42     0.090192
    43    -0.224833
    44    -0.040549
    45    -0.050472
    46     0.075961
    47    -0.051575
    48    -0.189424
    49    -0.081575
    50     0.001696
Sym=    41a
Ene=   -0.864322E-02
Spin= Alpha
Occup= 0.004365
     1    -0.001532
     2    -0.008964
     3     0.003812
     4     0.005862
     5     0.003483
     6     0.006570
     7    -0.011144
     8    -0.007509
     9    -0.026506
    10     0.004793
    11    -0.004444
    12     0.005315
    13     0.004478
    14     0.007983
    15     0.000891
    16     0.001164
    17     0.001992
    18     0.018519
    19    -0.012992
    20    -0.014037
    21    -0.011055
    22     0.006189
    23     0.006252
    24     0.060839
    25    -0.008578
    26     0.004724
    27     0.001310
    28    -0.003105
    29    -0.011138
    30     0.011984
    31     0.007191
    32     0.034168
    33    -0.023012
    34     0.031613
    35     0.019799
    36     0.083714
    37    -0.048507
    38    -0.022346
    39    -0.225905
    40     0.007120
    41     0.001739
    42    -0.035468
    43     0.001073
    44     0.680468
    45    -0.588023
    46     0.008735
    47     0.000552
    48    -0.001787
    49    -0.000547
    50     0.237503
Sym=    42a
Ene=   -0.986406E-02
Spin= Alpha
Occup= 0.006161
     1     0.024318
     2     0.173431
     3     0.289774
     4    -0.251529
     5     0.175791
     6    -0.011078
     7     0.192940
     8    -0.258125
     9     0.013389
    10     0.133007
    11    -0.013825
    12    -0.180714
    13    -0.151591
    14     0.002626
    15     0.004882
    16     0.132734
    17     0.702093
    18    -0.547840
    19     0.281024
    20    -0.364238
    21     0.000592
    22    -0.546433
    23     0.639395
    24    -0.004298
    25     0.192906
    26    -0.110331
    27    -0.503137
    28    -0.210818
    29     0.006739
    30     0.003662
    31     0.025968
    32     0.091117
    33     0.040759
    34     0.116999
    35    -0.000399
    36     0.001131
    37     0.051200
    38     0.082587
    39    -0.000352
    40    -0.173436
    41     0.097635
    42    -0.030944
    43    -0.046297
    44    -0.000850
    45    -0.001617
    46     0.105803
    47     0.039311
    48    -0.030754
    49    -0.014047
    50     0.000626
Sym=    43a
Ene=   -0.775614E-02
Spin= Alpha
Occup= 0.003689
     1    -0.022030
     2    -0.096390
     3     0.291244
     4    -0.001070
     5    -0.009981
     6    -0.120665
     7    -0.160729
     8     0.088862
     9     0.170425
    10     0.012304
    11     0.536700
    12    -0.469505
    13     0.711404
    14     0.080095
    15    -0.003796
    16     0.049529
    17     0.229597
    18    -0.303355
    19     0.172402
    20    -0.124513
    21     0.036181
    22    -0.233788
    23     0.269953
    24    -0.079342
    25    -0.175139
    26     0.185236
    27    -0.169732
    28    -0.028714
    29    -0.016768
    30     0.022026
    31     0.005851
    32    -0.001467
    33     0.123813
    34     0.030747
    35    -0.017965
    36    -0.004027
    37     0.047124
    38    -0.006318
    39     0.015145
    40    -0.014986
    41     0.003618
    42    -0.033370
    43    -0.013480
    44    -0.007308
    45    -0.004066
    46    -0.089621
    47     0.028159
    48     0.028712
    49    -0.007612
    50     0.001335
Sym=    44a
Ene=   -0.667658E-02
Spin= Alpha
Occup= 0.002674
     1     0.001036
     2     0.006634
     3    -0.003558
     4    -0.007335
     5     0.000811
     6     0.022803
     7     0.010536
     8     0.001180
     9    -0.033814
    10     0.013139
    11     0.014072
    12    -0.027475
    13     0.024497
    14    -0.416435
    15    -0.906843
    16     0.001058
    17     0.004915
    18     0.004044
    19     0.007871
    20    -0.001592
    21    -0.017659
    22    -0.009794
    23     0.002308
    24     0.038118
    25    -0.009383
    26     0.002037
    27     0.003026
    28    -0.005121
    29    -0.028352
    30     0.010672
    31     0.000005
    32    -0.000663
    33     0.000238
    34     0.001860
    35     0.000311
    36     0.031336
    37    -0.001158
    38    -0.002658
    39    -0.050052
    40    -0.000673
    41     0.001228
    42    -0.001463
    43    -0.000432
    44    -0.005617
    45    -0.007437
    46    -0.001161
    47     0.000790
    48     0.000692
    49    -0.000148
    50     0.000753
Sym=    45a
Ene=   -0.523653E-02
Spin= Alpha
Occup= 0.001914
     1     0.011392
     2     0.043024
     3     0.004485
     4    -0.029328
     5     0.008984
     6     0.024369
     7     0.035039
     8    -0.013227
     9    -0.087683
    10    -0.017646
    11    -0.026832
    12    -0.012198
    13    -0.007292
    14    -0.008656
    15     0.029964
    16     0.006141
    17     0.026182
    18     0.013137
    19     0.004353
    20    -0.018274
    21    -0.137704
    22    -0.002857
    23     0.028478
    24     0.301329
    25    -0.034041
    26     0.013797
    27    -0.012289
    28     0.011307
    29    -0.232571
    30    -0.160085
    31    -0.002290
    32    -0.009911
    33     0.009321
    34     0.000122
    35     0.008113
    36     0.052048
    37     0.004158
    38    -0.014800
    39    -0.143174
    40     0.049553
    41    -0.037187
    42    -0.000929
    43     0.008158
    44    -0.656768
    45    -0.720391
    46    -0.004286
    47     0.001632
    48     0.009202
    49     0.005793
    50     0.015121
Sym=    46a
Ene=   -0.662960E-02
Spin= Alpha
Occup= 0.002550
     1     0.043367
     2     0.165716
     3     0.048372
     4    -0.115049
     5     0.059993
     6    -0.000622
     7     0.109533
     8    -0.058490
     9     0.013896
    10    -0.104276
    11    -0.058687
    12    -0.038016
    13     0.047175
    14     0.057813
    15     0.013061
    16     0.041519
    17     0.154511
    18     0.066024
    19     0.098817
    20    -0.044690
    21     0.018597
    22    -0.125619
    23     0.040594
    24    -0.009065
    25    -0.166741
    26    -0.196962
    27     0.147269
    28     0.021321
    29    -0.395629
    30    -0.840375
    31     0.002521
    32     0.009297
    33    -0.031950
    34     0.017540
    35    -0.005255
    36     0.092480
    37    -0.006490
    38    -0.001829
    39    -0.164292
    40    -0.044055
    41     0.022968
    42     0.010977
    43    -0.013995
    44     0.131317
    45     0.114599
    46     0.010443
    47     0.010819
    48    -0.001894
    49    -0.006544
    50    -0.046199
Sym=    47a
Ene=   -0.232958E-03
Spin= Alpha
Occup= 0.000012
     1    -0.038992
     2    -0.063058
     3     0.147938
     4    -0.021110
     5    -0.038565
     6     0.004809
     7    -0.244389
     8     0.013584
     9    -0.008247
    10     0.151716
    11     0.029600
    12     0.181445
    13     0.044923
    14    -0.000076
    15    -0.000122
    16    -0.069153
    17     0.245539
    18    -2.095839
    19    -0.100258
    20    -0.140310
    21    -0.002405
    22     0.523063
    23     1.086090
    24     0.005821
    25     0.204008
    26     0.153925
    27     0.478364
    28    -0.199546
    29     0.002964
    30    -0.002881
    31    -0.020224
    32    -0.345607
    33     2.225047
    34     0.154320
    35    -0.441034
    36     0.000508
    37     1.378308
    38     0.049837
    39    -0.001790
    40     0.194727
    41     0.562415
    42    -0.425469
    43    -0.321632
    44    -0.001483
    45    -0.001321
    46    -1.517128
    47     0.161012
    48     0.874069
    49    -0.948745
    50     0.000717
Sym=    48a
Ene=   -0.199431E-03
Spin= Alpha
Occup= 0.000010
     1     0.002590
     2     0.041136
     3     0.091301
     4    -0.020531
     5     0.010457
     6     0.002528
     7    -0.104791
     8    -0.210180
     9    -0.004748
    10     0.056449
    11    -0.106616
    12     0.050529
    13     0.108144
    14    -0.000136
    15    -0.000172
    16    -0.042821
    17     0.217832
    18    -1.403501
    19    -0.140076
    20    -0.216968
    21    -0.001505
    22     0.677260
    23     0.960723
    24     0.003278
    25     0.203848
    26     0.044719
    27     0.352161
    28    -0.138415
    29     0.003511
    30    -0.001388
    31     0.094064
    32    -0.214724
    33     1.730355
    34    -0.247890
    35     0.246366
    36    -0.000148
    37     0.544903
    38     0.299180
    39    -0.000143
    40    -0.626159
    41    -0.109279
    42    -0.495917
    43     0.414620
    44    -0.000871
    45    -0.000462
    46    -0.012660
    47    -0.135061
    48     0.078911
    49     0.995476
    50    -0.000087
Sym=    49a
Ene=   -0.128055E-03
Spin= Alpha
Occup= 0.000007
     1     0.019156
     2     0.020598
     3     0.269509
     4     0.050645
     5     0.068210
     6     0.004649
     7    -0.284280
     8    -0.372895
     9    -0.007873
    10     0.014982
    11    -0.184655
    12    -0.039136
    13     0.126775
    14    -0.000603
    15     0.000132
    16    -0.018692
    17     0.360659
    18    -2.016151
    19    -0.149711
    20    -0.119889
    21    -0.002102
    22     1.108761
    23     1.210803
    24     0.004674
    25     0.103913
    26    -0.049293
    27     0.316685
    28    -0.260220
    29     0.004462
    30    -0.001153
    31     0.052738
    32    -0.350838
    33     1.988314
    34    -0.207133
    35    -0.055056
    36     0.000028
    37     1.237228
    38     1.327942
    39    -0.000442
    40     0.172580
    41    -0.557050
    42    -0.420102
    43     0.334278
    44     0.001248
    45     0.000828
    46     0.109614
    47    -0.097934
    48    -0.938140
    49    -0.228389
    50    -0.000251
Sym=    50a
Ene=    0.000000E+00
Spin= Alpha
Occup= 0.000000
     1     0.012184
     2    -0.159151
     3     1.030518
     4     0.021282
     5     0.089333
     6    -0.001061
     7    -0.467588
     8    -0.250961
     9     0.001831
    10    -0.027981
    11    -0.091097
    12    -0.120687
    13     0.021935
    14     0.000518
    15    -0.000086
    16     0.004831
    17     0.061069
    18    -0.470412
    19     0.019079
    20    -0.014725
    21     0.000687
    22    -0.295310
    23     0.394335
    24    -0.001484
    25     0.002384
    26    -0.098859
    27     0.036818
    28     0.028950
    29    -0.000226
    30     0.000704
    31     0.017511
    32    -0.301529
    33     2.264766
    34     0.058398
    35     0.000879
    36    -0.000437
    37     0.633063
    38    -0.906056
    39     0.000782
    40    -0.065006
    41     0.000278
    42    -0.218656
    43    -0.182179
    44     0.000229
    45     0.000243
    46    -0.184722
    47    -2.191745
    48     0.439814
    49    -0.632324
    50     0.000093
