[Molden Format]
p30-5 set                                                                       
[Atoms] AU
 F        1     9        1.0501        2.6162       -0.9335
 O        2     8        1.0501        0.5068        1.0502
 O        3     8       -1.0501       -0.5068        1.0502
 F        4     9       -1.0501       -2.6162       -0.9335
[GTO]
    1 0
s    5 1.00
    2894.832599000000 -0.534932117607E-02
     435.419391200000 -0.399677343716E-01
      98.843328866000 -0.179412617888E+00
      27.485198001000 -0.468324686869E+00
       8.540549817100 -0.447241605328E+00
s    1 1.00
       1.065457803800  0.100000000000E+01
s    1 1.00
       0.332473467480  0.100000000000E+01
p    3 1.00
      22.696633924000 -0.647821482412E-01
       4.987233925700 -0.340357853553E+00
       1.349161395400 -0.734858153660E+00
p    1 1.00
       0.348298819770  0.100000000000E+01
d    1 1.00
       1.400000000000  0.100000000000E+01

    2 0
s    5 1.00
    2266.176778500000 -0.538935039217E-02
     340.870101910000 -0.402347213890E-01
      77.363135167000 -0.180081842055E+00
      21.479644940000 -0.468288576577E+00
       6.658943312400 -0.446926171602E+00
s    1 1.00
       0.809759756680  0.100000000000E+01
s    1 1.00
       0.255307722340  0.100000000000E+01
p    3 1.00
      17.721504317000  0.626302487632E-01
       3.863550544000  0.333311384824E+00
       1.048092088300  0.741486383081E+00
p    1 1.00
       0.276415444110  0.100000000000E+01
d    1 1.00
       1.200000000000  0.100000000000E+01

    3 0
s    5 1.00
    2266.176778500000 -0.538935039217E-02
     340.870101910000 -0.402347213890E-01
      77.363135167000 -0.180081842055E+00
      21.479644940000 -0.468288576577E+00
       6.658943312400 -0.446926171602E+00
s    1 1.00
       0.809759756680  0.100000000000E+01
s    1 1.00
       0.255307722340  0.100000000000E+01
p    3 1.00
      17.721504317000  0.626302487632E-01
       3.863550544000  0.333311384824E+00
       1.048092088300  0.741486383081E+00
p    1 1.00
       0.276415444110  0.100000000000E+01
d    1 1.00
       1.200000000000  0.100000000000E+01

    4 0
s    5 1.00
    2894.832599000000 -0.534932117607E-02
     435.419391200000 -0.399677343716E-01
      98.843328866000 -0.179412617888E+00
      27.485198001000 -0.468324686869E+00
       8.540549817100 -0.447241605328E+00
s    1 1.00
       1.065457803800  0.100000000000E+01
s    1 1.00
       0.332473467480  0.100000000000E+01
p    3 1.00
      22.696633924000 -0.647821482412E-01
       4.987233925700 -0.340357853553E+00
       1.349161395400 -0.734858153660E+00
p    1 1.00
       0.348298819770  0.100000000000E+01
d    1 1.00
       1.400000000000  0.100000000000E+01

[MO]
Sym=     1a
Ene=   -0.260977E+02
Spin= Alpha
Occup= 1.999938
     1     0.689980
     2    -0.027796
     3     0.006833
     4    -0.000030
     5    -0.000466
     6     0.000456
     7    -0.000183
     8    -0.000992
     9     0.000840
    10     0.003936
    11     0.004194
    12     0.004154
    13     0.000028
    14    -0.000015
    15    -0.000285
    16    -0.162041
    17     0.006768
    18    -0.003213
    19    -0.000251
    20     0.000228
    21    -0.000221
    22     0.000315
    23    -0.000851
    24     0.000894
    25    -0.000847
    26    -0.000724
    27    -0.000690
    28    -0.000093
    29     0.000001
    30     0.000178
    31    -0.169995
    32     0.007420
    33    -0.003183
    34     0.000197
    35    -0.000252
    36    -0.000199
    37    -0.000351
    38     0.000765
    39     0.000961
    40    -0.000893
    41    -0.000744
    42    -0.000715
    43    -0.000088
    44     0.000004
    45    -0.000185
    46     0.667265
    47    -0.026921
    48     0.006640
    49     0.000024
    50     0.000438
    51     0.000418
    52     0.000166
    53     0.000991
    54     0.000826
    55     0.003800
    56     0.004054
    57     0.004011
    58     0.000037
    59     0.000017
    60     0.000281
Sym=     2a
Ene=   -0.240348E+02
Spin= Alpha
Occup= 1.999903
     1     0.521350
     2    -0.020875
     3     0.005458
     4    -0.000020
     5    -0.000397
     6     0.000343
     7     0.000096
     8    -0.000632
     9     0.000684
    10     0.003057
    11     0.003236
    12     0.003178
    13    -0.000013
    14    -0.000025
    15    -0.000119
    16    -0.462748
    17     0.018752
    18    -0.009951
    19    -0.001566
    20    -0.000265
    21    -0.000643
    22     0.001816
    23    -0.000109
    24     0.000896
    25    -0.001466
    26    -0.002146
    27    -0.002238
    28     0.000295
    29    -0.000122
    30     0.000230
    31     0.450712
    32    -0.018845
    33     0.009568
    34    -0.001603
    35    -0.000320
    36     0.000564
    37     0.001729
    38    -0.000028
    39    -0.001009
    40     0.001391
    41     0.002072
    42     0.002182
    43    -0.000305
    44    -0.000118
    45     0.000236
    46    -0.536440
    47     0.021572
    48    -0.005518
    49     0.000001
    50    -0.000380
    51    -0.000314
    52     0.000107
    53    -0.000680
    54    -0.000709
    55    -0.003153
    56    -0.003327
    57    -0.003298
    58     0.000010
    59    -0.000028
    60    -0.000135
Sym=     3a
Ene=   -0.232192E+02
Spin= Alpha
Occup= 1.999880
     1     0.441796
     2    -0.017832
     3     0.002565
     4     0.000019
     5    -0.000147
     6     0.000142
     7    -0.000124
     8    -0.000147
     9     0.000079
    10     0.002619
    11     0.002777
    12     0.002786
    13    -0.000002
    14     0.000042
    15    -0.000254
    16     0.515058
    17    -0.020990
    18     0.010101
    19     0.001762
    20     0.000393
    21     0.000493
    22    -0.002392
    23    -0.000909
    24    -0.000498
    25     0.001644
    26     0.002301
    27     0.002428
    28    -0.000345
    29     0.000078
    30    -0.000166
    31    -0.543067
    32     0.022845
    33    -0.010025
    34     0.001815
    35     0.000421
    36    -0.000411
    37    -0.002369
    38    -0.000988
    39     0.000653
    40    -0.001797
    41    -0.002449
    42    -0.002583
    43     0.000329
    44     0.000084
    45    -0.000189
    46    -0.470310
    47     0.018899
    48    -0.002771
    49     0.000006
    50    -0.000183
    51    -0.000180
    52    -0.000124
    53    -0.000095
    54    -0.000081
    55    -0.002799
    56    -0.002968
    57    -0.002960
    58     0.000015
    59     0.000052
    60    -0.000263
Sym=     4a
Ene=   -0.211604E+02
Spin= Alpha
Occup= 1.999857
     1     0.182298
     2    -0.007223
     3    -0.000806
     4     0.000007
     5     0.000108
     6    -0.000096
     7     0.000477
     8     0.000576
     9    -0.000376
    10     0.001301
    11     0.001425
    12     0.001464
    13    -0.000077
    14     0.000051
    15    -0.000140
    16     0.686878
    17    -0.028326
    18     0.006889
    19     0.000452
    20    -0.000269
    21     0.000614
    22    -0.001214
    23     0.000796
    24    -0.000731
    25     0.004079
    26     0.003686
    27     0.003551
    28     0.000345
    29     0.000082
    30    -0.000369
    31     0.670255
    32    -0.028669
    33     0.005790
    34    -0.000178
    35     0.000487
    36     0.000441
    37     0.001107
    38    -0.000685
    39    -0.000938
    40     0.004029
    41     0.003585
    42     0.003457
    43     0.000366
    44    -0.000086
    45     0.000376
    46     0.148604
    47    -0.005749
    48    -0.000899
    49    -0.000030
    50    -0.000061
    51    -0.000067
    52    -0.000435
    53    -0.000626
    54    -0.000370
    55     0.001105
    56     0.001212
    57     0.001238
    58    -0.000088
    59    -0.000056
    60     0.000109
Sym=     5a
Ene=   -0.160387E+01
Spin= Alpha
Occup= 1.993828
     1    -0.000147
     2    -0.000250
     3    -0.000157
     4    -0.000169
     5    -0.000209
     6    -0.000142
     7     0.000029
     8     0.000185
     9    -0.000075
    10    -0.000042
    11     0.000048
    12    -0.000109
    13     0.000004
    14    -0.000007
    15     0.000054
    16    -0.000492
    17    -0.002192
    18    -0.000355
    19     0.001085
    20    -0.003599
    21    -0.004186
    22     0.000959
    23    -0.002222
    24    -0.002799
    25    -0.000242
    26    -0.000135
    27    -0.000007
    28     0.000036
    29    -0.000005
    30     0.000318
    31     0.014762
    32     0.022963
    33     0.002091
    34    -0.000456
    35    -0.020501
    36    -0.020057
    37     0.000492
    38    -0.001422
    39    -0.002158
    40    -0.002725
    41     0.004000
    42     0.003983
    43    -0.000734
    44    -0.000943
    45     0.008083
    46     0.308456
    47     0.626662
    48     0.451889
    49    -0.002193
    50     0.024018
    51     0.026101
    52     0.002515
    53    -0.013971
    54    -0.015773
    55     0.004785
    56     0.007931
    57     0.007044
    58     0.000689
    59     0.000173
    60     0.003264
Sym=     6a
Ene=   -0.160062E+01
Spin= Alpha
Occup= 1.993824
     1     0.308995
     2     0.627878
     3     0.453258
     4     0.005541
     5    -0.026968
     6     0.025748
     7    -0.004803
     8     0.015764
     9    -0.015279
    10     0.005138
    11     0.007634
    12     0.006900
    13     0.000641
    14    -0.000334
    15    -0.003273
    16     0.009498
    17     0.011845
    18    -0.004855
    19    -0.001107
    20     0.021573
    21    -0.018759
    22    -0.001324
    23     0.001885
    24    -0.001441
    25    -0.002957
    26     0.003771
    27     0.003669
    28    -0.000924
    29     0.000907
    30    -0.008089
    31    -0.000542
    32    -0.002044
    33     0.001041
    34    -0.003513
    35     0.002987
    36    -0.003571
    37    -0.001475
    38     0.002231
    39    -0.002501
    40    -0.000558
    41     0.000004
    42     0.000090
    43    -0.000046
    44     0.000082
    45    -0.000302
    46    -0.000145
    47    -0.000259
    48    -0.000182
    49     0.000616
    50     0.000064
    51    -0.000355
    52    -0.000328
    53    -0.000057
    54     0.000067
    55    -0.000051
    56     0.000048
    57    -0.000095
    58    -0.000003
    59    -0.000003
    60    -0.000041
Sym=     7a
Ene=   -0.146822E+01
Spin= Alpha
Occup= 1.992136
     1    -0.026487
     2    -0.059654
     3    -0.066775
     4     0.003655
     5     0.038321
     6    -0.032286
     7    -0.002695
     8    -0.012462
     9     0.010393
    10    -0.003127
    11     0.004070
    12     0.003055
    13    -0.000921
    14     0.000888
    15    -0.007650
    16     0.297498
    17     0.630385
    18     0.397230
    19     0.085996
    20    -0.046093
    21    -0.000578
    22     0.058120
    23    -0.028488
    24     0.003211
    25     0.016730
    26     0.015316
    27     0.012087
    28     0.007165
    29     0.000325
    30    -0.000837
    31     0.029413
    32     0.049945
    33    -0.042497
    34     0.096019
    35     0.047155
    36    -0.026800
    37     0.006390
    38     0.007785
    39    -0.017861
    40     0.015057
    41    -0.004365
    42    -0.005435
    43     0.007661
    44    -0.002136
    45    -0.000978
    46    -0.004717
    47    -0.009980
    48    -0.006902
    49    -0.005614
    50     0.005124
    51     0.005234
    52     0.002973
    53    -0.004498
    54    -0.003661
    55     0.000311
    56    -0.000187
    57    -0.000895
    58     0.000392
    59     0.000286
    60    -0.000546
Sym=     8a
Ene=   -0.136447E+01
Spin= Alpha
Occup= 1.990689
     1    -0.003715
     2    -0.008290
     3    -0.015868
     4     0.001230
     5     0.008415
     6    -0.007954
     7    -0.001455
     8    -0.000981
     9     0.000880
    10    -0.000821
    11     0.001290
    12     0.001457
    13    -0.000316
    14     0.000277
    15    -0.002163
    16     0.031781
    17     0.079457
    18     0.126825
    19     0.098836
    20     0.041051
    21     0.002888
    22     0.010025
    23     0.004367
    24     0.004392
    25    -0.009576
    26     0.005628
    27     0.007767
    28    -0.007320
    29     0.001136
    30     0.000184
    31    -0.301161
    32    -0.636518
    33    -0.421793
    34     0.097955
    35     0.014634
    36    -0.068053
    37     0.052616
    38     0.002819
    39    -0.045325
    40    -0.014560
    41    -0.015840
    42    -0.012690
    43    -0.003489
    44    -0.002964
    45    -0.002070
    46     0.031516
    47     0.069842
    48     0.073764
    49     0.001225
    50     0.037537
    51     0.034650
    52    -0.001283
    53    -0.013105
    54    -0.011052
    55     0.003358
    56    -0.003280
    57    -0.003763
    58     0.001035
    59     0.000922
    60    -0.007845
Sym=     9a
Ene=   -0.739717E+00
Spin= Alpha
Occup= 1.986110
     1    -0.002968
     2    -0.007914
     3     0.001325
     4     0.647162
     5    -0.140694
     6    -0.161576
     7    -0.443108
     8     0.093725
     9     0.112895
    10     0.000050
    11    -0.002793
    12     0.001573
    13     0.006700
    14    -0.006434
    15    -0.000776
    16     0.003644
    17     0.005595
    18     0.021264
    19    -0.008249
    20    -0.011107
    21    -0.011271
    22    -0.019923
    23    -0.017297
    24    -0.002430
    25    -0.000761
    26     0.003175
    27    -0.002697
    28    -0.006426
    29     0.006744
    30    -0.000109
    31    -0.007056
    32    -0.021919
    33    -0.014473
    34     0.000293
    35    -0.020446
    36     0.002692
    37    -0.009137
    38    -0.014350
    39    -0.005708
    40    -0.002067
    41    -0.001092
    42    -0.002084
    43    -0.001019
    44    -0.001058
    45    -0.001995
    46    -0.000706
    47    -0.001105
    48    -0.005083
    49    -0.000102
    50     0.004211
    51     0.004978
    52     0.000615
    53    -0.005980
    54    -0.005257
    55     0.000226
    56    -0.000336
    57     0.000240
    58     0.000150
    59     0.000120
    60    -0.000326
Sym=    10a
Ene=   -0.736175E+00
Spin= Alpha
Occup= 1.986064
     1    -0.001346
     2    -0.001552
     3    -0.011192
     4     0.000113
     5    -0.006977
     6     0.009952
     7     0.000405
     8     0.011584
     9    -0.008438
    10     0.000618
    11     0.000520
    12     0.000716
    13    -0.000024
    14    -0.000169
    15    -0.000390
    16     0.004437
    17     0.010163
    18     0.018194
    19    -0.005427
    20     0.010113
    21    -0.017190
    22    -0.007713
    23     0.007941
    24    -0.014012
    25     0.001814
    26    -0.000228
    27    -0.000792
    28    -0.001534
    29     0.001430
    30     0.000399
    31    -0.001664
    32    -0.002476
    33    -0.011116
    34    -0.010801
    35     0.013295
    36    -0.012088
    37    -0.012616
    38     0.003699
    39    -0.006158
    40    -0.000361
    41     0.009087
    42    -0.008583
    43    -0.000472
    44    -0.001725
    45    -0.001119
    46     0.001191
    47     0.002619
    48     0.001851
    49    -0.099550
    50     0.466151
    51    -0.490654
    52     0.067983
    53    -0.319483
    54     0.335587
    55     0.000400
    56    -0.007996
    57     0.007639
    58     0.000319
    59     0.001243
    60     0.000517
Sym=    11a
Ene=   -0.772807E+00
Spin= Alpha
Occup= 1.984422
     1    -0.002809
     2    -0.006150
     3    -0.007207
     4    -0.014214
     5     0.008387
     6     0.001130
     7     0.013725
     8    -0.014038
     9    -0.011671
    10    -0.000357
    11    -0.005258
    12     0.005695
    13     0.001033
    14    -0.001221
    15    -0.001151
    16     0.028545
    17     0.058370
    18     0.066549
    19    -0.181726
    20     0.426349
    21     0.462843
    22    -0.125535
    23     0.262326
    24     0.290992
    25     0.012602
    26    -0.005989
    27    -0.005886
    28    -0.015722
    29    -0.017803
    30    -0.008511
    31    -0.016385
    32    -0.033057
    33    -0.065294
    34    -0.054702
    35     0.098534
    36     0.125447
    37    -0.032230
    38     0.053824
    39     0.072686
    40    -0.014824
    41     0.014916
    42    -0.000452
    43     0.013598
    44     0.020703
    45     0.009069
    46     0.021649
    47     0.044273
    48     0.071214
    49    -0.007082
    50    -0.038115
    51    -0.029812
    52     0.006702
    53     0.049585
    54     0.041272
    55    -0.000618
    56    -0.001371
    57    -0.000372
    58    -0.001260
    59    -0.000743
    60    -0.001267
Sym=    12a
Ene=   -0.767352E+00
Spin= Alpha
Occup= 1.984002
     1    -0.021120
     2    -0.043268
     3    -0.069540
     4    -0.013993
     5    -0.034272
     6     0.033155
     7     0.011221
     8     0.046257
     9    -0.043184
    10     0.000624
    11     0.001172
    12     0.000218
    13     0.001189
    14    -0.000648
    15    -0.001130
    16     0.007769
    17     0.013464
    18     0.050011
    19    -0.052832
    20     0.110480
    21    -0.118093
    22    -0.027973
    23     0.061745
    24    -0.068735
    25     0.014758
    26    -0.015984
    27    -0.000104
    28    -0.014183
    29     0.020018
    30     0.008719
    31     0.008630
    32     0.020617
    33    -0.004670
    34    -0.221415
    35     0.424626
    36    -0.451232
    37    -0.147590
    38     0.265052
    39    -0.283626
    40    -0.013333
    41     0.008689
    42     0.007674
    43     0.015623
    44    -0.016625
    45    -0.008250
    46    -0.001332
    47    -0.002949
    48    -0.001979
    49    -0.003817
    50     0.017891
    51    -0.021664
    52     0.007533
    53    -0.021447
    54     0.024642
    55    -0.000138
    56     0.005418
    57    -0.004975
    58    -0.001501
    59    -0.001621
    60    -0.000084
Sym=    13a
Ene=   -0.732287E+00
Spin= Alpha
Occup= 1.979835
     1    -0.000252
     2    -0.000330
     3    -0.000337
     4     0.001466
     5     0.001721
     6    -0.001145
     7    -0.000123
     8    -0.001233
     9     0.002165
    10     0.000010
    11     0.000751
    12     0.000065
    13    -0.000156
    14     0.000033
    15    -0.000623
    16     0.013818
    17     0.037826
    18     0.027949
    19    -0.001309
    20    -0.025046
    21    -0.015843
    22    -0.013224
    23    -0.015427
    24    -0.002531
    25     0.003340
    26     0.001732
    27     0.002205
    28     0.000980
    29    -0.000222
    30    -0.001940
    31    -0.005411
    32    -0.008816
    33    -0.031948
    34    -0.005037
    35    -0.014023
    36     0.003331
    37    -0.023320
    38    -0.023287
    39    -0.002717
    40     0.001386
    41     0.000724
    42    -0.001377
    43     0.006772
    44     0.006330
    45    -0.000411
    46     0.001529
    47     0.005244
    48    -0.005618
    49     0.671996
    50     0.069012
    51    -0.067763
    52    -0.463664
    53    -0.051381
    54     0.043489
    55     0.000003
    56    -0.000750
    57     0.002220
    58    -0.007269
    59    -0.006515
    60    -0.000315
Sym=    14a
Ene=   -0.727861E+00
Spin= Alpha
Occup= 1.979744
     1    -0.000863
     2    -0.002679
     3     0.002579
     4     0.209776
     5     0.445196
     6     0.471149
     7    -0.144657
     8    -0.309584
     9    -0.323171
    10    -0.000278
    11     0.007233
    12    -0.007747
    13     0.002977
    14    -0.001833
    15     0.000503
    16     0.001979
    17     0.001912
    18     0.022074
    19    -0.019738
    20     0.019349
    21     0.028171
    22    -0.026170
    23     0.001535
    24     0.018640
    25     0.000111
    26    -0.008954
    27     0.007794
    28    -0.003155
    29     0.000546
    30    -0.001353
    31    -0.009009
    32    -0.023502
    33    -0.027752
    34    -0.008401
    35     0.001241
    36     0.027230
    37    -0.013902
    38     0.002466
    39     0.016320
    40    -0.003648
    41     0.000098
    42    -0.000164
    43     0.001396
    44     0.002014
    45    -0.000137
    46     0.001858
    47     0.002606
    48     0.012212
    49    -0.000027
    50    -0.007131
    51    -0.010457
    52     0.000864
    53     0.011829
    54     0.008711
    55    -0.000614
    56    -0.000842
    57    -0.000639
    58     0.000034
    59    -0.000178
    60    -0.000613
Sym=    15a
Ene=   -0.904096E+00
Spin= Alpha
Occup= 1.966165
     1    -0.006979
     2    -0.020409
     3    -0.009792
     4     0.039901
     5     0.025679
     6    -0.014459
     7    -0.039742
     8    -0.019964
     9     0.007513
    10    -0.002590
    11     0.000364
    12     0.000300
    13    -0.001979
    14     0.001879
    15    -0.003699
    16     0.014369
    17     0.026486
    18     0.151632
    19     0.491755
    20     0.118510
    21     0.023282
    22     0.237660
    23     0.023637
    24     0.021233
    25    -0.032552
    26     0.006591
    27     0.014559
    28    -0.021245
    29    -0.006364
    30    -0.002747
    31     0.005683
    32     0.007396
    33     0.140735
    34    -0.473941
    35    -0.143839
    36     0.038802
    37    -0.228612
    38    -0.039035
    39     0.030314
    40    -0.031369
    41     0.004683
    42     0.013547
    43    -0.022702
    44     0.006226
    45     0.002635
    46    -0.006771
    47    -0.019753
    48    -0.010619
    49    -0.034643
    50    -0.023684
    51    -0.009394
    52     0.036132
    53     0.018181
    54     0.003134
    55    -0.002410
    56     0.000007
    57     0.000505
    58    -0.001810
    59    -0.001733
    60     0.003471
Sym=    16a
Ene=   -0.727060E+00
Spin= Alpha
Occup= 1.955459
     1     0.009420
     2     0.026210
     3     0.060272
     4     0.015537
     5    -0.359710
     6     0.338359
     7    -0.012071
     8     0.242514
     9    -0.228133
    10     0.007763
    11    -0.011858
    12    -0.008805
    13    -0.001074
    14     0.001191
    15     0.020393
    16     0.019318
    17     0.056678
    18     0.057529
    19     0.118258
    20    -0.266911
    21     0.298352
    22     0.100890
    23    -0.152911
    24     0.185362
    25     0.008388
    26    -0.006965
    27    -0.009933
    28     0.005449
    29    -0.007267
    30     0.022862
    31    -0.001816
    32    -0.009197
    33     0.009332
    34    -0.018088
    35     0.101014
    36    -0.097502
    37    -0.019379
    38     0.092107
    39    -0.091552
    40     0.005507
    41    -0.007543
    42    -0.001671
    43    -0.001113
    44     0.005566
    45     0.003257
    46     0.000889
    47     0.002342
    48     0.000718
    49    -0.001343
    50     0.005515
    51    -0.008300
    52     0.001060
    53    -0.007149
    54     0.007636
    55     0.000518
    56     0.001065
    57    -0.001735
    58    -0.000572
    59    -0.000106
    60    -0.000439
Sym=    17a
Ene=   -0.729235E+00
Spin= Alpha
Occup= 1.955373
     1     0.000930
     2     0.002374
     3     0.001102
     4     0.001308
     5    -0.004627
     6    -0.008127
     7    -0.000960
     8     0.006420
     9     0.007666
    10     0.000486
    11     0.001018
    12    -0.001670
    13    -0.000616
    14     0.000141
    15     0.000406
    16    -0.001008
    17    -0.006870
    18     0.009880
    19     0.017513
    20    -0.099528
    21    -0.094416
    22     0.018465
    23    -0.091371
    24    -0.089679
    25     0.005661
    26    -0.007357
    27    -0.001526
    28    -0.001133
    29    -0.005807
    30    -0.003456
    31     0.016670
    32     0.051017
    33     0.053550
    34    -0.115839
    35     0.264719
    36     0.301240
    37    -0.099941
    38     0.151503
    39     0.186867
    40     0.008342
    41    -0.007112
    42    -0.010198
    43     0.005447
    44     0.007544
    45    -0.022806
    46     0.010470
    47     0.028472
    48     0.061863
    49    -0.007436
    50     0.355022
    51     0.343951
    52     0.006514
    53    -0.239135
    54    -0.231836
    55     0.007851
    56    -0.011824
    57    -0.008773
    58    -0.001189
    59    -0.001300
    60    -0.020443
Sym=    18a
Ene=   -0.823625E-01
Spin= Alpha
Occup= 0.043149
     1    -0.000624
     2    -0.000603
     3    -0.005075
     4    -0.004928
     5     0.022366
     6     0.027338
     7     0.000032
     8    -0.002435
     9    -0.005777
    10     0.000378
    11    -0.004133
    12     0.005252
    13     0.000958
    14    -0.000511
    15    -0.000291
    16    -0.003300
    17    -0.014215
    18     0.015135
    19    -0.032737
    20     0.178651
    21     0.182861
    22    -0.010550
    23     0.045100
    24     0.044434
    25    -0.015938
    26     0.010670
    27     0.004033
    28     0.008328
    29     0.015704
    30     0.009335
    31     0.062531
    32     0.163890
    33     0.064840
    34     0.094216
    35    -0.443164
    36    -0.462146
    37     0.020840
    38    -0.109459
    39    -0.111150
    40    -0.015171
    41    -0.016643
    42    -0.014948
    43    -0.002844
    44     0.004300
    45    -0.012899
    46    -0.056951
    47    -0.151564
    48    -0.071960
    49    -0.002957
    50     0.479732
    51     0.451545
    52    -0.001860
    53    -0.058123
    54    -0.053261
    55     0.001738
    56     0.027148
    57     0.024650
    58    -0.000231
    59    -0.000138
    60     0.027618
Sym=    19a
Ene=   -0.822038E-01
Spin= Alpha
Occup= 0.043050
     1    -0.057318
     2    -0.153395
     3    -0.069977
     4     0.004166
     5    -0.479049
     6     0.451983
     7     0.002544
     8     0.057894
     9    -0.053323
    10     0.001907
    11     0.026801
    12     0.025321
    13    -0.000351
    14     0.000138
    15    -0.027372
    16     0.061754
    17     0.161401
    18     0.064869
    19    -0.092756
    20     0.447168
    21    -0.461565
    22    -0.020548
    23     0.108766
    24    -0.110630
    25    -0.014298
    26    -0.016140
    27    -0.015174
    28    -0.002623
    29    -0.004640
    30     0.012456
    31    -0.000949
    32    -0.004274
    33     0.009001
    34     0.031897
    35    -0.174648
    36     0.179056
    37     0.014914
    38    -0.048918
    39     0.047375
    40    -0.017001
    41     0.009965
    42     0.002950
    43     0.008685
    44    -0.015757
    45    -0.009531
    46    -0.000712
    47    -0.001210
    48    -0.003840
    49     0.005177
    50    -0.023424
    51     0.028719
    52    -0.000722
    53     0.001007
    54    -0.005089
    55     0.000311
    56    -0.004037
    57     0.005029
    58     0.001354
    59     0.000950
    60     0.000240
Sym=    20a
Ene=   -0.594079E-01
Spin= Alpha
Occup= 0.031678
     1    -0.003316
     2    -0.010261
     3    -0.002549
     4     0.053727
     5     0.018128
     6     0.010759
     7     0.003180
     8    -0.004020
     9     0.001169
    10     0.001716
    11    -0.001884
    12     0.004815
    13    -0.007585
    14     0.007376
    15    -0.001116
    16    -0.136515
    17    -0.406291
    18    -0.143653
    19     0.662597
    20     0.299294
    21     0.010596
    22     0.104186
    23     0.073910
    24     0.000744
    25     0.073477
    26     0.034886
    27     0.032962
    28     0.017531
    29     0.009789
    30    -0.021307
    31     0.137862
    32     0.413150
    33     0.138376
    34     0.660292
    35     0.302422
    36    -0.010854
    37     0.104731
    38     0.073884
    39     0.000740
    40    -0.071895
    41    -0.037059
    42    -0.035238
    43    -0.014364
    44     0.010253
    45    -0.019898
    46     0.004005
    47     0.012584
    48     0.002637
    49     0.051103
    50     0.016776
    51    -0.013416
    52     0.000575
    53    -0.002360
    54    -0.001591
    55    -0.002028
    56     0.002010
    57    -0.005206
    58     0.006848
    59     0.006678
    60    -0.001014
Sym=    21a
Ene=   -0.181141E-01
Spin= Alpha
Occup= 0.010685
     1    -0.002347
     2    -0.008354
     3    -0.004062
     4     0.366860
     5     0.579842
     6     0.597714
     7     0.404562
     8     0.657932
     9     0.675494
    10     0.010002
    11    -0.016512
    12     0.017400
    13    -0.012389
    14     0.013593
    15     0.005399
    16     0.013099
    17     0.071854
    18    -0.069713
    19    -0.070801
    20    -0.082530
    21    -0.057291
    22     0.069591
    23     0.019657
    24    -0.034140
    25     0.012523
    26     0.061051
    27    -0.103352
    28     0.025904
    29    -0.005416
    30     0.018110
    31     0.018942
    32     0.076256
    33     0.022838
    34     0.000276
    35     0.008514
    36     0.013576
    37    -0.012787
    38     0.023312
    39    -0.055130
    40     0.018678
    41    -0.022464
    42    -0.037885
    43    -0.005015
    44    -0.015528
    45     0.010374
    46    -0.002912
    47    -0.011731
    48    -0.003392
    49     0.007467
    50    -0.007344
    51    -0.007684
    52     0.020129
    53    -0.009030
    54    -0.016782
    55     0.006953
    56     0.008871
    57    -0.001156
    58    -0.001489
    59    -0.000058
    60     0.001100
Sym=    22a
Ene=   -0.186157E-01
Spin= Alpha
Occup= 0.011068
     1     0.001793
     2     0.012949
     3    -0.020647
     4     0.003422
     5    -0.000974
     6     0.005807
     7     0.017325
     8     0.012796
     9     0.004099
    10    -0.001736
    11    -0.009218
    12     0.001580
    13     0.004755
    14    -0.003168
    15     0.002779
    16    -0.030662
    17    -0.131437
    18     0.018558
    19    -0.013684
    20     0.035255
    21     0.043836
    22    -0.002394
    23     0.011639
    24     0.001253
    25     0.003949
    26     0.033618
    27     0.032509
    28    -0.011756
    29    -0.004445
    30     0.023327
    31     0.001200
    32    -0.015433
    33     0.045653
    34    -0.141450
    35    -0.052732
    36     0.031920
    37     0.068593
    38     0.067606
    39    -0.001324
    40    -0.027587
    41    -0.011599
    42     0.024910
    43    -0.061585
    44    -0.042045
    45     0.015385
    46     0.002849
    47     0.009291
    48     0.010659
    49     0.871414
    50     0.173150
    51    -0.178317
    52     0.967783
    53     0.193019
    54    -0.190018
    55    -0.008857
    56     0.011324
    57    -0.017886
    58     0.022742
    59     0.021667
    60     0.004540
Sym=    23a
Ene=   -0.961922E-02
Spin= Alpha
Occup= 0.004933
     1    -0.024737
     2    -0.088627
     3    -0.057740
     4     0.048740
     5    -0.025601
     6     0.065963
     7     0.076072
     8     0.014957
     9     0.055756
    10     0.077219
    11     0.036256
    12    -0.012413
    13     0.022640
    14    -0.011787
    15     0.084526
    16    -0.007093
    17    -0.061410
    18     0.060466
    19     0.087002
    20    -0.141587
    21     0.167339
    22    -0.096068
    23     0.171469
    24    -0.183835
    25     0.144828
    26    -0.200436
    27     0.037980
    28    -0.140481
    29     0.197466
    30     0.098271
    31    -0.064985
    32    -0.256167
    33     0.015707
    34    -0.098936
    35     0.151005
    36     0.006204
    37     0.190292
    38    -0.253385
    39     0.150257
    40    -0.357264
    41     0.333080
    42     0.276211
    43     0.408228
    44    -0.483561
    45    -0.125471
    46     0.014652
    47     0.059986
    48    -0.041819
    49    -0.030111
    50     0.127650
    51     0.067273
    52    -0.072600
    53     0.161728
    54     0.025411
    55    -0.075391
    56    -0.036822
    57     0.038956
    58     0.054536
    59     0.033579
    60     0.062667
Sym=    24a
Ene=   -0.153669E-01
Spin= Alpha
Occup= 0.009326
     1     0.000254
     2    -0.021966
     3     0.080394
     4     0.012761
     5     0.056648
     6    -0.028871
     7    -0.040067
     8     0.128456
     9     0.113827
    10     0.015749
    11     0.080281
    12    -0.087404
    13    -0.014546
    14     0.017133
    15     0.025504
    16     0.240126
    17     1.014881
    18    -0.489510
    19    -0.174753
    20     0.523497
    21     0.574438
    22     0.320935
    23    -0.561583
    24    -0.658476
    25    -0.215125
    26    -0.267380
    27    -0.329013
    28     0.041999
    29     0.043649
    30    -0.022367
    31     0.082954
    32     0.299738
    33     0.127314
    34    -0.035174
    35     0.161629
    36     0.196014
    37     0.065106
    38    -0.059295
    39    -0.106837
    40     0.021176
    41    -0.139282
    42    -0.128645
    43    -0.027893
    44    -0.073979
    45    -0.063851
    46     0.004045
    47     0.041903
    48    -0.117682
    49    -0.024825
    50    -0.043092
    51    -0.026963
    52    -0.097079
    53    -0.107552
    54    -0.057265
    55     0.018138
    56    -0.015026
    57    -0.017553
    58     0.031265
    59     0.021376
    60    -0.021181
Sym=    25a
Ene=   -0.253366E-01
Spin= Alpha
Occup= 0.010069
     1    -0.003118
     2    -0.017064
     3     0.020902
     4    -0.001926
     5    -0.007339
     6    -0.002788
     7    -0.007156
     8    -0.023300
     9    -0.002320
    10     0.002169
    11     0.002903
    12     0.004180
    13    -0.000176
    14     0.000640
    15    -0.003560
    16     0.024553
    17     0.105666
    18    -0.069923
    19     0.006350
    20    -0.037351
    21    -0.019299
    22     0.007523
    23     0.027214
    24     0.023353
    25    -0.011318
    26    -0.015514
    27    -0.027519
    28     0.021333
    29     0.022851
    30    -0.007164
    31     0.104871
    32     0.392973
    33    -0.039897
    34    -0.026327
    35    -0.101396
    36    -0.069271
    37     0.018943
    38     0.013376
    39    -0.007969
    40    -0.064307
    41    -0.111861
    42    -0.110927
    43    -0.000754
    44    -0.002749
    45    -0.058122
    46     0.569605
    47     2.198449
    48    -0.757099
    49    -0.001148
    50     0.056196
    51     0.043364
    52     0.003851
    53     0.065731
    54     0.050867
    55    -0.591833
    56    -0.621944
    57    -0.607909
    58    -0.005034
    59     0.008978
    60    -0.040926
Sym=    26a
Ene=   -0.252001E-01
Spin= Alpha
Occup= 0.010041
     1     0.568092
     2     2.198590
     3    -0.777993
     4    -0.011827
     5    -0.055746
     6     0.057401
     7    -0.006998
     8    -0.067980
     9     0.055645
    10    -0.586060
    11    -0.619393
    12    -0.601701
    13     0.001347
    14    -0.012708
    15     0.040278
    16     0.098199
    17     0.358328
    18    -0.004945
    19     0.054266
    20     0.048407
    21    -0.101680
    22    -0.060488
    23     0.039061
    24     0.033260
    25    -0.062518
    26    -0.111903
    27    -0.099216
    28    -0.007098
    29     0.011702
    30     0.075433
    31     0.009975
    32     0.048420
    33    -0.071873
    34     0.008744
    35     0.000926
    36    -0.008347
    37    -0.027111
    38     0.000186
    39     0.003933
    40     0.001549
    41     0.000934
    42    -0.006629
    43     0.014922
    44    -0.017987
    45     0.012762
    46    -0.003350
    47    -0.019077
    48     0.026443
    49     0.007314
    50     0.009119
    51     0.001786
    52     0.020794
    53     0.023102
    54     0.007983
    55     0.000199
    56     0.007275
    57     0.002433
    58    -0.003615
    59    -0.003055
    60     0.004402
Sym=    27a
Ene=   -0.178045E-01
Spin= Alpha
Occup= 0.005975
     1    -0.015634
     2    -0.047142
     3    -0.044172
     4    -0.022830
     5    -0.034004
     6    -0.012096
     7    -0.027540
     8    -0.041884
     9    -0.059813
    10     0.006768
    11     0.006356
    12     0.055338
    13     0.009349
    14    -0.012308
    15    -0.011460
    16    -0.017538
    17    -0.127933
    18     0.275754
    19    -0.063613
    20    -0.170556
    21    -0.043526
    22    -0.133622
    23     0.132265
    24     0.104434
    25     0.052070
    26     0.037431
    27     0.070867
    28    -0.011255
    29     0.043412
    30     0.028919
    31     0.644340
    32     2.587048
    33    -0.832064
    34    -0.208799
    35    -0.086265
    36     0.102490
    37     0.104335
    38     0.003900
    39    -0.110745
    40    -0.888254
    41    -0.827803
    42    -0.832418
    43     0.050793
    44    -0.044383
    45    -0.009151
    46    -0.096786
    47    -0.406652
    48     0.232666
    49    -0.016369
    50    -0.087245
    51    -0.067251
    52    -0.030673
    53    -0.023542
    54     0.014650
    55     0.158234
    56     0.124014
    57     0.109387
    58     0.010935
    59     0.003162
    60    -0.044981
Sym=    28a
Ene=   -0.852894E-02
Spin= Alpha
Occup= 0.003392
     1    -0.030572
     2    -0.090089
     3    -0.047387
     4     0.014255
     5     0.238602
     6    -0.189202
     7     0.029646
     8     0.304705
     9    -0.200469
    10     0.191579
    11     0.072359
    12    -0.072664
    13     0.012182
    14     0.012681
    15     0.253084
    16     0.006793
    17    -0.052205
    18     0.325816
    19    -0.022153
    20     0.222832
    21    -0.114254
    22    -0.068784
    23    -0.211306
    24    -0.026143
    25    -0.228329
    26     0.019899
    27     0.155960
    28    -0.323471
    29    -0.371242
    30     0.585194
    31     0.046638
    32     0.154526
    33    -0.113679
    34     0.082316
    35     0.006444
    36     0.015362
    37    -0.063018
    38     0.064236
    39    -0.005200
    40    -0.162196
    41    -0.010315
    42    -0.009814
    43    -0.109958
    44     0.011779
    45     0.088625
    46     0.039874
    47     0.139762
    48     0.017511
    49    -0.062380
    50     0.014436
    51     0.039824
    52    -0.106447
    53     0.007564
    54     0.056078
    55    -0.096358
    56    -0.064216
    57    -0.041079
    58     0.017743
    59     0.023127
    60     0.025173
Sym=    29a
Ene=   -0.772360E-02
Spin= Alpha
Occup= 0.002805
     1     0.002430
     2    -0.008974
     3     0.026397
     4    -0.080812
     5    -0.081248
     6     0.084199
     7    -0.144618
     8    -0.116702
     9     0.105412
    10     0.035845
    11    -0.013055
    12    -0.061816
    13    -0.656953
    14     0.638571
    15     0.090518
    16     0.011401
    17     0.078026
    18    -0.150621
    19    -0.103886
    20    -0.141454
    21     0.046369
    22     0.184580
    23     0.164076
    24    -0.015938
    25    -0.058921
    26    -0.083256
    27     0.092138
    28     0.148926
    29    -0.101713
    30     0.075213
    31     0.003609
    32     0.040021
    33     0.084141
    34     0.050818
    35    -0.006851
    36    -0.005338
    37    -0.010506
    38     0.050449
    39     0.016903
    40    -0.067504
    41     0.020180
    42     0.043157
    43     0.018950
    44    -0.010009
    45    -0.045691
    46    -0.005365
    47    -0.033581
    48     0.048175
    49     0.025559
    50     0.000846
    51     0.010548
    52     0.049800
    53     0.017680
    54     0.033686
    55     0.018639
    56     0.007808
    57    -0.013594
    58    -0.011760
    59    -0.014341
    60    -0.005532
Sym=    30a
Ene=   -0.970245E-02
Spin= Alpha
Occup= 0.003362
     1     0.001048
     2     0.008447
     3    -0.021184
     4    -0.000917
     5    -0.001539
     6     0.003930
     7    -0.000418
     8     0.009987
     9    -0.005296
    10    -0.001441
    11    -0.002379
    12     0.001455
    13     0.000273
    14     0.000880
    15    -0.002477
    16     0.000606
    17    -0.007985
    18     0.051762
    19     0.007039
    20    -0.004736
    21     0.009795
    22    -0.025050
    23     0.005561
    24    -0.024561
    25    -0.012928
    26     0.005161
    27    -0.006489
    28     0.004603
    29    -0.014493
    30    -0.003265
    31    -0.001976
    32    -0.003753
    33    -0.031259
    34     0.005342
    35    -0.008109
    36    -0.017419
    37    -0.023233
    38    -0.004500
    39     0.021176
    40     0.016893
    41    -0.004281
    42     0.003271
    43    -0.005360
    44     0.009089
    45    -0.001470
    46     0.005451
    47     0.017032
    48     0.010212
    49     0.000557
    50    -0.011897
    51    -0.010060
    52     0.002264
    53    -0.010903
    54    -0.009325
    55    -0.374436
    56     0.170703
    57     0.175888
    58     0.617087
    59    -0.657721
    60    -0.226507
Sym=    31a
Ene=   -0.148942E-02
Spin= Alpha
Occup= 0.000068
     1     0.013936
     2     0.049733
     3     0.008943
     4    -0.038774
     5     0.123076
     6     0.021347
     7    -0.064551
     8     0.196987
     9     0.068763
    10    -0.017243
    11    -0.387073
    12     0.328983
    13     0.073186
    14    -0.086484
    15     0.011712
    16    -0.031119
    17    -0.102787
    18    -0.045403
    19    -0.061628
    20     0.061136
    21     0.008931
    22     0.078226
    23    -0.100917
    24    -0.068355
    25     0.126497
    26    -0.437611
    27     0.552009
    28     0.279706
    29    -0.093436
    30    -0.005136
    31    -0.009059
    32    -0.029657
    33    -0.003854
    34    -0.055770
    35    -0.012094
    36     0.148598
    37    -0.000243
    38     0.071309
    39    -0.190630
    40    -0.103388
    41    -0.289613
    42     0.381344
    43     0.104719
    44     0.246361
    45    -0.036408
    46     0.011755
    47     0.026831
    48     0.023596
    49     0.029612
    50     0.003036
    51     0.126803
    52     0.046323
    53    -0.040376
    54     0.188444
    55    -0.032123
    56    -0.299765
    57     0.234191
    58     0.166373
    59     0.148706
    60     0.013092
Sym=    32a
Ene=   -0.124910E-02
Spin= Alpha
Occup= 0.000055
     1    -0.011132
     2    -0.045082
     3    -0.027013
     4    -0.005526
     5    -0.252286
     6     0.234078
     7     0.002565
     8    -0.284952
     9     0.267974
    10     0.145617
    11    -0.038412
    12    -0.094305
    13     0.087310
    14    -0.032607
    15     0.242601
    16     0.001975
    17    -0.018656
    18     0.065376
    19     0.135938
    20    -0.078496
    21     0.230383
    22    -0.115590
    23     0.033926
    24    -0.239278
    25    -0.306863
    26     0.189903
    27    -0.051588
    28    -0.170558
    29    -0.185799
    30    -0.058004
    31     0.008858
    32     0.044023
    33    -0.019637
    34     0.171569
    35    -0.102536
    36    -0.228369
    37    -0.159904
    38     0.075237
    39     0.199978
    40     0.246825
    41    -0.498773
    42     0.357815
    43     0.237962
    44    -0.153921
    45     0.027022
    46     0.010290
    47     0.054008
    48    -0.005841
    49     0.014795
    50    -0.291490
    51    -0.178451
    52     0.034677
    53    -0.369516
    54    -0.187583
    55    -0.111149
    56    -0.085130
    57     0.192223
    58    -0.048105
    59    -0.002056
    60     0.156210
Sym=    33a
Ene=   -0.108038E-02
Spin= Alpha
Occup= 0.000045
     1     0.035089
     2     0.133811
     3     0.007915
     4     0.042231
     5     0.095824
     6    -0.056624
     7     0.070445
     8     0.173737
     9    -0.096495
    10     0.009800
    11    -0.207923
    12    -0.019855
    13    -0.093376
    14     0.088408
    15     0.165497
    16     0.040984
    17     0.101884
    18     0.153864
    19    -0.182278
    20     0.116793
    21    -0.114711
    22     0.132522
    23    -0.112831
    24     0.066771
    25    -0.050669
    26    -0.212914
    27     0.076164
    28    -0.319425
    29     0.311214
    30    -0.406053
    31     0.043912
    32     0.100887
    33     0.192067
    34     0.121300
    35    -0.074472
    36    -0.038006
    37    -0.074147
    38     0.092425
    39    -0.011911
    40    -0.186569
    41    -0.252635
    42     0.171632
    43    -0.335769
    44    -0.258693
    45     0.415029
    46     0.030848
    47     0.115355
    48     0.000442
    49    -0.039117
    50    -0.011022
    51     0.038739
    52    -0.070199
    53    -0.081449
    54     0.018586
    55     0.072655
    56    -0.229384
    57    -0.056508
    58    -0.083708
    59    -0.089598
    60    -0.247801
Sym=    34a
Ene=   -0.854872E-03
Spin= Alpha
Occup= 0.000033
     1     0.001612
     2    -0.010960
     3     0.014963
     4    -0.071502
     5    -0.044580
     6     0.015144
     7    -0.133250
     8    -0.074271
     9     0.015811
    10    -0.066526
    11     0.079475
    12    -0.037058
    13     0.114483
    14    -0.107434
    15    -0.079684
    16    -0.023142
    17    -0.110353
    18     0.024007
    19    -0.229322
    20    -0.180184
    21     0.092223
    22     0.020105
    23     0.068854
    24    -0.065718
    25     0.581937
    26     0.045708
    27    -0.274327
    28     0.559689
    29    -0.359185
    30     0.100634
    31     0.020086
    32     0.101392
    33    -0.032015
    34    -0.238642
    35    -0.168378
    36    -0.085926
    37     0.027718
    38     0.053033
    39     0.059691
    40    -0.573951
    41    -0.074321
    42     0.310149
    43    -0.531318
    44    -0.328466
    45     0.076731
    46    -0.015595
    47    -0.023424
    48    -0.063427
    49    -0.061098
    50    -0.034944
    51     0.004982
    52    -0.117946
    53    -0.061466
    54     0.012195
    55     0.109064
    56    -0.028417
    57     0.049724
    58    -0.121137
    59    -0.113683
    60    -0.085337
Sym=    35a
Ene=   -0.473953E-02
Spin= Alpha
Occup= 0.001477
     1    -0.004456
     2    -0.028747
     3     0.049201
     4    -0.020412
     5     0.024165
     6     0.001027
     7    -0.036822
     8     0.014567
     9     0.026182
    10     0.029036
    11    -0.014630
    12    -0.001202
    13     0.047265
    14    -0.043378
    15     0.020315
    16    -0.004651
    17     0.001220
    18     0.072495
    19    -0.020146
    20     0.046796
    21    -0.020923
    22    -0.020725
    23    -0.073635
    24     0.024614
    25    -0.065446
    26     0.038559
    27     0.053831
    28     0.003467
    29    -0.015556
    30     0.060590
    31     0.008963
    32     0.050957
    33    -0.142914
    34     0.044870
    35     0.175173
    36     0.064779
    37    -0.098192
    38    -0.191297
    39    -0.029298
    40    -0.087780
    41    -0.195538
    42     0.236167
    43     0.243091
    44     0.159462
    45    -0.140779
    46    -0.001746
    47    -0.033018
    48     0.045225
    49     0.061716
    50     0.113213
    51     0.138094
    52     0.112239
    53     0.152702
    54     0.182543
    55     0.128075
    56     0.106339
    57    -0.274838
    58    -0.553267
    59    -0.528168
    60    -0.217310
Sym=    36a
Ene=   -0.482649E-02
Spin= Alpha
Occup= 0.001492
     1    -0.009918
     2    -0.049960
     3     0.040094
     4    -0.001296
     5    -0.081406
     6    -0.027685
     7    -0.015913
     8    -0.138309
     9    -0.033865
    10     0.100889
    11    -0.728710
    12     0.655998
    13    -0.021922
    14     0.055822
    15     0.128903
    16    -0.005806
    17    -0.004274
    18    -0.118453
    19    -0.066768
    20     0.009245
    21     0.048077
    22     0.133511
    23     0.001442
    24    -0.053899
    25     0.160168
    26     0.328607
    27    -0.442719
    28    -0.168406
    29    -0.069988
    30     0.056302
    31    -0.013828
    32    -0.055411
    33     0.095091
    34    -0.033310
    35     0.057140
    36     0.058056
    37     0.078980
    38    -0.044370
    39    -0.048458
    40    -0.005232
    41     0.071663
    42    -0.021222
    43    -0.025448
    44    -0.008082
    45    -0.079161
    46     0.001539
    47     0.001589
    48    -0.010823
    49    -0.015819
    50     0.056530
    51     0.023691
    52    -0.033007
    53     0.060022
    54     0.015560
    55     0.015415
    56     0.019199
    57    -0.057840
    58     0.024838
    59     0.019863
    60    -0.027694
Sym=    37a
Ene=   -0.602358E-02
Spin= Alpha
Occup= 0.002157
     1     0.025354
     2     0.091876
     3    -0.060426
     4     0.048827
     5    -0.230096
     6     0.261549
     7     0.099157
     8    -0.213581
     9     0.290842
    10    -0.142703
    11     0.005198
    12    -0.021756
    13    -0.021362
    14     0.002241
    15    -0.195866
    16     0.050612
    17     0.167687
    18    -0.051954
    19     0.080993
    20    -0.212162
    21     0.272837
    22    -0.210738
    23     0.131693
    24    -0.237873
    25    -0.350056
    26     0.056391
    27     0.013180
    28    -0.208712
    29    -0.173611
    30    -0.174058
    31     0.034229
    32     0.103159
    33    -0.045442
    34    -0.071942
    35     0.224396
    36     0.249218
    37     0.202519
    38    -0.149171
    39    -0.206156
    40    -0.324384
    41     0.079271
    42     0.044483
    43    -0.197483
    44     0.184742
    45     0.152888
    46     0.029979
    47     0.108321
    48    -0.060165
    49    -0.046874
    50     0.227035
    51     0.248908
    52    -0.096625
    53     0.213775
    54     0.272717
    55    -0.163727
    56    -0.031414
    57     0.014420
    58    -0.020989
    59    -0.017666
    60     0.162720
Sym=    38a
Ene=   -0.167300E-01
Spin= Alpha
Occup= 0.009572
     1    -0.013307
     2    -0.057784
     3     0.049826
     4    -0.826249
     5     0.263522
     6     0.260939
     7    -0.932274
     8     0.294688
     9     0.314861
    10     0.008741
    11     0.017278
    12     0.015573
    13     0.020690
    14    -0.023318
    15    -0.004902
    16     0.026522
    17     0.101773
    18    -0.043708
    19     0.127396
    20     0.029222
    21    -0.025334
    22    -0.037651
    23    -0.083577
    24    -0.021509
    25    -0.047370
    26     0.033413
    27    -0.075366
    28    -0.062790
    29     0.052076
    30    -0.018010
    31    -0.004551
    32    -0.029926
    33     0.022884
    34    -0.028621
    35     0.036083
    36     0.001310
    37     0.064910
    38    -0.083502
    39     0.035614
    40    -0.005129
    41     0.008601
    42    -0.003891
    43    -0.020342
    44    -0.008567
    45    -0.032984
    46     0.000400
    47     0.008273
    48    -0.029796
    49    -0.008469
    50    -0.007886
    51    -0.003381
    52    -0.029521
    53    -0.012724
    54    -0.029237
    55     0.004095
    56    -0.011994
    57     0.008091
    58     0.013145
    59     0.012416
    60    -0.004442
Sym=    39a
Ene=   -0.160187E-01
Spin= Alpha
Occup= 0.009097
     1     0.001599
     2    -0.001563
     3     0.039470
     4    -0.004086
     5    -0.001904
     6     0.013370
     7    -0.021079
     8    -0.014532
     9     0.040278
    10    -0.012593
    11     0.002826
    12     0.002741
    13    -0.008477
    14     0.006321
    15    -0.006478
    16    -0.010069
    17    -0.031533
    18    -0.049967
    19    -0.030240
    20     0.056820
    21    -0.042205
    22     0.032185
    23    -0.049260
    24     0.039919
    25    -0.020846
    26     0.022481
    27     0.035241
    28     0.026092
    29    -0.026832
    30    -0.024860
    31     0.008704
    32     0.028261
    33     0.024732
    34    -0.034342
    35     0.019024
    36    -0.008749
    37     0.105004
    38    -0.113456
    39     0.114849
    40    -0.016164
    41    -0.118802
    42     0.100297
    43     0.013623
    44     0.036108
    45     0.004111
    46    -0.003514
    47    -0.011850
    48    -0.002934
    49    -0.254851
    50     0.593933
    51    -0.635865
    52    -0.306825
    53     0.687678
    54    -0.743718
    55     0.001000
    56     0.013360
    57    -0.001099
    58     0.011430
    59     0.010964
    60     0.000870
Sym=    40a
Ene=   -0.158465E-01
Spin= Alpha
Occup= 0.011065
     1     0.001905
     2    -0.023987
     3     0.123841
     4     0.024513
     5    -0.022592
     6     0.012133
     7    -0.069780
     8    -0.097471
     9     0.049182
    10    -0.029673
    11     0.009325
    12     0.028498
    13    -0.031361
    14     0.016556
    15    -0.026610
    16    -0.039260
    17    -0.131854
    18    -0.104551
    19    -0.101897
    20     0.207860
    21    -0.174640
    22     0.064841
    23    -0.107681
    24     0.089360
    25    -0.037216
    26     0.110490
    27     0.069955
    28     0.054014
    29    -0.071853
    30    -0.072512
    31     0.052109
    32     0.197823
    33    -0.002539
    34    -0.328345
    35     0.573637
    36    -0.575776
    37     0.429274
    38    -0.630256
    39     0.650388
    40    -0.061157
    41    -0.084809
    42    -0.042362
    43    -0.043701
    44     0.043869
    45    -0.012501
    46     0.003090
    47     0.011090
    48    -0.006343
    49     0.018207
    50    -0.060729
    51     0.051600
    52    -0.056067
    53     0.038694
    54    -0.056768
    55     0.001503
    56    -0.066558
    57     0.058339
    58     0.035533
    59     0.036469
    60    -0.000151
Sym=    41a
Ene=   -0.146001E-01
Spin= Alpha
Occup= 0.006252
     1     0.066410
     2     0.290370
     3    -0.209348
     4    -0.008256
     5    -0.077984
     6     0.098979
     7    -0.010669
     8     0.004003
     9     0.064639
    10    -0.109880
    11    -0.079965
    12    -0.068752
    13     0.008864
    14    -0.001832
    15    -0.027167
    16    -0.473477
    17    -1.922074
    18     0.634525
    19    -0.176796
    20     0.100192
    21     0.160057
    22     0.081707
    23    -0.109134
    24    -0.120527
    25     0.312796
    26     0.796342
    27     0.705118
    28     0.161133
    29     0.258733
    30     0.195800
    31    -0.031172
    32    -0.135933
    33    -0.029322
    34    -0.104026
    35     0.076482
    36     0.221731
    37    -0.008487
    38    -0.076737
    39    -0.233838
    40     0.117684
    41    -0.108299
    42     0.015680
    43    -0.140265
    44    -0.158845
    45    -0.086703
    46     0.023261
    47     0.101704
    48    -0.111948
    49    -0.092809
    50     0.001307
    51     0.067459
    52    -0.170479
    53    -0.069745
    54     0.069044
    55     0.020858
    56    -0.044019
    57    -0.072518
    58     0.039622
    59     0.027255
    60    -0.064494
Sym=    42a
Ene=   -0.972948E-02
Spin= Alpha
Occup= 0.003867
     1     0.001538
     2     0.000104
     3     0.023059
     4    -0.001213
     5    -0.001413
     6    -0.000115
     7    -0.008538
     8    -0.012466
     9     0.007970
    10    -0.002446
    11     0.003481
    12    -0.013211
    13    -0.001582
    14     0.000132
    15     0.003754
    16    -0.007549
    17    -0.000257
    18    -0.154247
    19    -0.019846
    20    -0.000979
    21     0.002226
    22     0.091861
    23     0.026736
    24     0.013749
    25     0.026391
    26     0.028645
    27     0.014812
    28     0.000362
    29     0.005774
    30     0.006390
    31     0.001005
    32    -0.016187
    33     0.141384
    34    -0.006920
    35     0.010789
    36     0.019690
    37     0.070334
    38     0.013767
    39    -0.035203
    40     0.000542
    41     0.004453
    42    -0.028496
    43    -0.011624
    44     0.006022
    45    -0.026878
    46    -0.014253
    47    -0.045791
    48    -0.023591
    49     0.001192
    50     0.014028
    51     0.010256
    52    -0.001193
    53     0.007954
    54     0.004827
    55    -0.724670
    56     0.330959
    57     0.462085
    58    -0.305962
    59     0.296960
    60    -0.497365
Sym=    43a
Ene=   -0.970820E-02
Spin= Alpha
Occup= 0.003848
     1     0.009907
     2     0.032531
     3     0.012225
     4    -0.000527
     5     0.011869
     6    -0.009736
     7    -0.001907
     8     0.011300
     9    -0.009648
    10    -0.234049
    11     0.103621
    12     0.081890
    13     0.671482
    14     0.701090
    15     0.080727
    16    -0.000906
    17     0.006719
    18    -0.069191
    19    -0.003333
    20     0.004023
    21    -0.015015
    22     0.035071
    23     0.013709
    24     0.025622
    25     0.011805
    26    -0.005473
    27     0.008362
    28     0.001595
    29     0.000066
    30    -0.021019
    31     0.002163
    32    -0.009033
    33     0.088490
    34    -0.014429
    35     0.008422
    36     0.013186
    37     0.050440
    38    -0.004843
    39    -0.032334
    40    -0.019125
    41    -0.002101
    42    -0.007596
    43     0.005475
    44     0.016189
    45     0.004556
    46     0.000130
    47     0.007077
    48    -0.029974
    49     0.000931
    50     0.002941
    51     0.006099
    52    -0.001201
    53    -0.012359
    54    -0.005854
    55    -0.001402
    56     0.001564
    57     0.003330
    58    -0.000207
    59    -0.001140
    60     0.004698
Sym=    44a
Ene=   -0.837247E-02
Spin= Alpha
Occup= 0.003336
     1    -0.028278
     2    -0.097515
     3    -0.005440
     4    -0.081858
     5     0.024504
     6    -0.059678
     7    -0.133606
     8     0.010292
     9    -0.076741
    10     0.052534
    11     0.026515
    12     0.071889
    13     0.000649
    14    -0.000066
    15     0.000285
    16    -0.050188
    17    -0.160361
    18     0.109175
    19     0.064605
    20     0.046918
    21    -0.065963
    22    -0.047009
    23     0.018849
    24     0.056709
    25     0.126274
    26     0.086589
    27    -0.002540
    28     0.152319
    29    -0.052104
    30     0.053814
    31     0.011180
    32     0.125982
    33    -0.353929
    34    -0.005859
    35     0.197131
    36     0.143219
    37    -0.113592
    38    -0.152858
    39    -0.040844
    40     0.329675
    41    -0.171354
    42    -0.178784
    43     0.246238
    44    -0.216922
    45     0.651033
    46     0.025372
    47     0.068216
    48     0.058827
    49     0.025438
    50     0.226583
    51     0.201917
    52     0.055338
    53     0.281445
    54     0.235400
    55    -0.214387
    56     0.025894
    57     0.017497
    58    -0.053282
    59    -0.045050
    60     0.209576
Sym=    45a
Ene=   -0.118071E-01
Spin= Alpha
Occup= 0.004472
     1     0.069216
     2     0.264796
     3    -0.064816
     4    -0.052331
     5     0.013511
     6     0.060301
     7    -0.110629
     8     0.089725
     9     0.089604
    10    -0.111854
    11    -0.003679
    12    -0.184167
    13    -0.023310
    14     0.007264
    15    -0.030521
    16    -0.387603
    17    -1.488188
    18     0.259084
    19    -0.237150
    20     0.149062
    21     0.108252
    22     0.294343
    23    -0.302083
    24    -0.217744
    25     0.976469
    26     0.321233
    27     0.383604
    28    -0.267929
    29    -0.303176
    30    -0.245721
    31     0.020566
    32     0.132590
    33    -0.111185
    34    -0.026076
    35    -0.161283
    36    -0.076416
    37    -0.096098
    38     0.154878
    39     0.073882
    40    -0.125691
    41     0.090345
    42    -0.087982
    43     0.146413
    44     0.152431
    45     0.048499
    46     0.030150
    47     0.112956
    48     0.021841
    49     0.005692
    50    -0.060548
    51    -0.060073
    52     0.006646
    53    -0.052128
    54    -0.043565
    55    -0.069307
    56    -0.023272
    57    -0.025266
    58    -0.031310
    59    -0.023152
    60     0.039775
Sym=    46a
Ene=   -0.971082E-02
Spin= Alpha
Occup= 0.003371
     1    -0.006695
     2    -0.018435
     3    -0.025494
     4     0.003749
     5    -0.008824
     6     0.011094
     7     0.009267
     8     0.003510
     9     0.004234
    10    -0.838303
    11     0.412418
    12     0.459331
    13    -0.158324
    14    -0.162979
    15     0.470761
    16     0.003366
    17    -0.003103
    18     0.123703
    19     0.013285
    20    -0.014639
    21     0.024708
    22    -0.071881
    23    -0.011214
    24    -0.036394
    25    -0.007698
    26    -0.011592
    27    -0.014886
    28    -0.008006
    29    -0.003443
    30    -0.003252
    31    -0.011697
    32    -0.021944
    33    -0.129284
    34     0.023077
    35    -0.006109
    36     0.003606
    37    -0.088307
    38    -0.017599
    39     0.004709
    40     0.031643
    41     0.031553
    42     0.019876
    43    -0.001775
    44     0.008118
    45    -0.001585
    46     0.002334
    47     0.005788
    48     0.013303
    49     0.004318
    50    -0.002981
    51    -0.001144
    52     0.013455
    53     0.002046
    54     0.004649
    55    -0.005612
    56     0.002989
    57    -0.009813
    58    -0.007952
    59    -0.005084
    60    -0.000909
Sym=    47a
Ene=   -0.781387E-02
Spin= Alpha
Occup= 0.002810
     1     0.004357
     2     0.022910
     3    -0.001619
     4     0.000500
     5     0.047372
     6    -0.024177
     7    -0.001853
     8     0.053349
     9    -0.020772
    10    -0.022293
    11    -0.014479
    12     0.033677
    13    -0.015937
    14     0.002830
    15    -0.029213
    16     0.012455
    17     0.043628
    18    -0.126238
    19    -0.003790
    20     0.055942
    21    -0.052262
    22     0.057113
    23    -0.025631
    24     0.048729
    25     0.000190
    26    -0.060122
    27     0.010994
    28     0.018502
    29    -0.032659
    30    -0.081245
    31    -0.012600
    32    -0.078852
    33     0.151969
    34    -0.094460
    35    -0.030135
    36    -0.012772
    37     0.190628
    38     0.060126
    39     0.003737
    40    -0.067833
    41    -0.212513
    42     0.318925
    43     0.055359
    44    -0.018990
    45     0.045168
    46     0.012884
    47     0.055922
    48    -0.028692
    49    -0.024857
    50    -0.072615
    51     0.038658
    52    -0.057740
    53    -0.127519
    54     0.052041
    55    -0.128415
    56     0.772904
    57    -0.693770
    58     0.190532
    59     0.224457
    60     0.033584
Sym=    48a
Ene=   -0.165067E-02
Spin= Alpha
Occup= 0.000075
     1    -0.025087
     2    -0.046016
     3    -0.097979
     4     0.002376
     5     0.000996
     6    -0.019828
     7     0.002922
     8     0.000288
     9    -0.041907
    10     0.335462
    11     0.015685
    12    -0.165108
    13     0.027578
    14    -0.033784
    15     0.521973
    16    -0.058062
    17    -0.234664
    18    -0.018928
    19    -0.158994
    20     0.012367
    21    -0.141966
    22     0.061786
    23     0.018298
    24     0.111247
    25     0.338298
    26     0.134963
    27     0.028514
    28     0.218619
    29     0.285273
    30    -0.127176
    31     0.062647
    32     0.250216
    33     0.022720
    34    -0.154531
    35     0.033675
    36     0.133487
    37     0.071056
    38    -0.012420
    39    -0.086816
    40    -0.361596
    41    -0.080858
    42    -0.087157
    43    -0.253726
    44     0.243260
    45    -0.119894
    46     0.021145
    47     0.034635
    48     0.089109
    49    -0.001177
    50     0.022670
    51     0.024810
    52    -0.003252
    53     0.034464
    54     0.041119
    55    -0.350771
    56     0.111738
    57     0.078851
    58    -0.097965
    59    -0.113758
    60     0.486382
Sym=    49a
Ene=   -0.151756E-02
Spin= Alpha
Occup= 0.000065
     1     0.044153
     2     0.117153
     3     0.132680
     4    -0.000085
     5     0.150428
     6    -0.116547
     7    -0.012391
     8     0.187433
     9    -0.116025
    10    -0.335077
    11    -0.185172
    12     0.241188
    13    -0.070034
    14     0.047385
    15    -0.454254
    16     0.025912
    17     0.113752
    18     0.020188
    19    -0.107762
    20     0.089205
    21     0.008520
    22     0.139247
    23    -0.171640
    24    -0.022311
    25    -0.150436
    26    -0.094346
    27     0.113769
    28    -0.054704
    29     0.057512
    30     0.087994
    31     0.036826
    32     0.145026
    33     0.079754
    34     0.119438
    35    -0.051122
    36    -0.071739
    37    -0.109850
    38     0.111619
    39     0.087098
    40    -0.111851
    41    -0.024643
    42    -0.035652
    43    -0.059228
    44    -0.156714
    45    -0.097986
    46     0.052121
    47     0.149572
    48     0.122962
    49    -0.011905
    50    -0.187307
    51    -0.178956
    52    -0.016804
    53    -0.222645
    54    -0.214218
    55    -0.417908
    56     0.047733
    57     0.054787
    58    -0.241465
    59    -0.206291
    60     0.468455
Sym=    50a
Ene=   -0.124573E-02
Spin= Alpha
Occup= 0.000052
     1     0.032539
     2     0.100069
     3     0.070740
     4     0.034469
     5     0.129782
     6    -0.220944
     7     0.060003
     8     0.115130
     9    -0.301622
    10    -0.198360
    11     0.223569
    12    -0.208755
    13    -0.128311
    14     0.084209
    15    -0.212178
    16     0.008605
    17     0.044384
    18     0.009722
    19    -0.070272
    20     0.021462
    21    -0.172423
    22     0.046158
    23     0.025309
    24     0.219987
    25     0.151764
    26     0.383542
    27    -0.507036
    28    -0.102947
    29     0.167157
    30     0.065335
    31     0.006076
    32     0.023716
    33    -0.002198
    34    -0.034550
    35    -0.000149
    36     0.157769
    37    -0.013424
    38     0.081024
    39    -0.197220
    40    -0.189571
    41    -0.401925
    42     0.481318
    43     0.135460
    44     0.186786
    45    -0.060946
    46    -0.008013
    47    -0.043359
    48     0.022477
    49     0.036019
    50     0.044861
    51     0.146732
    52     0.071367
    53     0.028010
    54     0.226074
    55    -0.010862
    56    -0.223998
    57     0.258335
    58     0.151002
    59     0.121675
    60     0.062929
Sym=    51a
Ene=   -0.782940E-03
Spin= Alpha
Occup= 0.000030
     1     0.232189
     2     0.574537
     3     0.807831
     4    -0.015423
     5     0.168591
     6    -0.171734
     7    -0.043874
     8     0.258609
     9    -0.269104
    10    -0.514571
    11    -0.637509
    12    -0.642858
    13     0.031271
    14    -0.048543
    15     0.170630
    16    -0.031676
    17    -0.079811
    18    -0.131835
    19    -0.058489
    20     0.064481
    21    -0.091651
    22     0.194294
    23    -0.098112
    24     0.149955
    25    -0.386878
    26     0.491468
    27     0.156600
    28     0.264294
    29    -0.313366
    30    -0.409580
    31     0.044169
    32     0.130856
    33     0.208705
    34     0.104065
    35    -0.007975
    36     0.066941
    37    -0.134186
    38     0.189724
    39    -0.191929
    40    -0.340382
    41     0.186331
    42    -0.146522
    43     0.273185
    44    -0.245919
    45    -0.117753
    46     0.009822
    47     0.018485
    48     0.033920
    49     0.022648
    50     0.026638
    51     0.031598
    52     0.059353
    53     0.012818
    54     0.051967
    55    -0.022098
    56    -0.060720
    57    -0.007040
    58     0.046399
    59     0.043783
    60    -0.004623
Sym=    52a
Ene=    0.000000E+00
Spin= Alpha
Occup= 0.000000
     1     0.048540
     2     0.221141
     3    -0.358317
     4    -0.020446
     5     0.035750
     6    -0.008828
     7    -0.006849
     8     0.386058
     9    -0.224423
    10    -0.057833
    11    -0.225189
    12    -0.062383
    13     0.008535
    14     0.025916
    15     0.054668
    16     0.000669
    17    -0.349646
    18     2.003268
    19     0.017973
    20    -0.048744
    21     0.275686
    22    -0.829836
    23    -0.286332
    24    -0.995719
    25    -0.182773
    26     0.137905
    27    -0.148754
    28     0.325074
    29     0.430069
    30     0.117277
    31    -0.061749
    32     0.179112
    33    -2.154705
    34     0.027056
    35    -0.205151
    36    -0.300996
    37    -0.941145
    38     0.073304
    39     0.952510
    40    -0.160809
    41     0.506228
    42     0.356876
    43     0.042946
    44     0.460957
    45     0.325749
    46     0.014599
    47    -0.033443
    48     0.550001
    49    -0.013951
    50    -0.092325
    51    -0.099902
    52     0.014806
    53     0.186188
    54     0.093742
    55    -0.032008
    56     0.010973
    57    -0.074354
    58    -0.000984
    59     0.043487
    60    -0.054838
Sym=    53a
Ene=    0.000000E+00
Spin= Alpha
Occup= 0.000000
     1     0.014361
     2    -0.033362
     3     0.221546
     4    -0.121520
     5    -0.106080
     6     0.049013
     7    -0.331462
     8    -0.223949
     9     0.059913
    10    -0.075435
    11    -0.000823
    12    -0.113975
    13     0.167745
    14    -0.143746
    15    -0.034076
    16    -0.003483
    17     0.292284
    18    -0.484021
    19    -0.575513
    20    -0.313637
    21    -0.005943
    22     0.896837
    23     0.396533
    24     0.046611
    25    -0.001620
    26     0.137305
    27     0.232917
    28    -0.149321
    29     0.034928
    30     0.121445
    31     0.035675
    32     0.359511
    33     0.009638
    34     0.561940
    35     0.296284
    36    -0.090345
    37    -0.664001
    38    -0.279846
    39     0.261334
    40    -0.102102
    41     0.054409
    42     0.097403
    43    -0.138569
    44     0.067032
    45    -0.044831
    46    -0.012363
    47    -0.089705
    48     0.125917
    49     0.109266
    50     0.112433
    51     0.034423
    52     0.297862
    53     0.259123
    54     0.046709
    55     0.006158
    56     0.099667
    57    -0.069644
    58     0.155092
    59     0.132428
    60     0.029102
Sym=    54a
Ene=    0.000000E+00
Spin= Alpha
Occup= 0.000000
     1    -0.003051
     2     0.151224
     3    -0.588181
     4    -0.001404
     5     0.140301
     6    -0.172958
     7    -0.014879
     8     0.408435
     9    -0.516176
    10     0.130858
    11     0.033439
    12     0.003434
    13    -0.030109
    14     0.018557
    15     0.105125
    16    -0.207155
    17    -0.598788
    18    -0.376005
    19     0.107427
    20    -0.178671
    21     0.070527
    22    -0.123625
    23     0.895130
    24    -0.268345
    25     0.476587
    26     0.559712
    27     0.640001
    28    -0.179720
    29    -0.051762
    30    -0.154489
    31    -0.213171
    32    -0.706312
    33     0.083340
    34    -0.101592
    35     0.174127
    36     0.153149
    37     0.297360
    38    -0.864090
    39    -0.544947
    40     0.496010
    41     0.530143
    42     0.637583
    43    -0.158770
    44     0.007647
    45     0.176780
    46     0.019016
    47     0.232480
    48    -0.655608
    49     0.017704
    50    -0.169580
    51    -0.178538
    52     0.036946
    53    -0.547484
    54    -0.588031
    55     0.090585
    56    -0.043615
    57    -0.047660
    58    -0.035723
    59    -0.033157
    60    -0.128564
Sym=    55a
Ene=    0.000000E+00
Spin= Alpha
Occup= 0.000000
     1     0.002273
     2     0.302916
     3    -1.184161
     4     0.000055
     5     0.167175
     6    -0.160725
     7     0.045589
     8     0.770417
     9    -0.699564
    10     0.174576
    11     0.003704
    12     0.037136
    13    -0.025645
    14     0.061530
    15     0.140672
    16    -0.035120
    17    -0.561322
    18     2.281815
    19     0.138560
    20    -0.177602
    21     0.182889
    22    -1.007175
    23     0.444407
    24    -1.018900
    25     0.100939
    26    -0.079841
    27     0.006439
    28    -0.041103
    29    -0.023018
    30    -0.288011
    31     0.025732
    32     0.505106
    33    -2.261995
    34     0.022966
    35    -0.052467
    36    -0.147424
    37    -0.755933
    38     0.044076
    39     0.996162
    40     0.329123
    41    -0.303821
    42    -0.037239
    43    -0.290016
    44    -0.052410
    45    -0.428595
    46    -0.036316
    47    -0.398372
    48     1.030415
    49    -0.021415
    50     0.233260
    51     0.204890
    52    -0.012642
    53     0.845445
    54     0.706540
    55    -0.125567
    56     0.111118
    57     0.028295
    58    -0.005645
    59     0.025334
    60     0.206835
Sym=    56a
Ene=    0.000000E+00
Spin= Alpha
Occup= 0.000000
     1     0.062844
     2     0.423939
     3    -0.935593
     4    -0.004719
     5     0.080299
     6    -0.078824
     7     0.032565
     8     0.603263
     9    -0.593398
    10    -0.037362
    11    -0.117226
    12    -0.153592
    13    -0.009519
    14    -0.006066
    15     0.101220
    16     0.190185
    17     0.091203
    18     1.943301
    19     0.018045
    20    -0.205112
    21     0.169070
    22    -0.333497
    23     0.968955
    24    -0.614374
    25    -0.425913
    26    -0.734387
    27    -0.688769
    28     0.019535
    29    -0.013757
    30    -0.122916
    31     0.160967
    32     0.071411
    33     1.391795
    34    -0.026107
    35     0.210936
    36     0.118357
    37     0.047991
    38    -1.165888
    39    -0.541883
    40    -0.442160
    41    -0.582862
    42    -0.561239
    43    -0.018461
    44     0.122346
    45     0.232368
    46     0.077757
    47     0.493460
    48    -0.959202
    49    -0.002380
    50    -0.130887
    51    -0.142736
    52    -0.029898
    53    -0.675754
    54    -0.705699
    55    -0.051393
    56    -0.137546
    57    -0.185516
    58    -0.007100
    59     0.015850
    60    -0.131949
Sym=    57a
Ene=    0.000000E+00
Spin= Alpha
Occup= 0.000000
     1    -0.034512
     2    -0.157453
     3     0.097630
     4     0.024247
     5    -0.070751
     6     0.068629
     7     0.195764
     8    -0.137974
     9     0.176994
    10     0.087577
    11     0.035647
    12     0.055335
    13    -0.054142
    14     0.088587
    15    -0.030591
    16     0.058173
    17    -0.344467
    18     4.197479
    19     0.066691
    20     0.092094
    21    -0.122851
    22    -2.546821
    23    -1.390178
    24     0.392467
    25     0.124123
    26    -0.331103
    27    -0.449886
    28     0.282875
    29    -0.094618
    30    -0.059147
    31    -0.068488
    32     0.414592
    33    -4.428913
    34     0.169112
    35     0.112283
    36     0.101256
    37    -2.707715
    38    -1.301387
    39    -0.296120
    40    -0.093853
    41     0.412679
    42     0.520498
    43    -0.301115
    44    -0.098022
    45    -0.086741
    46     0.043407
    47     0.125859
    48     0.126678
    49     0.043441
    50    -0.044692
    51    -0.052622
    52     0.252406
    53    -0.024161
    54    -0.091024
    55    -0.141058
    56    -0.056732
    57    -0.097374
    58     0.080849
    59     0.110247
    60    -0.007501
Sym=    58a
Ene=    0.000000E+00
Spin= Alpha
Occup= 0.000000
     1     0.030622
     2     0.149315
     3    -0.275594
     4    -0.061934
     5    -0.013907
     6    -0.007375
     7    -0.171950
     8     0.126495
     9    -0.185167
    10    -0.035530
    11    -0.056782
    12    -0.121562
    13     0.059039
    14    -0.051027
    15     0.056068
    16     0.271685
    17     0.610256
    18     1.522801
    19    -0.125847
    20    -0.015384
    21    -0.035694
    22     0.324672
    23     0.215687
    24    -0.097278
    25    -0.966498
    26    -0.773963
    27    -0.712644
    28    -0.115810
    29    -0.051183
    30    -0.087062
    31    -0.280820
    32    -0.590111
    33    -1.623698
    34    -0.053304
    35    -0.015516
    36     0.057369
    37     0.214887
    38     0.262496
    39     0.104324
    40     1.030434
    41     0.772298
    42     0.754590
    43     0.081926
    44    -0.027887
    45    -0.100104
    46    -0.023050
    47    -0.151747
    48     0.373070
    49    -0.046437
    50    -0.008428
    51     0.025120
    52    -0.133130
    53     0.164226
    54     0.241118
    55     0.002406
    56     0.042986
    57     0.096980
    58    -0.051528
    59    -0.046383
    60     0.069212
Sym=    59a
Ene=    0.000000E+00
Spin= Alpha
Occup= 0.000000
     1     0.240878
     2     0.319914
     3     1.635385
     4     0.020826
     5    -0.065967
     6     0.072071
     7     0.073562
     8    -0.276012
     9     0.291887
    10    -0.765454
    11    -0.737080
    12    -0.717919
    13    -0.030704
    14     0.027120
    15    -0.050426
    16    -0.013023
    17    -0.018248
    18    -0.000693
    19     0.090426
    20     0.006088
    21     0.043721
    22    -0.461189
    23    -0.362034
    24     0.219030
    25     0.261439
    26    -0.188557
    27    -0.018285
    28    -0.083733
    29     0.067860
    30     0.189119
    31    -0.006412
    32    -0.055058
    33    -0.074403
    34    -0.036378
    35     0.046242
    36    -0.025259
    37    -0.232597
    38    -0.521629
    39    -0.207170
    40     0.078753
    41    -0.070792
    42     0.041834
    43    -0.144830
    44     0.037898
    45     0.074881
    46    -0.297197
    47    -0.472221
    48    -1.804525
    49    -0.004068
    50    -0.014805
    51    -0.022637
    52     0.006566
    53    -0.188690
    54    -0.221277
    55     0.875821
    56     0.907615
    57     0.855935
    58    -0.017063
    59    -0.025354
    60     0.003939
Sym=    60a
Ene=    0.000000E+00
Spin= Alpha
Occup= 0.000000
     1     0.236566
     2     0.211608
     3     1.988009
     4     0.002315
     5    -0.128771
     6     0.109321
     7    -0.003047
     8    -0.528493
     9     0.455351
    10    -0.808509
    11    -0.688155
    12    -0.773042
    13     0.007782
    14    -0.000899
    15    -0.088456
    16    -0.037508
    17     0.170799
    18    -1.100466
    19     0.056585
    20    -0.065627
    21    -0.012735
    22     0.002793
    23    -0.315628
    24     0.399625
    25     0.355421
    26    -0.013393
    27     0.094682
    28    -0.095193
    29     0.071522
    30     0.254451
    31    -0.046224
    32     0.082435
    33    -0.764120
    34    -0.064582
    35     0.030714
    36    -0.044730
    37     0.136256
    38     0.348749
    39     0.401024
    40     0.322040
    41     0.023809
    42     0.106599
    43    -0.105241
    44     0.035514
    45    -0.106080
    46     0.273363
    47     0.331790
    48     2.013331
    49    -0.002161
    50     0.063791
    51     0.045010
    52    -0.003256
    53     0.392681
    54     0.323476
    55    -0.869554
    56    -0.799789
    57    -0.859000
    58     0.004376
    59     0.000554
    60     0.050678
