[Molden Format]
p30-5 set                                                                       
[Atoms] AU
 N        1     7        0.0000        0.0000       -2.2705
 N        2     7        0.0000        0.0000       -0.1368
 O        3     8        0.0000        0.0000        2.1063
[GTO]
    1 0
s    5 1.00
    1712.841585300000 -0.544779958049E-02
     257.648126770000 -0.406271746324E-01
      58.458245853000 -0.181119622506E+00
      16.198367905000 -0.468439755632E+00
       5.005260080900 -0.446168462892E+00
s    1 1.00
       0.587318565710  0.100000000000E+01
s    1 1.00
       0.187645922530  0.100000000000E+01
p    3 1.00
      13.571470233000 -0.588481169695E-01
       2.925737287400 -0.320246247625E+00
       0.799277507540 -0.753282265204E+00
p    1 1.00
       0.219543480340  0.100000000000E+01
d    1 1.00
       1.000000000000  0.100000000000E+01

    2 0
s    5 1.00
    1712.841585300000 -0.544779958049E-02
     257.648126770000 -0.406271746324E-01
      58.458245853000 -0.181119622506E+00
      16.198367905000 -0.468439755632E+00
       5.005260080900 -0.446168462892E+00
s    1 1.00
       0.587318565710  0.100000000000E+01
s    1 1.00
       0.187645922530  0.100000000000E+01
p    3 1.00
      13.571470233000 -0.588481169695E-01
       2.925737287400 -0.320246247625E+00
       0.799277507540 -0.753282265204E+00
p    1 1.00
       0.219543480340  0.100000000000E+01
d    1 1.00
       1.000000000000  0.100000000000E+01

    3 0
s    5 1.00
    2266.176778500000 -0.538935039217E-02
     340.870101910000 -0.402347213890E-01
      77.363135167000 -0.180081842055E+00
      21.479644940000 -0.468288576577E+00
       6.658943312400 -0.446926171602E+00
s    1 1.00
       0.809759756680  0.100000000000E+01
s    1 1.00
       0.255307722340  0.100000000000E+01
p    3 1.00
      17.721504317000  0.626302487632E-01
       3.863550544000  0.333311384824E+00
       1.048092088300  0.741486383081E+00
p    1 1.00
       0.276415444110  0.100000000000E+01
d    1 1.00
       1.200000000000  0.100000000000E+01

[MO]
Sym=     1a
Ene=   -0.206802E+02
Spin= Alpha
Occup= 1.999981
     1    -0.000147
     2    -0.001099
     3    -0.005846
     4    -0.000001
     5     0.000004
     6     0.001147
     7    -0.000009
     8     0.000003
     9    -0.002588
    10    -0.000262
    11    -0.000261
    12    -0.001123
    13    -0.000004
    14     0.000004
    15     0.000002
    16     0.004886
    17    -0.000361
    18    -0.004792
    19    -0.000045
    20     0.000020
    21    -0.001642
    22     0.000019
    23     0.000001
    24    -0.012263
    25    -0.000023
    26    -0.000026
    27     0.002816
    28    -0.000011
    29     0.000006
    30    -0.000006
    31     0.988086
    32    -0.042652
    33     0.022977
    34     0.000077
    35    -0.000025
    36     0.002832
    37     0.000063
    38    -0.000030
    39    -0.006747
    40     0.004521
    41     0.004518
    42     0.003997
    43    -0.000009
    44    -0.000017
    45     0.000006
Sym=     2a
Ene=   -0.157732E+02
Spin= Alpha
Occup= 1.999878
     1     0.701383
     2    -0.028245
     3    -0.016244
     4     0.000035
     5    -0.000022
     6     0.000444
     7    -0.000018
     8     0.000010
     9    -0.009660
    10     0.002346
    11     0.002351
    12     0.001567
    13     0.000003
    14    -0.000004
    15    -0.000001
    16     0.697352
    17    -0.027839
    18     0.011868
    19     0.000042
    20    -0.000029
    21     0.001484
    22    -0.000014
    23     0.000015
    24    -0.029573
    25     0.002814
    26     0.002815
    27     0.000072
    28     0.000013
    29    -0.000001
    30     0.000008
    31    -0.003011
    32    -0.001260
    33     0.022808
    34    -0.000012
    35     0.000010
    36    -0.001815
    37    -0.000005
    38     0.000007
    39    -0.011420
    40    -0.000855
    41    -0.000861
    42     0.001623
    43    -0.000002
    44     0.000001
    45    -0.000003
Sym=     3a
Ene=   -0.157717E+02
Spin= Alpha
Occup= 1.999874
     1    -0.696965
     2     0.031214
     3    -0.008599
     4     0.000030
     5    -0.000016
     6    -0.005778
     7    -0.000006
     8     0.000005
     9     0.000495
    10    -0.002653
    11    -0.002637
    12     0.000685
    13    -0.000001
    14     0.000001
    15     0.000009
    16     0.701304
    17    -0.030323
    18     0.011777
    19     0.000044
    20    -0.000024
    21    -0.002624
    22    -0.000021
    23     0.000018
    24     0.005093
    25     0.002975
    26     0.002976
    27    -0.002293
    28     0.000015
    29    -0.000016
    30    -0.000013
    31    -0.003526
    32     0.000871
    33    -0.006437
    34    -0.000042
    35     0.000022
    36    -0.002623
    37    -0.000009
    38     0.000033
    39     0.000307
    40     0.000237
    41     0.000243
    42     0.002296
    43     0.000020
    44     0.000014
    45     0.000009
Sym=     4a
Ene=   -0.159682E+01
Spin= Alpha
Occup= 1.993206
     1    -0.024160
     2    -0.040509
     3    -0.059588
     4     0.001230
     5    -0.000958
     6     0.013814
     7    -0.003718
     8     0.002346
     9    -0.018018
    10    -0.000788
    11    -0.000800
    12     0.000477
    13    -0.000025
    14     0.000514
    15    -0.000304
    16    -0.170297
    17    -0.352925
    18    -0.048971
    19    -0.014074
    20     0.008201
    21     0.202447
    22     0.007349
    23    -0.004281
    24    -0.076337
    25     0.003080
    26     0.003055
    27    -0.047904
    28    -0.000056
    29     0.001946
    30    -0.001157
    31    -0.222217
    32    -0.448780
    33    -0.190667
    34     0.028231
    35    -0.016891
    36     0.168954
    37     0.019008
    38    -0.011414
    39     0.033656
    40    -0.001268
    41    -0.001342
    42    -0.026043
    43    -0.000134
    44    -0.001751
    45     0.001028
Sym=     5a
Ene=   -0.122246E+01
Spin= Alpha
Occup= 1.988443
     1     0.280062
     2     0.566795
     3     0.427263
     4    -0.000319
     5     0.000569
     6     0.056904
     7    -0.000588
     8     0.000125
     9    -0.042862
    10     0.013422
    11     0.013394
    12     0.024535
    13     0.000160
    14     0.000236
    15    -0.000161
    16     0.065767
    17     0.111101
    18    -0.040746
    19    -0.004450
    20     0.002872
    21     0.185552
    22     0.002352
    23    -0.001537
    24     0.048145
    25    -0.002322
    26    -0.002283
    27     0.015497
    28     0.000099
    29     0.000454
    30    -0.000180
    31    -0.038792
    32    -0.074482
    33    -0.080478
    34     0.007228
    35    -0.004131
    36     0.036973
    37     0.004731
    38    -0.002733
    39     0.031394
    40     0.001293
    41     0.001263
    42    -0.006917
    43    -0.000055
    44    -0.000485
    45     0.000260
Sym=     6a
Ene=   -0.856001E+00
Spin= Alpha
Occup= 1.983426
     1    -0.021075
     2    -0.057672
     3     0.010192
     4    -0.004309
     5     0.003368
     6     0.026682
     7     0.009117
     8    -0.006746
     9     0.003258
    10    -0.001008
    11    -0.000992
    12    -0.008129
    13     0.000002
    14    -0.000985
    15     0.000706
    16     0.126156
    17     0.302750
    18     0.099632
    19     0.029463
    20    -0.021285
    21    -0.225629
    22    -0.015215
    23     0.010940
    24     0.082498
    25     0.007518
    26     0.007528
    27     0.028668
    28     0.000018
    29    -0.004466
    30     0.003237
    31    -0.188945
    32    -0.386874
    33    -0.441639
    34    -0.062922
    35     0.045810
    36    -0.411971
    37    -0.042907
    38     0.031455
    39    -0.199960
    40    -0.016377
    41    -0.016411
    42     0.016807
    43    -0.000040
    44     0.003721
    45    -0.002652
Sym=     7a
Ene=   -0.703115E+00
Spin= Alpha
Occup= 1.980883
     1    -0.000133
     2    -0.000181
     3    -0.000133
     4     0.005400
     5     0.007005
     6     0.000790
     7    -0.038245
     8    -0.052896
     9    -0.000179
    10     0.000039
    11     0.000015
    12    -0.000083
    13     0.000005
    14     0.007088
    15     0.009894
    16     0.000344
    17     0.000528
    18     0.000443
    19    -0.175040
    20    -0.244269
    21    -0.001715
    22     0.091507
    23     0.127660
    24     0.000201
    25    -0.000019
    26    -0.000033
    27     0.000110
    28     0.000010
    29     0.022196
    30     0.030877
    31     0.001320
    32     0.002751
    33     0.001467
    34     0.327514
    35     0.456416
    36    -0.000596
    37     0.221361
    38     0.308428
    39    -0.000235
    40     0.000026
    41     0.000043
    42     0.000134
    43     0.000015
    44    -0.019886
    45    -0.027711
Sym=     8a
Ene=   -0.937520E+00
Spin= Alpha
Occup= 1.978711
     1     0.044607
     2     0.110438
     3     0.394934
     4     0.007935
     5    -0.005752
     6     0.482860
     7    -0.003274
     8     0.002622
     9    -0.138110
    10     0.022165
    11     0.022158
    12    -0.029469
    13     0.000004
    14    -0.001082
    15     0.000774
    16    -0.153403
    17    -0.334249
    18    -0.188197
    19     0.014809
    20    -0.010286
    21    -0.365928
    22    -0.007867
    23     0.005367
    24     0.140685
    25    -0.005231
    26    -0.005282
    27    -0.018650
    28    -0.000041
    29    -0.000165
    30     0.000058
    31     0.033539
    32     0.074743
    33    -0.009910
    34    -0.012015
    35     0.007340
    36    -0.108110
    37    -0.007043
    38     0.004002
    39    -0.048813
    40    -0.000933
    41    -0.000976
    42     0.012046
    43    -0.000067
    44     0.000964
    45    -0.000665
Sym=     9a
Ene=   -0.694806E+00
Spin= Alpha
Occup= 1.971768
     1     0.004404
     2     0.010730
     3    -0.010997
     4    -0.024901
     5     0.017806
     6    -0.017710
     7     0.063542
     8    -0.045495
     9     0.002425
    10    -0.000436
    11    -0.000418
    12     0.002478
    13     0.000002
    14    -0.008120
    15     0.005801
    16    -0.021290
    17    -0.049633
    18    -0.011373
    19     0.226715
    20    -0.162623
    21     0.057638
    22    -0.117093
    23     0.083969
    24    -0.019623
    25    -0.000704
    26    -0.000692
    27    -0.005811
    28     0.000006
    29    -0.032765
    30     0.023513
    31     0.011404
    32     0.023302
    33     0.048508
    34    -0.460152
    35     0.330337
    36     0.069637
    37    -0.312053
    38     0.224015
    39     0.030672
    40     0.002237
    41     0.002266
    42    -0.004216
    43     0.000067
    44     0.027741
    45    -0.019917
Sym=    10a
Ene=   -0.599803E+00
Spin= Alpha
Occup= 1.960766
     1    -0.000115
     2    -0.000168
     3    -0.000263
     4     0.276094
     5     0.380266
     6     0.000152
     7    -0.172117
     8    -0.237146
     9     0.000005
    10    -0.000029
    11     0.000007
    12    -0.000021
    13    -0.000007
    14    -0.024989
    15    -0.034451
    16    -0.000136
    17    -0.000295
    18     0.000028
    19     0.227504
    20     0.313527
    21     0.000026
    22    -0.123213
    23    -0.169914
    24    -0.000042
    25    -0.000008
    26     0.000004
    27    -0.000042
    28    -0.000009
    29     0.029140
    30     0.040173
    31     0.000057
    32     0.000105
    33     0.000172
    34     0.129460
    35     0.178716
    36     0.000192
    37     0.127926
    38     0.176489
    39     0.000039
    40     0.000032
    41    -0.000007
    42    -0.000015
    43     0.000017
    44     0.000660
    45     0.000926
Sym=    11a
Ene=   -0.611532E+00
Spin= Alpha
Occup= 1.960470
     1    -0.000497
     2    -0.001475
     3    -0.008137
     4     0.379428
     5    -0.275200
     6    -0.010550
     7    -0.234311
     8     0.170056
     9     0.002832
    10    -0.000482
    11    -0.000461
    12     0.000668
    13    -0.000009
    14    -0.034918
    15     0.025341
    16     0.004068
    17     0.009281
    18     0.005434
    19     0.324695
    20    -0.235403
    21     0.007837
    22    -0.175854
    23     0.127564
    24    -0.002516
    25     0.000231
    26     0.000207
    27     0.000401
    28    -0.000024
    29     0.038678
    30    -0.028106
    31    -0.001665
    32    -0.003611
    33    -0.002087
    34     0.156460
    35    -0.114136
    36     0.001814
    37     0.161274
    38    -0.117445
    39     0.001112
    40    -0.000001
    41    -0.000053
    42    -0.000252
    43    -0.000045
    44     0.002162
    45    -0.001559
Sym=    12a
Ene=   -0.557789E-01
Spin= Alpha
Occup= 0.035686
     1     0.005276
     2     0.018790
     3     0.009650
     4     0.529080
     5    -0.382739
     6    -0.021366
     7    -0.097773
     8     0.071722
     9     0.006135
    10    -0.002466
    11    -0.001748
    12    -0.001555
    13     0.000121
    14     0.024168
    15    -0.017925
    16    -0.011793
    17    -0.040330
    18    -0.013810
    19    -0.537532
    20     0.390520
    21     0.003766
    22     0.092296
    23    -0.065856
    24     0.008104
    25     0.002055
    26     0.002474
    27     0.007742
    28     0.000144
    29    -0.005758
    30     0.004014
    31     0.005696
    32     0.018952
    33    -0.003152
    34    -0.312308
    35     0.226238
    36    -0.022535
    37    -0.054839
    38     0.039473
    39    -0.004690
    40    -0.001474
    41    -0.001209
    42    -0.002924
    43    -0.000042
    44    -0.025917
    45     0.018629
Sym=    13a
Ene=   -0.564342E-01
Spin= Alpha
Occup= 0.036271
     1     0.000243
     2     0.000976
     3     0.000390
     4    -0.383524
     5    -0.528019
     6    -0.000445
     7     0.072253
     8     0.100514
     9     0.000016
    10    -0.000150
    11    -0.000060
    12    -0.000142
    13     0.000154
    14    -0.018080
    15    -0.025585
    16    -0.000188
    17    -0.000252
    18    -0.000435
    19     0.387913
    20     0.536104
    21     0.000015
    22    -0.069756
    23    -0.094685
    24     0.000924
    25     0.000076
    26    -0.000116
    27     0.000350
    28     0.000091
    29     0.003953
    30     0.005309
    31     0.000013
    32     0.000083
    33    -0.000753
    34     0.228256
    35     0.314493
    36    -0.000829
    37     0.039238
    38     0.053718
    39     0.000742
    40     0.000254
    41    -0.000156
    42     0.000203
    43    -0.000045
    44     0.019452
    45     0.026481
Sym=    14a
Ene=   -0.468907E-01
Spin= Alpha
Occup= 0.024456
     1    -0.055099
     2    -0.186067
     3    -0.166885
     4     0.013943
     5    -0.010546
     6     0.186355
     7    -0.005244
     8     0.003933
     9    -0.084237
    10     0.034619
    11     0.034222
    12     0.012481
    13     0.000412
    14    -0.000190
    15     0.000336
    16     0.255195
    17     0.848430
    18     0.228112
    19    -0.016883
    20     0.013262
    21    -0.513410
    22     0.003240
    23    -0.001812
    24    -0.190215
    25    -0.074475
    26    -0.076073
    27    -0.167823
    28    -0.004344
    29     0.006105
    30    -0.004423
    31    -0.186345
    32    -0.625390
    33     0.071975
    34    -0.019112
    35     0.015149
    36     0.744424
    37     0.004701
    38    -0.004783
    39     0.095874
    40     0.043900
    41     0.048641
    42     0.157150
    43     0.008031
    44    -0.005902
    45     0.003210
Sym=    15a
Ene=   -0.327153E-01
Spin= Alpha
Occup= 0.017874
     1     0.218490
     2     0.812830
     3    -0.031550
     4    -0.009086
     5     0.007422
     6    -0.823257
     7     0.000816
     8    -0.000341
     9     0.096307
    10    -0.083005
    11    -0.082732
    12    -0.174080
    13     0.003346
    14    -0.001224
    15     0.001508
    16    -0.241954
    17    -0.957582
    18     0.075177
    19     0.010259
    20    -0.008652
    21    -0.871410
    22     0.000958
    23    -0.001348
    24    -0.100939
    25     0.150641
    26     0.151304
    27     0.134166
    28     0.000836
    29     0.002157
    30    -0.002396
    31    -0.056661
    32    -0.189133
    33    -0.002230
    34     0.004432
    35    -0.001576
    36     0.118616
    37     0.000244
    38    -0.001795
    39     0.050675
    40     0.017395
    41     0.017870
    42     0.078093
    43    -0.000593
    44    -0.000248
    45     0.001178
Sym=    16a
Ene=   -0.119501E-01
Spin= Alpha
Occup= 0.007307
     1     0.005396
     2     0.024945
     3    -0.027276
     4    -0.118520
     5    -0.163566
     6     0.006122
     7    -0.082965
     8    -0.114188
     9     0.000301
    10    -0.004043
    11    -0.007357
    12    -0.009031
    13     0.001075
    14    -0.033212
    15    -0.047391
    16    -0.011407
    17    -0.051512
    18     0.027606
    19     0.188150
    20     0.281080
    21     0.004413
    22     0.088862
    23     0.137382
    24    -0.012532
    25     0.020330
    26     0.019773
    27     0.004132
    28     0.002264
    29     0.149254
    30     0.213628
    31    -0.010768
    32    -0.043282
    33     0.018585
    34    -0.491591
    35    -0.713823
    36    -0.007964
    37     0.505872
    38     0.733216
    39     0.002135
    40     0.007724
    41     0.017012
    42     0.013352
    43    -0.000960
    44    -0.047730
    45    -0.070717
Sym=    17a
Ene=   -0.196964E-01
Spin= Alpha
Occup= 0.008422
     1     0.004901
     2     0.063216
     3    -0.163228
     4    -0.006486
     5     0.013117
     6    -0.033997
     7    -0.005302
     8     0.005812
     9    -0.051352
    10    -0.015081
    11    -0.015910
    12     0.043848
    13     0.001230
    14    -0.000149
    15     0.006929
    16    -0.117575
    17    -0.535916
    18     0.183225
    19     0.012729
    20    -0.013347
    21     0.145158
    22     0.003080
    23    -0.003140
    24    -0.098366
    25     0.182836
    26     0.183456
    27    -0.115943
    28    -0.000236
    29     0.004225
    30    -0.022416
    31    -0.548745
    32    -2.272489
    33     0.993389
    34    -0.038589
    35     0.047009
    36    -0.423065
    37     0.042889
    38    -0.046681
    39     0.202165
    40     0.640934
    41     0.640656
    42     0.577378
    43     0.001609
    44    -0.003185
    45     0.009308
Sym=    18a
Ene=   -0.171486E-01
Spin= Alpha
Occup= 0.006827
     1     0.651583
     2     2.844658
     3    -0.580620
     4     0.003547
     5     0.007023
     6     0.285929
     7     0.001413
     8     0.001679
     9     0.221601
    10    -0.897080
    11    -0.901093
    12    -0.709598
    13    -0.023583
    14     0.005892
    15     0.009297
    16     0.159151
    17     0.741193
    18    -0.108316
    19     0.004077
    20     0.003420
    21     0.085840
    22     0.001326
    23     0.000966
    24     0.611044
    25    -0.260900
    26    -0.270440
    27     0.058043
    28    -0.021909
    29    -0.009054
    30    -0.017072
    31    -0.054436
    32    -0.184368
    33    -0.428544
    34    -0.002902
    35    -0.003752
    36     0.059191
    37     0.007014
    38     0.010444
    39     0.215091
    40     0.056685
    41     0.060469
    42     0.054095
    43     0.005403
    44     0.008327
    45     0.015744
Sym=    19a
Ene=   -0.735923E-02
Spin= Alpha
Occup= 0.002889
     1    -0.012275
     2    -0.052985
     3     0.041069
     4     0.039090
     5     0.011780
     6    -0.015116
     7     0.015708
     8     0.002400
     9     0.006493
    10    -0.171480
    11     0.214595
    12     0.018208
    13    -0.052609
    14     0.040568
    15     0.014062
    16     0.031834
    17     0.138409
    18    -0.042590
    19     0.058511
    20     0.012058
    21    -0.005198
    22     0.054071
    23     0.010227
    24     0.017132
    25    -0.512065
    26     0.396435
    27    -0.045845
    28    -0.145298
    29    -0.039876
    30    -0.023411
    31    -0.005652
    32    -0.020540
    33    -0.004848
    34    -0.002895
    35    -0.001904
    36    -0.012630
    37     0.003392
    38     0.008123
    39     0.015230
    40    -0.617012
    41     0.634965
    42     0.013818
    43    -0.199179
    44    -0.006751
    45     0.013564
Sym=    20a
Ene=   -0.779150E-03
Spin= Alpha
Occup= 0.000048
     1    -0.014786
     2    -0.047325
     3    -0.065461
     4    -0.143062
     5     0.086548
     6     0.001606
     7     0.018047
     8    -0.016957
     9     0.008043
    10     0.023823
    11     0.039865
    12     0.057687
    13    -0.000678
    14     0.592314
    15    -0.393499
    16    -0.000781
    17    -0.003485
    18     0.042472
    19     0.095532
    20    -0.071410
    21    -0.025726
    22     0.186829
    23    -0.123261
    24    -0.024212
    25     0.000760
    26     0.011368
    27    -0.020610
    28     0.001474
    29     0.882972
    30    -0.563843
    31    -0.007241
    32    -0.010515
    33    -0.042743
    34     0.054542
    35    -0.034132
    36    -0.014567
    37    -0.367963
    38     0.233989
    39     0.026131
    40     0.026753
    41     0.025014
    42     0.014325
    43     0.002887
    44     0.534697
    45    -0.336468
Sym=    21a
Ene=   -0.787413E-03
Spin= Alpha
Occup= 0.000048
     1     0.007377
     2     0.018087
     3    -0.014356
     4    -0.095020
     5    -0.139549
     6     0.012643
     7     0.006852
     8     0.018987
     9    -0.013116
    10    -0.027228
    11    -0.008806
    12    -0.027702
    13    -0.003673
    14     0.376738
    15     0.605978
    16    -0.004670
    17    -0.016936
    18     0.003660
    19     0.060571
    20     0.109437
    21    -0.001365
    22     0.123281
    23     0.196167
    24    -0.044457
    25     0.000346
    26     0.012593
    27     0.032426
    28    -0.001117
    29     0.569195
    30     0.879698
    31     0.003369
    32     0.005814
    33     0.043798
    34     0.033209
    35     0.051022
    36     0.003550
    37    -0.236270
    38    -0.364439
    39    -0.003656
    40    -0.004431
    41    -0.007124
    42    -0.026134
    43    -0.000289
    44     0.346732
    45     0.526507
Sym=    22a
Ene=   -0.186335E-03
Spin= Alpha
Occup= 0.000010
     1     0.050858
     2    -0.121162
     3    -1.955169
     4     0.137535
     5     0.222215
     6     0.083741
     7     0.512954
     8     0.832071
     9    -0.499674
    10    -0.366299
    11    -0.366219
    12     0.290789
    13     0.008598
    14     0.178621
    15     0.287692
    16     0.182730
    17     0.138968
    18     0.845942
    19    -0.135467
    20    -0.222149
    21    -0.191180
    22    -0.652633
    23    -1.064931
    24    -3.212335
    25    -0.643132
    26    -0.642511
    27    -0.687226
    28    -0.000361
    29     0.066703
    30     0.102115
    31     0.012763
    32    -0.272761
    33     2.697260
    34    -0.083682
    35    -0.139047
    36     0.004416
    37     0.331800
    38     0.545916
    39    -1.364589
    40    -0.210210
    41    -0.213127
    42     0.244204
    43    -0.011408
    44    -0.090773
    45    -0.148940
Sym=    23a
Ene=   -0.405403E-02
Spin= Alpha
Occup= 0.001679
     1     0.012987
     2     0.108750
     3     0.189979
     4     0.012020
     5    -0.022688
     6    -0.178213
     7     0.012988
     8    -0.021607
     9    -0.078722
    10    -0.239877
    11     0.038699
    12     0.200149
    13     0.693364
    14    -0.007551
    15     0.004294
    16    -0.005762
    17    -0.043718
    18     0.021034
    19     0.004936
    20    -0.015709
    21    -0.084640
    22     0.005727
    23    -0.016504
    24     0.357107
    25    -0.112224
    26     0.164113
    27    -0.054159
    28     0.557083
    29    -0.001131
    30     0.003927
    31    -0.000526
    32     0.008430
    33    -0.235059
    34    -0.000990
    35    -0.001110
    36     0.042942
    37     0.000410
    38     0.003830
    39     0.054212
    40     0.045442
    41    -0.033625
    42    -0.038199
    43    -0.161923
    44     0.008058
    45    -0.005969
Sym=    24a
Ene=   -0.423755E-02
Spin= Alpha
Occup= 0.002165
     1    -0.002082
     2    -0.008219
     3     0.004678
     4    -0.434236
     5    -0.555737
     6    -0.006574
     7    -0.459028
     8    -0.636139
     9    -0.006609
    10    -0.009307
    11     0.007898
    12     0.010445
    13    -0.012378
    14     0.180109
    15     0.361709
    16    -0.001081
    17    -0.004751
    18     0.000399
    19    -0.240271
    20    -0.202082
    21    -0.004630
    22    -0.281799
    23    -0.268404
    24     0.004291
    25    -0.009587
    26     0.013342
    27     0.003084
    28    -0.015105
    29    -0.036475
    30    -0.091398
    31     0.000351
    32     0.001478
    33    -0.003532
    34    -0.066675
    35    -0.093618
    36     0.003260
    37     0.161603
    38     0.206806
    39    -0.000788
    40    -0.002805
    41     0.003963
    42    -0.003838
    43    -0.006778
    44    -0.070256
    45    -0.174591
Sym=    25a
Ene=   -0.429892E-02
Spin= Alpha
Occup= 0.001491
     1     0.000279
     2     0.007322
     3    -0.025720
     4    -0.042665
     5    -0.004711
     6    -0.015019
     7    -0.015706
     8     0.004508
     9    -0.023300
    10     0.311934
    11    -0.334235
    12     0.028264
    13     0.069661
    14    -0.064701
    15    -0.026599
    16    -0.009401
    17    -0.041658
    18     0.038014
    19    -0.090759
    20    -0.027148
    21    -0.011819
    22    -0.081236
    23    -0.022732
    24    -0.004507
    25     0.551867
    26    -0.510645
    27    -0.000258
    28     0.186101
    29     0.027417
    30     0.007519
    31     0.004380
    32     0.017997
    33    -0.006945
    34    -0.007414
    35    -0.002553
    36    -0.008532
    37     0.021757
    38     0.007067
    39     0.016983
    40    -0.558668
    41     0.530704
    42     0.002721
    43    -0.177973
    44     0.077131
    45     0.034806
Sym=    26a
Ene=   -0.537591E-02
Spin= Alpha
Occup= 0.002377
     1     0.021491
     2     0.081896
     3    -0.032818
     4     0.065469
     5    -0.340028
     6     0.043059
     7     0.010531
     8    -0.115544
     9     0.028240
    10    -0.021415
    11    -0.011079
    12    -0.086682
    13    -0.004976
    14     0.147315
    15    -0.571121
    16    -0.003966
    17    -0.011045
    18     0.007859
    19     0.150066
    20    -0.657017
    21     0.027198
    22     0.128533
    23    -0.585706
    24    -0.043307
    25     0.003965
    26     0.024609
    27    -0.000393
    28     0.008791
    29    -0.068856
    30     0.278036
    31     0.002360
    32     0.010152
    33     0.023277
    34    -0.005746
    35    -0.035317
    36    -0.018472
    37    -0.002435
    38     0.097873
    39     0.008619
    40    -0.012871
    41    -0.002192
    42     0.010247
    43     0.037332
    44    -0.070238
    45     0.324557
Sym=    27a
Ene=   -0.113085E-01
Spin= Alpha
Occup= 0.006726
     1     0.000792
     2     0.006567
     3    -0.008636
     4     0.180233
     5    -0.116003
     6    -0.006896
     7     0.125531
     8    -0.079725
     9    -0.005748
    10    -0.003995
    11    -0.000294
    12     0.005095
    13    -0.000291
    14     0.053974
    15    -0.037213
    16    -0.003104
    17    -0.018628
    18     0.002315
    19    -0.264465
    20     0.188215
    21    -0.001805
    22    -0.125789
    23     0.094235
    24    -0.008081
    25     0.005517
    26     0.009903
    27    -0.011720
    28    -0.000480
    29    -0.235062
    30     0.161548
    31    -0.043472
    32    -0.175230
    33     0.065440
    34     0.708549
    35    -0.484061
    36    -0.010474
    37    -0.722141
    38     0.490506
    39     0.001838
    40     0.055691
    41     0.056486
    42     0.042734
    43    -0.000036
    44     0.083236
    45    -0.061252
Sym=    28a
Ene=   -0.936993E-02
Spin= Alpha
Occup= 0.004196
     1    -0.109245
     2    -0.460811
     3     0.256269
     4     0.056517
     5     0.085241
     6    -0.107750
     7     0.027884
     8     0.036796
     9    -0.039432
    10     0.131373
    11     0.139567
    12     0.230520
    13    -0.002292
    14     0.027515
    15     0.047476
    16     0.145249
    17     0.683183
    18    -0.105589
    19    -0.024940
    20    -0.059795
    21    -0.019989
    22    -0.053797
    23    -0.117526
    24     0.183854
    25    -0.256038
    26    -0.274706
    27    -0.160841
    28    -0.006561
    29    -0.178248
    30    -0.322486
    31    -0.030440
    32    -0.072777
    33    -0.219385
    34    -0.082080
    35    -0.172142
    36    -0.182955
    37     0.184764
    38     0.368144
    39     0.355805
    40     0.004145
    41    -0.121070
    42     0.296464
    43    -0.024254
    44     0.306399
    45     0.574635
Sym=    29a
Ene=   -0.582140E-02
Spin= Alpha
Occup= 0.002235
     1    -0.120611
     2    -0.375165
     3    -0.352681
     4    -0.008130
     5    -0.006177
     6    -0.446798
     7    -0.000023
     8     0.008213
     9    -0.604855
    10    -0.156579
    11    -0.149167
    12     1.110447
    13    -0.164165
    14    -0.021410
    15    -0.044767
    16    -0.315323
    17    -1.453078
    18     0.643207
    19    -0.018376
    20    -0.036837
    21    -0.431143
    22    -0.018102
    23    -0.030780
    24     0.105369
    25     0.522837
    26     0.491970
    27     0.486825
    28    -0.109899
    29     0.006779
    30     0.014624
    31    -0.019253
    32    -0.061718
    33    -0.216365
    34    -0.007066
    35    -0.002594
    36     0.271978
    37     0.011293
    38     0.006013
    39    -0.095084
    40     0.023676
    41     0.051094
    42    -0.136177
    43     0.075950
    44     0.015588
    45     0.030548
Sym=    30a
Ene=   -0.487465E-02
Spin= Alpha
Occup= 0.001486
     1    -0.153625
     2    -0.838135
     3     1.184634
     4    -0.007276
     5    -0.001389
     6     0.579854
     7    -0.007313
     8     0.001385
     9     0.626154
    10     0.382687
    11     0.387386
    12    -0.340151
    13     0.018034
    14    -0.002934
    15    -0.005860
    16    -0.137639
    17    -0.470135
    18    -1.111275
    19    -0.000360
    20    -0.009553
    21     0.509613
    22     0.002440
    23    -0.008463
    24     0.891352
    25    -0.101936
    26    -0.107717
    27     1.364708
    28     0.038755
    29     0.005211
    30     0.002937
    31    -0.346240
    32    -1.275784
    33    -0.526973
    34    -0.005534
    35    -0.000205
    36     0.648021
    37     0.004545
    38     0.001146
    39    -0.523637
    40     0.625421
    41     0.634550
    42     0.507611
    43    -0.004683
    44     0.006902
    45     0.009152
Sym=    31a
Ene=   -0.106399E-02
Spin= Alpha
Occup= 0.000064
     1    -0.292482
     2    -1.334821
     3    -1.623578
     4     0.002498
     5    -0.002012
     6     0.657423
     7     0.001759
     8    -0.001505
     9    -0.128856
    10     0.635634
    11     0.654479
    12     0.432160
    13     0.017867
    14    -0.010405
    15     0.000222
    16    -0.106523
    17    -0.419924
    18     0.470303
    19    -0.005334
    20    -0.000388
    21    -0.462980
    22    -0.009636
    23     0.000696
    24    -1.547490
    25    -0.029050
    26    -0.019940
    27     1.309739
    28     0.040698
    29    -0.016441
    30     0.003740
    31     0.271519
    32     0.697350
    33     1.606679
    34     0.000414
    35    -0.002252
    36     0.182398
    37     0.007032
    38     0.001346
    39     0.109899
    40    -0.494123
    41    -0.503827
    42    -1.449151
    43    -0.021162
    44    -0.010513
    45     0.004734
Sym=    32a
Ene=   -0.691867E-03
Spin= Alpha
Occup= 0.000042
     1     0.286618
     2     0.755726
     3     0.939799
     4    -0.001911
     5     0.004093
     6     0.235051
     7     0.004037
     8    -0.004341
     9    -0.335909
    10    -0.622472
    11    -0.625359
    12    -1.385971
    13    -0.021181
    14     0.018572
    15    -0.024307
    16    -0.031807
    17    -0.100406
    18    -0.866219
    19     0.002998
    20    -0.002755
    21     0.509703
    22     0.003863
    23    -0.002893
    24    -0.187443
    25    -0.125329
    26    -0.135835
    27     1.044008
    28    -0.022768
    29     0.025436
    30    -0.033622
    31     0.282980
    32     0.481685
    33     1.937564
    34     0.001304
    35    -0.005723
    36     0.362086
    37    -0.009440
    38     0.016926
    39    -0.596927
    40    -0.878119
    41    -0.868891
    42    -0.923683
    43     0.014646
    44     0.018173
    45    -0.013264
Sym=    33a
Ene=   -0.146958E-03
Spin= Alpha
Occup= 0.000008
     1     0.000106
     2    -0.001260
     3     0.005765
     4    -0.305045
     5     0.184000
     6     0.001028
     7    -1.134179
     8     0.691557
     9     0.006537
    10    -0.004403
    11     0.000416
    12     0.002862
    13    -0.001692
    14    -0.390420
    15     0.237098
    16    -0.000436
    17    -0.004017
    18    -0.024959
    19     0.299697
    20    -0.185766
    21     0.000004
    22     1.444823
    23    -0.888270
    24    -0.012755
    25     0.004493
    26    -0.000165
    27    -0.003408
    28     0.000611
    29    -0.138537
    30     0.081035
    31     0.001762
    32    -0.000772
    33     0.037266
    34     0.189001
    35    -0.116381
    36    -0.001017
    37    -0.741841
    38     0.457105
    39    -0.011784
    40    -0.006762
    41    -0.009794
    42    -0.004113
    43    -0.001902
    44     0.196600
    45    -0.124221
Sym=    34a
Ene=   -0.425251E-02
Spin= Alpha
Occup= 0.002166
     1     0.004292
     2     0.018568
     3     0.015327
     4    -0.580004
     5     0.395733
     6    -0.000621
     7    -0.631476
     8     0.462303
     9     0.008550
    10    -0.028266
    11     0.021276
    12    -0.013534
    13     0.014111
    14     0.290282
    15    -0.281335
    16     0.003542
    17     0.017982
    18    -0.005388
    19    -0.287230
    20     0.128923
    21     0.004652
    22    -0.348641
    23     0.177697
    24     0.019631
    25    -0.032274
    26     0.022757
    27    -0.010353
    28     0.020001
    29    -0.071449
    30     0.076917
    31     0.002017
    32     0.009541
    33    -0.016527
    34    -0.093787
    35     0.065397
    36    -0.007189
    37     0.221688
    38    -0.146030
    39     0.012015
    40    -0.008059
    41    -0.000374
    42     0.003372
    43     0.025260
    44    -0.112428
    45     0.132551
Sym=    35a
Ene=   -0.209467E-02
Spin= Alpha
Occup= 0.000798
     1     0.006992
     2     0.026350
     3    -0.019038
     4    -0.013778
     5    -0.001784
     6    -0.007333
     7    -0.007077
     8    -0.000525
     9    -0.024138
    10     0.652125
    11    -0.697813
    12    -0.000385
    13    -0.255101
    14    -0.024590
    15    -0.006430
    16    -0.001917
    17    -0.013168
    18     0.043844
    19    -0.026969
    20    -0.005163
    21    -0.009141
    22    -0.018286
    23    -0.002540
    24    -0.012801
    25    -0.472323
    26     0.476422
    27     0.004865
    28     0.345561
    29     0.013653
    30     0.002863
    31    -0.000500
    32     0.001089
    33    -0.010869
    34     0.000194
    35     0.000556
    36     0.004036
    37    -0.000736
    38    -0.001067
    39     0.005987
    40     0.102584
    41    -0.098089
    42    -0.003765
    43    -0.102523
    44     0.021168
    45     0.005724
Sym=    36a
Ene=   -0.643726E-02
Spin= Alpha
Occup= 0.002285
     1     0.022172
     2     0.106713
     3     0.107274
     4    -0.032247
     5     0.023541
     6    -0.072210
     7    -0.030164
     8     0.021999
     9     0.019646
    10    -0.024998
    11    -0.040226
    12    -0.007960
    13     0.007616
    14     0.033180
    15    -0.025305
    16     0.032240
    17     0.105855
    18    -0.150004
    19     0.034090
    20    -0.029035
    21    -0.057657
    22     0.041693
    23    -0.035589
    24     0.078894
    25     0.013221
    26    -0.089661
    27    -0.102270
    28    -0.203860
    29     0.074355
    30    -0.059905
    31    -0.003869
    32    -0.035510
    33     0.052730
    34     0.044314
    35    -0.036860
    36     0.107256
    37    -0.094913
    38     0.078464
    39    -0.181190
    40     0.302802
    41    -0.093220
    42    -0.204413
    43    -0.855644
    44    -0.171520
    45     0.140411
Sym=    37a
Ene=   -0.267741E-02
Spin= Alpha
Occup= 0.001038
     1     0.010082
     2     0.044887
     3     0.024009
     4     0.016130
     5     0.002520
     6    -0.020212
     7     0.009029
     8    -0.000475
     9    -0.000810
    10    -0.372658
    11     0.343778
    12    -0.025127
    13    -0.651972
    14     0.028465
    15     0.011687
    16     0.019926
    17     0.081421
    18    -0.008204
    19     0.031345
    20     0.008882
    21     0.006047
    22     0.021484
    23     0.004875
    24     0.016094
    25     0.105475
    26    -0.155542
    27    -0.070938
    28     0.681150
    29    -0.013272
    30    -0.006511
    31    -0.001560
    32    -0.002711
    33    -0.010734
    34     0.001670
    35     0.000456
    36    -0.014140
    37    -0.002489
    38     0.000625
    39     0.002024
    40     0.002265
    41     0.001827
    42     0.020142
    43    -0.180639
    44    -0.028297
    45    -0.010082
Sym=    38a
Ene=   -0.105887E-01
Spin= Alpha
Occup= 0.005084
     1    -0.158867
     2    -0.678878
     3     0.501980
     4    -0.038254
     5    -0.052016
     6    -0.195821
     7    -0.013908
     8    -0.014681
     9    -0.079492
    10     0.184679
    11     0.167679
    12     0.370975
    13    -0.006708
    14    -0.024637
    15    -0.044025
    16     0.286437
    17     1.364593
    18    -0.285809
    19     0.005773
    20     0.010242
    21    -0.046477
    22     0.019186
    23     0.036145
    24     0.386943
    25    -0.500005
    26    -0.538221
    27    -0.251064
    28    -0.048488
    29     0.111619
    30     0.181225
    31    -0.080714
    32    -0.233492
    33    -0.392347
    34     0.043827
    35     0.070744
    36    -0.326502
    37    -0.101124
    38    -0.166442
    39     0.679540
    40    -0.019153
    41    -0.105263
    42     0.526763
    43    -0.164512
    44    -0.171975
    45    -0.273848
Sym=    39a
Ene=   -0.874536E-02
Spin= Alpha
Occup= 0.003956
     1    -0.002333
     2    -0.010645
     3     0.004119
     4    -0.107606
     5     0.044784
     6     0.008036
     7    -0.051820
     8     0.017665
     9     0.005568
    10     0.011010
    11    -0.003581
    12     0.000426
    13     0.009067
    14    -0.049457
    15     0.025366
    16    -0.002247
    17    -0.002367
    18     0.009101
    19     0.041935
    20    -0.032903
    21     0.012813
    22     0.105221
    23    -0.068011
    24     0.009630
    25    -0.009719
    26     0.011493
    27     0.006786
    28     0.060907
    29     0.351401
    30    -0.184048
    31    -0.000082
    32     0.003781
    33    -0.021577
    34     0.198797
    35    -0.111339
    36    -0.022653
    37    -0.408964
    38     0.226807
    39     0.030937
    40    -0.084819
    41     0.069154
    42     0.025312
    43     0.238534
    44    -0.620523
    45     0.336498
Sym=    40a
Ene=   -0.571143E-02
Spin= Alpha
Occup= 0.002495
     1    -0.020157
     2    -0.079977
     3     0.002172
     4     0.180308
     5     0.048140
     6    -0.027827
     7    -0.051458
     8    -0.005830
     9    -0.032394
    10     0.119336
    11    -0.093334
    12     0.078154
    13     0.031485
    14     0.666417
    15     0.149691
    16    -0.006591
    17    -0.031891
    18     0.020315
    19     0.594458
    20     0.141486
    21    -0.023719
    22     0.512042
    23     0.126121
    24     0.010909
    25     0.084648
    26    -0.075238
    27     0.022054
    28     0.022081
    29    -0.254266
    30    -0.057461
    31    -0.001139
    32    -0.002868
    33    -0.017569
    34     0.007035
    35     0.014086
    36     0.011357
    37    -0.053248
    38    -0.030081
    39     0.004770
    40    -0.027413
    41     0.020644
    42     0.006046
    43     0.034604
    44    -0.346141
    45    -0.091114
Sym=    41a
Ene=   -0.802662E-02
Spin= Alpha
Occup= 0.002420
     1    -0.064676
     2    -0.229673
     3     0.723740
     4     0.000095
     5    -0.007852
     6    -0.495346
     7     0.000885
     8    -0.001002
     9     0.058083
    10     0.136751
    11     0.093119
    12     0.285703
    13    -0.040942
    14    -0.006170
    15    -0.013255
    16     0.577962
    17     2.385961
    18    -0.850061
    19    -0.000228
    20    -0.014579
    21    -0.312096
    22    -0.002736
    23    -0.014068
    24     0.436658
    25    -0.967476
    26    -1.003903
    27    -1.065132
    28    -0.002073
    29    -0.005676
    30     0.011090
    31    -0.069530
    32    -0.315343
    33     0.078783
    34    -0.018488
    35    -0.003006
    36     0.082590
    37     0.025893
    38     0.003128
    39    -0.235146
    40     0.357840
    41     0.421555
    42    -0.452950
    43     0.191109
    44     0.027643
    45     0.003353
Sym=    42a
Ene=   -0.232792E-03
Spin= Alpha
Occup= 0.000015
     1     0.058366
     2    -0.121222
     3    -2.093633
     4    -0.128395
     5    -0.205515
     6     0.096082
     7    -0.469990
     8    -0.764842
     9    -0.532773
    10    -0.413152
    11    -0.402327
    12     0.307398
    13     0.007163
    14    -0.163708
    15    -0.266115
    16     0.200206
    17     0.162263
    18     0.966089
    19     0.122008
    20     0.203323
    21    -0.215067
    22     0.594728
    23     0.978176
    24    -3.435827
    25    -0.701371
    26    -0.707689
    27    -0.732814
    28     0.002299
    29    -0.057011
    30    -0.090684
    31     0.011473
    32    -0.287560
    33     2.829754
    34     0.079783
    35     0.129219
    36    -0.000235
    37    -0.308044
    38    -0.504639
    39    -1.426187
    40    -0.210016
    41    -0.219572
    42     0.262590
    43    -0.012459
    44     0.077017
    45     0.132448
Sym=    43a
Ene=   -0.522417E-03
Spin= Alpha
Occup= 0.000032
     1     0.279992
     2     0.621487
     3    -0.962928
     4     0.004461
     5     0.009110
     6     0.490693
     7     0.004922
     8     0.015213
     9    -0.742674
    10    -0.820048
    11    -0.803851
    12    -1.005661
    13     0.010706
    14    -0.002509
    15     0.002530
    16    -0.150470
    17    -0.384454
    18     1.222338
    19    -0.001332
    20    -0.000457
    21    -0.304703
    22    -0.007373
    23    -0.016857
    24    -2.000337
    25     0.260172
    26     0.256724
    27     1.210009
    28     0.008415
    29    -0.011594
    30    -0.015104
    31    -0.131915
    32    -0.174978
    33    -0.189401
    34    -0.004344
    35    -0.003816
    36    -0.021397
    37     0.011260
    38     0.016392
    39     0.566053
    40     0.664037
    41     0.670017
    42    -0.371053
    43     0.005325
    44    -0.000659
    45    -0.004269
Sym=    44a
Ene=   -0.316235E-04
Spin= Alpha
Occup= 0.000002
     1    -0.039880
     2     0.400400
     3     1.271096
     4     0.000626
     5     0.001391
     6     0.001090
     7     0.001317
     8     0.009645
     9     0.201424
    10     0.319734
    11     0.320936
    12    -0.168220
    13    -0.006103
    14     0.001007
    15     0.003418
    16     0.069880
    17     0.347024
    18     4.783968
    19    -0.000569
    20    -0.002948
    21     0.106893
    22    -0.000431
    23    -0.013095
    24     5.791885
    25    -0.435754
    26    -0.442401
    27     0.457039
    28    -0.009716
    29     0.001946
    30     0.003960
    31    -0.056618
    32     0.827381
    33    -7.849313
    34     0.001908
    35    -0.000890
    36    -0.060960
    37    -0.002961
    38     0.004897
    39     3.633370
    40     0.531520
    41     0.530698
    42    -0.102203
    43    -0.003011
    44    -0.000957
    45    -0.003431
Sym=    45a
Ene=    0.000000E+00
Spin= Alpha
Occup= 0.000000
     1    -0.002583
     2     0.090050
     3    13.508654
     4     0.001350
     5     0.000400
     6    -0.118706
     7     0.003509
     8     0.001217
     9     7.008878
    10    -0.231103
    11    -0.232781
    12     0.677020
    13    -0.005815
    14     0.001105
    15     0.000575
    16    -0.035047
    17     0.238129
    18    -8.184495
    19    -0.000751
    20     0.000179
    21     0.014851
    22    -0.003945
    23    -0.001376
    24    12.225435
    25     0.238089
    26     0.236426
    27    -0.159080
    28    -0.003087
    29    -0.000337
    30    -0.000181
    31     0.002460
    32     0.474609
    33    -6.880324
    34    -0.000250
    35    -0.000575
    36    -0.040506
    37     0.002007
    38     0.001311
    39     2.868058
    40     0.133825
    41     0.135127
    42    -0.049275
    43     0.002113
    44     0.000032
    45    -0.001181
