[Molden Format]
p30-5 set                                                                       
[Atoms] AU
 CA       1    20        0.0000        0.0000       -1.6984
 O        2     8        0.0000        0.0000        1.6984
[GTO]
    1 0
s    6 1.00
   35138.713928999998  0.180479325772E-02
    5276.411134800000  0.138204344333E-01
    1200.469258900000  0.683474707386E-01
     338.718105420000  0.235857640075E+00
     109.853859220000  0.472631385247E+00
      37.608880299000  0.351692498575E+00
s    3 1.00
      73.107977555000 -0.102531311079E+00
       8.240770568800  0.609202407151E+00
       3.295981299300  0.464398802507E+00
s    3 1.00
       5.234180091400 -0.205301572010E+00
       0.841872205150  0.677915479198E+00
       0.365102940290  0.441009016342E+00
s    1 1.00
       0.051222402884  0.100000000000E+01
s    1 1.00
       0.019825111408  0.100000000000E+01
p    5 1.00
     413.113138930000  0.988446570905E-02
      96.935786224000  0.716288395041E-01
      30.372154659000  0.266899547729E+00
      10.684776830000  0.507697430817E+00
       3.882125835000  0.333840977912E+00
p    3 1.00
       1.799301629500  0.316604443154E+00
       0.691890565300  0.562979576248E+00
       0.263640240960  0.236757670930E+00
p    1 1.00
       0.074979000000  0.100000000000E+01
d    3 1.00
       5.497909387900  0.116004757206E+00
       1.317712803200  0.409686110613E+00
       0.321886826490  0.711310748747E+00
d    1 1.00
       0.070528614919  0.100000000000E+01
 
    2 0
s    5 1.00
    2266.176778500000 -0.538935039217E-02
     340.870101910000 -0.402347213890E-01
      77.363135167000 -0.180081842055E+00
      21.479644940000 -0.468288576577E+00
       6.658943312400 -0.446926171602E+00
s    1 1.00
       0.809759756680  0.100000000000E+01
s    1 1.00
       0.255307722340  0.100000000000E+01
p    3 1.00
      17.721504317000  0.626302487632E-01
       3.863550544000  0.333311384824E+00
       1.048092088300  0.741486383081E+00
p    1 1.00
       0.276415444110  0.100000000000E+01
d    1 1.00
       1.200000000000  0.100000000000E+01
 
[MO]
Sym=     1a
Ene=   -0.149287E+03
Spin= Alpha
Occup= 2.000000
     1     0.998569
     2     0.005269
     3    -0.006031
     4    -0.006996
     5    -0.000184
     6     0.000007
     7    -0.000001
     8     0.001335
     9     0.000001
    10     0.000000
    11     0.000038
    12    -0.000000
    13     0.000000
    14     0.000008
    15     0.003426
    16     0.003424
    17     0.003502
    18    -0.000000
    19     0.000000
    20     0.000000
    21     0.002069
    22     0.002069
    23     0.002041
    24     0.000000
    25     0.000000
    26    -0.000000
    27     0.000012
    28     0.000023
    29     0.000042
    30     0.000000
    31    -0.000001
    32     0.000101
    33    -0.000000
    34    -0.000000
    35     0.000069
    36    -0.000026
    37    -0.000027
    38    -0.000108
    39     0.000000
    40    -0.000000
    41    -0.000000
Sym=     2a
Ene=   -0.166637E+02
Spin= Alpha
Occup= 1.999990
     1    -0.310791
     2     1.037646
     3    -0.011674
     4    -0.001541
     5    -0.000533
     6    -0.001574
     7     0.000388
     8    -0.169348
     9    -0.000180
    10     0.000071
    11     0.000219
    12     0.000006
    13     0.000002
    14     0.000191
    15    -0.002253
    16    -0.002169
    17    -0.002455
    18     0.000012
    19    -0.000006
    20     0.000013
    21     0.000846
    22     0.000842
    23     0.000711
    24    -0.000002
    25     0.000002
    26     0.000002
    27    -0.000055
    28    -0.000197
    29     0.000684
    30     0.000003
    31     0.000023
    32     0.000186
    33     0.000004
    34     0.000016
    35    -0.000563
    36    -0.000037
    37    -0.000037
    38    -0.000054
    39    -0.000000
    40    -0.000000
    41    -0.000000
Sym=     3a
Ene=   -0.135643E+02
Spin= Alpha
Occup= 1.999986
     1    -0.000063
     2     0.000204
     3     0.000270
     4    -0.000055
     5    -0.000001
     6     1.002678
     7     0.000802
     8    -0.008304
     9    -0.008369
    10    -0.000098
    11     0.001077
    12    -0.002772
    13    -0.000003
    14     0.000012
    15     0.000008
    16     0.000005
    17    -0.000021
    18    -0.000000
    19     0.000226
    20     0.000000
    21     0.000017
    22     0.000015
    23     0.000010
    24    -0.000000
    25     0.000125
    26    -0.000001
    27     0.000002
    28    -0.000001
    29    -0.000000
    30     0.000003
    31    -0.000005
    32    -0.000049
    33    -0.000148
    34    -0.000002
    35    -0.000038
    36    -0.000008
    37    -0.000009
    38     0.000015
    39    -0.000000
    40     0.000247
    41     0.000000
Sym=     4a
Ene=   -0.135614E+02
Spin= Alpha
Occup= 1.999982
     1     0.000003
     2    -0.000048
     3     0.000400
     4     0.000034
     5     0.000000
     6    -0.000697
     7     1.004424
     8     0.003211
     9    -0.000158
    10    -0.013882
    11    -0.000611
    12     0.000000
    13    -0.002789
    14    -0.000006
    15    -0.000001
    16    -0.000002
    17     0.000009
    18    -0.000001
    19    -0.000000
    20     0.000244
    21    -0.000010
    22    -0.000007
    23    -0.000005
    24    -0.000001
    25    -0.000001
    26     0.000144
    27     0.000002
    28     0.000011
    29     0.000011
    30    -0.000010
    31    -0.000007
    32     0.000021
    33    -0.000007
    34    -0.000123
    35     0.000014
    36     0.000003
    37     0.000004
    38    -0.000006
    39    -0.000000
    40     0.000000
    41     0.000259
Sym=     5a
Ene=   -0.136567E+02
Spin= Alpha
Occup= 1.999978
     1    -0.054969
     2     0.179067
     3    -0.005480
     4     0.004685
     5     0.000008
     6     0.007405
     7    -0.002782
     8     0.988331
     9     0.001278
    10    -0.000662
    11    -0.008437
    12    -0.000014
    13     0.000006
    14    -0.000950
    15    -0.000849
    16    -0.000794
    17     0.001934
    18     0.000003
    19    -0.000003
    20     0.000005
    21    -0.001454
    22    -0.001454
    23    -0.000963
    24    -0.000001
    25    -0.000002
    26     0.000002
    27    -0.000257
    28     0.000940
    29    -0.003773
    30     0.000018
    31     0.000002
    32     0.000686
    33     0.000006
    34     0.000005
    35     0.004000
    36     0.000850
    37     0.000851
    38    -0.000839
    39    -0.000000
    40    -0.000002
    41     0.000000
Sym=     6a
Ene=   -0.205497E+02
Spin= Alpha
Occup= 1.999905
     1    -0.000047
     2     0.000180
     3    -0.001063
     4    -0.003560
     5     0.000392
     6     0.000028
     7    -0.000005
     8     0.000679
     9    -0.000071
    10     0.000015
    11    -0.002376
    12     0.000002
    13    -0.000001
    14    -0.002369
    15     0.000006
    16     0.000018
    17     0.000774
    18     0.000000
    19     0.000002
    20    -0.000000
    21     0.001205
    22     0.001207
    23    -0.001012
    24     0.000000
    25     0.000003
    26    -0.000000
    27     0.993496
    28    -0.028538
    29     0.018706
    30     0.000020
    31    -0.000003
    32    -0.000079
    33     0.000014
    34    -0.000001
    35    -0.001529
    36     0.003877
    37     0.003877
    38     0.004360
    39     0.000000
    40    -0.000001
    41     0.000000
Sym=     7a
Ene=   -0.220526E+01
Spin= Alpha
Occup= 1.998131
     1     0.099157
     2    -0.398718
     3     1.063927
     4     0.025908
     5    -0.000999
     6     0.001254
     7    -0.000512
     8     0.023859
     9    -0.004497
    10     0.000279
    11    -0.069430
    12    -0.000184
    13    -0.000100
    14    -0.002839
    15     0.006161
    16    -0.001453
    17    -0.005889
    18    -0.000591
    19     0.000705
    20    -0.000784
    21    -0.005697
    22    -0.005177
    23    -0.005281
    24     0.000065
    25    -0.000125
    26    -0.000072
    27     0.002512
    28     0.005016
    29    -0.000215
    30    -0.000117
    31    -0.001154
    32    -0.009181
    33    -0.000256
    34    -0.000802
    35    -0.001536
    36    -0.000360
    37    -0.000384
    38     0.002242
    39    -0.000003
    40     0.000010
    41     0.000024
Sym=     8a
Ene=   -0.131095E+01
Spin= Alpha
Occup= 1.991842
     1    -0.000018
     2     0.000056
     3    -0.000581
     4     0.001075
     5    -0.000006
     6    -0.240950
     7    -0.222810
     8     0.016272
     9     0.767296
    10     0.720901
    11    -0.053563
    12     0.003684
    13     0.003096
    14    -0.000181
    15    -0.000162
    16    -0.000104
    17     0.000272
    18     0.000019
    19    -0.000803
    20    -0.001200
    21    -0.000254
    22    -0.000217
    23    -0.000030
    24     0.000034
    25    -0.001864
    26    -0.001948
    27    -0.000365
    28    -0.000549
    29     0.001143
    30     0.007731
    31     0.005581
    32     0.002316
    33     0.001663
    34     0.000210
    35     0.000443
    36     0.000136
    37     0.000115
    38    -0.000450
    39     0.000021
    40    -0.001838
    41    -0.001684
Sym=     9a
Ene=   -0.131119E+01
Spin= Alpha
Occup= 1.991662
     1    -0.000125
     2     0.000493
     3    -0.002087
     4     0.001475
     5    -0.000012
     6    -0.225346
     7     0.237949
     8     0.021053
     9     0.717288
    10    -0.769339
    11    -0.071698
    12     0.003364
    13    -0.003303
    14    -0.000215
    15    -0.000296
    16    -0.000135
    17     0.000444
    18    -0.000007
    19    -0.000770
    20     0.001206
    21    -0.000357
    22    -0.000263
    23    -0.000041
    24    -0.000036
    25    -0.001825
    26     0.002102
    27    -0.000201
    28    -0.000155
    29     0.002026
    30     0.006695
    31    -0.005900
    32     0.003044
    33     0.001122
    34    -0.000174
    35     0.000527
    36     0.000155
    37     0.000189
    38    -0.000583
    39     0.000014
    40    -0.001701
    41     0.001792
Sym=    10a
Ene=   -0.132975E+01
Spin= Alpha
Occup= 1.989138
     1     0.006535
     2    -0.025914
     3     0.078775
     4    -0.021017
     5     0.000121
     6    -0.028704
     7     0.005401
     8    -0.327048
     9     0.088280
    10    -0.015731
    11     1.045883
    12     0.000372
    13    -0.000068
    14     0.002155
    15     0.003276
    16     0.001947
    17    -0.006804
    18    -0.000043
    19    -0.000060
    20    -0.000025
    21     0.005231
    22     0.005197
    23    -0.000642
    24     0.000015
    25    -0.000240
    26     0.000033
    27     0.004283
    28     0.002811
    29    -0.026758
    30     0.000543
    31    -0.000165
    32    -0.045755
    33    -0.000138
    34    -0.000014
    35    -0.008687
    36    -0.002716
    37    -0.002714
    38     0.008750
    39     0.000006
    40    -0.000201
    41     0.000038
Sym=    11a
Ene=   -0.726526E+00
Spin= Alpha
Occup= 1.976380
     1     0.005224
     2    -0.018478
     3     0.069774
     4    -0.024927
     5     0.003212
     6    -0.021911
     7     0.011770
     8    -0.023873
     9     0.075170
    10    -0.040577
    11     0.081442
    12    -0.065890
    13     0.037046
    14    -0.021881
    15     0.015721
    16     0.013358
    17    -0.033782
    18     0.000767
    19    -0.088238
    20     0.048835
    21     0.005856
    22     0.006040
    23    -0.006399
    24     0.000633
    25    -0.055379
    26     0.030972
    27    -0.164393
    28    -0.347664
    29    -0.254366
    30    -0.427737
    31     0.238960
    32     0.017871
    33    -0.330467
    34     0.184727
    35     0.016969
    36    -0.004870
    37    -0.004474
    38    -0.009410
    39     0.000404
    40     0.010290
    41    -0.005744
Sym=    12a
Ene=   -0.724930E+00
Spin= Alpha
Occup= 1.976274
     1    -0.004989
     2     0.017534
     3    -0.067456
     4     0.025433
     5    -0.003270
     6    -0.000550
     7     0.024083
     8     0.024014
     9     0.001883
    10    -0.083027
    11    -0.081892
    12    -0.001631
    13     0.075527
    14     0.021987
    15    -0.015085
    16    -0.014060
    17     0.033793
    18     0.001279
    19    -0.000921
    20     0.102247
    21    -0.006489
    22    -0.005556
    23     0.006200
    24     0.000187
    25    -0.001162
    26     0.063550
    27     0.163823
    28     0.346388
    29     0.253368
    30    -0.008905
    31     0.490595
    32    -0.018331
    33    -0.006997
    34     0.378961
    35    -0.017361
    36     0.004239
    37     0.005071
    38     0.009389
    39    -0.000016
    40     0.000191
    41    -0.011839
Sym=    13a
Ene=   -0.722321E+00
Spin= Alpha
Occup= 1.976116
     1    -0.005241
     2     0.018537
     3    -0.069929
     4     0.025332
     5    -0.003273
     6    -0.021783
     7    -0.012676
     8     0.024016
     9     0.074659
    10     0.043560
    11    -0.081860
    12    -0.064810
    13    -0.038579
    14     0.021956
    15    -0.014514
    16    -0.014623
    17     0.033803
    18    -0.000362
    19    -0.088467
    20    -0.053403
    21    -0.005648
    22    -0.006371
    23     0.006178
    24     0.000398
    25    -0.054714
    26    -0.032659
    27     0.163008
    28     0.344649
    29     0.252007
    30    -0.422330
    31    -0.252054
    32    -0.018394
    33    -0.326164
    34    -0.194582
    35    -0.017406
    36     0.004836
    37     0.004426
    38     0.009338
    39     0.000415
    40     0.010187
    41     0.006099
Sym=    14a
Ene=   -0.246416E+00
Spin= Alpha
Occup= 1.236854
     1     0.026460
     2    -0.078661
     3     0.375721
     4    -0.602722
     5    -0.129977
     6    -0.000067
     7     0.000033
     8    -0.015238
     9     0.000221
    10    -0.000106
    11     0.050097
    12    -0.000283
    13     0.000107
    14     0.312193
    15     0.079711
    16     0.076723
    17    -0.074325
    18     0.000152
    19     0.000209
    20    -0.000138
    21    -0.005887
    22    -0.006723
    23     0.059173
    24     0.000290
    25    -0.000018
    26    -0.000030
    27     0.026449
    28     0.068640
    29     0.015536
    30    -0.000422
    31     0.000136
    32     0.471992
    33    -0.000358
    34     0.000111
    35     0.335825
    36     0.005781
    37     0.005756
    38    -0.007111
    39    -0.000000
    40    -0.000009
    41     0.000000
Sym=    15a
Ene=   -0.172301E+00
Spin= Alpha
Occup= 0.763146
     1    -0.011644
     2     0.026724
     3    -0.156487
     4     0.661533
     5     0.161228
     6    -0.000016
     7     0.000003
     8    -0.083501
     9     0.000040
    10    -0.000004
    11     0.291628
    12     0.000122
    13    -0.000061
    14    -0.320381
    15     0.016423
    16     0.014054
    17    -0.157346
    18    -0.000486
    19     0.000133
    20    -0.000063
    21    -0.004548
    22    -0.004009
    23    -0.024719
    24    -0.000400
    25    -0.000121
    26     0.000062
    27    -0.000333
    28     0.000147
    29    -0.004717
    30    -0.000379
    31     0.000086
    32     0.491850
    33    -0.000306
    34     0.000056
    35     0.283542
    36     0.000225
    37     0.000205
    38    -0.005768
    39    -0.000012
    40    -0.000021
    41     0.000003
Sym=    16a
Ene=   -0.180547E-01
Spin= Alpha
Occup= 0.023884
     1     0.007193
     2    -0.021577
     3     0.115466
     4    -0.126495
     5     0.033292
     6     0.026973
     7     0.015862
     8    -0.037351
     9    -0.097763
    10    -0.057522
    11     0.144665
    12     0.163369
    13     0.096219
    14    -0.212944
    15     0.036398
    16     0.028979
    17    -0.063953
    18     0.008016
    19     0.198277
    20     0.124461
    21     0.044810
    22     0.049510
    23    -0.047674
    24    -0.002654
    25     0.127979
    26     0.075709
    27     0.188930
    28     0.886501
    29    -0.634544
    30    -0.618344
    31    -0.368153
    32    -0.029039
    33     0.446311
    34     0.263635
    35     0.024115
    36     0.028063
    37    -0.049340
    38    -0.073393
    39     0.083589
    40    -0.015301
    41    -0.009687
Sym=    17a
Ene=   -0.180078E-01
Spin= Alpha
Occup= 0.023726
     1    -0.007203
     2     0.021591
     3    -0.115369
     4     0.125939
     5    -0.033264
     6    -0.001015
     7     0.031620
     8     0.037566
     9     0.003645
    10    -0.114605
    11    -0.145489
    12    -0.006249
    13     0.191428
    14     0.212884
    15    -0.040586
    16    -0.024577
    17     0.063012
    18     0.020247
    19     0.007243
    20     0.221218
    21    -0.049026
    22    -0.045022
    23     0.047632
    24    -0.000858
    25    -0.004257
    26     0.149290
    27    -0.189918
    28    -0.891374
    29     0.638913
    30     0.015152
    31    -0.720951
    32     0.029258
    33    -0.014448
    34     0.523699
    35    -0.025011
    36     0.093133
    37    -0.070624
    38     0.073519
    39     0.003329
    40    -0.000677
    41    -0.016748
Sym=    18a
Ene=   -0.179747E-01
Spin= Alpha
Occup= 0.023620
     1     0.007169
     2    -0.021531
     3     0.114491
     4    -0.123223
     5     0.033045
     6    -0.027985
     7     0.015864
     8    -0.037477
     9     0.101380
    10    -0.057459
    11     0.145147
    12    -0.169130
    13     0.095961
    14    -0.211399
    15     0.056954
    16     0.009562
    17    -0.064132
    18     0.009603
    19    -0.183033
    20     0.094951
    21     0.044382
    22     0.048730
    23    -0.048783
    24     0.003088
    25    -0.131168
    26     0.074145
    27     0.190685
    28     0.895116
    29    -0.642227
    30     0.630872
    31    -0.353354
    32    -0.028437
    33    -0.461808
    34     0.260870
    35     0.024053
    36     0.031944
    37    -0.055273
    38    -0.073853
    39    -0.080357
    40     0.013354
    41    -0.007040
Sym=    19a
Ene=   -0.120602E-01
Spin= Alpha
Occup= 0.010862
     1    -0.004161
     2     0.024566
     3    -0.063637
     4    -0.441369
     5    -0.013149
     6    -0.001322
     7     0.000765
     8     0.058558
     9     0.004679
    10    -0.002710
    11    -0.208554
    12    -0.007745
    13     0.004798
    14    -0.011361
    15     0.779221
    16     0.354061
    17    -1.026296
    18    -0.020092
    19     0.048416
    20    -0.025709
    21     0.074710
    22     0.108973
    23     0.223018
    24     0.001566
    25    -0.009150
    26     0.004695
    27    -0.001750
    28    -0.144478
    29     0.530763
    30     0.005249
    31    -0.002474
    32    -0.251853
    33    -0.016040
    34     0.008194
    35    -0.264531
    36    -0.024983
    37    -0.027519
    38     0.000814
    39    -0.000919
    40    -0.000418
    41     0.000204
Sym=    20a
Ene=   -0.887934E-02
Spin= Alpha
Occup= 0.008338
     1     0.001111
     2    -0.003669
     3     0.051860
     4    -0.094464
     5     0.000334
     6     0.003939
     7    -0.005111
     8     0.008766
     9    -0.013921
    10     0.018020
    11    -0.030732
    12     0.024019
    13    -0.029689
    14    -0.039406
    15    -0.551004
    16     0.705309
    17    -0.224352
    18    -0.669415
    19    -0.140801
    20     0.192982
    21     0.094353
    22    -0.059604
    23     0.058408
    24     0.089558
    25     0.026337
    26    -0.036603
    27     0.000837
    28    -0.026353
    29     0.116088
    30    -0.013939
    31     0.018069
    32    -0.055212
    33     0.044272
    34    -0.061146
    35    -0.051628
    36    -0.007688
    37    -0.000885
    38     0.004021
    39     0.002108
    40    -0.001116
    41     0.002313
Sym=    21a
Ene=   -0.875281E-02
Spin= Alpha
Occup= 0.008158
     1    -0.001177
     2     0.004094
     3    -0.055680
     4     0.093434
     5    -0.000463
     6    -0.002502
     7    -0.002293
     8    -0.009009
     9     0.008836
    10     0.008065
    11     0.031624
    12    -0.015123
    13    -0.012527
    14     0.040519
    15     0.495350
    16    -0.647880
    17     0.230148
    18    -0.760524
    19     0.087179
    20     0.096387
    21    -0.086982
    22     0.051959
    23    -0.059164
    24     0.101040
    25    -0.016464
    26    -0.018857
    27    -0.000709
    28     0.027606
    29    -0.119072
    30     0.008913
    31     0.008489
    32     0.055451
    33    -0.028200
    34    -0.029734
    35     0.053734
    36     0.003693
    37     0.005407
    38    -0.004449
    39    -0.001723
    40     0.000842
    41     0.001619
Sym=    22a
Ene=   -0.251256E-02
Spin= Alpha
Occup= 0.001869
     1    -0.000131
     2     0.000377
     3    -0.002670
     4     0.001207
     5    -0.000088
     6    -0.020896
     7     0.018375
     8     0.000343
     9     0.073712
    10    -0.064818
    11    -0.001690
    12    -0.105918
    13     0.093354
    14     0.002117
    15    -0.165686
    16     0.155695
    17     0.010843
    18    -0.153937
    19     0.736069
    20    -0.646367
    21     0.025746
    22    -0.023853
    23    -0.002706
    24     0.023854
    25    -0.141578
    26     0.124962
    27     0.000438
    28     0.003112
    29    -0.005901
    30     0.148842
    31    -0.130511
    32     0.012294
    33    -0.319176
    34     0.279656
    35    -0.009515
    36     0.015780
    37    -0.016347
    38     0.000359
    39    -0.019205
    40     0.000516
    41    -0.000282
Sym=    23a
Ene=   -0.200092E-02
Spin= Alpha
Occup= 0.000095
     1    -0.005083
     2     0.016394
     3    -0.089554
     4    -0.097764
     5     0.000736
     6     0.000084
     7    -0.000037
     8     0.029011
     9    -0.000298
    10     0.000132
    11    -0.126592
    12     0.000246
    13    -0.000259
    14     0.037890
    15    -0.010696
    16     0.007879
    17     0.016214
    18     0.000983
    19    -0.002381
    20     0.000997
    21     0.035491
    22     0.034343
    23    -0.022993
    24    -0.000557
    25    -0.000113
    26    -0.000205
    27     0.727930
    28     2.362372
    29     1.011459
    30    -0.001296
    31     0.000144
    32     0.058304
    33     0.002188
    34    -0.000350
    35    -0.116008
    36    -1.453661
    37    -1.453430
    38    -1.397399
    39     0.000108
    40     0.000488
    41    -0.000026
Sym=    24a
Ene=   -0.309515E-03
Spin= Alpha
Occup= 0.000022
     1    -0.012406
     2     0.068610
     3    -0.375987
     4    -1.097971
     5    -0.018255
     6     0.000413
     7    -0.000212
     8     0.102712
     9    -0.001453
    10     0.000748
    11    -0.405514
    12     0.002240
    13    -0.000997
    14    -0.056907
    15     0.323687
    16     0.354484
    17    -0.060638
    18     0.002397
    19    -0.011046
    20     0.006698
    21     0.325486
    22     0.318725
    23     0.301369
    24    -0.000033
    25     0.001518
    26    -0.000932
    27    -0.015585
    28    -0.136579
    29     0.301106
    30    -0.002726
    31     0.001929
    32     0.879247
    33     0.005415
    34    -0.003698
    35    -1.275720
    36    -0.138348
    37    -0.137775
    38     0.386466
    39     0.001035
    40    -0.001402
    41    -0.000756
Sym=    25a
Ene=   -0.260284E-03
Spin= Alpha
Occup= 0.000018
     1     0.000316
     2    -0.001880
     3     0.061684
     4     0.171697
     5     0.021589
     6    -0.000085
     7     0.000104
     8    -0.000186
     9     0.000309
    10    -0.000356
    11     0.028201
    12    -0.000567
    13     0.000445
    14    -0.011333
    15     0.000442
    16    -0.011617
    17    -0.091851
    18    -0.000994
    19     0.003437
    20    -0.002336
    21    -0.053260
    22    -0.052438
    23    -0.061700
    24     0.000102
    25    -0.000516
    26     0.000333
    27     0.005149
    28     0.051785
    29    -0.098243
    30     0.000428
    31    -0.000736
    32    -0.297278
    33    -0.001349
    34     0.001242
    35     0.364436
    36    -0.452472
    37    -0.452235
    38     0.968310
    39    -0.000063
    40    -0.001560
    41    -0.002277
Sym=    26a
Ene=   -0.199900E-03
Spin= Alpha
Occup= 0.000014
     1     0.000010
     2    -0.000117
     3     0.000763
     4     0.001799
     5     0.000048
     6     0.000238
     7     0.007881
     8    -0.000054
     9     0.000065
    10    -0.023300
    11     0.000152
    12    -0.005212
    13     0.002435
    14     0.000367
    15    -0.005042
    16     0.003545
    17    -0.000459
    18     0.008535
    19     0.037866
    20    -0.036710
    21     0.000564
    22    -0.001405
    23    -0.000532
    24    -0.001397
    25    -0.006912
    26    -0.005164
    27     0.000024
    28     0.000019
    29     0.000151
    30     0.019403
    31     0.030403
    32    -0.000130
    33    -0.035256
    34    -0.048443
    35     0.000185
    36    -0.005892
    37     0.008188
    38    -0.002885
    39    -0.003647
    40    -0.199915
    41    -0.979598
Sym=    27a
Ene=   -0.170857E-03
Spin= Alpha
Occup= 0.000010
     1    -0.000013
     2     0.000126
     3    -0.000848
     4    -0.002117
     5     0.000055
     6    -0.008901
     7     0.003122
     8     0.000077
     9     0.026862
    10    -0.010062
    11    -0.000254
    12    -0.005966
    13     0.006945
    14    -0.000430
    15     0.001533
    16     0.001038
    17    -0.000505
    18    -0.006937
    19     0.073149
    20    -0.054552
    21     0.000601
    22     0.000603
    23     0.000292
    24     0.000757
    25     0.000307
    26     0.004947
    27    -0.000165
    28    -0.000359
    29    -0.000646
    30    -0.019965
    31    -0.007455
    32     0.000398
    33     0.028041
    34     0.016134
    35    -0.000943
    36    -0.000644
    37     0.000901
    38     0.002091
    39     0.007428
    40     0.981934
    41    -0.205006
Sym=    28a
Ene=   -0.437841E-05
Spin= Alpha
Occup= 0.000000
     1     0.000036
     2    -0.000268
     3     0.002879
     4     0.000468
     5     0.000035
     6     0.004060
     7     0.001944
     8     0.000178
     9    -0.014653
    10    -0.007061
    11    -0.000687
    12     0.019803
    13     0.009879
    14    -0.001209
    15     0.004282
    16    -0.007261
    17    -0.003013
    18     0.019617
    19     0.024905
    20     0.024956
    21    -0.003419
    22     0.003669
    23    -0.000260
    24    -0.008388
    25    -0.001870
    26    -0.000576
    27    -0.000073
    28    -0.001081
    29     0.003080
    30    -0.097773
    31    -0.052756
    32     0.000604
    33     0.084184
    34     0.041340
    35    -0.001982
    36    -0.386904
    37     0.386196
    38     0.000126
    39    -0.886893
    40     0.005146
    41     0.004106
Sym=    29a
Ene=    0.000000E+00
Spin= Alpha
Occup= 0.000000
     1     0.011652
     2    -0.067368
     3     0.633611
     4     0.747708
     5    -0.754672
     6     0.029114
     7     0.034120
     8     0.012217
     9    -0.105662
    10    -0.123656
    11    -0.044781
    12     0.314651
    13     0.340074
    14     0.374478
    15    -0.434905
    16    -0.377160
    17    -0.353722
    18    -0.053410
    19    -0.153810
    20    -0.171316
    21     0.434721
    22    -0.130117
    23     0.411994
    24     0.064737
    25     0.011985
    26     0.036015
    27    -0.015478
    28     0.123551
    29    -0.724389
    30     0.065816
    31    -0.041360
    32     0.005207
    33    -0.105977
    34    -0.010434
    35    -0.061208
    36    -0.425923
    37     0.620563
    38     0.144840
    39     0.295651
    40    -0.006766
    41    -0.006944
Sym=    30a
Ene=    0.000000E+00
Spin= Alpha
Occup= 0.000000
     1    -0.006573
     2     0.010740
     3    -0.112725
     4     0.459111
     5     0.129720
     6     0.042790
     7     0.041263
     8    -0.007288
     9    -0.159406
    10    -0.152334
    11     0.026845
    12     0.668506
    13     0.568348
    14     0.034796
    15    -0.010070
    16    -0.034119
    17    -0.019733
    18     0.048477
    19     0.279364
    20     0.331517
    21    -0.413341
    22    -0.124831
    23    -0.128996
    24    -0.029336
    25     0.353129
    26    -0.020880
    27    -0.000892
    28     0.026933
    29    -0.136251
    30     0.337688
    31     0.249555
    32    -0.003546
    33    -0.789079
    34    -0.521914
    35     0.046678
    36     0.144472
    37    -0.117485
    38     0.006017
    39    -0.081815
    40     0.058179
    41     0.058371
Sym=    31a
Ene=    0.000000E+00
Spin= Alpha
Occup= 0.000000
     1     0.001282
     2     0.006733
     3    -0.053321
     4    -0.300243
     5    -0.065015
     6     0.047876
     7    -0.067648
     8    -0.000097
     9    -0.176330
    10     0.247882
    11    -0.000241
    12     0.644307
    13    -0.841057
    14    -0.067443
    15     0.112093
    16     0.064423
    17     0.062143
    18     0.027835
    19     0.093329
    20    -0.061763
    21     0.023311
    22     0.186741
    23     0.108924
    24    -0.100168
    25     0.207239
    26    -0.109544
    27     0.002529
    28    -0.018982
    29     0.111662
    30     0.249842
    31    -0.262050
    32     0.004591
    33    -0.562036
    34     0.574930
    35    -0.023592
    36    -0.129353
    37     0.093621
    38    -0.017462
    39     0.066097
    40     0.033009
    41    -0.034177
Sym=    32a
Ene=    0.000000E+00
Spin= Alpha
Occup= 0.000000
     1    -0.030252
     2     0.026608
     3    -0.393729
     4     3.573769
     5    -0.098351
     6    -0.026143
     7    -0.009910
     8    -0.033998
     9     0.094313
    10     0.035857
    11     0.134514
    12    -0.241651
    13    -0.105164
    14     1.312937
    15    -0.367450
    16    -0.394271
    17     0.030928
    18     0.020067
    19     0.076319
    20     0.137301
    21    -1.450503
    22    -0.943683
    23    -0.513592
    24     0.031696
    25     0.137305
    26    -0.066089
    27    -0.049166
    28     0.490505
    29    -2.665369
    30     0.023922
    31    -0.022890
    32    -0.080324
    33    -0.044242
    34     0.033295
    35     0.574628
    36     0.227747
    37     0.565182
    38     0.333991
    39     0.099221
    40     0.002683
    41     0.011881
Sym=    33a
Ene=    0.000000E+00
Spin= Alpha
Occup= 0.000000
     1     0.001075
     2    -0.299719
     3     2.858782
     4     6.631729
     5    -0.081474
     6    -0.021297
     7    -0.007341
     8     0.040156
     9     0.076146
    10     0.026761
    11    -0.148889
    12    -0.160774
    13    -0.084130
    14     0.066581
    15    -2.681699
    16    -2.772253
    17    -2.775190
    18     0.029197
    19     0.051570
    20     0.107879
    21    -1.926059
    22    -1.505859
    23    -1.987815
    24    -0.062904
    25     0.271654
    26    -0.114484
    27    -0.002709
    28    -0.072128
    29     0.136096
    30     0.051847
    31    -0.001334
    32     0.004602
    33    -0.147267
    34     0.038244
    35    -0.277779
    36     0.060267
    37    -0.173415
    38     0.122447
    39    -0.064778
    40     0.005267
    41     0.008357
Sym=    34a
Ene=    0.000000E+00
Spin= Alpha
Occup= 0.000000
     1    -0.008313
     2    -0.017881
     3     0.268094
     4     1.076371
     5    -0.283152
     6    -0.031853
     7     0.000358
     8    -0.012780
     9     0.114858
    10    -0.001633
    11     0.037859
    12    -0.288903
    13     0.010890
    14    -0.748466
    15    -0.215872
    16    -0.334147
    17    -0.625582
    18     0.013253
    19     0.073869
    20     0.144729
    21    -0.807662
    22    -0.359110
    23    -0.003882
    24     0.029899
    25     0.193846
    26    -0.061823
    27     0.027790
    28    -0.182058
    29     0.992003
    30     0.042350
    31    -0.015062
    32     0.055542
    33    -0.073974
    34    -0.012240
    35    -0.280918
    36    -0.536744
    37     0.116210
    38    -0.147576
    39     0.190187
    40     0.000852
    41     0.017358
Sym=    35a
Ene=    0.000000E+00
Spin= Alpha
Occup= 0.000000
     1     0.000992
     2    -0.022190
     3     0.183306
     4     0.247279
     5     0.344377
     6    -0.016843
     7    -0.021112
     8     0.004835
     9     0.059585
    10     0.076042
    11    -0.018167
    12    -0.097434
    13    -0.196846
    14     0.056696
    15    -0.263255
    16    -0.069162
    17    -0.168840
    18    -0.075142
    19     0.265641
    20     0.316184
    21     0.224118
    22    -0.631653
    23    -0.114350
    24     0.738061
    25     0.109654
    26    -0.119218
    27    -0.001672
    28     0.013274
    29    -0.087519
    30     0.091743
    31     0.021814
    32     0.005012
    33    -0.207989
    34    -0.025034
    35    -0.034389
    36    -0.003187
    37     0.021460
    38     0.018921
    39    -0.026207
    40     0.026958
    41     0.028622
Sym=    36a
Ene=    0.000000E+00
Spin= Alpha
Occup= 0.000000
     1    -0.000341
     2    -0.000029
     3     0.024788
     4     0.082002
     5    -0.195528
     6     0.024583
     7     0.012135
     8    -0.000325
     9    -0.088133
    10    -0.042965
    11     0.001134
    12     0.202387
    13     0.078249
    14    -0.093728
    15     0.094788
    16    -0.127699
    17    -0.036031
    18    -0.185830
    19    -0.265618
    20    -0.331128
    21    -0.415905
    22     0.546315
    23    -0.051037
    24     0.719329
    25    -0.042603
    26     0.069874
    27     0.003381
    28    -0.035157
    29     0.190106
    30    -0.059767
    31    -0.055488
    32    -0.002006
    33     0.116870
    34     0.119591
    35    -0.006797
    36     0.052602
    37    -0.107146
    38    -0.023842
    39    -0.060115
    40    -0.022363
    41    -0.035422
Sym=    37a
Ene=    0.000000E+00
Spin= Alpha
Occup= 0.000000
     1    -0.003645
     2     0.040466
     3    -0.373613
     4    -0.458548
     5    -0.099362
     6    -0.016983
     7     0.001118
     8    -0.008334
     9     0.059372
    10    -0.004226
    11     0.031456
    12    -0.042859
    13     0.033384
    14    -0.031893
    15     0.259605
    16     0.310821
    17     0.313733
    18    -0.055352
    19    -0.403011
    20    -0.368641
    21     0.353574
    22    -0.053195
    23     0.078171
    24    -0.001831
    25     0.931789
    26     0.398571
    27     0.001436
    28    -0.000816
    29     0.039473
    30     0.126325
    31     0.021256
    32    -0.007910
    33    -0.390654
    34    -0.078677
    35     0.075834
    36     0.093511
    37    -0.093320
    38    -0.026563
    39    -0.077485
    40    -0.025156
    41    -0.031837
Sym=    38a
Ene=    0.000000E+00
Spin= Alpha
Occup= 0.000000
     1     0.005383
     2    -0.024233
     3     0.222167
     4    -0.075038
     5     0.047023
     6     0.001648
     7    -0.026325
     8     0.008037
     9    -0.005764
    10     0.090721
    11    -0.029956
    12     0.002261
    13    -0.009041
    14     0.030731
    15    -0.092326
    16    -0.126162
    17    -0.122209
    18     0.015558
    19     0.151265
    20     0.033682
    21    -0.055447
    22     0.160832
    23     0.060184
    24     0.022310
    25    -0.210442
    26     1.036168
    27    -0.001331
    28    -0.000807
    29    -0.015506
    30    -0.004260
    31     0.303061
    32     0.005987
    33     0.044340
    34    -0.781203
    35    -0.059429
    36    -0.093872
    37     0.098417
    38     0.018052
    39     0.052217
    40     0.014996
    41     0.024741
Sym=    39a
Ene=    0.000000E+00
Spin= Alpha
Occup= 0.000000
     1    -0.007346
     2     0.063950
     3    -0.486143
     4    -0.919307
     5    -0.140721
     6    -0.008948
     7     0.002587
     8     0.000299
     9     0.031946
    10    -0.009852
    11     0.004766
    12    -0.062682
    13     0.043926
    14    -0.732585
    15     0.319757
    16     0.348622
    17     0.428168
    18     0.014367
    19     0.086110
    20     0.127056
    21     0.672873
    22     0.744897
    23    -1.195977
    24     0.028328
    25     0.048259
    26    -0.035086
    27     0.029263
    28    -0.348818
    29     1.937860
    30     0.046439
    31     0.008378
    32    -0.052748
    33    -0.081243
    34    -0.050750
    35     0.180133
    36    -0.446397
    37     0.011893
    38    -0.285385
    39     0.131939
    40     0.007659
    41     0.016229
Sym=    40a
Ene=    0.000000E+00
Spin= Alpha
Occup= 0.000000
     1    -0.053644
     2    -0.167769
     3     1.610006
     4     9.659152
     5     0.274989
     6     0.022280
     7    -0.002397
     8    -0.026422
     9    -0.079814
    10     0.008589
    11     0.098067
    12     0.173244
    13    -0.012668
    14    -0.033960
    15    -2.652315
    16    -2.538565
    17    -2.581010
    18    -0.014989
    19    -0.034117
    20    -0.104158
    21    -3.024230
    22    -3.578999
    23    -3.171028
    24     0.010365
    25    -0.262270
    26     0.131851
    27     0.003057
    28    -0.003536
    29    -0.133169
    30    -0.060725
    31     0.021059
    32    -0.043815
    33     0.142122
    34    -0.039414
    35     0.180445
    36     0.088583
    37    -0.176264
    38     0.041909
    39    -0.079083
    40    -0.002164
    41    -0.011072
Sym=    41a
Ene=    0.000000E+00
Spin= Alpha
Occup= 0.000000
     1    -0.026096
     2    -0.133686
     3     1.137488
     4     4.657989
     5     2.630349
     6     0.002903
     7     0.010094
     8     0.009557
     9    -0.010479
    10    -0.036214
    11    -0.034455
    12     0.032721
    13     0.080098
    14    -0.016274
    15    -1.619794
    16    -1.670794
    17    -1.657198
    18    -0.018014
    19    -0.107402
    20    -0.105888
    21    -2.526941
    22    -2.392725
    23    -2.546337
    24    -0.023158
    25     0.076937
    26    -0.002330
    27     0.004198
    28    -0.065530
    29     0.232193
    30     0.012785
    31    -0.046529
    32    -0.016113
    33    -0.018492
    34     0.062665
    35    -0.004466
    36    -0.258817
    37     0.162119
    38    -0.011708
    39     0.123107
    40    -0.009411
    41    -0.009108
