[Molden Format]
p30-5 set                                                                       
[Atoms] AU
 MG       1    12        0.0000        0.0000        1.6325
 O        2     8        0.0000        0.0000       -1.6325
[GTO]
    1 0
s    5 1.00
    4953.833919600000 -0.573034825338E-02
     745.180441540000 -0.427698711217E-01
     169.216049720000 -0.191096515460E+00
      47.300672019000 -0.482411503269E+00
      14.461336973000 -0.422007266852E+00
s    3 1.00
      24.768174789000  0.871156057208E-01
       2.494094534900 -0.546373693218E+00
       0.878075845330 -0.529320757859E+00
s    1 1.00
       0.087212782497  0.100000000000E+01
s    1 1.00
       0.033599293780  0.100000000000E+01
p    5 1.00
      98.053010494000 -0.144805646010E-01
      22.586932277000 -0.954957507867E-01
       6.839150984200 -0.307876726509E+00
       2.233284381800 -0.499362928859E+00
       0.716065993870 -0.315034762129E+00
p    1 1.00
       0.189147961950  0.100000000000E+01
p    1 1.00
       0.053768755187  0.100000000000E+01
d    1 1.00
       0.101000000000  0.100000000000E+01
 
    2 0
s    5 1.00
    2266.176778500000 -0.538935039217E-02
     340.870101910000 -0.402347213890E-01
      77.363135167000 -0.180081842055E+00
      21.479644940000 -0.468288576577E+00
       6.658943312400 -0.446926171602E+00
s    1 1.00
       0.809759756680  0.100000000000E+01
s    1 1.00
       0.255307722340  0.100000000000E+01
p    3 1.00
      17.721504317000  0.626302487632E-01
       3.863550544000  0.333311384824E+00
       1.048092088300  0.741486383081E+00
p    1 1.00
       0.276415444110  0.100000000000E+01
d    1 1.00
       1.200000000000  0.100000000000E+01
 
[MO]
Sym=     1a
Ene=   -0.490556E+02
Spin= Alpha
Occup= 2.000000
     1     0.996915
     2     0.013389
     3     0.008514
     4     0.004085
     5     0.000061
     6    -0.000012
     7    -0.000664
     8    -0.000004
     9    -0.000000
    10    -0.001175
    11     0.000002
    12    -0.000003
    13     0.000123
    14    -0.004506
    15    -0.004503
    16    -0.003810
    17     0.000002
    18    -0.000001
    19     0.000002
    20     0.000010
    21     0.000274
    22    -0.001310
    23    -0.000001
    24     0.000003
    25    -0.000109
    26     0.000003
    27     0.000002
    28    -0.001137
    29     0.000056
    30     0.000055
    31    -0.000274
    32    -0.000000
    33    -0.000001
    34    -0.000001
Sym=     2a
Ene=   -0.205356E+02
Spin= Alpha
Occup= 1.999905
     1     0.000131
     2    -0.000384
     3    -0.003547
     4     0.000733
     5    -0.000004
     6    -0.000018
     7     0.001187
     8     0.000020
     9    -0.000008
    10     0.002406
    11     0.000030
    12    -0.000014
    13     0.001256
    14     0.000674
    15     0.000714
    16    -0.001957
    17     0.000023
    18    -0.000032
    19     0.000012
    20     0.994447
    21    -0.026718
    22     0.021730
    23     0.000204
    24    -0.000092
    25    -0.002514
    26     0.000121
    27    -0.000056
    28     0.001232
    29     0.004030
    30     0.003778
    31     0.004013
    32    -0.000166
    33     0.000040
    34    -0.000017
Sym=     3a
Ene=   -0.288531E+01
Spin= Alpha
Occup= 1.999740
     1     0.169716
     2    -0.637955
     3     0.008513
     4     0.002032
     5    -0.008138
     6    -0.008234
     7     0.782849
     8     0.000182
     9    -0.000000
    10    -0.000515
    11     0.000020
    12     0.000023
    13    -0.001866
    14    -0.002094
    15    -0.002094
    16    -0.005534
    17     0.000002
    18    -0.000012
    19     0.000031
    20     0.000616
    21     0.004718
    22     0.002758
    23    -0.000006
    24     0.000004
    25     0.007779
    26     0.000046
    27    -0.000022
    28     0.001768
    29    -0.000417
    30    -0.000307
    31     0.002372
    32     0.000067
    33    -0.000019
    34     0.000017
Sym=     4a
Ene=   -0.263184E+01
Spin= Alpha
Occup= 1.999567
     1    -0.124341
     2     0.468403
     3    -0.013785
     4    -0.001032
     5    -0.089892
     6    -0.809055
     7     0.352135
     8     0.000513
     9     0.006397
    10    -0.001498
    11     0.000143
    12     0.001504
    13    -0.000742
    14     0.003726
    15     0.003713
    16     0.002733
    17     0.000011
    18     0.000232
    19     0.001191
    20     0.000421
    21     0.001738
    22     0.000337
    23    -0.000230
    24     0.000204
    25     0.001290
    26    -0.000233
    27    -0.000213
    28    -0.000363
    29     0.000065
    30     0.000102
    31    -0.000123
    32     0.000001
    33     0.000095
    34     0.000730
Sym=     5a
Ene=   -0.262140E+01
Spin= Alpha
Occup= 1.999552
     1    -0.122226
     2     0.460322
     3    -0.013700
     4    -0.000985
     5     0.741821
     6     0.329981
     7     0.366606
     8    -0.006268
     9    -0.002375
    10    -0.001498
    11    -0.001426
    12    -0.000586
    13    -0.000775
    14     0.003654
    15     0.003713
    16     0.002657
    17    -0.000001
    18    -0.000925
    19    -0.000593
    20     0.000480
    21     0.001860
    22     0.000404
    23    -0.000686
    24     0.000212
    25     0.001454
    26    -0.000216
    27     0.000336
    28    -0.000325
    29     0.000074
    30     0.000081
    31    -0.000079
    32     0.000022
    33    -0.000647
    34    -0.000316
Sym=     6a
Ene=   -0.262316E+01
Spin= Alpha
Occup= 1.999548
     1    -0.122431
     2     0.461400
     3    -0.013682
     4    -0.001076
     5    -0.660016
     6     0.480710
     7     0.354294
     8     0.006010
     9    -0.004152
    10    -0.001697
    11     0.001299
    12    -0.000917
    13    -0.000704
    14     0.003699
    15     0.003723
    16     0.002760
    17     0.000028
    18     0.000675
    19    -0.000579
    20     0.000393
    21     0.001684
    22     0.000229
    23     0.001068
    24    -0.000505
    25     0.001344
    26     0.000583
    27    -0.000190
    28    -0.000315
    29     0.000085
    30     0.000085
    31    -0.000115
    32     0.000008
    33     0.000553
    34    -0.000417
Sym=     7a
Ene=   -0.725334E+00
Spin= Alpha
Occup= 1.978499
     1     0.014765
     2    -0.094129
     3    -0.152399
     4     0.046637
     5     0.003169
     6    -0.001406
     7     0.045498
     8     0.004152
     9    -0.001874
    10     0.036976
    11     0.005289
    12    -0.002353
    13    -0.045360
    14    -0.003308
    15    -0.001457
    16     0.047751
    17     0.001196
    18    -0.004957
    19     0.002243
    20     0.183689
    21     0.411594
    22     0.273105
    23     0.035900
    24    -0.016117
    25    -0.476865
    26     0.027064
    27    -0.012144
    28    -0.366544
    29     0.013309
    30     0.011974
    31    -0.004072
    32    -0.000862
    33     0.001220
    34    -0.000546
Sym=     8a
Ene=   -0.734486E+00
Spin= Alpha
Occup= 1.973039
     1    -0.017870
     2     0.104823
     3     0.115372
     4    -0.008822
     5    -0.018078
     6    -0.035918
     7    -0.082425
     8    -0.025970
     9    -0.051773
    10    -0.043400
    11    -0.029583
    12    -0.059654
    13     0.003379
    14    -0.013667
    15    -0.012333
    16    -0.016878
    17     0.001099
    18     0.028104
    19     0.056161
    20     0.148864
    21     0.305491
    22     0.244823
    23    -0.191400
    24    -0.382179
    25     0.267005
    26    -0.144894
    27    -0.290271
    28     0.213416
    29    -0.001126
    30    -0.001401
    31     0.017699
    32     0.000231
    33    -0.005633
    34    -0.011066
Sym=     9a
Ene=   -0.734417E+00
Spin= Alpha
Occup= 1.973034
     1    -0.017874
     2     0.104814
     3     0.115342
     4    -0.008816
     5     0.014753
     6     0.037362
     7    -0.082389
     8     0.021350
     9     0.053873
    10    -0.043401
    11     0.024802
    12     0.061788
    13     0.003377
    14    -0.013874
    15    -0.012130
    16    -0.016852
    17     0.000894
    18    -0.023201
    19    -0.058389
    20     0.148848
    21     0.305457
    22     0.244780
    23     0.157703
    24     0.397368
    25     0.266903
    26     0.120092
    27     0.301448
    28     0.213339
    29    -0.001480
    30    -0.001049
    31     0.017699
    32    -0.000132
    33     0.004507
    34     0.011577
Sym=    10a
Ene=   -0.234891E+00
Spin= Alpha
Occup= 1.039796
     1     0.031051
     2    -0.200288
     3    -0.459401
     4    -0.198590
     5    -0.029980
     6     0.013423
     7    -0.080801
     8    -0.034251
     9     0.015347
    10    -0.156226
    11    -0.033642
    12     0.015108
    13    -0.200657
    14    -0.002134
    15    -0.001743
    16    -0.031034
    17     0.000281
    18     0.035821
    19    -0.016060
    20     0.015041
    21     0.031003
    22     0.047877
    23    -0.419638
    24     0.187917
    25     0.035482
    26    -0.299200
    27     0.133969
    28     0.032896
    29    -0.000313
    30     0.000205
    31     0.000017
    32     0.000333
    33    -0.011070
    34     0.004957
Sym=    11a
Ene=   -0.173864E-03
Spin= Alpha
Occup= 0.000115
     1     0.000066
     2    -0.000680
     3     0.000313
     4    -0.002450
     5    -0.000302
     6    -0.000368
     7     0.000190
     8    -0.011126
     9    -0.022528
    10     0.001227
    11     0.000346
    12    -0.001078
    13    -0.002000
    14     0.023467
    15    -0.012756
    16    -0.006664
    17     0.020201
    18    -0.046912
    19    -0.111981
    20    -0.000052
    21     0.000037
    22     0.002136
    23    -0.033504
    24    -0.071550
    25     0.003974
    26     0.001974
    27    -0.002646
    28    -0.005247
    29    -0.106777
    30     0.092662
    31     0.015343
    32    -0.115355
    33     0.395796
    34     0.889084
Sym=    12a
Ene=   -0.331257E-02
Spin= Alpha
Occup= 0.002178
     1     0.000033
     2     0.000146
     3     0.013725
     4     0.022842
     5    -0.010260
     6     0.010864
     7     0.002536
     8     0.027527
     9     0.008898
    10    -0.007452
    11    -0.077757
    12     0.024256
    13     0.007004
    14     0.024132
    15    -0.054194
    16    -0.003571
    17     0.052323
    18     0.030663
    19    -0.021838
    20    -0.003804
    21    -0.014852
    22     0.000916
    23     0.383765
    24    -0.169987
    25     0.040439
    26    -0.396263
    27     0.164519
    28    -0.053423
    29     0.364077
    30    -0.442381
    31     0.086379
    32     0.517016
    33     0.526382
    34    -0.112737
Sym=    13a
Ene=   -0.187315E-01
Spin= Alpha
Occup= 0.024783
     1    -0.022050
     2     0.141836
     3     0.204815
     4    -0.072035
     5    -0.037662
     6    -0.074748
     7    -0.134153
     8    -0.072711
     9    -0.145515
    10    -0.196700
    11    -0.073887
    12    -0.142831
    13    -0.126671
    14    -0.029110
    15    -0.019396
    16    -0.038705
    17     0.005790
    18     0.063310
    19     0.128734
    20    -0.182123
    21    -0.841190
    22     0.588645
    23     0.277780
    24     0.552239
    25    -0.394278
    26    -0.198409
    27    -0.391569
    28     0.279256
    29     0.049500
    30    -0.008649
    31     0.030940
    32    -0.048546
    33     0.033602
    34     0.064429
Sym=    14a
Ene=   -0.558593E-02
Spin= Alpha
Occup= 0.005283
     1     0.003189
     2    -0.021838
     3    -0.046340
     4    -0.001282
     5    -0.095232
     6     0.042552
     7     0.018360
     8    -0.202934
     9     0.090640
    10     0.040467
    11    -0.071541
    12     0.031750
    13    -0.007505
    14     0.018440
    15     0.012177
    16     0.031208
    17    -0.003814
    18     0.173881
    19    -0.077981
    20    -0.009098
    21    -0.047641
    22     0.049843
    23     0.599484
    24    -0.268518
    25     0.072732
    26    -0.469418
    27     0.210426
    28    -0.055334
    29     0.074251
    30     0.015927
    31    -0.080506
    32    -0.037702
    33    -0.550184
    34     0.245864
Sym=    15a
Ene=   -0.117159E-02
Spin= Alpha
Occup= 0.000415
     1     0.041269
     2    -0.314787
     3    -0.855857
     4    -0.370325
     5     0.228486
     6    -0.164650
     7    -0.104036
     8     0.797006
     9    -0.580670
    10    -0.409182
    11    -0.169148
    12     0.138944
    13     0.251695
    14     0.547049
    15     0.544475
    16     0.628573
    17     0.000996
    18     0.083682
    19    -0.067730
    20    -0.000641
    21     0.019411
    22    -0.169518
    23     0.121836
    24    -0.099985
    25    -0.045591
    26    -0.262126
    27     0.203231
    28     0.067259
    29     0.011360
    30     0.001215
    31     0.005073
    32     0.000148
    33    -0.128563
    34     0.057691
Sym=    16a
Ene=   -0.113865E-02
Spin= Alpha
Occup= 0.000404
     1    -0.041254
     2     0.314603
     3     0.847138
     4     0.351577
     5     0.254207
     6     0.109190
     7     0.106094
     8     0.901088
     9     0.396959
    10     0.436566
    11    -0.228603
    12    -0.123382
    13    -0.268975
    14    -0.533426
    15    -0.546196
    16    -0.639740
    17     0.001886
    18     0.095522
    19     0.066875
    20     0.000424
    21    -0.025287
    22     0.193825
    23     0.154022
    24     0.093421
    25     0.034381
    26    -0.314214
    27    -0.165752
    28    -0.036412
    29     0.015319
    30     0.011357
    31    -0.043529
    32    -0.028673
    33    -0.091772
    34     0.040653
Sym=    17a
Ene=   -0.116063E-03
Spin= Alpha
Occup= 0.000033
     1    -0.009087
     2     0.083720
     3     0.198633
     4     0.241833
     5     0.012822
     6    -0.021233
     7    -0.043045
     8     0.084537
     9    -0.132193
    10    -0.300136
    11    -0.059619
    12     0.144092
    13     0.201753
    14    -0.584575
    15    -0.612864
    16     0.697007
    17    -0.015278
    18    -0.261448
    19     0.252248
    20     0.007357
    21     0.061434
    22    -0.454002
    23     0.066303
    24    -0.050551
    25    -0.193162
    26    -0.198094
    27     0.163072
    28     0.165204
    29     0.047792
    30     0.360297
    31    -0.521240
    32     0.198508
    33     0.008282
    34     0.036503
Sym=    18a
Ene=   -0.358918E-03
Spin= Alpha
Occup= 0.000100
     1     0.034313
     2    -0.323288
     3    -1.830948
     4    -0.661609
     5     0.001357
     6    -0.000923
     7     0.190807
     8     0.007414
     9     0.002168
    10     1.833662
    11    -0.017570
    12    -0.010129
    13    -0.489047
    14     0.840353
    15     0.867653
    16     0.249309
    17     0.017627
    18     0.004391
    19    -0.026684
    20     0.006409
    21    -0.446431
    22     1.995166
    23    -0.019312
    24     0.009179
    25    -0.300586
    26     0.026051
    27    -0.019349
    28     1.380649
    29    -0.594761
    30    -0.078039
    31     0.102699
    32     0.333614
    33    -0.049322
    34     0.020806
Sym=    19a
Ene=   -0.187724E-04
Spin= Alpha
Occup= 0.000001
     1    -0.001148
     2     0.010137
     3     0.020949
     4     0.042982
     5     0.005617
     6     0.010299
     7    -0.005987
     8     0.027265
     9     0.048648
    10    -0.037534
    11     0.196691
    12     0.435426
    13     0.026385
    14    -0.060729
    15    -0.079132
    16     0.065405
    17     0.005478
    18    -0.466244
    19    -0.988235
    20     0.001379
    21     0.008062
    22    -0.044947
    23     0.185660
    24     0.398938
    25    -0.013020
    26    -0.486641
    27    -1.041303
    28     0.005631
    29    -0.001583
    30    -0.003330
    31    -0.013074
    32    -0.000068
    33    -0.051959
    34    -0.110606
Sym=    20a
Ene=   -0.284618E-05
Spin= Alpha
Occup= 0.000000
     1    -0.001917
     2     0.017098
     3     0.056095
     4     0.050265
     5     0.042636
     6     0.088951
     7    -0.010641
     8     0.272446
     9     0.572244
    10    -0.074562
    11    -0.474688
    12    -1.047566
    13     0.037464
    14    -0.143155
    15    -0.085335
    16     0.123147
    17    -0.041460
    18    -0.204769
    19    -0.341290
    20     0.001784
    21     0.018743
    22    -0.105981
    23    -0.037398
    24    -0.113952
    25    -0.018827
    26     0.018624
    27     0.133473
    28    -0.001797
    29     0.004142
    30    -0.004127
    31    -0.018957
    32     0.004271
    33    -0.042583
    34    -0.082359
Sym=    21a
Ene=   -0.220554E+00
Spin= Alpha
Occup= 0.960088
     1    -0.029389
     2     0.190644
     3     0.457960
     4     0.204003
     5    -0.024556
     6     0.010996
     7     0.094025
     8    -0.023553
     9     0.010535
    10     0.164942
    11    -0.016011
    12     0.007114
    13     0.201949
    14     0.003749
    15     0.003052
    16     0.035633
    17    -0.000465
    18     0.032559
    19    -0.014571
    20    -0.010828
    21    -0.019286
    22    -0.047888
    23    -0.413676
    24     0.185254
    25    -0.107315
    26    -0.291758
    27     0.130677
    28    -0.085742
    29     0.002392
    30     0.001028
    31    -0.002466
    32    -0.000882
    33    -0.010543
    34     0.004722
Sym=    22a
Ene=   -0.187323E-01
Spin= Alpha
Occup= 0.024789
     1     0.022044
     2    -0.141819
     3    -0.204864
     4     0.071925
     5    -0.030727
     6    -0.077957
     7     0.134136
     8    -0.060362
     9    -0.151531
    10     0.196840
    11    -0.057147
    12    -0.149884
    13     0.126571
    14     0.028846
    15     0.020015
    16     0.038376
    17    -0.006267
    18     0.054171
    19     0.133397
    20     0.182102
    21     0.841052
    22    -0.588302
    23     0.226956
    24     0.575078
    25     0.394128
    26    -0.159795
    27    -0.408649
    28    -0.279061
    29    -0.058896
    30     0.018126
    31    -0.030991
    32     0.038818
    33     0.025667
    34     0.067898
Sym=    23a
Ene=   -0.331289E-02
Spin= Alpha
Occup= 0.002178
     1    -0.000032
     2    -0.000161
     3    -0.013699
     4    -0.022652
     5     0.014842
     6    -0.000509
     7    -0.002564
     8    -0.012047
     9     0.026179
    10     0.007315
    11     0.069948
    12    -0.041650
    13    -0.007034
    14     0.064269
    15    -0.034005
    16     0.003279
    17     0.039224
    18    -0.036550
    19     0.008377
    20     0.003777
    21     0.014768
    22    -0.000933
    23    -0.382570
    24     0.173229
    25    -0.040172
    26     0.387018
    27    -0.186096
    28     0.052996
    29     0.528810
    30    -0.451668
    31    -0.085089
    32     0.404618
    33    -0.435815
    34     0.316039
Sym=    24a
Ene=   -0.132232E-01
Spin= Alpha
Occup= 0.016218
     1    -0.016482
     2     0.111263
     3     0.208836
     4    -0.182858
     5    -0.009992
     6     0.004496
     7    -0.065767
     8    -0.017725
     9     0.008109
    10    -0.074870
    11    -0.018095
    12     0.007766
    13     0.103097
    14     0.030416
    15     0.027683
    16    -0.159762
    17    -0.001762
    18     0.015587
    19    -0.007368
    20     0.217110
    21     1.020521
    22    -0.755177
    23     0.075387
    24    -0.033836
    25    -0.735177
    26    -0.059826
    27     0.026744
    28     0.714719
    29    -0.137286
    30    -0.128981
    31     0.074717
    32     0.005381
    33    -0.026726
    34     0.012016
Sym=    25a
Ene=   -0.123884E-03
Spin= Alpha
Occup= 0.000036
     1    -0.004018
     2     0.040783
     3     0.184332
     4     0.070277
     5    -0.050108
     6     0.027307
     7    -0.008144
     8    -0.313747
     9     0.168690
    10    -0.146608
    11     0.231099
    12    -0.140164
    13     0.010133
    14    -0.063231
    15    -0.065349
    16    -0.087213
    17    -0.002292
    18     0.849617
    19    -0.414898
    20    -0.004609
    21     0.037098
    22    -0.203397
    23    -0.202502
    24     0.093633
    25    -0.033482
    26     0.621371
    27    -0.294222
    28    -0.051318
    29     0.120589
    30     0.424568
    31    -0.430052
    32     0.195372
    33     0.148482
    34    -0.064653
Sym=    26a
Ene=   -0.151513E-03
Spin= Alpha
Occup= 0.000044
     1    -0.000655
     2    -0.003489
     3    -0.205604
     4     0.110219
     5    -0.025985
     6     0.002654
     7    -0.010580
     8    -0.169451
     9     0.024927
    10     0.096406
    11     0.128620
    12    -0.001085
    13     0.108573
    14    -0.305852
    15    -0.369074
    16     0.603100
    17    -0.038425
    18     0.490780
    19    -0.146006
    20     0.012593
    21    -0.033703
    22     0.083023
    23    -0.121670
    24     0.042328
    25    -0.083267
    26     0.361889
    27    -0.117559
    28     0.233315
    29    -0.165833
    30    -0.563697
    31     0.445008
    32    -0.256120
    33     0.028551
    34    -0.009111
Sym=    27a
Ene=   -0.112613E-02
Spin= Alpha
Occup= 0.000400
     1     0.041611
     2    -0.318145
     3    -0.873803
     4    -0.362711
     5     0.028468
     6     0.273735
     7    -0.102407
     8     0.106303
     9     0.980792
    10    -0.402262
    11    -0.038261
    12    -0.273128
    13     0.259261
    14     0.552049
    15     0.542108
    16     0.645673
    17     0.000887
    18     0.029211
    19     0.127068
    20    -0.000807
    21     0.015844
    22    -0.161322
    23     0.035709
    24     0.192711
    25    -0.042714
    26    -0.056312
    27    -0.368848
    28     0.066224
    29    -0.033558
    30     0.009864
    31     0.034730
    32    -0.005018
    33     0.043535
    34    -0.019679
Sym=    28a
Ene=   -0.652060E-03
Spin= Alpha
Occup= 0.000160
     1     0.022404
     2    -0.191628
     3    -0.932712
     4    -0.401461
     5    -0.004399
     6     0.000233
     7     0.122132
     8    -0.008082
     9     0.000146
    10     0.927015
    11    -0.014063
    12     0.000217
    13    -0.248249
    14     0.501049
    15     0.465025
    16     0.147365
    17    -0.023822
    18    -0.028965
    19     0.002024
    20    -0.006864
    21    -0.192447
    22     0.767453
    23     0.028004
    24    -0.013655
    25    -0.170032
    26    -0.040561
    27     0.017470
    28     0.736606
    29     0.612068
    30    -0.213981
    31    -0.404358
    32    -0.532948
    33     0.151820
    34    -0.068159
Sym=    29a
Ene=   -0.198964E-02
Spin= Alpha
Occup= 0.000094
     1     0.004466
     2    -0.020538
     3     0.195103
     4    -0.008057
     5     0.000011
     6    -0.000176
     7     0.027688
     8    -0.000151
     9    -0.000430
    10    -0.128084
    11     0.001163
    12    -0.000590
    13     0.024275
    14    -0.064320
    15    -0.071160
    16     0.088585
    17    -0.004450
    18    -0.001433
    19     0.000020
    20    -0.726407
    21    -2.323108
    22    -1.192343
    23    -0.001820
    24     0.000761
    25    -0.009306
    26     0.001140
    27    -0.000551
    28    -0.076488
    29     1.407766
    30     1.449849
    31     1.484645
    32     0.027180
    33    -0.010531
    34     0.004596
Sym=    30a
Ene=   -0.199578E-05
Spin= Alpha
Occup= 0.000000
     1    -0.000218
     2    -0.000643
     3    -0.083837
     4     0.032651
     5    -0.010494
     6     0.002007
     7     0.000778
     8    -0.078243
     9     0.010264
    10     0.056374
    11     0.207543
    12    -0.031794
    13     0.082762
    14    -0.208684
    15     0.272950
    16    -0.139515
    17    -0.938696
    18    -0.060646
    19     0.033578
    20     0.004584
    21    -0.048845
    22     0.285518
    23     0.050204
    24    -0.013519
    25    -0.005348
    26    -0.119006
    27     0.032250
    28     0.036864
    29     0.009138
    30    -0.082704
    31    -0.032127
    32     0.106568
    33     0.014773
    34     0.037889
Sym=    31a
Ene=    0.000000E+00
Spin= Alpha
Occup= 0.000000
     1    -0.004142
     2     0.046640
     3    -0.718214
     4     1.779573
     5     0.010349
     6    -0.004307
     7     0.010363
     8     0.066877
     9    -0.035261
    10     0.182349
    11    -0.160367
    12     0.096256
    13    -0.383994
    14    -1.100401
    15     0.144170
    16    -0.283562
    17     0.178507
    18     0.058717
    19    -0.022178
    20    -0.012115
    21     0.085486
    22    -0.439712
    23    -0.039034
    24     0.022029
    25    -0.096616
    26     0.092987
    27    -0.051999
    28     0.271167
    29     0.154828
    30     0.015098
    31     0.101454
    32    -0.007512
    33     0.006158
    34     0.018184
Sym=    32a
Ene=    0.000000E+00
Spin= Alpha
Occup= 0.000000
     1    -0.005459
     2     0.036586
     3    -1.296251
     4     1.703890
     5     0.034323
     6    -0.014963
     7     0.010808
     8     0.239820
     9    -0.101469
    10     0.564592
    11    -0.591343
    12     0.247685
    13     0.707917
    14     0.104268
    15    -0.484239
    16    -1.425020
    17    -0.144630
    18     0.157074
    19    -0.075393
    20     0.032450
    21    -0.408712
    22     2.340876
    23    -0.128835
    24     0.055129
    25    -0.115471
    26     0.307609
    27    -0.133156
    28     0.513085
    29    -0.284081
    30    -0.231726
    31    -0.265716
    32     0.002519
    33     0.007168
    34    -0.011407
Sym=    33a
Ene=    0.000000E+00
Spin= Alpha
Occup= 0.000000
     1     0.000353
     2    -0.024371
     3    -0.233149
     4    -0.712509
     5    -0.011065
     6     0.005500
     7    -0.002532
     8    -0.078942
     9     0.034741
    10     0.257834
    11     0.193267
    12    -0.077486
    13     1.113257
    14    -0.041679
    15     0.785496
    16    -0.810917
    17     0.226069
    18    -0.042783
    19     0.020846
    20     0.041938
    21    -0.456989
    22     2.523150
    23     0.038904
    24    -0.015551
    25     0.009915
    26    -0.093176
    27     0.037211
    28     0.130969
    29    -0.278913
    30    -0.362181
    31    -0.353445
    32    -0.013020
    33    -0.000763
    34     0.010663
Sym=    34a
Ene=    0.000000E+00
Spin= Alpha
Occup= 0.000000
     1    -0.004468
     2     0.037483
     3    -0.906234
     4     1.530380
     5    -0.053517
     6     0.023387
     7     0.010197
     8    -0.369130
     9     0.165032
    10     0.361535
    11     0.918034
    12    -0.422871
    13     0.118619
    14    -0.095934
    15    -0.502781
    16    -0.745341
    17     0.086853
    18    -0.273636
    19     0.133642
    20     0.009998
    21    -0.145666
    22     0.862515
    23     0.210896
    24    -0.100408
    25    -0.107463
    26    -0.504283
    27     0.241809
    28     0.383928
    29    -0.106167
    30    -0.064770
    31    -0.071645
    32    -0.019664
    33    -0.021425
    34    -0.000224
