[Molden Format]
p30-5 set                                                                       
[Atoms] AU
 B        1     5        0.0000        0.0000        0.0000
[GTO]
    1 0
s    5 1.00
     839.318300860000 -0.562888359825E-02
     126.264648430000 -0.418327946095E-01
      28.620600763000 -0.184174881258E+00
       7.879372271000 -0.468396550281E+00
       2.408885717200 -0.444579308833E+00
s    1 1.00
       0.251051090360  0.100000000000E+01
s    1 1.00
       0.083648866069  0.100000000000E+01
p    3 1.00
       6.033222361900 -0.540325003228E-01
       1.249915786600 -0.301940343932E+00
       0.338716763500 -0.771707916582E+00
p    1 1.00
       0.096415632351  0.100000000000E+01
d    1 1.00
       0.500000000000  0.100000000000E+01
 
[MO]
Sym=     1a
Ene=   -0.767667E+01
Spin= Alpha
Occup= 1.999357
     1     0.996177
     2    -0.019470
     3     0.014249
     4     0.000016
     5    -0.000009
     6    -0.000008
     7     0.000011
     8    -0.000002
     9     0.000000
    10     0.000968
    11     0.000613
    12     0.000989
    13     0.000112
    14    -0.000016
    15     0.000093
Sym=     2a
Ene=   -0.491676E+00
Spin= Alpha
Occup= 1.790338
     1     0.261157
     2     0.633018
     3     0.368426
     4    -0.000024
     5     0.000024
     6     0.000006
     7    -0.000001
     8    -0.000056
     9     0.000012
    10     0.037834
    11     0.035913
    12     0.037824
    13     0.000538
    14    -0.000125
    15     0.000496
Sym=     3a
Ene=   -0.176740E+00
Spin= Alpha
Occup= 1.000000
     1    -0.000012
     2    -0.000062
     3     0.000056
     4    -0.148341
     5     0.646641
     6    -0.136127
     7     0.099483
     8    -0.433655
     9     0.091318
    10    -0.000037
    11    -0.000037
    12    -0.000018
    13     0.000013
    14     0.000005
    15     0.000003
Sym=     4a
Ene=   -0.320036E-01
Spin= Alpha
Occup= 0.100444
     1     0.000005
     2     0.000054
     3     0.000000
     4     0.749554
     5     0.137263
     6    -0.164776
     7    -0.319220
     8    -0.058451
     9     0.070178
    10    -0.000038
    11    -0.000007
    12    -0.000013
    13     0.000006
    14     0.000008
    15    -0.000003
Sym=     5a
Ene=   -0.127329E-03
Spin= Alpha
Occup= 0.000016
     1    -0.000010
     2    -0.000017
     3     0.000012
     4     0.764933
     5     0.259966
     6     0.401259
     7     0.971042
     8     0.330033
     9     0.509426
    10    -0.000001
    11     0.000075
    12    -0.000051
    13     0.000119
    14    -0.000036
    15     0.000035
Sym=     6a
Ene=   -0.319847E-01
Spin= Alpha
Occup= 0.100365
     1    -0.000012
     2    -0.000024
     3    -0.000007
     4    -0.129753
     5    -0.186772
     6    -0.745784
     7     0.055232
     8     0.079528
     9     0.317520
    10     0.000019
    11     0.000026
    12     0.000009
    13     0.000010
    14     0.000010
    15    -0.000007
Sym=     7a
Ene=   -0.597523E-04
Spin= Alpha
Occup= 0.000007
     1     0.159311
     2     0.400266
     3     1.366726
     4    -0.000438
     5     0.001859
     6    -0.000391
     7    -0.000495
     8     0.002143
     9    -0.000443
    10    -0.916265
    11    -0.448408
    12    -0.920567
    13    -0.130837
    14     0.027503
    15    -0.120122
Sym=     8a
Ene=   -0.177380E-02
Spin= Alpha
Occup= 0.002159
     1    -0.054391
     2    -0.395539
     3     0.626200
     4    -0.002602
     5     0.011351
     6    -0.002393
     7    -0.002940
     8     0.012788
     9    -0.002682
    10     0.300771
    11    -0.897809
    12     0.311345
    13     0.335141
    14    -0.070543
    15     0.307613
Sym=     9a
Ene=   -0.186502E-03
Spin= Alpha
Occup= 0.000022
     1    -0.000010
     2    -0.000039
     3    -0.000146
     4    -0.000024
     5    -0.000012
     6    -0.000018
     7    -0.000044
     8    -0.000029
     9    -0.000029
    10     0.823261
    11     0.007351
    12    -0.830392
    13     0.220221
    14     0.010118
    15    -0.199560
Sym=    10a
Ene=   -0.254146E-02
Spin= Alpha
Occup= 0.004517
     1    -0.001545
     2    -0.009682
     3     0.011310
     4     0.214927
     5    -0.936834
     6     0.197236
     7     0.241456
     8    -1.052472
     9     0.221592
    10     0.003812
    11    -0.009584
    12     0.003941
    13     0.003754
    14    -0.000787
    15     0.003457
Sym=    11a
Ene=   -0.186498E-03
Spin= Alpha
Occup= 0.000022
     1     0.000003
     2    -0.000001
     3    -0.000064
     4     0.000003
     5    -0.000001
     6    -0.000003
     7    -0.000003
     8    -0.000009
     9     0.000013
    10     0.046746
    11    -0.076208
    12     0.029530
    13    -0.188842
    14    -0.955746
    15    -0.212080
Sym=    12a
Ene=   -0.940380E-03
Spin= Alpha
Occup= 0.001088
     1    -0.000018
     2    -0.000057
     3     0.000025
     4    -0.000065
     5    -0.000005
     6     0.000122
     7    -0.000076
     8     0.000005
     9     0.000140
    10    -0.166253
    11    -0.145185
    12     0.311494
    13     0.437678
    14     0.107842
    15    -0.836447
Sym=    13a
Ene=   -0.127517E-03
Spin= Alpha
Occup= 0.000016
     1    -0.000010
     2    -0.000019
     3     0.000022
     4     0.435413
     5    -0.065851
     6    -0.787266
     7     0.552719
     8    -0.083625
     9    -0.999435
    10    -0.000029
    11    -0.000012
    12     0.000052
    13     0.000074
    14     0.000004
    15    -0.000113
Sym=    14a
Ene=   -0.940295E-03
Spin= Alpha
Occup= 0.001088
     1     0.000027
     2     0.000088
     3    -0.000017
     4     0.000122
     5     0.000030
     6     0.000038
     7     0.000147
     8     0.000030
     9     0.000060
    10     0.330703
    11    -0.469757
    12     0.138970
    13    -0.770116
    14     0.262691
    15    -0.324062
Sym=    15a
Ene=   -0.481989E-02
Spin= Alpha
Occup= 0.000560
     1     0.929434
     2     4.418535
     3    -0.748488
     4     0.000274
     5    -0.001201
     6     0.000247
     7     0.000323
     8    -0.001351
     9     0.000284
    10    -1.572533
    11    -1.721957
    12    -1.571200
    13     0.041808
    14    -0.008794
    15     0.038349
