[Molden Format]
p30-5 set                                                                       
[Atoms] AU
 BE       1     4        0.0000        0.0000        0.0000
[GTO]
    1 0
s    5 1.00
     515.186161250000  0.583763544133E-02
      77.511037595000  0.432349671107E-01
      17.552481693000  0.188026956444E+00
       4.802894059600  0.469576904234E+00
       1.451621431600  0.440951660947E+00
s    1 1.00
       0.132816336200  0.100000000000E+01
s    1 1.00
       0.045837372213  0.100000000000E+01
p    3 1.00
       3.631691714500 -0.454619686657E-01
       0.716956943660 -0.264276543343E+00
       0.195419328600 -0.804884200890E+00
p    1 1.00
       0.060515465890  0.100000000000E+01
 
[MO]
Sym=     1a
Ene=   -0.471239E+01
Spin= Alpha
Occup= 1.999919
     1     0.997946
     2     0.013477
     3    -0.013183
     4     0.000003
     5     0.000000
     6    -0.000005
     7    -0.000008
     8     0.000003
     9    -0.000017
Sym=     2a
Ene=   -0.310298E+00
Spin= Alpha
Occup= 1.793391
     1    -0.256431
     2     0.745318
     3     0.329670
     4     0.000015
     5     0.000003
     6    -0.000000
     7     0.000007
     8     0.000011
     9    -0.000013
Sym=     3a
Ene=   -0.164588E-01
Spin= Alpha
Occup= 0.069065
     1     0.000007
     2    -0.000010
     3     0.000022
     4    -0.038700
     5     0.660889
     6    -0.386098
     7     0.016806
     8    -0.286708
     9     0.167494
Sym=     4a
Ene=   -0.882199E-04
Spin= Alpha
Occup= 0.000019
     1     0.000007
     2    -0.000006
     3     0.000015
     4    -0.404162
     5     0.340762
     6     0.821489
     7    -0.495047
     8     0.417369
     9     1.006132
Sym=     5a
Ene=   -0.163701E-01
Spin= Alpha
Occup= 0.068722
     1    -0.000004
     2    -0.000017
     3     0.000011
     4     0.758118
     5    -0.030150
     6    -0.127613
     7    -0.323479
     8     0.014459
     9     0.057189
Sym=     6a
Ene=   -0.194153E-03
Spin= Alpha
Occup= 0.000043
     1     0.241862
     2    -1.655476
     3     1.726393
     4    -0.000014
     5    -0.000006
     6    -0.000011
     7    -0.000008
     8     0.000007
     9    -0.000018
Sym=     7a
Ene=   -0.164039E-01
Spin= Alpha
Occup= 0.068822
     1    -0.000005
     2    -0.000012
     3     0.000005
     4     0.128708
     5     0.387468
     6     0.650317
     7    -0.052340
     8    -0.166970
     9    -0.280581
Sym=     8a
Ene=   -0.883689E-04
Spin= Alpha
Occup= 0.000019
     1    -0.000007
     2     0.000008
     3    -0.000019
     4    -0.091627
     5     0.881704
     6    -0.410859
     7    -0.112219
     8     1.079690
     9    -0.503081
Sym=     9a
Ene=    0.000000E+00
Spin= Alpha
Occup= 0.000000
     1     0.000012
     2    -0.000025
     3     0.000019
     4     0.881704
     5     0.246199
     6     0.331712
     7     1.084724
     8     0.302875
     9     0.408054
