[Molden Format]
p30-5 set                                                                       
[Atoms] AU
 O        1     8        0.0000        0.0000        0.9155
 H        2     1        0.0000        0.0000       -0.9155
[GTO]
    1 0
s    5 1.00
    2266.176778500000 -0.538935039217E-02
     340.870101910000 -0.402347213890E-01
      77.363135167000 -0.180081842055E+00
      21.479644940000 -0.468288576577E+00
       6.658943312400 -0.446926171602E+00
s    1 1.00
       0.809759756680  0.100000000000E+01
s    1 1.00
       0.255307722340  0.100000000000E+01
p    3 1.00
      17.721504317000  0.626302487632E-01
       3.863550544000  0.333311384824E+00
       1.048092088300  0.741486383081E+00
p    1 1.00
       0.276415444110  0.100000000000E+01
d    1 1.00
       1.200000000000  0.100000000000E+01
 
    2 0
s    3 1.00
      13.010701000000  0.334854848130E-01
       1.962257200000  0.234721870881E+00
       0.444537960000  0.813770285260E+00
s    1 1.00
       0.121949620000  0.100000000000E+01
p    1 1.00
       0.800000000000  0.100000000000E+01
 
[MO]
Sym=     1a
Ene=   -0.206088E+02
Spin= Alpha
Occup= 1.999907
     1     0.994649
     2    -0.025209
     3     0.016144
     4    -0.000006
     5     0.000001
     6     0.004379
     7    -0.000007
     8     0.000000
     9     0.001632
    10     0.004302
    11     0.004746
    12     0.003483
    13     0.000081
    14     0.000001
    15    -0.000000
    16     0.002280
    17    -0.002313
    18    -0.000003
    19     0.000003
    20     0.001983
Sym=     2a
Ene=   -0.822935E+00
Spin= Alpha
Occup= 1.980973
     1     0.188491
     2     0.408940
     3     0.326235
     4    -0.454399
     5     0.072250
     6     0.167118
     7    -0.340516
     8     0.054141
     9     0.116522
    10     0.007463
    11     0.008258
    12     0.000258
    13     0.000150
    14     0.010907
    15    -0.001738
    16    -0.030515
    17    -0.028092
    18    -0.021487
    19     0.003416
    20     0.005563
Sym=     3a
Ene=   -0.822438E+00
Spin= Alpha
Occup= 1.980962
     1     0.188339
     2     0.408572
     3     0.325959
     4     0.454796
     5    -0.072307
     6     0.166997
     7     0.340824
     8    -0.054183
     9     0.116438
    10     0.007451
    11     0.008243
    12     0.000248
    13     0.000149
    14    -0.010916
    15     0.001735
    16    -0.030514
    17    -0.028062
    18     0.021502
    19    -0.003419
    20     0.005557
Sym=     4a
Ene=   -0.887896E+00
Spin= Alpha
Occup= 1.962108
     1     0.086019
     2     0.180900
     3    -0.054698
     4     0.000025
     5    -0.000011
     6    -0.483823
     7     0.000019
     8    -0.000010
     9    -0.230657
    10    -0.004056
    11    -0.004587
    12     0.027759
    13    -0.000102
    14    -0.000002
    15     0.000001
    16     0.440363
    17     0.077159
    18    -0.000001
    19     0.000002
    20     0.047169
Sym=     5a
Ene=   -0.346797E+00
Spin= Alpha
Occup= 1.000000
     1     0.000000
     2     0.000002
     3     0.000000
     4     0.106900
     5     0.672384
     6    -0.000006
     7     0.071657
     8     0.450668
     9    -0.000004
    10    -0.000006
    11    -0.000002
    12    -0.000004
    13    -0.000002
    14    -0.002704
    15    -0.016996
    16     0.000008
    17    -0.000002
    18     0.004134
    19     0.026019
    20     0.000002
Sym=     6a
Ene=   -0.274454E-01
Spin= Alpha
Occup= 0.032717
     1    -0.140073
     2    -0.500355
     3    -0.114914
     4     0.000043
     5     0.000007
     6     0.776757
     7    -0.000048
     8    -0.000009
     9     0.068338
    10     0.028902
    11     0.012849
    12    -0.027450
    13    -0.003014
    14     0.000017
    15    -0.000009
    16     0.912414
    17     0.154004
    18    -0.000001
    19     0.000003
    20     0.041130
Sym=     7a
Ene=   -0.124350E-01
Spin= Alpha
Occup= 0.013984
     1     0.237466
     2     1.167174
     3    -1.065070
     4     0.665321
     5    -0.105774
     6     0.303855
     7    -0.713952
     8     0.113508
     9    -0.248280
    10     0.021161
    11    -0.132112
    12    -0.120425
    13    -0.028869
    14     0.059496
    15    -0.009454
    16     0.111778
    17     0.071982
    18    -0.026643
    19     0.004239
    20     0.010534
Sym=     8a
Ene=   -0.124245E-01
Spin= Alpha
Occup= 0.013958
     1    -0.237631
     2    -1.167853
     3     1.065394
     4     0.664963
     5    -0.105740
     6    -0.304120
     7    -0.713574
     8     0.113474
     9     0.248566
    10    -0.021042
    11     0.132355
    12     0.120548
    13     0.028892
    14     0.059592
    15    -0.009459
    16    -0.111728
    17    -0.072036
    18    -0.026620
    19     0.004232
    20    -0.010574
Sym=     9a
Ene=   -0.967648E-04
Spin= Alpha
Occup= 0.000005
     1    -0.061532
     2     0.219148
     3    -0.807566
     4    -0.000072
     5     0.000016
     6    -0.785110
     7     0.000093
     8    -0.000022
     9     0.641715
    10     0.295509
    11     0.357540
    12     0.496879
    13     0.011693
    14     0.000058
    15    -0.000010
    16     0.095613
    17     0.230654
    18    -0.000032
    19     0.000016
    20    -1.100930
Sym=    10a
Ene=   -0.326066E-02
Spin= Alpha
Occup= 0.002059
     1    -0.000011
     2    -0.000058
     3     0.000100
     4     0.040050
     5     0.251375
     6    -0.000035
     7    -0.077798
     8    -0.487360
     9    -0.000017
    10     0.000317
    11    -0.000329
    12    -0.000000
    13     0.000268
    14    -0.113493
    15    -0.709969
    16    -0.000073
    17     0.000017
    18     0.073993
    19     0.462118
    20    -0.000025
Sym=    11a
Ene=   -0.425865E-02
Spin= Alpha
Occup= 0.003235
     1    -0.000006
     2    -0.000049
     3     0.000077
     4     0.099610
     5     0.626438
     6    -0.000025
     7    -0.107313
     8    -0.674848
     9    -0.000007
    10     0.190434
    11    -0.190404
    12    -0.000038
    13     0.673348
    14     0.027310
    15     0.172210
    16    -0.000034
    17     0.000000
    18    -0.011866
    19    -0.074723
    20    -0.000008
Sym=    12a
Ene=   -0.426777E-02
Spin= Alpha
Occup= 0.003257
     1     0.000009
     2     0.000042
     3    -0.000025
     4     0.099965
     5     0.628766
     6     0.000011
     7    -0.107684
     8    -0.677395
     9    -0.000000
    10    -0.189782
    11     0.189761
    12    -0.000007
    13    -0.670998
    14     0.027492
    15     0.172252
    16     0.000014
    17    -0.000006
    18    -0.011936
    19    -0.074958
    20     0.000007
Sym=    13a
Ene=   -0.179721E-02
Spin= Alpha
Occup= 0.000085
     1     0.705061
     2     2.273922
     3     1.014896
     4     0.000039
     5    -0.000016
     6    -0.092253
     7    -0.000043
     8     0.000014
     9     0.193955
    10    -1.404995
    11    -1.441095
    12    -1.427239
    13    -0.006806
    14     0.000017
    15     0.000015
    16     0.150961
    17    -0.093054
    18    -0.000011
    19     0.000007
    20     0.025129
Sym=    14a
Ene=   -0.418636E-02
Spin= Alpha
Occup= 0.003115
     1    -0.001424
     2    -0.108639
     3     0.666112
     4     0.000029
     5    -0.000027
     6     0.075534
     7    -0.000077
     8     0.000036
     9    -0.870209
    10     0.140955
    11     0.303668
    12    -0.500339
    13     0.030639
    14    -0.000158
    15     0.000027
    16    -0.957199
    17     0.270127
    18     0.000097
    19    -0.000007
    20    -0.433337
Sym=    15a
Ene=   -0.292334E-02
Spin= Alpha
Occup= 0.001818
     1    -0.043625
     2    -0.188435
     3     0.143067
     4    -0.054961
     5     0.008836
     6    -0.061332
     7     0.141463
     8    -0.022642
     9    -0.015692
    10     0.626229
    11    -0.521436
    12     0.026427
    13    -0.216288
    14     0.631536
    15    -0.100788
    16    -0.101904
    17     0.033461
    18    -0.158184
    19     0.025225
    20    -0.063527
Sym=    16a
Ene=   -0.292024E-02
Spin= Alpha
Occup= 0.001812
     1    -0.043614
     2    -0.188344
     3     0.142934
     4     0.055027
     5    -0.008938
     6    -0.061453
     7    -0.141490
     8     0.022801
     9    -0.015533
    10     0.625368
    11    -0.520987
    12     0.026906
    13    -0.216236
    14    -0.632311
    15     0.101265
    16    -0.101936
    17     0.033533
    18     0.158008
    19    -0.025293
    20    -0.063637
Sym=    17a
Ene=   -0.524600E-04
Spin= Alpha
Occup= 0.000002
     1    -0.016950
     2    -0.117007
     3     0.959192
     4     0.000043
     5     0.000024
     6    -0.156963
     7    -0.000095
     8     0.000229
     9    -1.194038
    10    -0.467438
    11    -0.447343
    12     1.267373
    13     0.003800
    14     0.000232
    15    -0.000502
    16    -1.776179
    17     0.196306
    18     0.000136
    19    -0.000692
    20    -0.901944
Sym=    18a
Ene=    0.000000E+00
Spin= Alpha
Occup= 0.000000
     1    -0.002564
     2     0.045900
     3    -0.332409
     4     0.001435
     5    -0.012282
     6     0.004389
     7    -0.407371
     8    -0.053612
     9     0.171098
    10     0.035643
    11     0.037995
    12    -0.020758
    13     0.000394
    14     0.535700
    15     0.172259
    16     0.050288
    17     0.284824
    18     1.071698
    19     0.188259
    20     0.125939
Sym=    19a
Ene=    0.000000E+00
Spin= Alpha
Occup= 0.000000
     1     0.009017
     2    -0.161069
     3     1.166457
     4     0.005530
     5     0.026150
     6    -0.015405
     7    -0.113291
     8     0.285657
     9    -0.599860
    10    -0.124232
    11    -0.133724
    12     0.072160
    13    -0.001660
    14     0.106964
    15    -0.597711
    16    -0.175341
    17    -1.000236
    18     0.278617
    19    -0.854389
    20    -0.441678
Sym=    20a
Ene=    0.000000E+00
Spin= Alpha
Occup= 0.000000
     1     0.015111
     2    -0.270670
     3     1.960192
     4    -0.003048
     5    -0.017656
     6    -0.026036
     7    -0.001625
     8    -0.179188
     9    -1.009027
    10    -0.209538
    11    -0.224875
    12     0.122897
    13    -0.002976
    14     0.027106
    15     0.385127
    16    -0.296843
    17    -1.679524
    18     0.015847
    19     0.540677
    20    -0.742921
