[Molden Format]
p30-5 set                                                                       
[Atoms] AU
 F        1     9        0.0000        0.0000        0.8649
 H        2     1        0.0000        0.0000       -0.8649
[GTO]
    1 0
s    5 1.00
    2894.832599000000 -0.534932117607E-02
     435.419391200000 -0.399677343716E-01
      98.843328866000 -0.179412617888E+00
      27.485198001000 -0.468324686869E+00
       8.540549817100 -0.447241605328E+00
s    1 1.00
       1.065457803800  0.100000000000E+01
s    1 1.00
       0.332473467480  0.100000000000E+01
p    3 1.00
      22.696633924000 -0.647821482412E-01
       4.987233925700 -0.340357853553E+00
       1.349161395400 -0.734858153660E+00
p    1 1.00
       0.348298819770  0.100000000000E+01
d    1 1.00
       1.400000000000  0.100000000000E+01
 
    2 0
s    3 1.00
      13.010701000000  0.334854848130E-01
       1.962257200000  0.234721870881E+00
       0.444537960000  0.813770285260E+00
s    1 1.00
       0.121949620000  0.100000000000E+01
p    1 1.00
       0.800000000000  0.100000000000E+01
 
[MO]
Sym=     1a
Ene=   -0.262893E+02
Spin= Alpha
Occup= 1.999964
     1     0.992243
     2    -0.029214
     3     0.010419
     4     0.000266
     5     0.000145
     6    -0.002749
     7    -0.000196
     8    -0.000110
     9     0.001018
    10     0.005357
    11     0.005357
    12     0.005100
    13    -0.000000
    14     0.000008
    15     0.000004
    16     0.001169
    17    -0.001114
    18    -0.000007
    19    -0.000006
    20     0.001212
Sym=     2a
Ene=   -0.951918E+00
Spin= Alpha
Occup= 1.990682
     1     0.178363
     2     0.372250
     3     0.289666
     4     0.456611
     5     0.245877
     6    -0.125513
     7    -0.326799
     8    -0.175982
     9     0.087623
    10     0.003613
    11     0.003425
    12     0.000225
    13     0.000141
    14     0.009244
    15     0.004975
    16    -0.014931
    17    -0.013674
    18    -0.020614
    19    -0.011096
    20     0.007415
Sym=     3a
Ene=   -0.894735E+00
Spin= Alpha
Occup= 1.989598
     1    -0.159125
     2    -0.330974
     3    -0.254726
     4     0.482773
     5    -0.272235
     6     0.102501
     7    -0.345328
     8     0.194471
     9    -0.073624
    10    -0.003148
    11    -0.003033
    12    -0.000493
    13    -0.000189
    14     0.010081
    15    -0.005721
    16     0.007017
    17     0.011005
    18    -0.021914
    19     0.012599
    20    -0.007550
Sym=     4a
Ene=   -0.890757E+00
Spin= Alpha
Occup= 1.989528
     1    -0.157729
     2    -0.328065
     3    -0.252471
     4     0.034236
     5     0.555311
     6     0.101724
     7    -0.024690
     8    -0.396998
     9    -0.073127
    10    -0.003169
    11    -0.002954
    12    -0.000501
    13    -0.000119
    14     0.000667
    15     0.011671
    16     0.006924
    17     0.010945
    18    -0.001370
    19    -0.025485
    20    -0.007474
Sym=     5a
Ene=   -0.942188E+00
Spin= Alpha
Occup= 1.971388
     1     0.064060
     2     0.133588
     3    -0.088903
     4     0.008015
     5     0.004220
     6     0.528940
     7    -0.005519
     8    -0.002861
     9    -0.253079
    10    -0.003171
    11    -0.003013
    12     0.024768
    13    -0.000107
    14     0.000273
    15     0.000170
    16     0.434434
    17     0.051939
    18    -0.000393
    19    -0.000218
    20     0.060331
Sym=     6a
Ene=   -0.273678E-02
Spin= Alpha
Occup= 0.002007
     1    -0.028607
     2    -0.011524
     3    -0.659655
     4     0.005109
     5     0.003172
     6     0.017001
     7     0.002946
     8     0.007912
     9     0.920787
    10    -0.085245
    11    -0.068103
    12     0.343545
    13    -0.021273
    14     0.009784
    15     0.013700
    16     1.361702
    17    -0.730010
    18     0.007736
    19    -0.009709
    20     0.548265
Sym=     7a
Ene=   -0.109892E-01
Spin= Alpha
Occup= 0.008890
     1     0.203705
     2     0.954232
     3    -0.826649
     4    -0.042793
     5    -0.768349
     6    -0.177382
     7    -0.047857
     8    -0.835208
     9    -0.148046
    10    -0.129042
    11     0.049226
    12    -0.139349
    13     0.014472
    14     0.004492
    15     0.043732
    16     0.108199
    17     0.025668
    18     0.001523
    19    -0.040297
    20     0.006594
Sym=     8a
Ene=   -0.109981E-01
Spin= Alpha
Occup= 0.008889
     1    -0.205029
     2    -0.960152
     3     0.831252
     4     0.665912
     5    -0.381071
     6     0.179162
     7     0.724781
     8    -0.413347
     9     0.149785
    10    -0.007625
    11     0.089127
    12     0.139454
    13     0.087673
    14    -0.039479
    15     0.020748
    16    -0.108596
    17    -0.025279
    18     0.032376
    19    -0.022508
    20    -0.007039
Sym=     9a
Ene=   -0.127366E-02
Spin= Alpha
Occup= 0.000559
     1     0.053142
     2     0.098183
     3     0.376737
     4     0.059205
     5     0.031170
     6    -0.135275
     7     0.167333
     8     0.077840
     9    -0.589988
    10    -0.726990
    11    -0.098393
    12     0.530446
    13    -0.551342
    14    -0.332520
    15    -0.170495
    16    -0.887806
    17     0.363545
    18    -0.271460
    19    -0.117506
    20    -0.074952
Sym=    10a
Ene=   -0.926542E-03
Spin= Alpha
Occup= 0.000035
     1    -0.605108
     2    -1.564022
     3    -1.537910
     4    -0.006611
     5    -0.003905
     6    -0.025658
     7    -0.016113
     8    -0.009676
     9    -0.247925
    10     1.311118
    11     1.279361
    12     1.513964
    13     0.027923
    14    -0.000127
    15    -0.003014
    16    -0.397721
    17     0.388495
    18     0.021520
    19     0.012904
    20    -0.190386
Sym=    11a
Ene=   -0.250057E-01
Spin= Alpha
Occup= 0.025664
     1     0.116221
     2     0.373618
     3     0.206732
     4     0.012418
     5     0.007023
     6     0.788349
     7     0.013534
     8     0.007964
     9     0.012399
    10    -0.036618
    11    -0.030078
    12     0.036459
    13    -0.004477
    14     0.005952
    15     0.004200
    16    -0.928947
    17    -0.075858
    18     0.000134
    19    -0.000508
    20    -0.058304
Sym=    12a
Ene=   -0.189834E-02
Spin= Alpha
Occup= 0.000914
     1     0.040907
     2     0.021302
     3     0.374792
     4    -0.025665
     5    -0.120690
     6    -0.137696
     7     0.017396
     8    -0.188112
     9    -0.374369
    10     0.294286
    11    -0.870434
    12     0.214208
    13     0.145915
    14    -0.009942
    15    -0.548499
    16    -0.479784
    17     0.120087
    18    -0.112662
    19     0.094600
    20     0.076569
Sym=    13a
Ene=   -0.132082E-02
Spin= Alpha
Occup= 0.000672
     1    -0.035445
     2    -0.352858
     3     0.564901
     4    -0.026861
     5    -0.021651
     6    -0.312612
     7     0.041490
     8     0.050150
     9    -0.353060
    10     0.346986
    11    -0.209277
    12    -0.341469
    13    -0.056931
    14    -0.687951
    15     0.329052
    16     0.071737
    17    -0.487452
    18    -0.221595
    19    -0.158559
    20     0.362137
Sym=    14a
Ene=   -0.108934E-01
Spin= Alpha
Occup= 0.008519
     1     0.222635
     2     1.035201
     3    -0.879879
     4     0.639942
     5     0.344861
     6    -0.225556
     7     0.697361
     8     0.375414
     9    -0.202479
    10     0.001964
    11    -0.107507
    12    -0.146909
    13     0.094984
    14    -0.058056
    15    -0.031744
    16     0.102229
    17     0.023039
    18     0.027901
    19     0.015977
    20     0.014111
Sym=    15a
Ene=   -0.136972E-04
Spin= Alpha
Occup= 0.000001
     1    -0.000306
     2     0.004188
     3    -0.018662
     4     0.018541
     5    -0.039552
     6     0.008075
     7     0.207555
     8    -0.454105
     9     0.025922
    10    -0.059865
    11     0.074324
    12    -0.007079
    13     0.039312
    14    -0.191807
    15     0.414077
    16     0.032499
    17    -0.011757
    18    -0.470629
    19     1.031989
    20    -0.000103
Sym=    16a
Ene=   -0.146509E-02
Spin= Alpha
Occup= 0.000941
     1     0.008365
     2     0.086060
     3    -0.147455
     4    -0.060300
     5    -0.025984
     6     0.106534
     7    -0.404442
     8    -0.179889
     9     0.173259
    10    -0.027522
    11     0.073029
    12    -0.010465
    13    -0.090931
    14    -0.318244
    15    -0.140296
    16     0.109528
    17     0.048189
    18     0.805548
    19     0.360628
    20    -0.086753
Sym=    17a
Ene=   -0.136654E-02
Spin= Alpha
Occup= 0.000668
     1     0.053757
     2     0.370458
     3    -0.401832
     4     0.022111
     5    -0.030799
     6     0.260070
     7    -0.050343
     8    -0.043237
     9     0.165018
    10     0.204567
    11    -0.607742
    12     0.464617
    13    -0.196100
    14     0.102500
    15     0.609203
    16    -0.336920
    17     0.579759
    18     0.190106
    19     0.063972
    20    -0.360315
Sym=    18a
Ene=   -0.181447E-02
Spin= Alpha
Occup= 0.000841
     1    -0.057261
     2    -0.139912
     3    -0.236906
     4     0.109825
     5    -0.050220
     6     0.057953
     7     0.139590
     8    -0.092561
     9     0.327196
    10     0.566608
    11     0.130543
    12    -0.365627
    13    -0.772858
    14     0.211824
    15    -0.156979
    16     0.593916
    17    -0.314263
    18    -0.028637
    19     0.079002
    20     0.040024
Sym=    19a
Ene=   -0.486901E-03
Spin= Alpha
Occup= 0.000240
     1     0.011130
     2    -0.296290
     3     0.904586
     4     0.002800
     5     0.001194
     6    -0.482696
     7    -0.193817
     8    -0.091572
     9    -0.808305
    10    -0.270561
    11    -0.192823
    12    -0.078399
    13    -0.086287
    14     0.575843
    15     0.292425
    16    -0.506391
    17    -0.295675
    18     0.521497
    19     0.247457
    20     0.417114
Sym=    20a
Ene=   -0.583910E-05
Spin= Alpha
Occup= 0.000000
     1    -0.002621
     2    -0.317085
     3     2.385976
     4    -0.003701
     5    -0.001892
     6     0.245212
     7    -0.006161
     8    -0.002686
     9    -1.499335
    10    -0.332456
    11    -0.347912
    12     0.686135
    13     0.017199
    14     0.011797
    15     0.003612
    16    -1.352024
    17    -1.264317
    18     0.006125
    19     0.001830
    20    -1.604514
