[Molden Format]
p30-5 set                                                                       
[Atoms] AU
 C        1     6        0.0000        0.0000        0.0000
[GTO]
    1 0
s    5 1.00
    1238.401693800000  0.551736504811E-02
     186.290049920000  0.410888285559E-01
      42.251176346000  0.182253821265E+00
      11.676557932000  0.468284594374E+00
       3.593050648200  0.445758173360E+00
s    1 1.00
       0.402451473630  0.100000000000E+01
s    1 1.00
       0.130901826680  0.100000000000E+01
p    3 1.00
       9.468097062100  0.568883320110E-01
       2.010354514200  0.312940593365E+00
       0.547710047070  0.760650165091E+00
p    1 1.00
       0.152686137950  0.100000000000E+01
d    1 1.00
       0.800000000000  0.100000000000E+01
 
[MO]
Sym=     1a
Ene=   -0.113025E+02
Spin= Alpha
Occup= 1.999424
     1     0.996071
     2     0.018283
     3    -0.014632
     4     0.000018
     5     0.000010
     6     0.000033
     7    -0.000012
     8    -0.000006
     9    -0.000023
    10     0.000772
    11     0.000286
    12     0.000719
    13    -0.000124
    14     0.000048
    15     0.000228
Sym=     2a
Ene=   -0.696415E+00
Spin= Alpha
Occup= 1.806354
     1    -0.273618
     2     0.616429
     3     0.397282
     4    -0.000265
     5    -0.000184
     6    -0.000454
     7    -0.000353
     8    -0.000120
     9    -0.000717
    10     0.032730
    11     0.037639
    12     0.033270
    13     0.001255
    14    -0.000491
    15    -0.002305
Sym=     3a
Ene=   -0.239582E+00
Spin= Alpha
Occup= 1.000000
     1    -0.000496
     2     0.001799
     3    -0.001053
     4     0.069551
     5     0.231812
     6     0.634797
     7     0.046689
     8     0.155838
     9     0.426625
    10     0.000205
    11     0.000138
    12     0.000212
    13    -0.000014
    14     0.000015
    15     0.000043
Sym=     4a
Ene=   -0.239582E+00
Spin= Alpha
Occup= 1.000000
     1    -0.000199
     2     0.000723
     3    -0.000424
     4     0.662810
     5    -0.147579
     6    -0.018655
     7     0.445584
     8    -0.099218
     9    -0.012605
    10     0.000094
    11     0.000051
    12     0.000078
    13    -0.000001
    14     0.000013
    15     0.000010
Sym=     5a
Ene=   -0.687035E-01
Spin= Alpha
Occup= 0.179680
     1     0.000203
     2    -0.001220
     3     0.001528
     4     0.145104
     5     0.685486
     6    -0.266290
     7     0.072443
     8     0.342069
     9    -0.132805
    10    -0.000161
    11    -0.000110
    12    -0.000116
    13    -0.000011
    14    -0.000007
    15    -0.000070
Sym=     6a
Ene=   -0.567650E-02
Spin= Alpha
Occup= 0.000456
     1    -0.981700
     2     4.527940
     3    -0.846558
     4     0.014899
     5     0.011247
     6     0.024710
     7    -0.017004
     8    -0.012744
     9    -0.028282
    10    -1.611468
    11    -1.623240
    12    -1.613034
    13    -0.003084
    14     0.000963
    15     0.005462
Sym=     7a
Ene=   -0.320088E-02
Spin= Alpha
Occup= 0.002532
     1    -0.000166
     2     0.000924
     3    -0.000910
     4     0.001833
     5    -0.001910
     6    -0.003937
     7    -0.002060
     8     0.002146
     9     0.004424
    10    -0.830477
    11     0.075174
    12     0.755277
    13     0.206123
    14     0.007378
    15     0.337012
Sym=     8a
Ene=   -0.412604E-03
Spin= Alpha
Occup= 0.000034
     1    -0.000063
     2     0.000229
     3     0.000293
     4     0.000557
     5     0.000978
     6     0.000083
     7    -0.000657
     8    -0.001257
     9    -0.000028
    10    -0.214658
    11    -0.249875
    12     0.463834
    13    -0.610238
    14     0.078204
    15    -0.636962
Sym=     9a
Ene=   -0.332918E-02
Spin= Alpha
Occup= 0.004452
     1    -0.000002
     2     0.000011
     3    -0.000011
     4     0.837902
     5    -0.317515
     6    -0.360824
     7    -0.944636
     8     0.357958
     9     0.406788
    10     0.003563
    11    -0.000987
    12    -0.002577
    13     0.000731
    14     0.002619
    15    -0.001960
Sym=    10a
Ene=   -0.378537E-03
Spin= Alpha
Occup= 0.000032
     1    -0.029386
     2     0.105943
     3     0.135862
     4    -0.015080
     5    -0.009600
     6    -0.026579
     7     0.017104
     8     0.010913
     9     0.030124
    10    -0.547887
    11     0.644581
    12    -0.417952
    13     0.306331
    14    -0.117964
    15    -0.556421
Sym=    11a
Ene=   -0.320088E-02
Spin= Alpha
Occup= 0.002532
     1    -0.000205
     2     0.001143
     3    -0.001143
     4    -0.004300
     5     0.000153
     6    -0.001976
     7     0.004831
     8    -0.000171
     9     0.002219
    10     0.069327
    11    -0.120173
    12     0.050835
    13     0.338882
    14     0.917146
    15    -0.171532
Sym=    12a
Ene=   -0.218210E-03
Spin= Alpha
Occup= 0.000019
     1     0.062511
     2    -0.190955
     3    -0.414512
     4     0.176082
     5     0.800453
     6    -0.295473
     7    -0.215469
     8    -0.981944
     9     0.363713
    10     0.248120
    11     0.288798
    12     0.251693
    13     0.010858
    14    -0.004136
    15    -0.018227
Sym=    13a
Ene=   -0.332632E-02
Spin= Alpha
Occup= 0.004450
     1    -0.018171
     2     0.105485
     3    -0.120519
     4    -0.441703
     5    -0.228519
     6    -0.824627
     7     0.498020
     8     0.257804
     9     0.929634
    10     0.020201
    11    -0.014062
    12     0.012249
    13    -0.010439
    14    -0.000329
    15     0.014129
Sym=    14a
Ene=   -0.412445E-03
Spin= Alpha
Occup= 0.000034
     1    -0.000029
     2     0.000102
     3     0.000141
     4    -0.000419
     5     0.000396
     6     0.000248
     7     0.000461
     8    -0.000476
     9    -0.000263
    10     0.250524
    11    -0.588092
    12     0.337244
    13     0.612597
    14    -0.372267
    15    -0.371363
Sym=    15a
Ene=    0.000000E+00
Spin= Alpha
Occup= 0.000000
     1     0.185434
     2    -0.543760
     3    -1.338335
     4    -0.025898
     5    -0.234832
     6     0.146519
     7     0.034185
     8     0.290342
     9    -0.176121
    10     0.772465
    11     0.892364
    12     0.785512
    13     0.030501
    14    -0.012230
    15    -0.056516
