[Molden Format]
p30-5 set                                                                       
[Atoms] AU
 CA       1    20        0.0000        0.0000        0.0000
[GTO]
    1 0
s    6 1.00
   35138.713928999998  0.180479325772E-02
    5276.411134800000  0.138204344333E-01
    1200.469258900000  0.683474707386E-01
     338.718105420000  0.235857640075E+00
     109.853859220000  0.472631385247E+00
      37.608880299000  0.351692498575E+00
s    3 1.00
      73.107977555000 -0.102531311079E+00
       8.240770568800  0.609202407151E+00
       3.295981299300  0.464398802507E+00
s    3 1.00
       5.234180091400 -0.205301572010E+00
       0.841872205150  0.677915479198E+00
       0.365102940290  0.441009016342E+00
s    1 1.00
       0.051222402884  0.100000000000E+01
s    1 1.00
       0.019825111408  0.100000000000E+01
p    5 1.00
     413.113138930000  0.988446570905E-02
      96.935786224000  0.716288395041E-01
      30.372154659000  0.266899547729E+00
      10.684776830000  0.507697430817E+00
       3.882125835000  0.333840977912E+00
p    3 1.00
       1.799301629500  0.316604443154E+00
       0.691890565300  0.562979576248E+00
       0.263640240960  0.236757670930E+00
p    1 1.00
       0.074979000000  0.100000000000E+01
d    3 1.00
       5.497909387900  0.116004757206E+00
       1.317712803200  0.409686110613E+00
       0.321886826490  0.711310748747E+00
d    1 1.00
       0.070528614919  0.100000000000E+01
 
[MO]
Sym=     1a
Ene=   -0.149242E+03
Spin= Alpha
Occup= 2.000000
     1     1.004625
     2    -0.015762
     3    -0.005639
     4    -0.006938
     5    -0.000184
     6     0.002467
     7     0.009269
     8     0.001752
     9    -0.000060
    10    -0.000094
    11     0.000010
    12    -0.000007
    13    -0.000026
    14    -0.000005
    15     0.003426
    16     0.003428
    17     0.003424
    18    -0.000001
    19     0.000001
    20     0.000002
    21     0.002047
    22     0.002046
    23     0.002047
    24     0.000000
    25     0.000000
    26     0.000000
Sym=     2a
Ene=   -0.145646E+02
Spin= Alpha
Occup= 2.000000
     1    -0.146719
     2     0.551386
     3    -0.009329
     4    -0.000598
     5    -0.000251
     6    -0.022558
     7    -0.838628
     8    -0.164401
     9     0.001924
    10     0.007879
    11     0.000416
    12     0.000067
    13     0.002351
    14     0.000460
    15    -0.000986
    16    -0.001020
    17    -0.000971
    18     0.000011
    19    -0.000026
    20    -0.000026
    21     0.000361
    22     0.000364
    23     0.000360
    24    -0.000001
    25     0.000002
    26     0.000002
Sym=     3a
Ene=   -0.147898E+02
Spin= Alpha
Occup= 2.000000
     1     0.179107
     2    -0.630931
     3     0.010602
     4     0.000604
     5     0.000285
     6     0.660367
     7    -0.328351
     8    -0.324396
     9    -0.012571
    10     0.000706
    11     0.007753
    12    -0.001865
    13     0.000916
    14     0.000919
    15     0.001167
    16     0.001206
    17     0.001150
    18    -0.000013
    19     0.000030
    20     0.000030
    21    -0.000389
    22    -0.000393
    23    -0.000389
    24     0.000001
    25    -0.000002
    26    -0.000002
Sym=     4a
Ene=   -0.136263E+02
Spin= Alpha
Occup= 2.000000
     1    -0.001140
     2     0.006471
     3    -0.000119
     4    -0.000017
     5    -0.000004
     6    -0.347693
     7     0.193978
     8    -0.920548
     9    -0.000569
    10    -0.002412
    11     0.009779
    12     0.000965
    13    -0.000541
    14     0.002573
    15    -0.000008
    16    -0.000008
    17    -0.000008
    18    -0.000000
    19    -0.000000
    20    -0.000000
    21     0.000008
    22     0.000007
    23     0.000008
    24    -0.000000
    25     0.000000
    26     0.000000
Sym=     5a
Ene=   -0.148132E+02
Spin= Alpha
Occup= 2.000000
     1    -0.184801
     2     0.640510
     3    -0.010739
     4    -0.000598
     5    -0.000288
     6     0.673479
     7     0.396759
     8    -0.168680
     9    -0.014032
    10    -0.006060
    11     0.007181
    12    -0.001904
    13    -0.001117
    14     0.000483
    15    -0.001194
    16    -0.001233
    17    -0.001176
    18     0.000013
    19    -0.000030
    20    -0.000031
    21     0.000390
    22     0.000394
    23     0.000390
    24    -0.000001
    25     0.000003
    26     0.000002
Sym=     6a
Ene=   -0.225897E+01
Spin= Alpha
Occup= 1.998334
     1     0.098153
     2    -0.396010
     3     1.075387
     4     0.037858
     5    -0.000131
     6     0.000002
     7    -0.000006
     8     0.000005
     9    -0.000028
    10    -0.000000
    11    -0.000027
    12     0.000000
    13     0.000000
    14     0.000000
    15    -0.008496
    16    -0.004610
    17    -0.008110
    18    -0.001597
    19     0.003536
    20     0.002119
    21    -0.007170
    22    -0.007535
    23    -0.006800
    24     0.000086
    25    -0.000167
    26    -0.000387
Sym=     7a
Ene=   -0.135257E+01
Spin= Alpha
Occup= 1.992570
     1     0.000001
     2    -0.000003
     3     0.000003
     4     0.000009
     5     0.000002
     6     0.135948
     7    -0.192337
     8    -0.226235
     9    -0.453129
    10     0.606627
    11     0.734915
    12    -0.001256
    13     0.001695
    14     0.002308
    15    -0.000000
    16    -0.000000
    17    -0.000000
    18    -0.000000
    19     0.000000
    20    -0.000000
    21    -0.000001
    22    -0.000001
    23    -0.000000
    24    -0.000000
    25    -0.000000
    26     0.000000
Sym=     8a
Ene=   -0.135232E+01
Spin= Alpha
Occup= 1.992513
     1     0.000004
     2    -0.000014
     3     0.000028
     4     0.000010
     5     0.000003
     6    -0.292875
     7    -0.082354
     8    -0.119220
     9     0.952627
    10     0.269798
    11     0.364788
    12     0.002847
    13     0.000693
    14     0.001316
    15     0.000001
    16     0.000000
    17     0.000001
    18    -0.000000
    19     0.000000
    20     0.000000
    21     0.000000
    22     0.000000
    23     0.000001
    24     0.000000
    25     0.000001
    26    -0.000000
Sym=     9a
Ene=   -0.135074E+01
Spin= Alpha
Occup= 1.992223
     1     0.000000
     2    -0.000004
     3     0.000016
     4     0.000009
     5     0.000001
     6     0.000621
     7     0.255550
     8    -0.204391
     9    -0.021712
    10    -0.820225
    11     0.663280
    12     0.000090
    13    -0.002534
    14     0.002375
    15    -0.000001
    16    -0.000002
    17    -0.000001
    18    -0.000001
    19     0.000000
    20     0.000001
    21    -0.000001
    22    -0.000001
    23    -0.000001
    24    -0.000000
    25    -0.000000
    26    -0.000000
Sym=    10a
Ene=   -0.196258E+00
Spin= Alpha
Occup= 1.895775
     1    -0.030803
     2     0.085513
     3    -0.440272
     4     1.046643
     5     0.221736
     6     0.000002
     7     0.000001
     8     0.000004
     9    -0.000006
    10    -0.000003
    11    -0.000010
    12    -0.000003
    13    -0.000002
    14    -0.000010
    15    -0.057294
    16    -0.058306
    17    -0.032847
    18    -0.002203
    19     0.006794
    20    -0.012363
    21    -0.063391
    22    -0.060525
    23    -0.010677
    24    -0.006182
    25     0.016935
    26    -0.024609
Sym=    11a
Ene=   -0.158780E-01
Spin= Alpha
Occup= 0.104225
     1    -0.000031
     2     0.000083
     3    -0.000673
     4     0.001493
     5    -0.000376
     6     0.025917
     7    -0.036303
     8     0.098302
     9    -0.093944
    10     0.131605
    11    -0.356358
    12     0.255756
    13    -0.358298
    14     0.970193
    15     0.000144
    16     0.000160
    17     0.000004
    18    -0.000000
    19    -0.000084
    20     0.000008
    21    -0.000450
    22    -0.000447
    23    -0.000605
    24     0.000013
    25    -0.000061
    26     0.000065
Sym=    12a
Ene=   -0.878128E-02
Spin= Alpha
Occup= 0.007777
     1    -0.001578
     2     0.006789
     3    -0.047432
     4     0.006752
     5    -0.003676
     6     0.000004
     7    -0.000001
     8    -0.000001
     9    -0.000013
    10     0.000002
    11     0.000005
    12     0.000035
    13    -0.000005
    14    -0.000016
    15     0.324894
    16    -0.086105
    17    -0.175609
    18    -0.435851
    19     0.453404
    20     0.759888
    21    -0.048058
    22     0.014196
    23     0.022555
    24     0.060342
    25    -0.053748
    26    -0.104484
Sym=    13a
Ene=   -0.850304E-02
Spin= Alpha
Occup= 0.007487
     1    -0.000982
     2     0.003807
     3    -0.031017
     4     0.022524
     5    -0.012815
     6     0.000005
     7    -0.000002
     8     0.000004
     9    -0.000018
    10     0.000009
    11    -0.000012
    12     0.000049
    13    -0.000025
    14     0.000034
    15    -0.884362
    16     0.374459
    17     0.548000
    18    -0.497504
    19     0.087389
    20     0.025685
    21     0.113547
    22    -0.066936
    23    -0.091617
    24     0.070198
    25    -0.003835
    26    -0.003479
Sym=    14a
Ene=   -0.850052E-02
Spin= Alpha
Occup= 0.007430
     1    -0.001238
     2     0.005139
     3    -0.038957
     4     0.015201
     5    -0.009697
     6     0.000003
     7    -0.000010
     8    -0.000001
     9    -0.000010
    10     0.000037
    11     0.000004
    12     0.000028
    13    -0.000103
    14    -0.000011
    15    -0.117619
    16     0.452489
    17    -0.283789
    18     0.293199
    19     0.830810
    20    -0.307583
    21     0.007780
    22    -0.071544
    23     0.031181
    24    -0.050779
    25    -0.110817
    26     0.046717
Sym=    15a
Ene=   -0.237782E-02
Spin= Alpha
Occup= 0.001666
     1    -0.000247
     2     0.002425
     3    -0.015827
     4    -0.037140
     5     0.007431
     6    -0.000012
     7     0.000007
     8     0.000000
     9     0.000044
    10    -0.000024
    11    -0.000001
    12    -0.000121
    13     0.000066
    14     0.000003
    15    -0.373323
    16     0.497109
    17    -0.084867
    18     0.618921
    19    -0.221111
    20     0.618215
    21     0.080669
    22    -0.064766
    23     0.030517
    24    -0.097749
    25     0.028062
    26    -0.093660
Sym=    16a
Ene=   -0.553081E-05
Spin= Alpha
Occup= 0.000000
     1    -0.017723
     2     0.175614
     3    -1.586614
     4    -2.139584
     5    -0.032667
     6     0.075914
     7     0.038364
     8    -0.005875
     9    -0.275222
    10    -0.139087
    11     0.021301
    12     0.750386
    13     0.379273
    14    -0.058119
    15     1.227463
    16     1.243317
    17     1.184219
    18    -0.016857
    19    -0.030273
    20    -0.020278
    21     0.515854
    22     0.515599
    23     0.432632
    24     0.019786
    25    -0.029440
    26     0.051316
Sym=    17a
Ene=   -0.632630E-05
Spin= Alpha
Occup= 0.000000
     1     0.001447
     2    -0.041001
     3     0.380667
     4     0.769766
     5     0.040030
     6     0.002350
     7     0.003344
     8     0.000610
     9    -0.008521
    10    -0.012124
    11    -0.002209
    12     0.023233
    13     0.033060
    14     0.006022
    15    -0.249317
    16     0.366898
    17    -1.146707
    18    -0.403336
    19    -0.337741
    20    -0.123631
    21    -0.252294
    22    -0.342360
    23    -0.046206
    24     0.043963
    25     0.092354
    26    -0.004351
Sym=    18a
Ene=   -0.526662E-05
Spin= Alpha
Occup= 0.000000
     1    -0.016920
     2     0.172893
     3    -1.562883
     4    -2.162879
     5    -0.033060
     6    -0.071657
     7     0.035576
     8     0.031986
     9     0.259788
    10    -0.128979
    11    -0.115967
    12    -0.708318
    13     0.351686
    14     0.316234
    15     1.221665
    16     1.254713
    17     1.154314
    18    -0.030785
    19    -0.038081
    20    -0.022911
    21     0.528018
    22     0.528995
    23     0.446429
    24     0.034692
    25    -0.032553
    26     0.046919
Sym=    19a
Ene=   -0.437270E-05
Spin= Alpha
Occup= 0.000000
     1     0.013837
     2    -0.149105
     3     1.349278
     4     1.947336
     5     0.026890
     6     0.006498
     7     0.086870
     8     0.030404
     9    -0.023557
    10    -0.314946
    11    -0.110229
    12     0.064214
    13     0.858793
    14     0.300544
    15    -1.068999
    16    -1.117852
    17    -0.990946
    18     0.037868
    19     0.039541
    20     0.024644
    21    -0.497392
    22    -0.473739
    23    -0.412213
    24    -0.033747
    25     0.036914
    26    -0.050394
Sym=    20a
Ene=   -0.124176E-05
Spin= Alpha
Occup= 0.000000
     1     0.051883
     2     0.177373
     3    -1.721872
     4    -9.472768
     5    -0.451228
     6     0.001055
     7     0.001872
     8     0.000440
     9    -0.003827
    10    -0.006788
    11    -0.001595
    12     0.010434
    13     0.018511
    14     0.004348
    15     2.634608
    16     2.664462
    17     2.678306
    18    -0.077246
    19     0.042830
    20    -0.053026
    21     3.357254
    22     3.454843
    23     2.949691
    24     0.312435
    25    -0.244008
    26     0.290870
Sym=    21a
Ene=    0.000000E+00
Spin= Alpha
Occup= 0.000000
     1    -0.016829
     2    -0.096880
     3     0.919962
     4     3.884850
     5     0.348016
     6    -0.000279
     7     0.001095
     8     0.000464
     9     0.001014
    10    -0.003969
    11    -0.001684
    12    -0.002763
    13     0.010822
    14     0.004591
    15    -1.320691
    16    -1.133744
    17    -1.194178
    18     0.015003
    19     0.041534
    20    -0.121617
    21    -0.713537
    22    -1.779221
    23    -1.525930
    24    -0.143986
    25    -0.266421
    26     0.690059
Sym=    22a
Ene=    0.000000E+00
Spin= Alpha
Occup= 0.000000
     1    -0.014562
     2    -0.065676
     3     0.632760
     4     3.019415
     5     0.137098
     6     0.000127
     7    -0.000348
     8    -0.000169
     9    -0.000460
    10     0.001263
    11     0.000614
    12     0.001253
    13    -0.003445
    14    -0.001674
    15    -0.805076
    16    -0.930420
    17    -0.938814
    18    -0.081891
    19    -0.038586
    20    -0.090151
    21    -1.551088
    22    -0.806189
    23    -0.685401
    24     0.586546
    25     0.218318
    26     0.569739
Sym=    23a
Ene=    0.000000E+00
Spin= Alpha
Occup= 0.000000
     1     0.016054
     2     0.074245
     3    -0.673620
     4    -3.113643
     5    -0.728423
     6    -0.000797
     7    -0.000789
     8    -0.000078
     9     0.002889
    10     0.002862
    11     0.000284
    12    -0.007878
    13    -0.007804
    14    -0.000775
    15     0.983727
    16     0.925180
    17     1.010076
    18     0.102431
    19    -0.131580
    20    -0.065092
    21     1.220848
    22     1.472839
    23     1.119149
    24    -0.546698
    25     0.712261
    26     0.366612
Sym=    24a
Ene=    0.000000E+00
Spin= Alpha
Occup= 0.000000
     1     0.014714
     2     0.072228
     3    -0.650166
     4    -2.885729
     5    -0.806786
     6    -0.000395
     7    -0.000146
     8     0.000053
     9     0.001434
    10     0.000527
    11    -0.000192
    12    -0.003910
    13    -0.001437
    14     0.000522
    15     1.013419
    16     0.946587
    17     0.817100
    18     0.073052
    19     0.088040
    20    -0.031549
    21     0.699595
    22     1.080535
    23     1.876245
    24    -0.453375
    25    -0.499376
    26     0.195945
Sym=    25a
Ene=    0.000000E+00
Spin= Alpha
Occup= 0.000000
     1    -0.012171
     2    -0.078672
     3     0.815983
     4     3.448440
     5    -0.734817
     6     0.000114
     7    -0.000189
     8    -0.000127
     9    -0.000413
    10     0.000687
    11     0.000460
    12     0.001127
    13    -0.001872
    14    -0.001255
    15    -0.971852
    16    -1.114117
    17    -0.923287
    18     0.013475
    19     0.048945
    20    -0.005953
    21    -0.963294
    22     0.001078
    23    -1.383463
    24    -0.124267
    25    -0.364052
    26     0.040409
Sym=    26a
Ene=    0.000000E+00
Spin= Alpha
Occup= 0.000000
     1    -0.016374
     2    -0.065982
     3     0.482741
     4     2.209985
     5     2.396908
     6    -0.000170
     7    -0.000156
     8     0.000005
     9     0.000617
    10     0.000566
    11    -0.000020
    12    -0.001681
    13    -0.001542
    14     0.000054
    15    -0.786949
    16    -0.888474
    17    -0.816971
    18     0.049612
    19     0.017731
    20    -0.018912
    21    -1.913807
    22    -1.282618
    23    -1.698029
    24    -0.309138
    25    -0.087989
    26     0.116295
