[Molden Format]
p30-5 set                                                                       
[Atoms] AU
 CL       1    17        0.0000        0.0000        0.0000
[GTO]
    1 0
s    5 1.00
   10449.827566000000  0.542659537894E-02
    1571.736522100000  0.406263781288E-01
     357.120655230000  0.183597478529E+00
     100.251859350000  0.474389487682E+00
      30.812727554000  0.437351811041E+00
s    3 1.00
      51.923789434000 -0.927541548481E-01
       5.704576097500  0.563808255442E+00
       2.350837680900  0.503670446297E+00
s    1 1.00
       0.446051246720  0.100000000000E+01
s    1 1.00
       0.168488561900  0.100000000000E+01
p    5 1.00
     307.667905690000 -0.887970255889E-02
      72.102015515000 -0.642840717212E-01
      22.532680262000 -0.242887397360E+00
       7.899176544400 -0.483408363699E+00
       2.876726832100 -0.389525638755E+00
p    1 1.00
       0.774593639550  0.100000000000E+01
p    1 1.00
       0.210376996980  0.100000000000E+01
d    1 1.00
       0.650000000000  0.100000000000E+01
 
[MO]
Sym=     1a
Ene=   -0.104838E+03
Spin= Alpha
Occup= 2.000000
     1     0.995077
     2     0.023470
     3    -0.024108
     4    -0.001546
     5    -0.000055
     6    -0.000675
     7    -0.003432
     8    -0.000001
     9     0.000016
    10     0.000092
    11    -0.000004
    12    -0.000019
    13    -0.000084
    14     0.008840
    15     0.008830
    16     0.008828
    17     0.000005
    18    -0.000001
    19    -0.000000
Sym=     2a
Ene=   -0.839824E+01
Spin= Alpha
Occup= 1.999936
     1    -0.111349
     2     0.381661
     3     0.004998
     4    -0.005879
     5     0.185505
     6    -0.502738
     7     0.751405
     8    -0.003726
     9     0.014236
    10    -0.020638
    11     0.005939
    12    -0.011778
    13     0.018317
    14     0.000006
    15    -0.000024
    16    -0.000067
    17     0.000035
    18    -0.000033
    19    -0.000079
Sym=     3a
Ene=   -0.848266E+01
Spin= Alpha
Occup= 1.999932
     1    -0.125117
     2     0.426424
     3     0.005595
     4    -0.006589
     5    -0.315752
     6     0.755014
     7     0.386096
     8     0.010164
     9    -0.020114
    10    -0.010704
    11    -0.006135
    12     0.019046
    13     0.009338
    14     0.000037
    15    -0.000037
    16    -0.000125
    17    -0.000015
    18    -0.000053
    19     0.000021
Sym=     4a
Ene=   -0.894678E+01
Spin= Alpha
Occup= 1.999880
     1    -0.184710
     2     0.614386
     3     0.009694
     4    -0.008846
     5    -0.590842
     6    -0.367468
     7    -0.385372
     8     0.026889
     9     0.013722
    10     0.009213
    11    -0.003311
    12    -0.005253
    13    -0.010925
    14    -0.000053
    15    -0.000219
    16    -0.000171
    17     0.000098
    18     0.000024
    19     0.000025
Sym=     5a
Ene=   -0.894080E+01
Spin= Alpha
Occup= 1.999865
     1    -0.184127
     2     0.616038
     3     0.004622
     4    -0.011545
     5     0.696776
     6     0.156517
     7    -0.349224
     8    -0.031610
     9    -0.008786
    10     0.010924
    11     0.004009
    12    -0.000889
    13    -0.007211
    14    -0.000117
    15    -0.000314
    16    -0.000298
    17     0.000095
    18    -0.000023
    19     0.000002
Sym=     6a
Ene=   -0.691801E+00
Spin= Alpha
Occup= 1.988355
     1    -0.045394
     2     0.300902
     3    -0.425691
     4    -0.235956
     5     0.005759
     6     0.043925
     7     0.196181
     8     0.016457
     9     0.087868
    10     0.383818
    11     0.021777
    12     0.118736
    13     0.519907
    14    -0.010447
    15    -0.009924
    16    -0.007592
    17    -0.000013
    18     0.000796
    19     0.000996
Sym=     7a
Ene=   -0.686449E+00
Spin= Alpha
Occup= 1.988279
     1     0.044705
     2    -0.296475
     3     0.419773
     4     0.232309
     5     0.067149
     6    -0.135269
     7     0.134661
     8     0.126012
     9    -0.266938
    10     0.265396
    11     0.171189
    12    -0.361275
    13     0.359562
    14     0.010554
    15     0.008528
    16     0.008769
    17     0.000577
    18    -0.000333
    19     0.001686
Sym=     8a
Ene=   -0.678157E+00
Spin= Alpha
Occup= 1.988178
     1    -0.043645
     2     0.289684
     3    -0.410716
     4    -0.226811
     5     0.055545
     6    -0.186107
     7    -0.063854
     8     0.114051
     9    -0.363251
    10    -0.126879
    11     0.153987
    12    -0.492167
    13    -0.171884
    14    -0.009857
    15    -0.007898
    16    -0.009633
    17    -0.001575
    18    -0.000468
    19     0.001014
Sym=     9a
Ene=   -0.291108E+00
Spin= Alpha
Occup= 1.000000
     1     0.000197
     2    -0.001172
     3     0.002315
     4    -0.000926
     5     0.267435
     6     0.094728
     7    -0.032567
     8     0.474380
     9     0.168021
    10    -0.057772
    11     0.601032
    12     0.212938
    13    -0.073132
    14    -0.001564
    15     0.001032
    16     0.001507
    17    -0.001152
    18     0.000508
    19     0.000172
Sym=    10a
Ene=   -0.826787E-02
Spin= Alpha
Occup= 0.011822
     1    -0.018607
     2     0.145196
     3    -0.516476
     4     0.433746
     5     0.060290
     6    -0.153284
     7    -0.055308
     8     0.197865
     9    -0.504265
    10    -0.181863
    11    -0.167758
    12     0.429632
    13     0.154775
    14     0.352656
    15    -0.502399
    16     0.203149
    17     0.548459
    18     0.145718
    19    -0.385027
Sym=    11a
Ene=   -0.823125E-02
Spin= Alpha
Occup= 0.011721
     1    -0.019591
     2     0.153532
     3    -0.544084
     4     0.451984
     5    -0.044630
     6     0.123326
     7    -0.119626
     8    -0.147206
     9     0.405430
    10    -0.393388
    11     0.126089
    12    -0.344958
    13     0.334899
    14     0.493650
    15    -0.233547
    16    -0.197343
    17     0.269136
    18    -0.196668
    19     0.632175
Sym=    12a
Ene=   -0.819874E-02
Spin= Alpha
Occup= 0.011645
     1     0.021194
     2    -0.167334
     3     0.588957
     4    -0.479724
     5    -0.020303
     6    -0.043590
     7    -0.172160
     8    -0.066320
     9    -0.143191
    10    -0.566229
    11     0.055697
    12     0.121650
    13     0.482258
    14    -0.497388
    15    -0.277489
    16     0.694666
    17    -0.019871
    18     0.251209
    19     0.351417
Sym=    13a
Ene=   -0.119805E-02
Spin= Alpha
Occup= 0.000135
     1     0.082956
     2    -0.898421
     3     2.344435
     4     0.002925
     5    -0.271239
     6    -0.066795
     7     0.114278
     8    -0.893456
     9    -0.220133
    10     0.376090
    11     0.775918
    12     0.192398
    13    -0.323162
    14    -0.757306
    15    -1.060531
    16    -0.924228
    17     0.165176
    18     0.010802
    19     0.044674
Sym=    14a
Ene=   -0.108384E-02
Spin= Alpha
Occup= 0.000120
     1     0.084772
     2    -0.914894
     3     2.394627
     4    -0.020374
     5     0.234106
     6     0.133518
     7     0.112430
     8     0.770983
     9     0.439568
    10     0.369826
    11    -0.669234
    12    -0.379522
    13    -0.315268
    14    -0.838961
    15    -1.091615
    16    -0.840035
    17     0.182790
    18     0.115887
    19     0.103906
Sym=    15a
Ene=   -0.578338E-03
Spin= Alpha
Occup= 0.000068
     1    -0.054528
     2     0.602583
     3    -1.542808
     4    -0.095241
     5    -0.110309
     6     0.243773
     7     0.128925
     8    -0.363114
     9     0.802281
    10     0.424303
    11     0.311951
    12    -0.685942
    13    -0.363156
    14     0.446885
    15     0.484313
    16     0.990864
    17     0.250049
    18     0.243180
    19    -0.171887
Sym=    16a
Ene=   -0.537782E-03
Spin= Alpha
Occup= 0.000064
     1     0.048685
     2    -0.538002
     3     1.377548
     4     0.084826
     5    -0.052658
     6     0.164607
     7    -0.242966
     8    -0.173259
     9     0.541825
    10    -0.799671
    11     0.147095
    12    -0.464011
    13     0.684327
    14    -0.597169
    15    -0.436845
    16    -0.681929
    17     0.047145
    18    -0.127430
    19    -0.509617
Sym=    17a
Ene=   -0.771661E-05
Spin= Alpha
Occup= 0.000000
     1    -0.002395
     2     0.071105
     3    -0.074265
     4    -0.350481
     5     0.020104
     6    -0.042074
     7     0.019648
     8     0.066181
     9    -0.138482
    10     0.064668
    11    -0.056613
    12     0.118198
    13    -0.055215
    14    -0.316374
    15     0.663028
    16     0.182627
    17     0.658885
    18    -0.445039
    19     0.090684
Sym=    18a
Ene=    0.000000E+00
Spin= Alpha
Occup= 0.000000
     1     0.013264
     2    -0.402983
     3     0.412664
     4     2.012243
     5    -0.000312
     6     0.001112
     7     0.034657
     8    -0.000986
     9     0.003636
    10     0.114083
    11     0.000868
    12    -0.002970
    13    -0.097388
    14    -1.335314
    15    -1.023435
    16    -0.664022
    17    -0.139109
    18    -0.258035
    19     0.004184
Sym=    19a
Ene=    0.000000E+00
Spin= Alpha
Occup= 0.000000
     1     0.006437
     2    -0.166969
     3     0.196151
     4     0.754561
     5    -0.010718
     6    -0.019536
     7    -0.043108
     8    -0.035324
     9    -0.064325
    10    -0.141899
    11     0.030609
    12     0.055094
    13     0.121175
    14    -0.544688
    15     0.127856
    16    -0.765063
    17     0.217796
    18     0.723476
    19     0.135357
