[Molden Format]
p30-5 set                                                                       
[Atoms] AU
 BE       1     4        1.3755       -1.3755        1.3755
 BE       2     4       -1.3755        1.3755        1.3755
 BE       3     4       -1.3755       -1.3755       -1.3755
 BE       4     4        1.3755        1.3755       -1.3755
[GTO]
    1 0
s    5 1.00
     515.186161250000  0.583763544133E-02
      77.511037595000  0.432349671107E-01
      17.552481693000  0.188026956444E+00
       4.802894059600  0.469576904234E+00
       1.451621431600  0.440951660947E+00
s    1 1.00
       0.132816336200  0.100000000000E+01
s    1 1.00
       0.045837372213  0.100000000000E+01
p    3 1.00
       3.631691714500 -0.454619686657E-01
       0.716956943660 -0.264276543343E+00
       0.195419328600 -0.804884200890E+00
p    1 1.00
       0.060515465890  0.100000000000E+01
 
    2 0
s    5 1.00
     515.186161250000  0.583763544133E-02
      77.511037595000  0.432349671107E-01
      17.552481693000  0.188026956444E+00
       4.802894059600  0.469576904234E+00
       1.451621431600  0.440951660947E+00
s    1 1.00
       0.132816336200  0.100000000000E+01
s    1 1.00
       0.045837372213  0.100000000000E+01
p    3 1.00
       3.631691714500 -0.454619686657E-01
       0.716956943660 -0.264276543343E+00
       0.195419328600 -0.804884200890E+00
p    1 1.00
       0.060515465890  0.100000000000E+01
 
    3 0
s    5 1.00
     515.186161250000  0.583763544133E-02
      77.511037595000  0.432349671107E-01
      17.552481693000  0.188026956444E+00
       4.802894059600  0.469576904234E+00
       1.451621431600  0.440951660947E+00
s    1 1.00
       0.132816336200  0.100000000000E+01
s    1 1.00
       0.045837372213  0.100000000000E+01
p    3 1.00
       3.631691714500 -0.454619686657E-01
       0.716956943660 -0.264276543343E+00
       0.195419328600 -0.804884200890E+00
p    1 1.00
       0.060515465890  0.100000000000E+01
 
    4 0
s    5 1.00
     515.186161250000  0.583763544133E-02
      77.511037595000  0.432349671107E-01
      17.552481693000  0.188026956444E+00
       4.802894059600  0.469576904234E+00
       1.451621431600  0.440951660947E+00
s    1 1.00
       0.132816336200  0.100000000000E+01
s    1 1.00
       0.045837372213  0.100000000000E+01
p    3 1.00
       3.631691714500 -0.454619686657E-01
       0.716956943660 -0.264276543343E+00
       0.195419328600 -0.804884200890E+00
p    1 1.00
       0.060515465890  0.100000000000E+01
 
[MO]
Sym=     1a
Ene=   -0.469469E+01
Spin= Alpha
Occup= 1.999868
     1     0.247024
     2     0.008663
     3     0.008956
     4    -0.000462
     5    -0.000898
     6     0.002052
     7    -0.001733
     8     0.004181
     9    -0.005653
    10     0.235470
    11     0.007833
    12     0.009073
    13    -0.000811
    14    -0.000627
    15     0.001827
    16     0.004219
    17    -0.001894
    18    -0.005712
    19    -0.227973
    20    -0.005147
    21     0.000931
    22    -0.000958
    23    -0.000907
    24     0.001498
    25     0.001234
    26     0.001174
    27    -0.002664
    28    -0.906081
    29    -0.024626
    30    -0.013178
    31    -0.000206
    32    -0.000072
    33     0.001213
    34     0.006003
    35     0.006017
    36    -0.007464
Sym=     2a
Ene=   -0.469457E+01
Spin= Alpha
Occup= 1.999861
     1     0.266599
     2     0.009024
     3     0.008807
     4     0.000963
     5    -0.001947
     6    -0.000478
     7    -0.004066
     8     0.005711
     9    -0.001733
    10    -0.891532
    11    -0.024363
    12    -0.013190
    13     0.000172
    14    -0.001162
    15    -0.000233
    16    -0.005911
    17     0.007586
    18     0.005982
    19     0.268343
    20     0.008889
    21     0.009379
    22     0.000565
    23    -0.001834
    24    -0.000868
    25     0.001979
    26     0.005810
    27     0.004304
    28    -0.226679
    29    -0.005421
    30     0.000170
    31     0.000948
    32    -0.001496
    33    -0.000996
    34    -0.000940
    35     0.002914
    36     0.000984
Sym=     3a
Ene=   -0.469478E+01
Spin= Alpha
Occup= 1.999856
     1     0.274350
     2     0.009481
     3     0.008720
     4     0.002117
     5     0.000553
     6     0.001064
     7    -0.005651
     8     0.002015
     9    -0.004044
    10    -0.246831
    11    -0.005871
    12    -0.000282
    13     0.001559
    14     0.001042
    15     0.000997
    16    -0.002945
    17    -0.000741
    18    -0.000763
    19    -0.893253
    20    -0.024321
    21    -0.011806
    22     0.001433
    23     0.000325
    24     0.000421
    25    -0.007154
    26    -0.005590
    27    -0.005466
    28     0.235162
    29     0.007799
    30     0.008988
    31     0.001866
    32     0.000786
    33     0.000698
    34    -0.005679
    35    -0.004086
    36     0.001897
Sym=     4a
Ene=   -0.468964E+01
Spin= Alpha
Occup= 1.999850
     1     0.884338
     2     0.022604
     3     0.003049
     4     0.000341
     5    -0.000222
     6     0.000416
     7    -0.002666
     8     0.002786
     9    -0.002715
    10     0.280362
    11     0.004775
    12    -0.005643
    13     0.001326
    14    -0.001391
    15     0.000091
    16    -0.002576
    17     0.002559
    18     0.000696
    19     0.260701
    20     0.004105
    21    -0.006218
    22     0.001293
    23    -0.000139
    24     0.001358
    25    -0.002724
    26    -0.001033
    27    -0.002820
    28     0.249274
    29     0.003913
    30    -0.006043
    31     0.000047
    32    -0.001368
    33     0.001366
    34     0.001002
    35     0.002682
    36    -0.002830
Sym=     5a
Ene=   -0.575379E+00
Spin= Alpha
Occup= 1.946459
     1    -0.127982
     2     0.263171
     3    -0.026606
     4     0.076590
     5    -0.095329
     6     0.076265
     7     0.023653
     8    -0.019106
     9     0.023795
    10    -0.148552
    11     0.323663
    12     0.021595
    13    -0.091739
    14     0.070520
    15     0.094852
    16    -0.015172
    17     0.018133
    18     0.013215
    19    -0.133012
    20     0.281818
    21    -0.018327
    22    -0.076428
    23    -0.100321
    24    -0.077211
    25    -0.021601
    26    -0.016723
    27    -0.021533
    28    -0.148067
    29     0.322224
    30     0.020610
    31     0.095061
    32     0.070076
    33    -0.091649
    34     0.013289
    35     0.018209
    36    -0.015344
Sym=     6a
Ene=   -0.270054E+00
Spin= Alpha
Occup= 1.592299
     1    -0.002313
     2     0.005942
     3     0.005058
     4    -0.169665
     5    -0.002167
     6     0.167969
     7     0.033480
     8     0.000668
     9    -0.034376
    10     0.149348
    11    -0.417762
    12    -0.298678
    13    -0.065109
    14    -0.109932
    15     0.056570
    16    -0.002165
    17     0.045270
    18     0.013298
    19     0.002323
    20    -0.006436
    21    -0.004399
    22    -0.159620
    23     0.001726
    24     0.158669
    25     0.026130
    26    -0.000478
    27    -0.026658
    28    -0.150487
    29     0.420804
    30     0.298882
    31    -0.062756
    32     0.108839
    33     0.058857
    34    -0.011375
    35    -0.044317
    36     0.003649
Sym=     7a
Ene=   -0.267392E+00
Spin= Alpha
Occup= 1.561798
     1    -0.012375
     2     0.023533
     3     0.015227
     4     0.093237
     5     0.183093
     6     0.096452
     7    -0.021317
     8    -0.031465
     9    -0.021480
    10     0.078802
    11    -0.227651
    12    -0.173854
    13     0.154516
    14     0.133894
    15     0.023518
    16    -0.043199
    17    -0.015857
    18     0.014264
    19    -0.182945
    20     0.504889
    21     0.350698
    22    -0.026366
    23     0.071497
    24    -0.022781
    25     0.023664
    26     0.012083
    27     0.022796
    28     0.075252
    29    -0.217400
    30    -0.165232
    31     0.021631
    32     0.134959
    33     0.155457
    34     0.013801
    35    -0.016145
    36    -0.042545
Sym=     8a
Ene=   -0.246535E+00
Spin= Alpha
Occup= 1.448803
     1     0.191987
     2    -0.516153
     3    -0.287717
     4     0.014195
     5    -0.009392
     6     0.018263
     7    -0.004911
     8     0.001144
     9    -0.006472
    10    -0.046975
    11     0.133991
    12     0.086397
    13     0.096063
    14    -0.090414
    15     0.175004
    16    -0.022284
    17     0.019557
    18    -0.046697
    19    -0.055431
    20     0.156867
    21     0.083927
    22     0.091126
    23    -0.171084
    24     0.095417
    25    -0.022651
    26     0.041550
    27    -0.023076
    28    -0.050676
    29     0.143926
    30     0.093857
    31     0.173677
    32    -0.088524
    33     0.098331
    34    -0.047122
    35     0.018936
    36    -0.022204
Sym=     9a
Ene=   -0.949326E-01
Spin= Alpha
Occup= 0.518382
     1     0.054158
     2    -0.122149
     3    -0.267453
     4     0.223812
     5    -0.212734
     6     0.233188
     7    -0.017703
     8     0.020109
     9    -0.022791
    10     0.030263
    11    -0.019518
    12    -0.161876
    13    -0.167006
    14     0.191453
    15     0.112954
    16    -0.000622
    17    -0.005881
    18     0.045205
    19     0.024922
    20    -0.001651
    21    -0.134899
    22    -0.188752
    23    -0.121823
    24    -0.196310
    25     0.011675
    26    -0.024299
    27     0.015893
    28     0.030372
    29    -0.020576
    30    -0.162681
    31     0.104677
    32     0.192479
    33    -0.174714
    34     0.048706
    35    -0.006861
    36     0.002889
Sym=    10a
Ene=   -0.382029E-01
Spin= Alpha
Occup= 0.178301
     1     0.040096
     2    -0.209392
     3    -0.147164
     4     0.181232
     5     0.230100
     6     0.178572
     7    -0.068261
     8    -0.114620
     9    -0.068764
    10    -0.005906
    11    -0.009075
    12     0.079551
    13    -0.180164
    14    -0.302017
    15     0.062859
    16     0.111658
    17     0.107472
    18    -0.040772
    19    -0.027384
    20     0.089373
    21     0.118852
    22    -0.154013
    23     0.407189
    24    -0.148982
    25     0.099134
    26    -0.147981
    27     0.095210
    28    -0.003704
    29    -0.020678
    30     0.065795
    31     0.066565
    32    -0.298689
    33    -0.173528
    34    -0.038492
    35     0.107007
    36     0.103358
Sym=    11a
Ene=   -0.416549E-01
Spin= Alpha
Occup= 0.199999
     1     0.031873
     2    -0.144681
     3    -0.084567
     4    -0.210699
     5    -0.007352
     6     0.345449
     7     0.090352
     8     0.013271
     9    -0.155556
    10    -0.050893
    11     0.170761
    12     0.174280
    13     0.367685
    14    -0.061996
    15     0.085747
    16    -0.140986
    17     0.001332
    18    -0.064355
    19     0.016639
    20    -0.080908
    21    -0.044685
    22     0.149942
    23     0.052825
    24    -0.263476
    25    -0.055183
    26    -0.013794
    27     0.121156
    28    -0.011591
    29     0.037559
    30     0.025674
    31    -0.344404
    32     0.106469
    33    -0.176111
    34     0.130620
    35    -0.067260
    36     0.088613
Sym=    12a
Ene=   -0.717411E-02
Spin= Alpha
Occup= 0.018277
     1    -0.156950
     2     1.018599
     3     0.875730
     4     0.219626
     5    -0.537430
     6     0.394410
     7    -0.071227
     8     0.480992
     9    -0.308801
    10     0.047591
    11    -0.340972
    12    -0.207935
    13    -0.062184
    14    -0.376810
    15    -0.011261
    16     0.057766
    17     0.414465
    18    -0.158434
    19    -0.090374
    20     0.571204
    21     0.341661
    22    -0.105856
    23    -0.355514
    24    -0.167026
    25     0.080798
    26     0.405678
    27    -0.065884
    28     0.207045
    29    -1.396125
    30    -0.930278
    31    -0.407227
    32    -0.496895
    33     0.557788
    34     0.137923
    35     0.449471
    36    -0.345477
Sym=    13a
Ene=   -0.126549E-03
Spin= Alpha
Occup= 0.000033
     1    -0.028227
     2     0.648127
     3    -0.267011
     4     0.347560
     5     0.633964
     6     0.477024
     7     0.917752
     8     1.291403
     9     1.048919
    10    -0.029535
    11     0.625049
    12    -0.193667
    13    -0.007521
    14     0.136093
    15     0.235420
    16    -0.469072
    17     0.103588
    18     0.027697
    19     0.028104
    20     0.287441
    21    -0.012305
    22    -0.002472
    23     0.059104
    24     0.049988
    25    -0.230859
    26    -1.102773
    27    -0.191628
    28    -0.019992
    29     0.568029
    30    -0.258556
    31     0.133918
    32     0.141532
    33    -0.021174
    34    -0.018143
    35     0.178541
    36    -0.649126
Sym=    14a
Ene=   -0.266626E-03
Spin= Alpha
Occup= 0.000070
     1     0.028060
     2    -0.327724
     3     2.187760
     4    -0.159832
     5     0.034093
     6    -0.137992
     7    -0.970412
     8     0.128940
     9    -0.917929
    10     0.017538
    11    -0.260431
    12     1.932705
    13    -0.023845
    14    -0.104632
    15    -0.142749
    16     0.129482
    17    -0.903822
    18    -0.938018
    19     0.143076
    20    -1.224165
    21    -4.732361
    22    -0.593822
    23    -0.477021
    24    -0.561865
    25    -1.904365
    26    -1.688554
    27    -1.872230
    28     0.019036
    29    -0.268485
    30     2.028185
    31    -0.150446
    32    -0.131886
    33    -0.011627
    34    -0.920239
    35    -0.954552
    36     0.165629
Sym=    15a
Ene=   -0.250995E-03
Spin= Alpha
Occup= 0.000066
     1     0.028761
     2    -0.321231
     3     2.214109
     4    -0.158988
     5     0.164631
     6    -0.015527
     7    -0.930862
     8     1.054676
     9    -0.060100
    10     0.140776
    11    -1.203534
    12    -4.738542
    13    -0.652784
    14     0.507868
    15     0.455827
    16    -2.052151
    17     1.789132
    18     1.629376
    19     0.016369
    20    -0.243876
    21     2.032695
    22    -0.002483
    23     0.124163
    24     0.117937
    25     0.260560
    26     0.880598
    27     0.933730
    28     0.019423
    29    -0.260861
    30     1.891188
    31    -0.141445
    32     0.037426
    33     0.128203
    34    -0.874733
    35    -0.069377
    36     0.898159
Sym=    16a
Ene=   -0.138256E-03
Spin= Alpha
Occup= 0.000036
     1     0.041855
     2    -0.177209
     3    -0.329498
     4    -0.100497
     5     0.095344
     6    -0.094858
     7     1.131138
     8     0.058917
     9    -0.019868
    10    -0.021838
    11     0.203912
    12    -0.278054
    13    -0.085601
    14     0.065474
    15     0.033630
    16     0.147258
    17    -0.398990
    18     0.620586
    19    -0.029140
    20     0.248514
    21    -0.256467
    22    -0.119546
    23    -0.020175
    24    -0.087574
    25     0.026556
    26    -0.518275
    27     0.558723
    28    -0.020537
    29     0.222183
    30     0.595365
    31    -0.827092
    32     0.280118
    33    -0.432593
    34    -2.013068
    35     0.551904
    36    -0.875912
Sym=    17a
Ene=   -0.501938E-02
Spin= Alpha
Occup= 0.015911
     1     0.009920
     2    -0.038364
     3    -0.132833
     4    -0.365444
     5    -0.612066
     6    -0.259750
     7     0.209647
     8     0.235591
     9     0.145499
    10    -0.011226
    11     0.092952
    12     0.069948
    13     0.171219
    14    -0.002793
    15     0.263855
    16    -0.077814
    17    -0.010904
    18    -0.116451
    19     0.004643
    20    -0.037969
    21    -0.005875
    22    -0.173873
    23     0.644998
    24    -0.344873
    25     0.074470
    26    -0.350934
    27     0.183771
    28    -0.005255
    29     0.061846
    30     0.044450
    31     0.357709
    32     0.092968
    33     0.374600
    34    -0.171541
    35    -0.048955
    36    -0.194392
Sym=    18a
Ene=   -0.318789E-01
Spin= Alpha
Occup= 0.144539
     1     0.078386
     2    -0.358369
     3    -0.202738
     4     0.001537
     5    -0.329089
     6     0.014191
     7    -0.013580
     8     0.125815
     9    -0.022516
    10    -0.001562
    11    -0.020379
    12     0.000514
    13    -0.220151
    14     0.022851
    15    -0.248099
    16     0.114913
    17    -0.039551
    18     0.079166
    19    -0.103822
    20     0.358110
    21     0.413917
    22     0.221842
    23     0.205168
    24     0.274196
    25    -0.036159
    26    -0.013807
    27    -0.058942
    28     0.014009
    29    -0.084380
    30    -0.075892
    31    -0.215979
    32     0.061162
    33    -0.216808
    34     0.077058
    35    -0.046166
    36     0.100267
Sym=    19a
Ene=   -0.431688E-02
Spin= Alpha
Occup= 0.013634
     1    -0.005707
     2     0.030875
     3    -0.023778
     4     0.164974
     5     0.089903
     6    -0.069475
     7    -0.248060
     8    -0.034810
     9     0.192555
    10     0.051604
    11    -0.386676
    12    -0.813394
    13    -0.232379
    14    -0.682462
    15    -0.171502
    16     0.036466
    17     0.385861
    18     0.234415
    19     0.010493
    20    -0.071732
    21     0.013819
    22     0.458483
    23    -0.068570
    24    -0.363690
    25    -0.450637
    26     0.033335
    27     0.395730
    28    -0.055663
    29     0.400766
    30     0.830975
    31     0.113130
    32     0.694155
    33     0.172139
    34    -0.212126
    35    -0.404132
    36     0.014948
Sym=    20a
Ene=   -0.671203E-02
Spin= Alpha
Occup= 0.016960
     1     0.158576
     2    -1.051666
     3    -0.982718
     4    -0.446847
     5     0.184154
     6    -0.493407
     7     0.406923
     8    -0.033522
     9     0.460619
    10     0.053469
    11    -0.359517
    12    -0.175167
    13    -0.025375
    14    -0.157959
    15    -0.267801
    16     0.240952
    17     0.106807
    18     0.329155
    19    -0.228725
    20     1.511236
    21     1.182490
    22    -0.560609
    23    -0.478068
    24    -0.576522
    25     0.450415
    26     0.213815
    27     0.503996
    28     0.016258
    29    -0.111034
    30    -0.021414
    31    -0.171625
    32    -0.087303
    33    -0.138167
    34     0.267685
    35     0.083055
    36     0.315935
Sym=    21a
Ene=   -0.289058E-03
Spin= Alpha
Occup= 0.000077
     1    -0.142763
     2     1.131953
     3     4.806195
     4    -0.567445
     5     0.511897
     6    -0.569884
     7    -1.927391
     8     1.820753
     9    -1.947216
    10    -0.019284
    11     0.180003
    12    -2.028944
    13    -0.122843
    14     0.097028
    15    -0.016567
    16    -0.865489
    17     0.865570
    18     0.116091
    19    -0.024920
    20     0.212604
    21    -2.066011
    22    -0.135904
    23     0.009950
    24    -0.124850
    25    -0.891894
    26    -0.042037
    27    -0.884356
    28    -0.018241
    29     0.173069
    30    -2.018187
    31    -0.022150
    32     0.085640
    33    -0.124341
    34     0.095041
    35     0.872039
    36    -0.867194
Sym=    22a
Ene=   -0.141959E-03
Spin= Alpha
Occup= 0.000037
     1     0.007108
     2     0.070054
     3     0.115525
     4     0.041487
     5    -0.007540
     6    -0.087324
     7    -0.380038
     8    -0.323308
     9     0.297541
    10     0.037961
    11    -0.128413
    12     0.586607
    13     0.082191
    14    -0.045862
    15    -0.128092
    16    -0.675382
    17    -0.288191
    18    -0.022778
    19    -0.006180
    20     0.148430
    21    -0.289312
    22     0.570089
    23     0.149980
    24    -0.797187
    25     1.220266
    26     0.304116
    27    -1.893242
    28    -0.051312
    29     0.427745
    30    -0.597042
    31     0.149462
    32     0.105043
    33    -0.145576
    34     0.317182
    35     0.315556
    36     0.743457
Sym=    23a
Ene=   -0.131860E-03
Spin= Alpha
Occup= 0.000035
     1     0.006444
     2    -0.184308
     3     0.239581
     4    -0.005191
     5     0.124028
     6     0.016984
     7    -0.635155
     8    -0.059001
     9     0.152298
    10     0.007250
    11    -0.209815
    12    -1.020687
    13     0.607869
    14     0.755621
    15    -0.045575
    16     1.177402
    17     1.795103
    18    -0.015037
    19     0.043070
    20    -0.406204
    21     0.272150
    22     0.131831
    23     0.126842
    24     0.109879
    25    -0.721544
    26     0.019499
    27     0.573399
    28    -0.027996
    29     0.016473
    30     0.827382
    31     0.074983
    32     0.118142
    33    -0.008013
    34    -0.309264
    35    -1.084129
    36     0.042829
Sym=    24a
Ene=   -0.254638E-03
Spin= Alpha
Occup= 0.000067
     1     0.028534
     2    -0.309621
     3     2.192333
     4    -0.037628
     5     0.146312
     6    -0.153752
     7    -0.090418
     8     1.042513
     9    -0.874930
    10     0.018693
    11    -0.243993
    12     1.995736
    13     0.123786
    14     0.021235
    15    -0.159197
    16     0.894542
    17    -0.080082
    18    -0.949998
    19     0.015375
    20    -0.231169
    21     1.957383
    22     0.111670
    23     0.110627
    24    -0.028196
    25     0.946387
    26     0.835180
    27     0.219739
    28     0.140849
    29    -1.193539
    30    -4.767328
    31     0.453173
    32     0.489879
    33    -0.667919
    34     1.665010
    35     1.753318
    36    -2.096137
Sym=    25a
Ene=   -0.536958E-02
Spin= Alpha
Occup= 0.016904
     1    -0.000455
     2     0.014622
     3    -0.016890
     4     0.473858
     5    -0.074871
     6    -0.535215
     7    -0.180701
     8     0.016402
     9     0.223107
    10    -0.025651
    11     0.172597
    12     0.215381
    13     0.198058
    14    -0.248787
    15     0.609540
    16    -0.060315
    17     0.124074
    18    -0.339061
    19     0.000060
    20     0.007551
    21    -0.004790
    22    -0.306413
    23     0.074691
    24     0.238956
    25     0.152054
    26    -0.031939
    27    -0.143817
    28     0.024774
    29    -0.150734
    30    -0.208706
    31    -0.543203
    32     0.263227
    33    -0.125484
    34     0.318453
    35    -0.109100
    36     0.031285
Sym=    26a
Ene=   -0.260180E-01
Spin= Alpha
Occup= 0.115362
     1     0.005096
     2    -0.023175
     3    -0.017613
     4     0.174974
     5    -0.020316
     6    -0.178602
     7    -0.101814
     8     0.005240
     9     0.101329
    10     0.106981
    11    -0.443975
    12    -0.526537
    13    -0.089077
    14     0.230409
    15     0.168128
    16    -0.012607
    17     0.004989
    18     0.010772
    19    -0.008091
    20     0.028784
    21     0.039345
    22     0.356054
    23     0.016125
    24    -0.316463
    25    -0.178055
    26     0.001017
    27     0.170325
    28    -0.105239
    29     0.436922
    30     0.511620
    31    -0.196070
    32    -0.229912
    33     0.045969
    34     0.001593
    35    -0.007422
    36     0.032075
Sym=    27a
Ene=   -0.411746E-01
Spin= Alpha
Occup= 0.194068
     1    -0.072685
     2     0.329943
     3     0.195927
     4    -0.283023
     5     0.009458
     6    -0.040285
     7     0.125558
     8    -0.018718
     9     0.020761
    10     0.061372
    11    -0.208263
    12    -0.181521
    13    -0.101766
    14    -0.107311
    15     0.381514
    16     0.011343
    17     0.092804
    18    -0.121088
    19    -0.045356
    20     0.212263
    21     0.110623
    22     0.227589
    23    -0.095872
    24     0.058843
    25    -0.111856
    26     0.024305
    27    -0.041264
    28     0.081080
    29    -0.277517
    30    -0.263372
    31     0.191512
    32    -0.024021
    33    -0.342981
    34    -0.032644
    35     0.059202
    36     0.108459
Sym=    28a
Ene=   -0.711766E-02
Spin= Alpha
Occup= 0.018305
     1     0.091323
     2    -0.600948
     3    -0.513187
     4    -0.347088
     5     0.334481
     6     0.007112
     7     0.361269
     8    -0.246303
     9    -0.116027
    10    -0.223917
    11     1.489681
    12     1.015326
    13    -0.766619
    14     0.331698
    15     0.482054
    16     0.525518
    17    -0.245361
    18    -0.262253
    19     0.021595
    20    -0.131125
    21    -0.046502
    22     0.080858
    23     0.065217
    24    -0.013656
    25     0.206593
    26    -0.158961
    27    -0.130886
    28     0.108384
    29    -0.709083
    30    -0.484466
    31    -0.371104
    32     0.064012
    33     0.469923
    34     0.348756
    35    -0.155570
    36    -0.304931
Sym=    29a
Ene=   -0.146684E-03
Spin= Alpha
Occup= 0.000039
     1    -0.006179
     2     0.194477
     3    -0.176208
     4    -0.716778
     5    -0.176767
     6     0.626740
     7    -1.574448
     8    -0.502250
     9     1.420476
    10    -0.038108
    11     0.382426
    12    -0.310959
    13    -0.103735
    14     0.058756
    15     0.190391
    16    -0.005860
    17     0.397542
    18    -0.456750
    19    -0.011215
    20     0.222516
    21    -0.058696
    22    -0.127570
    23    -0.031152
    24     0.044312
    25     0.125674
    26     0.134258
    27    -0.460332
    28     0.038869
    29    -0.079285
    30     0.297989
    31    -0.127173
    32    -0.066107
    33     0.100110
    34     0.948326
    35    -0.165250
    36     0.055167
Sym=    30a
Ene=   -0.144517E-03
Spin= Alpha
Occup= 0.000038
     1     0.053216
     2    -0.614259
     3    -0.054949
     4    -0.138070
     5     0.277638
     6    -0.030709
     7    -0.158076
     8    -0.480092
     9    -0.039372
    10    -0.030179
    11    -0.101976
    12    -0.315738
    13    -0.071910
    14     0.092642
    15    -0.028422
    16     0.667532
    17    -0.231546
    18     0.094379
    19    -0.005341
    20    -0.232941
    21     0.757210
    22    -0.398069
    23     0.837552
    24    -0.152897
    25    -0.605029
    26     1.938736
    27    -0.130424
    28    -0.007123
    29    -0.248086
    30    -0.062872
    31    -0.050470
    32     0.051475
    33     0.004588
    34     0.243188
    35    -0.401414
    36     0.494389
Sym=    31a
Ene=   -0.147128E-03
Spin= Alpha
Occup= 0.000038
     1     0.033171
     2     0.238338
     3    -0.337874
     4    -0.070100
     5     0.002892
     6    -0.102080
     7     0.153916
     8    -0.403526
     9     1.058672
    10    -0.029746
    11     0.625493
    12     0.114483
    13    -0.437284
    14     0.381771
    15    -0.690084
    16    -0.884947
    17     0.901167
    18    -1.387784
    19    -0.036958
    20     0.650904
    21    -0.371903
    22    -0.209103
    23    -0.009095
    24    -0.142575
    25    -0.016123
    26    -0.492728
    27    -0.136885
    28    -0.029237
    29     0.603105
    30    -0.212735
    31     0.043610
    32     0.158421
    33    -0.118207
    34     0.723386
    35    -0.124301
    36    -0.046720
Sym=    32a
Ene=   -0.115787E-03
Spin= Alpha
Occup= 0.000029
     1    -0.006768
     2     0.130982
     3    -0.490903
     4     0.016302
     5    -0.097806
     6    -0.009628
     7    -0.090473
     8     0.092413
     9     0.682403
    10     0.029980
    11    -0.087454
    12    -1.033828
    13     0.050417
    14    -0.063651
    15    -0.074311
    16     0.077930
    17     1.260561
    18     0.344941
    19    -0.037510
    20     0.318219
    21     0.060338
    22    -0.115037
    23    -0.111968
    24    -0.077594
    25    -0.613833
    26     0.020084
    27     0.988928
    28    -0.011096
    29     0.182652
    30     1.219302
    31     0.045750
    32    -0.768808
    33    -0.572524
    34    -0.067071
    35    -1.989707
    36    -1.107778
Sym=    33a
Ene=    0.000000E+00
Spin= Alpha
Occup= 0.000000
     1    -0.018482
     2     0.803395
     3     1.199695
     4     0.078508
     5    -0.383159
     6    -0.192605
     7    -0.039993
     8    -1.379711
     9    -1.197586
    10    -0.001433
    11     0.671615
    12    -0.561665
    13     0.102759
    14     0.092023
    15     0.394171
    16     0.303805
    17     0.443657
    18     1.668148
    19    -0.016916
    20     0.784662
    21    -1.469955
    22    -0.321741
    23     0.098658
    24    -0.133405
    25    -1.819892
    26     0.517287
    27    -0.918318
    28    -0.004512
    29     0.696441
    30    -0.065942
    31     0.128282
    32     0.139216
    33    -0.053816
    34     0.332602
    35     0.662008
    36    -0.358291
Sym=    34a
Ene=    0.000000E+00
Spin= Alpha
Occup= 0.000000
     1    -0.007096
     2     0.092632
     3    -2.299574
     4     0.043450
     5    -0.019994
     6     0.023740
     7     1.687713
     8     1.271764
     9     1.259326
    10    -0.009695
    11     0.114690
    12    -6.682821
    13    -0.021416
    14     0.081803
    15     0.086104
    16     0.224219
    17     2.878154
    18     2.123895
    19     0.029071
    20    -0.171070
    21    19.125769
    22     0.153698
    23     0.169816
    24     0.149117
    25     4.374625
    26     4.933502
    27     4.029149
    28    -0.015939
    29     0.160381
    30   -10.207488
    31     0.103497
    32     0.113254
    33    -0.062117
    34     3.001374
    35     3.486102
    36    -0.747981
Sym=    35a
Ene=    0.000000E+00
Spin= Alpha
Occup= 0.000000
     1     0.032386
     2    -0.252589
     3    19.502503
     4    -0.169655
     5     0.202619
     6    -0.147032
     7    -4.465562
     8     4.897231
     9    -4.306540
    10    -0.014634
    11     0.096523
    12    -8.029103
    13    -0.085981
    14     0.080519
    15     0.026384
    16    -2.624654
    17     2.913330
    18     0.033361
    19    -0.008602
    20     0.052651
    21    -4.220265
    22    -0.041484
    23    -0.018283
    24    -0.045255
    25    -1.905731
    26     0.819766
    27    -1.843757
    28    -0.013072
    29     0.086127
    30    -7.269863
    31     0.028721
    32     0.072151
    33    -0.074778
    34    -0.103492
    35     2.743954
    36    -2.411755
Sym=    36a
Ene=    0.000000E+00
Spin= Alpha
Occup= 0.000000
     1     0.001765
     2    -0.017708
     3     0.704803
     4     0.009010
     5     0.008722
     6    -0.024482
     7     1.357455
     8    -0.043140
     9    -1.895150
    10     0.027986
    11    -0.210262
    12    16.710963
    13     0.159440
    14    -0.119916
    15    -0.168531
    16     4.396207
    17    -2.754820
    18    -4.586881
    19    -0.003279
    20     0.019117
    21    -2.209357
    22    -0.002004
    23    -0.019878
    24    -0.033330
    25     1.008686
    26    -0.512276
    27    -2.032855
    28    -0.026679
    29     0.189482
    30   -15.202883
    31     0.140377
    32     0.104440
    33    -0.158433
    34     4.021747
    35     2.184213
    36    -4.444319
