[Molden Format]
p30-5 set                                                                       
[Atoms] AU
 F        1     9        0.0000        0.0000        0.0000
[GTO]
    1 0
s    5 1.00
    2894.832599000000 -0.534932117607E-02
     435.419391200000 -0.399677343716E-01
      98.843328866000 -0.179412617888E+00
      27.485198001000 -0.468324686869E+00
       8.540549817100 -0.447241605328E+00
s    1 1.00
       1.065457803800  0.100000000000E+01
s    1 1.00
       0.332473467480  0.100000000000E+01
p    3 1.00
      22.696633924000 -0.647821482412E-01
       4.987233925700 -0.340357853553E+00
       1.349161395400 -0.734858153660E+00
p    1 1.00
       0.348298819770  0.100000000000E+01
d    1 1.00
       1.400000000000  0.100000000000E+01
 
[MO]
Sym=     1a
Ene=   -0.263817E+02
Spin= Alpha
Occup= 1.999950
     1     0.995052
     2    -0.022612
     3     0.013754
     4    -0.000005
     5    -0.000010
     6    -0.000002
     7     0.000005
     8     0.000006
     9     0.000001
    10     0.005801
    11     0.005587
    12     0.005528
    13    -0.000193
    14    -0.000112
    15     0.000064
Sym=     2a
Ene=   -0.100441E+01
Spin= Alpha
Occup= 1.986754
     1     0.169136
     2     0.369942
     3     0.261108
     4    -0.256933
     5    -0.204337
     6    -0.454953
     7     0.173263
     8     0.137830
     9     0.306850
    10     0.002555
    11     0.002367
    12     0.002540
    13    -0.000070
    14     0.000096
    15     0.000191
Sym=     3a
Ene=   -0.100434E+01
Spin= Alpha
Occup= 1.986754
     1    -0.169122
     2    -0.369899
     3    -0.261078
     4     0.004800
     5     0.291027
     6    -0.479651
     7    -0.003213
     8    -0.196300
     9     0.323498
    10    -0.002463
    11    -0.002425
    12    -0.002569
    13     0.000143
    14     0.000091
    15     0.000167
Sym=     4a
Ene=   -0.100388E+01
Spin= Alpha
Occup= 1.986754
     1     0.169003
     2     0.369589
     3     0.260896
     4     0.261988
     5     0.495758
     6    -0.024673
     7    -0.176616
     8    -0.334435
     9     0.016611
    10     0.002569
    11     0.002616
    12     0.002257
    13     0.000070
    14    -0.000098
    15     0.000022
Sym=     5a
Ene=   -0.438705E+00
Spin= Alpha
Occup= 1.000000
     1    -0.000011
     2    -0.000051
     3     0.000038
     4    -0.602466
     5     0.327891
     6     0.192943
     7     0.367058
     8    -0.199780
     9    -0.117555
    10     0.000030
    11    -0.000029
    12     0.000014
    13    -0.000060
    14    -0.000013
    15     0.000015
Sym=     6a
Ene=   -0.126872E-01
Spin= Alpha
Occup= 0.011024
     1     0.223643
     2     1.031126
     3    -0.821541
     4     0.347584
     5     0.656029
     6    -0.032907
     7     0.397059
     8     0.749260
     9    -0.037602
    10    -0.103725
    11     0.005692
    12    -0.151950
    13     0.094588
    14    -0.006505
    15    -0.008544
Sym=     7a
Ene=   -0.126835E-01
Spin= Alpha
Occup= 0.011017
     1     0.223782
     2     1.031657
     3    -0.821701
     4    -0.006635
     5    -0.385341
     6     0.635215
     7    -0.007571
     8    -0.440138
     9     0.725533
    10    -0.149113
    11    -0.096985
    12    -0.004367
    13    -0.001632
    14    -0.003134
    15    -0.102999
Sym=     8a
Ene=   -0.126827E-01
Spin= Alpha
Occup= 0.011015
     1     0.223804
     2     1.031740
     3    -0.821726
     4    -0.340487
     5    -0.270554
     6    -0.602384
     7    -0.388896
     8    -0.309030
     9    -0.688039
    10    -0.106629
    11    -0.124692
    12    -0.019221
    13     0.036389
    14     0.085500
    15     0.070066
Sym=     9a
Ene=   -0.209236E-03
Spin= Alpha
Occup= 0.000008
     1     0.019867
     2    -0.031425
     3     0.312136
     4     0.011763
     5    -0.011493
     6    -0.006344
     7     0.014062
     8    -0.013445
     9    -0.007434
    10    -0.666068
    11     0.060660
    12     0.238102
    13     0.692531
    14     0.371194
    15    -0.230851
Sym=    10a
Ene=   -0.389546E-02
Spin= Alpha
Occup= 0.002223
     1     0.001400
     2     0.006311
     3    -0.004579
     4     0.437969
     5    -0.237055
     6    -0.140095
     7     0.517121
     8    -0.279874
     9    -0.165412
    10     0.575143
    11    -0.596118
    12     0.018831
    13     0.402781
    14    -0.141531
    15    -0.172348
Sym=    11a
Ene=   -0.390089E-02
Spin= Alpha
Occup= 0.002230
     1     0.000021
     2     0.000134
     3    -0.000218
     4    -0.439822
     5     0.239699
     6     0.140977
     7    -0.519320
     8     0.282968
     9     0.166452
    10     0.009857
    11    -0.337598
    12     0.327864
    13     0.353086
    14    -0.591888
    15     0.207528
Sym=    12a
Ene=   -0.390182E-02
Spin= Alpha
Occup= 0.002231
     1    -0.000016
     2    -0.000117
     3     0.000218
     4     0.440364
     5    -0.239972
     6    -0.140968
     7     0.519955
     8    -0.283291
     9    -0.166443
    10    -0.546967
    11     0.236868
    12     0.309950
    13    -0.077455
    14    -0.458224
    15     0.384922
Sym=    13a
Ene=   -0.106678E-02
Spin= Alpha
Occup= 0.000041
     1    -0.599953
     2    -1.604866
     3    -1.461877
     4     0.001557
     5    -0.000920
     6    -0.000519
     7     0.001844
     8    -0.001090
     9    -0.000615
    10     1.266131
    11     1.339830
    12     1.363790
    13     0.071390
    14     0.040564
    15    -0.023046
Sym=    14a
Ene=    0.000000E+00
Spin= Alpha
Occup= 0.000000
     1     0.000011
     2    -0.000026
     3     0.000184
     4    -0.008628
     5     0.061210
     6    -0.116746
     7    -0.009982
     8     0.069818
     9    -0.132968
    10    -0.247726
    11    -0.148906
    12     0.396428
    13    -0.352058
    14    -0.280781
    15    -0.784970
Sym=    15a
Ene=    0.000000E+00
Spin= Alpha
Occup= 0.000000
     1     0.000716
     2    -0.001285
     3     0.011748
     4     0.063539
     5     0.104636
     6     0.049906
     7     0.072076
     8     0.119384
     9     0.056958
    10    -0.066059
    11    -0.644571
    12     0.696941
    13    -0.296960
    14     0.440496
    15     0.305730
