[Molden Format]
p30-5 set                                                                       
[Atoms] AU
 O        1     8        0.0000        0.0000       -0.7381
 H        2     1       -1.4401        0.0000        0.3691
 H        3     1        1.4401        0.0000        0.3691
[GTO]
    1 0
s    5 1.00
    2266.176778500000 -0.538935039217E-02
     340.870101910000 -0.402347213890E-01
      77.363135167000 -0.180081842055E+00
      21.479644940000 -0.468288576577E+00
       6.658943312400 -0.446926171602E+00
s    1 1.00
       0.809759756680  0.100000000000E+01
s    1 1.00
       0.255307722340  0.100000000000E+01
p    3 1.00
      17.721504317000  0.626302487632E-01
       3.863550544000  0.333311384824E+00
       1.048092088300  0.741486383081E+00
p    1 1.00
       0.276415444110  0.100000000000E+01
d    1 1.00
       1.200000000000  0.100000000000E+01
 
    2 0
s    3 1.00
      13.010701000000  0.334854848130E-01
       1.962257200000  0.234721870881E+00
       0.444537960000  0.813770285260E+00
s    1 1.00
       0.121949620000  0.100000000000E+01
p    1 1.00
       0.800000000000  0.100000000000E+01
 
    3 0
s    3 1.00
      13.010701000000  0.334854848130E-01
       1.962257200000  0.234721870881E+00
       0.444537960000  0.813770285260E+00
s    1 1.00
       0.121949620000  0.100000000000E+01
p    1 1.00
       0.800000000000  0.100000000000E+01
 
[MO]
Sym=     1a
Ene=   -0.205591E+02
Spin= Alpha
Occup= 1.999924
     1     0.992919
     2    -0.029467
     3     0.013477
     4    -0.000002
     5    -0.000065
     6    -0.004968
     7    -0.000003
     8    -0.000041
     9    -0.002254
    10     0.003269
    11     0.004229
    12     0.003505
    13    -0.000000
    14    -0.000003
    15    -0.000003
    16     0.002316
    17    -0.001489
    18     0.001529
    19    -0.000001
    20    -0.001291
    21     0.002325
    22    -0.001490
    23    -0.001535
    24    -0.000001
    25    -0.001294
Sym=     2a
Ene=   -0.759449E+00
Spin= Alpha
Occup= 1.987824
     1    -0.182508
     2    -0.383804
     3    -0.324964
     4     0.000068
     5    -0.421470
     6     0.249931
     7     0.000174
     8    -0.331455
     9     0.196453
    10    -0.009996
    11    -0.009892
    12     0.003580
    13     0.000002
    14     0.000012
    15    -0.011702
    16     0.011746
    17     0.023821
    18     0.000061
    19    -0.018537
    20     0.011476
    21     0.011804
    22     0.023709
    23    -0.000102
    24    -0.018528
    25     0.011443
Sym=     3a
Ene=   -0.712119E+00
Spin= Alpha
Occup= 1.986707
     1     0.162776
     2     0.343279
     3     0.288120
     4    -0.000212
     5    -0.472406
     6    -0.223918
     7    -0.000020
     8    -0.371276
     9    -0.175312
    10     0.008939
    11     0.008628
    12    -0.002910
    13     0.000004
    14    -0.000013
    15    -0.013229
    16    -0.010884
    17    -0.020177
    18    -0.000132
    19    -0.020679
    20    -0.010163
    21    -0.011161
    22    -0.020277
    23     0.000140
    24    -0.020673
    25    -0.010142
Sym=     4a
Ene=   -0.856290E+00
Spin= Alpha
Occup= 1.970340
     1     0.089416
     2     0.180792
     3    -0.030705
     4     0.349254
     5    -0.000248
     6     0.313157
     7     0.151044
     8    -0.000334
     9     0.168016
    10     0.004794
    11    -0.003120
    12     0.015377
    13    -0.000025
    14     0.018886
    15    -0.000039
    16    -0.033242
    17    -0.028999
    18     0.014085
    19    -0.000072
    20     0.016387
    21     0.438610
    22     0.096333
    23    -0.041998
    24    -0.000050
    25    -0.022688
Sym=     5a
Ene=   -0.856018E+00
Spin= Alpha
Occup= 1.970246
     1     0.089305
     2     0.180563
     3    -0.030960
     4    -0.349188
     5    -0.000126
     6     0.313453
     7    -0.150867
     8    -0.000244
     9     0.168214
    10     0.004786
    11    -0.003126
    12     0.015381
    13     0.000027
    14    -0.018875
    15    -0.000036
    16     0.438634
    17     0.096451
    18     0.041982
    19    -0.000049
    20    -0.022651
    21    -0.033161
    22    -0.029043
    23    -0.014100
    24    -0.000064
    25     0.016388
Sym=     6a
Ene=   -0.221990E-01
Spin= Alpha
Occup= 0.025015
     1    -0.136747
     2    -0.491984
     3    -0.084911
     4     0.611835
     5    -0.003704
     6    -0.506683
     7     0.070591
     8     0.002453
     9     0.017618
    10    -0.005516
    11     0.040766
    12    -0.021201
    13    -0.000743
    14     0.062911
    15     0.000673
    16     0.894590
    17     0.157480
    18     0.032043
    19     0.003263
    20     0.005224
    21    -0.019231
    22    -0.041605
    23    -0.006227
    24     0.001192
    25     0.003429
Sym=     7a
Ene=   -0.221282E-01
Spin= Alpha
Occup= 0.024886
     1     0.136855
     2     0.493368
     3     0.081882
     4     0.611942
     5     0.003744
     6     0.506970
     7     0.071604
     8    -0.002595
     9    -0.018404
    10     0.005900
    11    -0.040731
    12     0.021436
    13    -0.000590
    14     0.063000
    15    -0.000737
    16     0.020064
    17     0.042775
    18    -0.006504
    19    -0.001136
    20    -0.002913
    21    -0.896008
    22    -0.155332
    23     0.032552
    24    -0.003012
    25    -0.004759
Sym=     8a
Ene=   -0.134930E-02
Spin= Alpha
Occup= 0.000738
     1     0.065336
     2     0.315374
     3     0.019366
     4    -0.031905
     5    -0.016706
     6     0.019621
     7     0.056139
     8     0.065824
     9     0.379882
    10     0.458981
    11    -1.019709
    12     0.546134
    13    -0.002136
    14    -0.000278
    15    -0.082603
    16    -0.632351
    17     0.389887
    18    -0.190908
    19    -0.058179
    20     0.064707
    21    -0.657374
    22     0.343556
    23     0.157117
    24    -0.055849
    25     0.056106
Sym=     9a
Ene=   -0.108361E-01
Spin= Alpha
Occup= 0.010961
     1    -0.220239
     2    -1.074714
     3     0.993452
     4    -0.000190
     5    -0.648184
     6     0.443434
     7    -0.000359
     8     0.671170
     9    -0.424999
    10     0.150089
    11    -0.031467
    12     0.105626
    13    -0.000004
    14    -0.000037
    15     0.105776
    16    -0.057979
    17    -0.055236
    18    -0.017638
    19     0.022279
    20    -0.007278
    21    -0.057623
    22    -0.054953
    23     0.017285
    24     0.022615
    25    -0.008120
Sym=    10a
Ene=   -0.654101E-05
Spin= Alpha
Occup= 0.000000
     1    -0.003733
     2    -0.279390
     3     2.368868
     4    -0.250851
     5    -0.003125
     6     0.168736
     7    -1.058906
     8    -0.009798
     9     1.075042
    10     0.214035
    11    -0.355171
    12     0.239713
    13    -0.004846
    14    -0.487808
    15    -0.008259
    16    -1.089616
    17    -1.661342
    18    -1.202688
    19     0.012454
    20     0.759344
    21    -0.237315
    22     0.127544
    23     0.169096
    24     0.021093
    25    -0.197479
Sym=    11a
Ene=   -0.150907E-02
Spin= Alpha
Occup= 0.001052
     1     0.019366
     2     0.182798
     3    -0.260626
     4     0.162635
     5    -0.034423
     6     0.124897
     7     0.038544
     8     0.315522
     9     0.057251
    10     0.212143
    11     0.082437
    12    -0.194051
    13     0.125631
    14     0.075385
    15    -0.087363
    16     0.080072
    17    -0.106583
    18    -0.408772
    19    -0.651539
    20    -0.487328
    21    -0.211626
    22     0.350801
    23     0.054925
    24    -0.053078
    25     0.210603
Sym=    12a
Ene=   -0.334024E-02
Spin= Alpha
Occup= 0.002719
     1     0.015740
     2    -0.073131
     3     0.912921
     4     0.027782
     5     0.000201
     6     0.048541
     7     0.506568
     8     0.011619
     9     0.652518
    10    -0.134410
    11     0.065242
    12    -0.029198
    13    -0.003297
    14    -0.238444
    15    -0.004090
    16    -0.316873
    17    -0.161528
    18    -0.061226
    19    -0.013082
    20    -0.003793
    21    -1.346524
    22     0.674409
    23     0.419582
    24    -0.015962
    25     0.299948
Sym=    13a
Ene=   -0.110705E-01
Spin= Alpha
Occup= 0.011556
     1    -0.205000
     2    -1.007580
     3     0.948057
     4     0.000976
     5     0.706513
     6     0.395059
     7    -0.001671
     8    -0.731508
     9    -0.376245
    10     0.134795
    11    -0.038041
    12     0.100662
    13    -0.000139
    14     0.000065
    15    -0.089668
    16    -0.053032
    17    -0.062494
    18    -0.012806
    19    -0.026759
    20    -0.009669
    21    -0.052484
    22    -0.060863
    23     0.013749
    24    -0.026366
    25    -0.009460
Sym=    14a
Ene=   -0.968603E-03
Spin= Alpha
Occup= 0.000517
     1    -0.018933
     2     0.269290
     3    -1.104887
     4    -0.007409
     5    -0.065817
     6     0.262262
     7     0.098828
     8    -0.094489
     9    -0.484701
    10    -0.422970
    11     0.303437
    12     0.632414
    13    -0.141896
    14     0.167106
    15    -0.668899
    16     0.489693
    17     0.097720
    18    -0.191100
    19     0.178227
    20    -0.063985
    21     0.199433
    22     0.295868
    23     0.258795
    24     0.300783
    25    -0.068993
Sym=    15a
Ene=   -0.377505E-04
Spin= Alpha
Occup= 0.000002
     1     0.045939
     2    -0.200359
     3    -0.016622
     4    -0.184549
     5    -0.003129
     6    -0.517744
     7    -0.284294
     8     0.004592
     9     0.293684
    10    -0.964278
    11    -0.129220
    12     0.021598
    13    -0.001710
    14    -0.187469
    15     0.011224
    16     0.057556
    17    -0.207351
    18     0.109245
    19    -0.002910
    20    -0.664347
    21     0.315035
    22     0.443896
    23    -0.639093
    24    -0.001292
    25    -1.066128
Sym=    16a
Ene=   -0.140535E-02
Spin= Alpha
Occup= 0.000982
     1    -0.027540
     2    -0.237937
     3     0.329373
     4    -0.088079
     5    -0.042681
     6    -0.133461
     7    -0.117456
     8     0.352179
     9    -0.064817
    10    -0.226413
    11     0.003110
    12     0.106484
    13     0.129294
    14    -0.065051
    15    -0.081672
    16    -0.002625
    17    -0.032789
    18     0.437214
    19    -0.720209
    20     0.417415
    21     0.275081
    22    -0.359788
    23    -0.036400
    24    -0.056151
    25    -0.195283
Sym=    17a
Ene=   -0.151378E-02
Spin= Alpha
Occup= 0.001052
     1    -0.018961
     2    -0.175350
     3     0.237729
     4     0.153504
     5     0.034033
     6    -0.122106
     7     0.058858
     8    -0.314438
     9    -0.066923
    10    -0.211348
    11    -0.083725
    12     0.199952
    13     0.126508
    14     0.078438
    15     0.086991
    16     0.220101
    17    -0.334428
    18     0.049602
    19     0.053744
    20    -0.209920
    21    -0.082704
    22     0.105398
    23    -0.415154
    24     0.649163
    25     0.489907
Sym=    18a
Ene=   -0.918928E-03
Spin= Alpha
Occup= 0.000480
     1     0.000159
     2     0.001608
     3    -0.001791
     4     0.160028
     5     0.000500
     6     0.000308
     7     0.067350
     8     0.001298
     9     0.005088
    10    -0.004851
    11    -0.005725
    12     0.012549
    13     0.769924
    14     0.688483
    15     0.005780
    16     0.519713
    17    -0.548247
    18     0.242292
    19     0.330362
    20    -0.013767
    21    -0.526972
    22     0.553408
    23     0.251894
    24    -0.335556
    25     0.005163
Sym=    19a
Ene=   -0.946916E-03
Spin= Alpha
Occup= 0.000499
     1    -0.003782
     2     0.061810
     3    -0.242157
     4    -0.243812
     5    -0.013260
     6     0.060310
     7     0.032885
     8    -0.017555
     9    -0.116840
    10    -0.077896
    11     0.071064
    12     0.119229
    13     0.680850
    14    -0.744631
    15    -0.136561
    16    -0.456589
    17     0.661037
    18    -0.349905
    19     0.321603
    20     0.028369
    21     0.614725
    22    -0.579980
    23    -0.262087
    24    -0.228677
    25    -0.032391
Sym=    20a
Ene=   -0.593171E-05
Spin= Alpha
Occup= 0.000000
     1    -0.013274
     2     0.340890
     3    -2.201945
     4    -0.202304
     5     0.004200
     6     0.041656
     7    -1.265426
     8     0.007435
     9    -1.117726
    10     0.172907
    11     0.378399
    12    -0.235765
    13    -0.004136
    14    -0.535983
    15     0.002903
    16     0.047667
    17    -0.323288
    18    -0.012384
    19    -0.017850
    20     0.586516
    21     1.046923
    22     1.662450
    23    -1.008152
    24    -0.012223
    25    -0.437929
Sym=    21a
Ene=   -0.332984E-02
Spin= Alpha
Occup= 0.002706
     1     0.016083
     2    -0.071683
     3     0.914940
     4    -0.035737
     5    -0.000001
     6     0.049687
     7    -0.495619
     8     0.014469
     9     0.652298
    10    -0.134353
    11     0.064808
    12    -0.029000
    13     0.005106
    14     0.237882
    15    -0.005027
    16    -1.345898
    17     0.679074
    18    -0.421308
    19    -0.023191
    20     0.305773
    21    -0.319617
    22    -0.167490
    23     0.060204
    24    -0.012549
    25    -0.005269
Sym=    22a
Ene=   -0.142937E-02
Spin= Alpha
Occup= 0.001004
     1     0.025313
     2     0.219985
     3    -0.309449
     4    -0.121714
     5     0.043230
     6     0.122134
     7    -0.063354
     8    -0.351139
     9     0.076287
    10     0.220674
    11    -0.004682
    12    -0.103683
    13     0.131062
    14    -0.058692
    15     0.086630
    16    -0.256567
    17     0.366661
    18    -0.049799
    19     0.050631
    20     0.190374
    21    -0.006738
    22     0.002942
    23     0.411015
    24     0.721214
    25    -0.434549
Sym=    23a
Ene=   -0.970435E-03
Spin= Alpha
Occup= 0.000519
     1     0.007649
     2    -0.293618
     3     0.980106
     4     0.021731
     5    -0.078475
     6    -0.238173
     7    -0.034133
     8    -0.135971
     9     0.368125
    10     0.326830
    11    -0.188692
    12    -0.623652
    13     0.008391
    14     0.001995
    15    -0.760977
    16    -0.244581
    17    -0.209599
    18     0.257704
    19     0.316683
    20     0.040630
    21    -0.231222
    22    -0.182836
    23    -0.232189
    24     0.310017
    25     0.048534
Sym=    24a
Ene=   -0.299529E-03
Spin= Alpha
Occup= 0.000198
     1    -0.000076
     2    -0.030591
     3     0.074487
     4     0.748444
     5    -0.002866
     6    -0.028329
     7    -1.489488
     8    -0.018573
     9     0.110190
    10    -0.114881
    11    -0.043269
    12     0.119934
    13     0.037034
    14    -0.256800
    15    -0.027288
    16    -0.580871
    17    -0.357441
    18     0.360645
    19     0.074586
    20    -0.154985
    21     0.507014
    22     0.350362
    23     0.448522
    24    -0.017129
    25    -0.048917
Sym=    25a
Ene=   -0.160139E-02
Spin= Alpha
Occup= 0.000073
     1    -0.717477
     2    -2.295628
     3    -0.901018
     4    -0.008891
     5    -0.001053
     6    -0.029572
     7     0.015404
     8     0.000814
     9     0.336437
    10     1.536320
    11     1.381349
    12     1.511896
    13     0.000031
    14     0.000646
    15    -0.002376
    16    -0.339293
    17     0.179732
    18    -0.153323
    19     0.001417
    20     0.034382
    21    -0.348319
    22     0.172343
    23     0.139433
    24    -0.000375
    25     0.034026
