[Molden Format]
p30-5 set                                                                       
[Atoms] AU
 EU       1    63       -1.2994        0.0000        0.0000
 GD       2    64       -0.3151        0.0000        0.0000
 TB       3    65       -0.0262        0.0000        0.0000
[GTO]
    1 0
s    5 1.00
    1712.841585300000 -0.544779958049E-02
     257.648126770000 -0.406271746324E-01
      58.458245853000 -0.181119622506E+00
      16.198367905000 -0.468439755632E+00
       5.005260080900 -0.446168462892E+00
s    1 1.00
       0.587318565710  0.100000000000E+01
s    1 1.00
       0.187645922530  0.100000000000E+01
p    3 1.00
      13.571470233000 -0.588481169695E-01
       2.925737287400 -0.320246247625E+00
       0.799277507540 -0.753282265204E+00
p    1 1.00
       0.219543480340  0.100000000000E+01
d    1 1.00
       1.000000000000  0.100000000000E+01
 
    2 0
s    5 1.00
    1712.841585300000 -0.544779958049E-02
     257.648126770000 -0.406271746324E-01
      58.458245853000 -0.181119622506E+00
      16.198367905000 -0.468439755632E+00
       5.005260080900 -0.446168462892E+00
s    1 1.00
       0.587318565710  0.100000000000E+01
s    1 1.00
       0.187645922530  0.100000000000E+01
p    3 1.00
      13.571470233000 -0.588481169695E-01
       2.925737287400 -0.320246247625E+00
       0.799277507540 -0.753282265204E+00
p    1 1.00
       0.219543480340  0.100000000000E+01
d    1 1.00
       1.000000000000  0.100000000000E+01
 
    3 0
s    5 1.00
    2266.176778500000 -0.538935039217E-02
     340.870101910000 -0.402347213890E-01
      77.363135167000 -0.180081842055E+00
      21.479644940000 -0.468288576577E+00
       6.658943312400 -0.446926171602E+00
s    1 1.00
       0.809759756680  0.100000000000E+01
s    1 1.00
       0.255307722340  0.100000000000E+01
p    3 1.00
      17.721504317000  0.626302487632E-01
       3.863550544000  0.333311384824E+00
       1.048092088300  0.741486383081E+00
p    1 1.00
       0.276415444110  0.100000000000E+01
d    1 1.00
       1.200000000000  0.100000000000E+01
 
[MO]
Sym=     1a
Ene=   -0.561268E+03
Spin= Alpha
Occup= 2.000000
     1    -1.053171
     2    -0.339330
     3     1.044344
     4    -0.273176
     5     0.094304
     6     0.005207
     7     0.324437
     8    -0.014934
     9    -0.022169
    10     0.389896
    11     0.346164
    12     0.346164
    13    -0.040483
    14    -0.004242
    15    -0.000000
    16    -0.956797
    17     9.501217
    18     0.959006
    19     0.281191
    20    -0.141099
    21    -0.188668
    22     0.408076
    23     0.051452
    24     0.081730
    25    -1.994051
    26    -1.761738
    27    -1.761738
    28    -0.083830
    29     0.026869
    30     0.000000
    31     0.399463
    32    -7.111439
    33    -3.869301
    34     2.251944
    35    -0.024397
    36    -0.174300
    37     0.499701
    38    -0.051456
    39    -0.088226
    40     0.798366
    41     1.346551
    42     1.346551
    43     0.048035
    44     0.022124
    45    -0.000000
Sym=     2a
Ene=   -0.786880E+03
Spin= Alpha
Occup= 2.000000
     1    -0.528934
     2    -3.655060
     3    -0.969556
     4     0.353578
     5     0.045606
     6     0.001523
     7    -0.336918
     8    -0.014979
     9    -0.014204
    10     0.802539
    11     0.670897
    12     0.670897
    13    -0.020307
    14    -0.001966
    15    -0.000000
    16     0.894163
    17   -11.002944
    18    -1.325681
    19     2.020809
    20    -0.133973
    21    -0.120608
    22    -0.601109
    23     0.053554
    24     0.052440
    25     2.732008
    26     1.616439
    27     1.616439
    28    -0.029093
    29     0.019252
    30     0.000000
    31    -1.473460
    32     8.371089
    33     4.804233
    34    -1.394129
    35    -0.074655
    36    -0.113539
    37    -0.496560
    38    -0.055917
    39    -0.056690
    40    -1.192553
    41    -0.889099
    42    -0.889099
    43     0.030307
    44     0.013515
    45    -0.000000
Sym=     3a
Ene=   -0.541617E+03
Spin= Alpha
Occup= 2.000000
     1    -0.509294
     2    -3.085522
     3    -2.202485
     4    -0.190957
     5     0.070650
     6     0.037945
     7    -0.548892
     8    -0.013759
     9     0.083591
    10     0.989066
    11     0.479886
    12     0.479886
    13    -0.030570
    14    -0.007867
    15    -0.000000
    16     1.398061
    17    -5.528562
    18     0.839339
    19    -2.096358
    20    -0.127491
    21     0.702520
    22    -1.133265
    23     0.048048
    24    -0.310463
    25     3.758823
    26     1.784354
    27     1.784354
    28    -0.059010
    29    -0.165955
    30     0.000000
    31     0.498685
    32     4.109482
    33     2.765471
    34    -4.013104
    35    -0.039106
    36     0.716215
    37    -0.031067
    38    -0.048833
    39     0.337730
    40    -1.436194
    41    -2.011926
    42    -2.011926
    43     0.038332
    44    -0.062413
    45     0.000000
Sym=     4a
Ene=   -0.558128E+03
Spin= Alpha
Occup= 2.000000
     1     0.011242
     2    -2.786105
     3    -2.549877
     4     0.642670
     5    -0.036577
     6    -0.015516
     7    -0.557827
     8     0.017069
     9    -0.031816
    10     0.210960
    11     0.330418
    12     0.330418
    13     0.016762
    14     0.003439
    15     0.000000
    16     0.725427
    17     0.881951
    18     1.859388
    19     3.460541
    20     0.150289
    21    -0.267225
    22    -1.468558
    23    -0.061637
    24     0.118210
    25    -0.347543
    26    -0.508553
    27    -0.508553
    28     0.015873
    29     0.064370
    30    -0.000000
    31    -0.501834
    32     1.805192
    33     1.211860
    34     1.877248
    35     0.100838
    36    -0.273703
    37     0.614200
    38     0.065070
    39    -0.128640
    40    -0.514733
    41     0.317955
    42     0.317955
    43    -0.028919
    44     0.023364
    45     0.000000
Sym=     5a
Ene=   -0.274194E+03
Spin= Alpha
Occup= 2.000000
     1    -0.017468
     2    -0.042440
     3    -0.433285
     4    -0.046792
     5    -0.045648
     6    -0.193148
     7    -0.075527
     8    -0.206593
     9    -0.550898
    10     0.033702
    11    -0.016175
    12    -0.016175
    13    -0.000504
    14     0.028255
    15    -0.000000
    16     0.136894
    17     2.112073
    18     0.739559
    19    -0.676055
    20    -1.743687
    21    -4.638691
    22    -0.210096
    23     0.765392
    24     2.043825
    25    -0.012103
    26    -0.146015
    27    -0.146014
    28     0.356118
    29     1.029804
    30     0.000000
    31     0.167055
    32    -1.244849
    33    -0.670800
    34    -0.307757
    35    -1.720798
    36    -4.661843
    37     0.190229
    38    -0.830463
    39    -2.220782
    40    -0.032910
    41    -0.167332
    42    -0.167332
    43     0.171815
    44     0.432100
    45    -0.000000
Sym=     6a
Ene=   -0.270766E+03
Spin= Alpha
Occup= 2.000000
     1    -0.012887
     2    -0.491643
     3    -0.432274
     4     0.058385
     5     0.228003
     6    -0.079382
     7    -0.103814
     8     0.554905
     9    -0.197372
    10     0.085725
    11     0.061550
    12     0.061550
    13    -0.042322
    14     0.014342
    15     0.000000
    16     0.075005
    17    -0.443857
    18     0.251721
    19     0.044451
    20     4.667271
    21    -1.660347
    22    -0.219313
    23    -2.060019
    24     0.732652
    25     0.316893
    26     0.131053
    27     0.131053
    28    -1.074847
    29     0.380381
    30    -0.000000
    31     0.019391
    32     0.579621
    33     0.351581
    34    -0.270640
    35     4.730021
    36    -1.680644
    37     0.035319
    38     2.239873
    39    -0.796541
    40    -0.168558
    41    -0.180847
    42    -0.180847
    43    -0.423037
    44     0.151094
    45     0.000000
Sym=     7a
Ene=   -0.294183E+03
Spin= Alpha
Occup= 2.000000
     1     0.110152
     2     9.543179
     3     6.714529
     4    -1.733973
     5    -0.105496
     6    -0.004734
     7     1.694197
     8     0.052652
     9     0.015690
    10    -1.261778
    11    -1.294124
    12    -1.294124
    13     0.048666
    14     0.003437
    15     0.000000
    16    -0.397045
    17    13.837998
    18    -2.430050
    19    -6.219616
    20     0.462451
    21     0.133695
    22     3.519449
    23    -0.190415
    24    -0.057805
    25    -4.278325
    26    -2.018741
    27    -2.018742
    28     0.040735
    29    -0.017840
    30    -0.000000
    31     0.529397
    32   -14.849082
    33    -8.585918
    34     1.198280
    35     0.318553
    36     0.122289
    37    -0.222973
    38     0.201358
    39     0.062352
    40     2.652299
    41     1.654903
    42     1.654904
    43    -0.086528
    44    -0.016042
    45     0.000000
Sym=     8a
Ene=   -0.246588E+03
Spin= Alpha
Occup= 2.000000
     1     0.457266
     2     7.370758
     3     5.617055
     4    -3.191516
     5     0.600969
     6     0.042782
     7     1.250820
     8    -0.113762
     9     0.002984
    10     0.000046
    11    -1.322930
    12    -1.322930
    13    -0.259731
    14    -0.017448
    15    -0.000000
    16     0.058852
    17    -7.042239
    18    -6.799797
    19    -2.279228
    20    -1.056731
    21     0.018692
    22     2.534683
    23     0.396609
    24    -0.012728
    25     0.883387
    26     0.348398
    27     0.348398
    28    -0.506784
    29    -0.052432
    30     0.000000
    31     0.142924
    32    -0.967633
    33     2.003822
    34    -0.305970
    35    -0.306122
    36     0.068011
    37    -1.194773
    38    -0.402291
    39     0.015697
    40    -0.046375
    41     0.335301
    42     0.335302
    43     0.323075
    44     0.012889
    45    -0.000000
Sym=     9a
Ene=   -0.251448E+03
Spin= Alpha
Occup= 2.000000
     1    -0.039186
     2    -3.305270
     3    -5.682766
     4     1.224919
     5     0.079540
     6     0.036155
     7    -1.064243
     8    -0.008258
     9     0.061097
    10    -0.089616
    11     0.316278
    12     0.316278
    13    -0.033737
    14    -0.009239
    15    -0.000000
    16    -0.115628
    17    23.503866
    18     8.636256
    19     1.082256
    20    -0.082246
    21     0.512179
    22    -2.903708
    23     0.027365
    24    -0.227254
    25    -3.575331
    26    -3.329349
    27    -3.329349
    28    -0.077108
    29    -0.130751
    30     0.000000
    31     0.267245
    32   -10.627410
    33    -6.433027
    34     3.016303
    35     0.014576
    36     0.532114
    37     2.401904
    38    -0.026048
    39     0.247588
    40     0.273528
    41     0.660891
    42     0.660892
    43     0.036557
    44    -0.042545
    45    -0.000000
Sym=    10a
Ene=   -0.258483E+03
Spin= Alpha
Occup= 1.999997
     1    -0.017300
     2    -0.553326
     3    -0.427476
     4     0.346120
     5     1.306972
     6     2.354080
     7    -0.093749
     8    -0.245721
     9    -0.443002
    10    -0.061358
    11     0.108621
    12     0.108621
    13    -0.564699
    14    -1.017159
    15    -0.000000
    16    -0.021106
    17     0.789588
    18     0.624202
    19     0.149872
    20    -2.283856
    21    -4.117138
    22    -0.171498
    23     0.856305
    24     1.543888
    25    -0.201205
    26    -0.043518
    27    -0.043518
    28    -1.104632
    29    -1.989017
    30    -0.000000
    31    -0.015536
    32    -0.031504
    33    -0.345434
    34     0.060830
    35    -0.652072
    36    -1.177862
    37     0.098854
    38    -0.868149
    39    -1.565346
    40     0.081864
    41     0.003578
    42     0.003578
    43     0.701075
    44     1.263136
    45    -0.000000
Sym=    11a
Ene=   -0.257987E+03
Spin= Alpha
Occup= 1.999997
     1    -0.032913
     2    -0.877224
     3    -0.684466
     4     0.530419
     5     2.293370
     6    -1.351866
     7    -0.149310
     8    -0.435617
     9     0.257052
    10    -0.086925
    11     0.170736
    12     0.170736
    13    -0.991307
    14     0.584368
    15     0.000000
    16    -0.032317
    17     1.315431
    18     0.995229
    19     0.238358
    20    -4.045197
    21     2.386803
    22    -0.279574
    23     1.519005
    24    -0.896403
    25    -0.315038
    26    -0.082604
    27    -0.082604
    28    -1.931759
    29     1.138309
    30    -0.000000
    31    -0.022609
    32    -0.097211
    33    -0.550670
    34     0.105492
    35    -1.180224
    36     0.697895
    37     0.163540
    38    -1.541140
    39     0.909533
    40     0.121040
    41     0.007311
    42     0.007311
    43     1.234246
    44    -0.727794
    45     0.000000
Sym=    12a
Ene=   -0.731245E-05
Spin= Alpha
Occup= 0.000000
     1    -0.005657
     2     2.493571
     3     3.327015
     4     0.355899
     5     0.233034
     6    -0.126562
     7     0.693479
     8    -0.712325
     9     0.410502
    10    -0.645880
    11    -0.079060
    12    -0.154555
    13    -0.330403
    14     0.228922
    15    -0.088593
    16    -0.066692
    17    -2.991168
    18    -2.223664
    19    -0.552508
    20    -1.333653
    21     0.711727
    22     2.040858
    23     1.959069
    24    -1.086585
    25    -1.733068
    26     0.964680
    27     0.547632
    28    -1.169078
    29     0.604969
    30    -0.384394
    31     0.002052
    32     1.987230
    33    -1.763047
    34     0.191693
    35    -0.406661
    36     0.204701
    37    -0.836711
    38    -1.740009
    39     0.946867
    40     1.508474
    41    -0.087509
    42    -0.128271
    43     1.392941
    44    -0.697994
    45    -0.020015
Sym=    13a
Ene=   -0.517437E-03
Spin= Alpha
Occup= 0.000003
     1    -0.028495
     2    -0.304029
     3     0.271640
     4    -0.075343
     5     0.849637
     6     1.490588
     7     0.058739
     8     0.599990
     9     1.058216
    10     0.180539
    11     0.118803
    12     0.104561
    13    -0.166672
    14    -0.301339
    15    -0.014452
    16    -0.011670
    17     1.437548
    18    -0.021309
    19    -0.120238
    20     0.290785
    21     0.511032
    22     0.149254
    23    -1.734637
    24    -3.056340
    25    -0.185161
    26    -0.300138
    27    -0.288621
    28    -0.731142
    29    -1.254705
    30     0.010875
    31     0.005410
    32    -1.171955
    33    -0.467644
    34     0.091416
    35     0.337085
    36     0.585463
    37    -0.020618
    38     1.582512
    39     2.787156
    40     0.158184
    41     0.190903
    42     0.196531
    43     0.298755
    44     0.506192
    45     0.006486
Sym=    14a
Ene=   -0.504478E-04
Spin= Alpha
Occup= 0.000000
     1     0.037480
     2     1.016360
     3     0.117027
     4     1.488643
     5    -0.081671
     6     0.032460
     7     0.111773
     8     0.003086
     9     0.000269
    10    -1.205763
    11     0.074902
    12     0.043836
    13     0.039760
    14    -0.044295
    15    -0.010660
    16    -0.361280
    17    40.793135
    18     5.897849
    19    -3.250418
    20     0.083871
    21     0.068181
    22     0.953690
    23    -0.012207
    24    -0.085300
    25    -9.495076
    26    -8.520204
    27    -8.323882
    28     0.124746
    29    -0.038071
    30     0.084395
    31     0.148738
    32   -27.630647
    33   -12.582302
    34     2.920003
    35     0.014292
    36     0.067732
    37     0.933052
    38     0.011141
    39     0.108332
    40     5.133517
    41     5.591102
    42     5.393082
    43    -0.123124
    44    -0.059358
    45    -0.071013
Sym=    15a
Ene=   -0.138545E-08
Spin= Alpha
Occup= 0.000000
     1     0.104357
     2    13.359502
     3    23.035572
     4    -0.818936
     5     0.111405
     6    -0.025123
     7     4.848276
     8    -0.114130
     9     0.080897
    10    -1.547179
    11    -2.145401
    12    -2.046018
    13    -0.195960
    14     0.019690
    15     0.073794
    16     0.021935
    17   -39.307758
    18   -29.589073
    19    -0.347130
    20    -0.148927
    21     0.119425
    22    10.630081
    23     0.057805
    24    -0.225422
    25    -2.206478
    26     4.013686
    27     4.019005
    28    -0.274119
    29     0.130126
    30    -0.093202
    31    -0.020941
    32    22.325611
    33    12.754632
    34    -0.386018
    35     0.035267
    36     0.030582
    37    -6.441989
    38     0.039427
    39     0.195293
    40     1.650225
    41    -1.197133
    42    -1.286328
    43     0.137129
    44    -0.142602
    45     0.032313
Sym=    16a
Ene=   -0.184727E-05
Spin= Alpha
Occup= 0.000000
     1    -0.020861
     2     2.594849
     3     8.509235
     4     0.735652
     5    -0.062369
     6     0.044512
     7     1.358176
     8     0.438551
     9    -0.216152
    10    -0.622775
    11     0.269157
    12     0.215598
    13     0.234081
    14    -0.082361
    15    -0.027919
    16    -0.127945
    17    -0.285860
    18    -4.934933
    19    -1.456717
    20     0.901899
    21    -0.429544
    22     6.494788
    23    -1.325765
    24     0.641792
    25    -3.225886
    26    -1.230129
    27    -0.613925
    28     0.424516
    29    -0.294073
    30     0.470182
    31     0.002528
    32    -0.427539
    33    -5.277784
    34     0.340980
    35     0.377309
    36    -0.161529
    37    -3.554454
    38     1.225384
    39    -0.586656
    40     3.528684
    41     1.704001
    42     1.242480
    43    -0.751316
    44     0.421029
    45    -0.313276
Sym=    17a
Ene=   -0.403421E-05
Spin= Alpha
Occup= 0.000000
     1    -0.003656
     2    -1.021453
     3    -1.072705
     4     0.612889
     5     0.101907
     6    -0.059719
     7    -0.430524
     8    -0.112097
     9     0.032519
    10    -0.012913
    11    -0.357052
    12     0.253312
    13    -0.043306
    14     0.048728
    15     0.286855
    16     0.005646
    17     9.857188
    18     2.195529
    19    -1.143719
    20    -0.200853
    21     0.041666
    22     0.252883
    23     0.258536
    24    -0.034766
    25    -1.991467
    26     1.101152
    27    -2.148381
    28    -0.401680
    29     0.135895
    30    -1.603268
    31     0.098895
    32    -6.297774
    33    -2.507224
    34     0.311097
    35     0.000687
    36    -0.024986
    37    -0.195948
    38    -0.214472
    39     0.010277
    40     1.790299
    41    -2.180270
    42     1.318239
    43     0.330589
    44    -0.076431
    45     1.707436
Sym=    18a
Ene=   -0.625923E-06
Spin= Alpha
Occup= 0.000000
     1    -0.001839
     2     0.414171
     3     0.693523
     4    -0.245975
     5     0.103602
     6     0.503463
     7     0.254770
     8    -0.045333
     9     0.052536
    10     0.043810
    11    -0.063738
    12     0.249126
    13    -0.242048
    14    -0.459216
    15     0.182884
    16    -0.007677
    17    -4.926533
    18    -0.819111
    19     0.522561
    20     0.396044
    21     1.287554
    22     0.050560
    23    -0.324703
    24    -1.471640
    25     1.011762
    26     1.110526
    27    -0.418480
    28     0.018613
    29    -0.701221
    30    -0.710967
    31    -0.052636
    32     3.193386
    33     0.586534
    34    -0.188239
    35     0.324890
    36     1.162022
    37     0.043060
    38     0.480390
    39     1.854002
    40    -0.739497
    41    -0.539657
    42     0.966648
    43    -0.464945
    44    -0.900095
    45     0.644843
Sym=    19a
Ene=   -0.303713E-07
Spin= Alpha
Occup= 0.000000
     1     0.002256
     2    -0.070712
     3    -0.216309
     4     0.000492
     5    -0.223426
     6    -0.450511
     7    -0.057983
     8     0.836005
     9     1.520904
    10     0.011246
    11    -0.036439
    12    -0.037300
    13     0.340984
    14     0.632279
    15    -0.001359
    16     0.011794
    17    -0.230733
    18     0.002784
    19     0.006106
    20     1.000836
    21     1.786623
    22    -0.118445
    23    -2.149673
    24    -3.852289
    25     0.079918
    26     0.128245
    27     0.181612
    28     0.979921
    29     1.890499
    30     0.042592
    31     0.005339
    32     0.181829
    33     0.341281
    34    -0.042286
    35     0.230384
    36     0.363961
    37     0.010972
    38     1.766003
    39     3.137642
    40    -0.037527
    41    -0.159079
    42    -0.207248
    43    -1.026132
    44    -1.890959
    45    -0.055600
Sym=    20a
Ene=   -0.529273E-12
Spin= Alpha
Occup= 0.000000
     1     0.014505
     2    -4.634310
     3   -15.029770
     4    -0.114770
     5    -0.206694
     6     0.208335
     7    -3.062563
     8     0.119486
     9     0.212468
    10     1.187567
    11    -0.276050
    12    -0.385770
    13     0.397059
    14    -0.251527
    15     0.203732
    16     0.034176
    17     9.283082
    18    15.159087
    19     0.405050
    20     0.423974
    21    -0.271626
    22    -7.800509
    23    -0.039941
    24    -0.944527
    25     2.586777
    26     0.820070
    27     2.417916
    28     0.531902
    29    -0.507523
    30    -1.477102
    31    -0.004246
    32    -5.611570
    33    -1.274253
    34    -0.285823
    35     0.020296
    36    -0.002486
    37     4.098273
    38    -0.065537
    39     0.885012
    40    -1.585740
    41    -0.882536
    42    -2.064289
    43    -0.365878
    44     0.355645
    45     1.071531
Sym=    21a
Ene=   -0.220956E-13
Spin= Alpha
Occup= 0.000000
     1    -0.000618
     2    -0.315454
     3     3.251633
     4     0.026701
     5    -0.313669
     6     0.127935
     7     1.078639
     8    -1.891903
     9     0.932475
    10     0.077305
    11    -0.024998
    12     0.301855
    13     0.199231
    14    -0.063334
    15    -0.178621
    16    -0.001120
    17     1.920930
    18    -4.499938
    19    -0.077867
    20    -0.124129
    21     0.068915
    22    -0.231716
    23     5.900710
    24    -2.937220
    25    -0.206480
    26    -0.080508
    27    -1.476176
    28     0.395190
    29    -0.145846
    30     0.623020
    31     0.001418
    32    -1.780540
    33     1.661662
    34     0.055265
    35    -0.050394
    36     0.011183
    37     0.713584
    38    -5.000905
    39     2.437861
    40     0.078775
    41    -0.047530
    42     0.913942
    43    -0.168765
    44     0.067266
    45    -0.420264
Sym=    22a
Ene=   -0.592938E-20
Spin= Alpha
Occup= 0.000000
     1     0.000658
     2    -0.440312
     3   -17.793713
     4     0.045539
     5    -0.014419
     6     0.019118
     7    -4.178196
     8     0.299038
     9     0.281804
    10    -0.046439
    11    -0.130975
    12     0.275434
    13     0.024949
    14     0.009883
    15    -0.127268
    16    -0.004003
    17    -0.690434
    18    14.080345
    19    -0.082228
    20    -0.011224
    21    -0.028604
    22    -2.408399
    23     0.563787
    24     0.618404
    25    -0.203460
    26    -0.162360
    27    -0.743395
    28     0.071232
    29     0.000869
    30     0.143160
    31     0.001599
    32     0.109116
    33     4.400941
    34     0.029988
    35    -0.014860
    36    -0.017551
    37    -2.180820
    38    -0.746430
    39    -0.660089
    40     0.226408
    41     0.133809
    42     0.482162
    43    -0.014042
    44     0.042543
    45    -0.079495
Sym=    23a
Ene=   -0.562348E-03
Spin= Alpha
Occup= 0.000003
     1    -0.044362
     2    -0.463937
     3     0.417304
     4    -0.107717
     5     1.479340
     6    -0.854202
     7     0.090531
     8     1.035273
     9    -0.599955
    10     0.272623
    11     0.165551
    12     0.181590
    13    -0.299169
    14     0.176536
    15     0.016639
    16    -0.020304
    17     2.485366
    18     0.009054
    19    -0.209543
    20     0.496970
    21    -0.285924
    22     0.236118
    23    -2.994046
    24     1.733337
    25    -0.351720
    26    -0.499754
    27    -0.509870
    28    -1.264419
    29     0.718767
    30    -0.017112
    31     0.009573
    32    -1.991146
    33    -0.805687
    34     0.160387
    35     0.581424
    36    -0.332444
    37    -0.025350
    38     2.733487
    39    -1.581768
    40     0.282544
    41     0.338848
    42     0.321682
    43     0.517578
    44    -0.292627
    45    -0.006918
Sym=    24a
Ene=   -0.381332E-16
Spin= Alpha
Occup= 0.000000
     1     0.003334
     2     0.161660
     3   -11.023702
     4    -0.076072
     5    -0.042208
     6    -0.103134
     7    -0.527341
     8    -0.273147
     9    -1.869270
    10     0.076503
    11     0.106322
    12    -0.405359
    13     0.077298
    14    -0.001257
    15     0.204783
    16     0.009682
    17     1.678484
    18    12.016970
    19     0.166374
    20     0.053481
    21     0.055579
    22    -8.167231
    23     1.640448
    24     1.877462
    25     0.395479
    26     0.366975
    27     1.196934
    28     0.091554
    29     0.087445
    30    -0.261363
    31    -0.001209
    32    -0.535255
    33    -2.342550
    34    -0.051082
    35     0.014379
    36     0.024955
    37     5.612100
    38    -1.287025
    39    -0.467917
    40    -0.475159
    41    -0.337752
    42    -0.861358
    43    -0.054455
    44    -0.141592
    45     0.155426
Sym=    25a
Ene=   -0.410938E-05
Spin= Alpha
Occup= 0.000000
     1     0.005291
     2    -3.542882
     3    -4.744823
     4     0.616873
     5     0.042572
     6     0.345235
     7    -1.175517
     8     0.141546
     9    -0.050778
    10     0.503237
    11     0.268474
    12     0.024155
    13    -0.025052
    14    -0.200306
    15    -0.146832
    16     0.058611
    17    14.332778
    18     6.089823
    19    -0.880942
    20     0.570455
    21     0.220699
    22    -1.704811
    23    -0.641887
    24    -0.334842
    25    -0.724644
    26    -1.545398
    27    -0.118797
    28     0.115053
    29    -0.799390
    30     0.952990
    31     0.108497
    32    -8.803523
    33    -3.019110
    34     0.115254
    35     0.342633
    36     0.425302
    37     0.823420
    38     0.679528
    39     0.488701
    40     0.968455
    41     0.213259
    42    -1.541562
    43    -0.511664
    44     0.130897
    45    -1.158141
Sym=    26a
Ene=   -0.618634E-05
Spin= Alpha
Occup= 0.000000
     1     0.095901
     2    -0.835923
     3    -2.650704
     4     0.637189
     5    -0.705754
     6     0.083928
     7    -0.586729
     8    -0.325293
     9     0.037199
    10    -0.236488
    11    -0.200111
    12    -0.121125
    13    -0.632604
    14     0.040550
    15     0.210055
    16    -0.000906
    17     5.651476
    18     3.901824
    19    -0.228484
    20    -0.387686
    21     0.016072
    22    -0.851795
    23     1.118693
    24    -0.125962
    25    -0.195922
    26    -0.318237
    27    -0.354222
    28     2.505862
    29    -0.245078
    30    -0.104141
    31     0.014111
    32    -2.970960
    33    -2.339415
    34     0.003065
    35    -0.752206
    36     0.063055
    37     0.421025
    38    -1.050125
    39     0.116595
    40     0.326879
    41    -0.034373
    42     0.086116
    43    -1.422426
    44     0.148421
    45     0.017490
Sym=    27a
Ene=   -0.190929E-18
Spin= Alpha
Occup= 0.000000
     1     0.003024
     2     1.648952
     3    24.122401
     4    -0.038744
     5    -0.026389
     6    -0.070222
     7     3.410218
     8    -0.419655
     9    -1.122996
    10     0.037635
    11    -0.203613
    12     0.047187
    13    -0.026425
    14     0.022205
    15    -0.027115
    16    -0.003635
    17    -6.359912
    18   -21.893774
    19    -0.045502
    20     0.042263
    21     0.043618
    22    15.691854
    23    -0.965837
    24     2.527853
    25    -0.027704
    26     0.560372
    27     0.115305
    28    -0.003074
    29     0.120803
    30     0.175169
    31     0.001520
    32     3.211854
    33    -1.036839
    34    -0.030929
    35     0.031087
    36     0.010312
    37    -8.623903
    38     1.009779
    39    -1.440918
    40     0.199591
    41    -0.225280
    42     0.043701
    43    -0.071098
    44    -0.108257
    45    -0.134416
Sym=    28a
Ene=   -0.879842E-18
Spin= Alpha
Occup= 0.000000
     1     0.004838
     2     0.677596
     3    -3.764614
     4    -0.063135
     5    -0.087275
     6    -0.058552
     7    -1.022058
     8    -2.000916
     9    -0.079850
    10    -0.157709
    11    -0.069969
    12    -0.370991
    13     0.042968
    14     0.072866
    15     0.020415
    16     0.001739
    17    -3.990593
    18     6.655922
    19     0.081537
    20    -0.018228
    21     0.047814
    22     0.412367
    23     5.688806
    24     1.126963
    25     0.147323
    26     0.681337
    27     1.112517
    28     0.097627
    29     0.140899
    30     0.083055
    31    -0.004411
    32     3.101217
    33    -2.736764
    34    -0.079017
    35    -0.000931
    36    -0.000185
    37    -1.254801
    38    -3.564964
    39    -1.025745
    40    -0.003896
    41    -0.303775
    42    -0.557454
    43    -0.049645
    44    -0.081555
    45    -0.066444
Sym=    29a
Ene=   -0.109010E-13
Spin= Alpha
Occup= 0.000000
     1     0.004683
     2     3.305057
     3    -5.349856
     4    -0.175007
     5    -0.083524
     6    -0.079635
     7    -1.376942
     8    -0.094032
     9     0.637256
    10    -0.568654
    11    -0.538712
    12    -0.145403
    13     0.043941
    14     0.139214
    15    -0.030292
    16    -0.003287
    17    -6.007753
    18     8.906150
    19     0.268303
    20    -0.005998
    21    -0.026552
    22    -1.765196
    23     0.688046
    24    -0.566412
    25    -0.149778
    26     2.232526
    27     1.513772
    28     0.171815
    29     0.150480
    30    -0.129413
    31    -0.009265
    32     5.214232
    33    -4.805604
    34    -0.046828
    35    -0.025645
    36    -0.062740
    37     2.606291
    38    -0.783438
    39    -0.261848
    40    -0.263010
    41    -1.202032
    42    -0.738872
    43    -0.091044
    44     0.004291
    45     0.107999
Sym=    30a
Ene=   -0.937710E-18
Spin= Alpha
Occup= 0.000000
     1    -0.000981
     2     0.181820
     3    12.419970
     4    -0.029629
     5     0.001774
     6    -0.084177
     7     3.498140
     8     0.048044
     9    -0.903239
    10     0.213357
    11     0.174501
    12    -0.117960
    13     0.037420
    14     0.148578
    15     0.180002
    16     0.003456
    17     2.578722
    18   -11.538495
    19     0.064799
    20    -0.002709
    21    -0.026242
    22     0.699400
    23     0.588891
    24     4.946292
    25     0.255810
    26    -0.108198
    27     0.262992
    28    -0.001801
    29     0.144847
    30    -0.314922
    31     0.000534
    32    -1.769355
    33    -1.924434
    34     0.003173
    35    -0.005034
    36    -0.036459
    37     2.740006
    38    -0.529498
    39    -3.743578
    40    -0.322821
    41    -0.045976
    42    -0.262185
    43     0.029579
    44     0.011855
    45     0.200842
Sym=    31a
Ene=   -0.781058E-15
Spin= Alpha
Occup= 0.000000
     1    -0.000026
     2    -0.379794
     3    12.615127
     4     0.001371
     5     0.038458
     6     0.049798
     7     3.940553
     8    -0.836434
     9     1.273700
    10     0.609023
    11     0.492920
    12    -0.333535
    13    -0.015964
    14     0.057531
    15     0.406450
    16    -0.003574
    17     2.966740
    18    -9.825279
    19    -0.005186
    20    -0.094523
    21     0.014393
    22     2.797343
    23     0.961318
    24    -2.762221
    25     0.717740
    26    -0.584775
    27     0.646247
    28    -0.225793
    29    -0.082131
    30    -0.782597
    31     0.000957
    32    -2.010422
    33    -5.166033
    34    -0.025500
    35    -0.001059
    36     0.000450
    37     0.576351
    38    -0.226662
    39     1.480864
    40    -0.269073
    41     0.361424
    42    -0.387321
    43     0.173104
    44     0.088282
    45     0.508064
Sym=    32a
Ene=   -0.309360E-17
Spin= Alpha
Occup= 0.000000
     1    -0.004274
     2    -2.247493
     3     8.639841
     4     0.082818
     5     0.046573
     6     0.095556
     7     3.666255
     8     1.296376
     9     0.739369
    10     0.843007
    11     0.023423
    12     0.453277
    13     0.034547
    14    -0.067734
    15    -0.038722
    16    -0.003618
    17     8.245333
    18    -0.780199
    19    -0.073849
    20    -0.030271
    21    -0.046754
    22     0.409311
    23    -1.204657
    24    -1.886723
    25     0.887882
    26    -0.463707
    27    -0.995369
    28    -0.024690
    29    -0.165024
    30    -0.063900
    31     0.004708
    32    -5.147779
    33   -10.333562
    34     0.008518
    35    -0.017962
    36    -0.002721
    37     2.049238
    38     0.140549
    39     1.302525
    40    -0.299419
    41     0.189511
    42     0.491162
    43     0.081389
    44     0.117960
    45     0.060422
Sym=    33a
Ene=   -0.657733E-13
Spin= Alpha
Occup= 0.000000
     1     0.022975
     2    10.752992
     3    13.498264
     4    -0.604042
     5     0.076882
     6     0.165453
     7     3.313768
     8     0.332830
     9     0.566792
    10    -2.177500
    11    -1.373117
    12    -1.435289
    13    -0.192791
    14    -0.228364
    15    -0.326857
    16     0.029064
    17   -33.128086
    18   -18.429745
    19     0.806605
    20     0.058335
    21     0.045563
    22     3.711253
    23    -1.070746
    24    -2.042475
    25    -1.017909
    26     5.880627
    27     5.717195
    28    -0.008827
    29    -0.228843
    30     1.764563
    31    -0.034649
    32    21.776650
    33     8.818282
    34    -0.341698
    35     0.059919
    36     0.094441
    37    -0.836906
    38     0.968053
    39     1.809269
    40    -0.345385
    41    -3.233952
    42    -3.062172
    43    -0.125774
    44     0.000319
    45    -1.255716
Sym=    34a
Ene=   -0.218635E-04
Spin= Alpha
Occup= 0.000000
     1     0.329918
     2     4.170694
     3    -2.432918
     4     1.273999
     5     0.481950
     6    -0.046874
     7    -0.557693
     8     0.334228
     9    -0.047291
    10    -2.498531
    11    -1.196788
    12    -1.369595
    13     0.148940
    14    -0.045421
    15    -0.209167
    16     0.041195
    17    -7.504318
    18     1.132404
    19     0.467058
    20     0.230663
    21    -0.042932
    22    -0.953149
    23    -1.000460
    24     0.146826
    25    -0.525217
    26     1.360504
    27     1.565987
    28    -0.961334
    29     0.154143
    30     0.212782
    31    -0.022442
    32     7.342836
    33     2.208780
    34    -0.330197
    35     0.333125
    36    -0.054554
    37     0.128677
    38     0.908404
    39    -0.130691
    40    -0.232775
    41    -0.873361
    42    -0.991926
    43     0.505570
    44    -0.079239
    45    -0.070923
Sym=    35a
Ene=   -0.362024E-09
Spin= Alpha
Occup= 0.000000
     1    -0.016701
     2    -0.307795
     3     0.336688
     4    -0.002350
     5    -0.223463
     6    -0.067110
     7    -0.012796
     8     0.012613
     9    -0.229363
    10    -0.078716
    11     0.540430
    12    -0.596272
    13    -0.127072
    14    -0.170037
    15    -1.202659
    16    -0.004371
    17     1.452492
    18     0.057917
    19    -0.236485
    20     0.168016
    21    -0.020790
    22     0.430403
    23    -0.050753
    24     0.485411
    25    -0.433322
    26    -1.213436
    27     0.329544
    28     0.802286
    29     0.216353
    30     1.373312
    31     0.006889
    32    -1.014938
    33    -0.520217
    34     0.045377
    35    -0.076017
    36    -0.006014
    37    -0.372550
    38     0.058568
    39    -0.345945
    40     0.458386
    41     0.763753
    42    -0.119616
    43    -0.636235
    44    -0.227132
    45    -0.782931
Sym=    36a
Ene=   -0.710946E-05
Spin= Alpha
Occup= 0.000000
     1    -0.005261
     2    -0.037981
     3     0.055723
     4     0.037660
     5    -0.056640
     6     0.043064
     7    -0.007093
     8    -0.042241
     9     0.037467
    10     0.011820
    11     0.255324
    12    -0.246397
    13     0.045652
    14    -0.030374
    15     0.313443
    16     0.003869
    17     0.177711
    18     0.028425
    19    -0.087180
    20    -0.229011
    21     0.213813
    22     0.097405
    23     0.269266
    24    -0.236076
    25    -0.111045
    26    -1.147407
    27     1.386631
    28     0.039532
    29    -0.032788
    30    -1.685122
    31     0.007847
    32    -0.097478
    33    -0.151852
    34    -0.009010
    35    -0.171775
    36     0.156735
    37    -0.058519
    38    -0.303662
    39     0.266098
    40     0.163015
    41     1.454907
    42    -1.735976
    43     0.181154
    44    -0.166218
    45     2.054646
Sym=    37a
Ene=   -0.142913E-06
Spin= Alpha
Occup= 0.000000
     1    -0.009415
     2    -1.062789
     3    -1.542841
     4     0.049381
     5    -0.012706
     6    -0.621480
     7    -0.313161
     8    -0.055106
     9    -0.428325
    10     0.218201
    11     0.103559
    12     0.170817
    13    -0.160776
    14    -1.005126
    15     0.262347
    16     0.003391
    17     3.118158
    18     2.039582
    19    -0.049978
    20     0.158891
    21    -0.039627
    22    -0.720247
    23    -0.040855
    24     0.854607
    25     0.158811
    26    -0.137861
    27    -0.434036
    28     0.193500
    29     2.475897
    30    -0.454469
    31     0.007698
    32    -1.922581
    33    -0.960295
    34     0.014754
    35     0.100534
    36    -0.398418
    37     0.430766
    38     0.122487
    39    -0.585012
    40    -0.032019
    41    -0.000667
    42     0.096485
    43    -0.329225
    44    -1.929601
    45     0.254531
Sym=    38a
Ene=   -0.656001E-11
Spin= Alpha
Occup= 0.000000
     1    -0.010781
     2    -3.418265
     3    -5.321454
     4     0.295008
     5     0.129080
     6    -0.060314
     7    -1.263008
     8    -0.694154
     9     0.290965
    10     0.547381
    11     0.528820
    12     0.200776
    13     0.030610
    14    -0.118014
    15    -0.240128
    16    -0.003809
    17    11.507509
    18     7.187533
    19    -0.356425
    20    -1.086547
    21     0.709494
    22    -1.942269
    23     2.217512
    24    -1.131719
    25     0.097764
    26    -3.178997
    27     0.407975
    28    -0.962451
    29     0.575259
    30     1.116050
    31     0.024148
    32    -7.180385
    33    -3.521135
    34     0.105541
    35    -0.400929
    36     0.316211
    37     1.004710
    38    -2.015251
    39     1.121575
    40     0.296017
    41     1.795752
    42    -0.668433
    43     1.316962
    44    -0.905459
    45    -0.771048
Sym=    39a
Ene=   -0.100360E-14
Spin= Alpha
Occup= 0.000000
     1    -0.006141
     2    -1.065689
     3     1.453602
     4     0.090220
     5     0.134685
     6     0.038801
     7     0.711776
     8    -0.682609
     9     0.582365
    10     0.128858
    11    -0.156345
    12     0.686240
    13    -0.174771
    14    -0.053917
    15    -0.207798
    16     0.001258
    17     4.944441
    18    -2.572325
    19    -0.107129
    20    -0.043142
    21    -0.023163
    22    -0.948520
    23    -0.483685
    24    -1.308302
    25    -0.257527
    26    -0.522903
    27    -1.883261
    28    -0.255855
    29    -0.046980
    30     0.232850
    31     0.007397
    32    -3.763476
    33     1.552261
    34     0.097626
    35    -0.013871
    36     0.008131
    37     1.326646
    38     1.585864
    39     0.709780
    40     0.036233
    41     0.115574
    42     0.967513
    43     0.135591
    44     0.016956
    45    -0.154898
Sym=    40a
Ene=   -0.180608E-13
Spin= Alpha
Occup= 0.000000
     1     0.008095
     2     0.894255
     3     2.970276
     4    -0.117313
     5    -0.130757
     6    -0.365966
     7     0.716709
     8     0.076420
     9    -0.330016
    10    -0.201157
    11    -0.235481
    12    -0.391217
    13     0.170508
    14     0.353691
    15    -0.038716
    16     0.017836
    17    -5.010772
    18    -6.055251
    19     0.165152
    20     0.110044
    21     0.052852
    22     0.575396
    23     0.591536
    24     3.151033
    25     0.115519
    26     0.874175
    27     1.184458
    28     0.278427
    29     0.664111
    30     0.450766
    31    -0.004437
    32     2.694992
    33     4.920936
    34    -0.116064
    35    -0.004456
    36    -0.068666
    37    -0.656531
    38    -0.887326
    39    -3.682665
    40    -0.243097
    41    -0.624263
    42    -0.813815
    43    -0.165559
    44    -0.322885
    45    -0.339487
Sym=    41a
Ene=   -0.168609E-15
Spin= Alpha
Occup= 0.000000
     1    -0.002850
     2     0.805286
     3     0.727212
     4     0.042437
     5     0.092548
     6     0.131844
     7    -1.230437
     8     0.458065
     9     0.822116
    10    -0.414720
    11     1.020908
    12    -0.835830
    13    -0.046863
    14    -0.045113
    15     0.498502
    16    -0.005238
    17    -2.759823
    18    -2.672231
    19    -0.150360
    20    -0.060345
    21     0.005822
    22     4.148257
    23    -1.099734
    24    -1.972717
    25    -0.907944
    26    -2.192376
    27     0.670216
    28    -0.221405
    29    -0.248289
    30    -0.783673
    31     0.003975
    32     1.160414
    33     4.108224
    34     0.092361
    35     0.018838
    36     0.038789
    37    -3.661622
    38     0.707882
    39     1.418697
    40     0.514158
    41     1.384066
    42    -0.368651
    43     0.152005
    44     0.146284
    45     0.503169
Sym=    42a
Ene=   -0.808545E-12
Spin= Alpha
Occup= 0.000000
     1    -0.015108
     2   -14.580920
     3   -27.530726
     4     0.462087
     5     0.285415
     6    -0.071785
     7    -6.210193
     8     0.034962
     9     0.207284
    10     3.084758
    11     0.906004
    12     0.917842
    13    -0.349014
    14     0.144203
    15    -0.201652
    16     0.008097
    17    40.452519
    18    33.144030
    19    -0.238469
    20    -0.075534
    21     0.083752
    22   -11.383848
    23    -0.629184
    24    -0.436315
    25     3.665830
    26    -2.443127
    27    -3.784988
    28    -0.639705
    29     0.172876
    30     1.305871
    31     0.029364
    32   -25.475077
    33   -11.120182
    34     0.021424
    35     0.207129
    36    -0.045156
    37     5.500225
    38     0.747051
    39     0.268711
    40    -1.457231
    41     0.473748
    42     1.451744
    43     0.198416
    44    -0.057665
    45    -0.917419
Sym=    43a
Ene=   -0.251848E-12
Spin= Alpha
Occup= 0.000000
     1     0.003762
     2    -0.196748
     3     0.820422
     4     0.023595
     5    -0.342407
     6     0.159003
     7    -0.067789
     8     0.539402
     9    -0.170822
    10     0.202634
    11    -0.126716
    12     0.031262
    13     0.970098
    14    -0.345006
    15    -0.097532
    16    -0.000888
    17     0.735214
    18    -0.412388
    19    -0.207656
    20    -0.652639
    21     0.166355
    22     1.151775
    23     0.282783
    24    -0.142815
    25    -0.058762
    26     0.882860
    27    -1.135724
    28     0.204117
    29    -0.206075
    30     0.780240
    31     0.007255
    32    -0.784615
    33    -0.538766
    34    -0.013073
    35    -0.776182
    36     0.267758
    37    -0.839049
    38    -0.967594
    39     0.368380
    40     0.311655
    41    -0.689677
    42     0.918005
    43     1.016052
    44    -0.237624
    45    -0.697581
Sym=    44a
Ene=   -0.405376E-12
Spin= Alpha
Occup= 0.000000
     1     0.076946
     2     0.174372
     3   -19.630743
     4     0.609299
     5    -0.025305
     6     0.036591
     7    -4.936329
     8    -0.103684
     9     0.046173
    10    -2.226700
    11    -0.859939
    12    -0.537257
    13    -0.024702
    14     0.032413
    15     0.340860
    16    -0.000733
    17     0.700096
    18    17.638565
    19    -0.198861
    20    -0.087670
    21     0.030152
    22    -6.350349
    23     0.312394
    24    -0.147538
    25    -1.863323
    26     0.067007
    27    -0.543456
    28     0.041393
    29    -0.092238
    30    -0.571151
    31    -0.005376
    32     1.710874
    33     3.001108
    34     0.021963
    35    -0.052787
    36     0.030569
    37     0.770195
    38    -0.277477
    39     0.133117
    40     1.054828
    41     0.058087
    42     0.407277
    43     0.022060
    44     0.052451
    45     0.329334
Sym=    45a
Ene=    0.000000E+00
Spin= Alpha
Occup= 0.000000
     1    -0.001889
     2     1.658051
     3    32.152215
     4     0.024824
     5    -0.016743
     6     0.012926
     7     3.897467
     8     0.097321
     9     0.055163
    10    -0.170762
    11    -0.014381
    12     0.245533
    13     0.033801
    14    -0.029520
    15     0.022992
    16    -0.007867
    17    -5.773901
    18   -35.494400
    19    -0.155881
    20    -0.014204
    21     0.002847
    22    18.488225
    23     2.018053
    24    -1.214440
    25    -0.656145
    26    -0.497565
    27    -0.716170
    28     0.096889
    29    -0.039998
    30    -0.243268
    31     0.003532
    32     2.177165
    33     5.766034
    34     0.063593
    35    -0.014440
    36     0.003779
    37    -9.852402
    38    -1.818435
    39     1.020263
    40     0.496398
    41     0.423900
    42     0.514085
    43    -0.017458
    44     0.002863
    45     0.177264
