[Molden Format]
p30-5 set                                                                       
[Atoms] AU
 N        1     7        0.0000        0.0000       -1.0307
 N        2     7        0.0000        0.0000        1.0307
[GTO]
    1 0
s    5 1.00
    1712.841585300000 -0.544779958049E-02
     257.648126770000 -0.406271746324E-01
      58.458245853000 -0.181119622506E+00
      16.198367905000 -0.468439755632E+00
       5.005260080900 -0.446168462892E+00
s    1 1.00
       0.587318565710  0.100000000000E+01
s    1 1.00
       0.187645922530  0.100000000000E+01
p    3 1.00
      13.571470233000 -0.588481169695E-01
       2.925737287400 -0.320246247625E+00
       0.799277507540 -0.753282265204E+00
p    1 1.00
       0.219543480340  0.100000000000E+01
d    1 1.00
       1.000000000000  0.100000000000E+01
 
    2 0
s    5 1.00
    1712.841585300000 -0.544779958049E-02
     257.648126770000 -0.406271746324E-01
      58.458245853000 -0.181119622506E+00
      16.198367905000 -0.468439755632E+00
       5.005260080900 -0.446168462892E+00
s    1 1.00
       0.587318565710  0.100000000000E+01
s    1 1.00
       0.187645922530  0.100000000000E+01
p    3 1.00
      13.571470233000 -0.588481169695E-01
       2.925737287400 -0.320246247625E+00
       0.799277507540 -0.753282265204E+00
p    1 1.00
       0.219543480340  0.100000000000E+01
d    1 1.00
       1.000000000000  0.100000000000E+01
 
[MO]
Sym=     1a
Ene=   -0.156604E+02
Spin= Alpha
Occup= 1.999850
     1     0.994767
     2    -0.025397
     3     0.019578
     4     0.000003
     5     0.000003
     6     0.004235
     7    -0.000006
     8     0.000002
     9     0.001452
    10     0.003095
    11     0.003084
    12     0.000819
    13    -0.000010
    14     0.000000
    15     0.000001
    16     0.000929
    17     0.003885
    18    -0.007153
    19     0.000008
    20     0.000002
    21     0.005161
    22    -0.000001
    23    -0.000002
    24     0.000920
    25    -0.000034
    26    -0.000052
    27     0.001342
    28    -0.000006
    29    -0.000002
    30     0.000000
Sym=     2a
Ene=   -0.156604E+02
Spin= Alpha
Occup= 1.999850
     1     0.000861
     2     0.003859
     3    -0.007123
     4     0.000003
     5     0.000003
     6    -0.005142
     7    -0.000005
     8     0.000001
     9    -0.000910
    10    -0.000029
    11    -0.000049
    12     0.001346
    13    -0.000009
    14    -0.000001
    15     0.000002
    16     0.994751
    17    -0.025435
    18     0.019550
    19     0.000006
    20     0.000006
    21    -0.004252
    22     0.000003
    23    -0.000005
    24    -0.001441
    25     0.003104
    26     0.003076
    27     0.000810
    28    -0.000006
    29    -0.000001
    30    -0.000001
Sym=     3a
Ene=   -0.138542E+01
Spin= Alpha
Occup= 1.986655
     1     0.160271
     2     0.332976
     3     0.002665
     4    -0.000292
     5    -0.000155
     6    -0.362122
     7     0.000176
     8     0.000063
     9     0.093050
    10    -0.006739
    11    -0.006957
    12     0.043375
    13    -0.000058
    14     0.000031
    15     0.000017
    16     0.160283
    17     0.332863
    18     0.002626
    19    -0.000301
    20    -0.000165
    21     0.362180
    22     0.000176
    23     0.000078
    24    -0.093111
    25    -0.006824
    26    -0.006878
    27     0.043377
    28    -0.000080
    29    -0.000030
    30    -0.000027
Sym=     4a
Ene=   -0.748137E+00
Spin= Alpha
Occup= 1.981707
     1    -0.038444
     2    -0.107678
     3    -0.040425
     4     0.000441
     5     0.000234
     6     0.096893
     7    -0.000249
     8    -0.000146
     9    -0.055556
    10    -0.001625
    11    -0.001731
    12    -0.005344
    13    -0.000078
    14    -0.000047
    15    -0.000035
    16     0.213373
    17     0.455799
    18     0.493258
    19     0.000509
    20     0.000359
    21    -0.396946
    22    -0.000322
    23    -0.000198
    24     0.196924
    25     0.022119
    26     0.021210
    27    -0.002194
    28    -0.000090
    29     0.000055
    30     0.000029
Sym=     5a
Ene=   -0.748069E+00
Spin= Alpha
Occup= 1.981692
     1    -0.213315
     2    -0.455712
     3    -0.493306
     4     0.000168
     5     0.000339
     6    -0.397016
     7    -0.000106
     8    -0.000243
     9     0.196914
    10    -0.021593
    11    -0.021749
    12     0.002201
    13     0.000289
    14    -0.000003
    15    -0.000019
    16     0.038483
    17     0.107750
    18     0.040456
    19     0.000094
    20     0.000258
    21     0.096965
    22    -0.000032
    23    -0.000129
    24    -0.055586
    25     0.001581
    26     0.001775
    27     0.005355
    28     0.000063
    29     0.000014
    30     0.000026
Sym=     6a
Ene=   -0.633048E+00
Spin= Alpha
Occup= 1.882279
     1     0.000307
     2     0.000741
     3     0.000337
     4     0.194859
     5     0.397454
     6    -0.000028
     7    -0.107433
     8    -0.219785
     9    -0.000024
    10     0.000004
    11     0.000037
    12     0.000011
    13     0.000024
    14    -0.017737
    15    -0.036902
    16    -0.000183
    17    -0.000402
    18    -0.000530
    19     0.194472
    20     0.398657
    21     0.000565
    22    -0.107582
    23    -0.219950
    24    -0.000246
    25    -0.000024
    26    -0.000029
    27     0.000013
    28    -0.000006
    29     0.018132
    30     0.036457
Sym=     7a
Ene=   -0.632786E+00
Spin= Alpha
Occup= 1.881064
     1     0.000087
     2     0.000232
     3     0.000003
     4     0.398853
     5    -0.194549
     6    -0.000260
     7    -0.219798
     8     0.107531
     9     0.000097
    10     0.000021
    11    -0.000025
    12     0.000018
    13    -0.000028
    14    -0.036418
    15     0.018122
    16    -0.000074
    17    -0.000157
    18    -0.000336
    19     0.397645
    20    -0.194925
    21     0.000460
    22    -0.219599
    23     0.107358
    24    -0.000159
    25    -0.000034
    26    -0.000024
    27     0.000025
    28    -0.000003
    29     0.036861
    30    -0.017724
Sym=     8a
Ene=   -0.580000E-01
Spin= Alpha
Occup= 0.117647
     1     0.000039
     2     0.000288
     3    -0.000424
     4    -0.575684
     5     0.271355
     6     0.000092
     7     0.285539
     8    -0.148448
     9    -0.000081
    10     0.000118
    11    -0.000078
    12     0.000008
    13    -0.000234
    14     0.006170
    15    -0.005728
    16    -0.000008
    17    -0.000014
    18     0.000193
    19     0.562589
    20    -0.284559
    21     0.000193
    22    -0.297942
    23     0.136762
    24     0.000183
    25    -0.000067
    26    -0.000000
    27     0.000073
    28     0.000050
    29     0.009997
    30    -0.002095
Sym=     9a
Ene=   -0.574380E-01
Spin= Alpha
Occup= 0.116316
     1     0.000291
     2     0.001446
     3    -0.002301
     4     0.284620
     5     0.562415
     6    -0.000282
     7    -0.136554
     8    -0.298060
     9    -0.000645
    10     0.000062
    11     0.000179
    12    -0.000175
    13     0.000065
    14    -0.002032
    15    -0.009876
    16    -0.000067
    17    -0.000271
    18     0.001454
    19    -0.271552
    20    -0.575733
    21    -0.000574
    22     0.148090
    23     0.285485
    24    -0.000567
    25    -0.000271
    26     0.000204
    27     0.000067
    28     0.000311
    29    -0.005778
    30    -0.005998
Sym=    10a
Ene=   -0.107071E-01
Spin= Alpha
Occup= 0.014645
     1     0.259917
     2     1.365468
     3    -1.534160
     4    -0.000205
     5    -0.001173
     6     0.665512
     7    -0.000350
     8    -0.001311
     9     0.422840
    10    -0.147642
    11    -0.154547
    12     0.078125
    13     0.003467
    14     0.000079
    15    -0.000076
    16     0.031563
    17     0.042752
    18     0.317432
    19     0.000097
    20     0.000441
    21     0.089366
    22     0.000256
    23     0.000685
    24    -0.139421
    25     0.000151
    26     0.003364
    27     0.002578
    28     0.001239
    29     0.000015
    30     0.000019
Sym=    11a
Ene=   -0.247163E-02
Spin= Alpha
Occup= 0.001931
     1     0.006466
     2     0.351974
     3    -2.257191
     4     0.002686
     5    -0.008681
     6    -0.435250
     7     0.000500
     8    -0.010035
     9    -0.961525
    10    -0.006650
    11    -0.060686
    12     0.289514
    13    -0.025542
    14     0.000011
    15     0.002653
    16     0.043927
    17    -0.095779
    18     2.215607
    19     0.003173
    20     0.003619
    21    -0.550136
    22     0.003889
    23     0.007691
    24    -1.493892
    25     0.386553
    26     0.218620
    27    -1.169962
    28    -0.085558
    29    -0.003874
    30     0.011261
Sym=    12a
Ene=   -0.132485E-01
Spin= Alpha
Occup= 0.009531
     1    -0.248593
     2    -1.184794
     3     0.996180
     4     0.000166
     5     0.002136
     6     0.916051
     7     0.000022
     8     0.002333
     9     0.188222
    10     0.088661
    11     0.080133
    12    -0.174355
    13    -0.004785
    14     0.000135
    15    -0.000326
    16     0.248456
    17     1.183866
    18    -0.995562
    19    -0.000376
    20    -0.001106
    21     0.915793
    22    -0.000268
    23    -0.001579
    24     0.187266
    25    -0.089321
    26    -0.079094
    27     0.173910
    28     0.004320
    29     0.000068
    30    -0.000969
Sym=    13a
Ene=   -0.232788E-02
Spin= Alpha
Occup= 0.000136
     1     0.025826
     2     0.285655
     3    -0.369549
     4    -0.000254
     5     0.000846
     6    -0.362463
     7     0.000039
     8     0.001105
     9    -0.140577
    10     0.004957
    11     0.055446
    12     0.162602
    13     0.023924
    14    -0.000389
    15     0.000131
    16     0.818165
    17     3.079099
    18     0.692646
    19    -0.000770
    20    -0.000356
    21    -0.108742
    22    -0.000857
    23    -0.001003
    24     0.127732
    25    -1.565904
    26    -1.531387
    27    -1.791531
    28     0.019335
    29     0.000081
    30    -0.001169
Sym=    14a
Ene=   -0.159858E-03
Spin= Alpha
Occup= 0.000010
     1    -0.001239
     2     0.022005
     3    -0.037621
     4    -0.103085
     5     0.664080
     6    -0.048118
     7    -0.124481
     8     0.754680
     9    -0.025434
    10     0.161986
    11    -0.178219
    12     0.060127
    13    -0.205700
    14     0.080410
    15    -0.482943
    16     0.000347
    17    -0.012150
    18     0.025924
    19     0.051747
    20    -0.247086
    21    -0.037050
    22     0.083336
    23    -0.419938
    24    -0.003671
    25    -0.146387
    26     0.188314
    27    -0.068924
    28     0.202791
    29     0.105220
    30    -0.680885
Sym=    15a
Ene=   -0.134076E-02
Spin= Alpha
Occup= 0.000952
     1     0.003448
     2     0.020647
     3    -0.015424
     4     0.000012
     5    -0.000951
     6    -0.012581
     7     0.000479
     8    -0.000766
     9    -0.034016
    10     0.411694
    11    -0.423609
    12    -0.001922
    13     0.463321
    14    -0.000514
    15    -0.000351
    16     0.003660
    17     0.023715
    18     0.002511
    19     0.000148
    20    -0.000795
    21     0.006671
    22     0.000138
    23    -0.000603
    24     0.012005
    25     0.413740
    26    -0.419545
    27     0.000587
    28     0.462532
    29     0.001213
    30     0.000583
Sym=    16a
Ene=   -0.520605E-03
Spin= Alpha
Occup= 0.000311
     1    -0.000373
     2     0.004960
     3    -0.034403
     4     0.000065
     5    -0.000555
     6    -0.012340
     7    -0.001242
     8    -0.000232
     9    -0.028545
    10     0.469985
    11    -0.470811
    12     0.006529
    13     0.521134
    14     0.002426
    15     0.000209
    16     0.000461
    17    -0.000044
    18     0.038588
    19     0.003697
    20    -0.000426
    21    -0.001531
    22     0.004281
    23    -0.000541
    24    -0.009979
    25    -0.471787
    26     0.474873
    27    -0.012450
    28    -0.519746
    29     0.000685
    30     0.000727
Sym=    17a
Ene=   -0.214033E-02
Spin= Alpha
Occup= 0.001719
     1     0.000896
     2    -0.003588
     3     0.060834
     4     0.067055
     5    -0.454293
     6     0.014153
     7     0.072450
     8    -0.488283
     9     0.038224
    10    -0.000176
    11     0.015650
    12    -0.029381
    13     0.007958
    14     0.121144
    15    -0.779664
    16     0.000290
    17     0.010420
    18    -0.062544
    19     0.094605
    20    -0.624513
    21     0.012435
    22     0.048201
    23    -0.320797
    24     0.028259
    25     0.002203
    26    -0.004909
    27     0.009582
    28    -0.004186
    29     0.010850
    30    -0.061735
Sym=    18a
Ene=   -0.214394E-02
Spin= Alpha
Occup= 0.001723
     1     0.000081
     2    -0.000019
     3     0.003579
     4     0.625368
     5     0.089505
     6     0.000809
     7     0.321425
     8     0.044501
     9     0.000772
    10     0.000553
    11    -0.000310
    12    -0.000850
    13    -0.001447
    14    -0.062707
    15    -0.006787
    16    -0.000109
    17     0.000305
    18    -0.003311
    19     0.452599
    20     0.070118
    21     0.002154
    22     0.486458
    23     0.075969
    24     0.004153
    25    -0.004597
    26     0.002745
    27     0.002769
    28     0.006940
    29    -0.782829
    30    -0.109871
Sym=    19a
Ene=   -0.305708E-02
Spin= Alpha
Occup= 0.001910
     1    -0.000352
     2    -0.001588
     3    -0.000280
     4     0.252794
     5    -0.184851
     6     0.000797
     7     0.331729
     8    -0.258099
     9     0.002148
    10    -0.002143
    11     0.004961
    12    -0.001645
    13     0.002989
    14    -0.386787
    15     0.254407
    16    -0.000334
    17    -0.001555
    18     0.000541
    19     0.228615
    20    -0.221432
    21    -0.000727
    22     0.312420
    23    -0.286838
    24    -0.002657
    25     0.002708
    26     0.000253
    27    -0.001731
    28    -0.002125
    29     0.324345
    30    -0.350787
Sym=    20a
Ene=   -0.623286E-04
Spin= Alpha
Occup= 0.000004
     1    -0.000128
     2     0.003180
     3    -0.065937
     4     0.024774
     5    -0.132561
     6     0.006787
     7     0.154821
     8    -0.980064
     9    -0.044444
    10    -0.031525
    11     0.057443
    12    -0.026893
    13     0.054776
    14     0.076590
    15    -0.545009
    16    -0.000631
    17     0.009278
    18     0.050959
    19    -0.077248
    20     0.478906
    21     0.018374
    22    -0.195641
    23     1.250208
    24    -0.021164
    25     0.045206
    26    -0.041542
    27     0.016821
    28    -0.053102
    29     0.106521
    30    -0.739233
Sym=    21a
Ene=   -0.635753E-04
Spin= Alpha
Occup= 0.000004
     1    -0.000334
     2     0.002842
     3     0.022530
     4     0.485342
     5     0.062389
     6    -0.008016
     7     1.263862
     8     0.175371
     9     0.010618
    10     0.017951
    11    -0.020128
    12     0.010784
    13    -0.023188
    14     0.732194
    15     0.115933
    16    -0.000055
    17    -0.000648
    18    -0.026424
    19    -0.145124
    20    -0.015617
    21    -0.005218
    22    -0.998961
    23    -0.138911
    24     0.016792
    25    -0.016214
    26     0.025587
    27    -0.011757
    28     0.025160
    29     0.539531
    30     0.089823
Sym=    22a
Ene=   -0.522258E-03
Spin= Alpha
Occup= 0.000337
     1    -0.003435
     2     0.023960
     3    -0.310180
     4    -0.007200
     5    -0.302242
     6    -0.061371
     7    -0.040024
     8    -0.439546
     9    -0.172441
    10     0.401707
    11    -0.414973
    12     0.075634
    13    -0.495534
    14     0.008808
    15     0.134835
    16     0.004267
    17    -0.014381
    18     0.308661
    19     0.046172
    20     0.153245
    21    -0.052377
    22     0.073165
    23     0.318380
    24    -0.155356
    25    -0.404807
    26     0.421604
    27    -0.080962
    28     0.500032
    29    -0.003025
    30     0.199918
Sym=    23a
Ene=   -0.151117E-02
Spin= Alpha
Occup= 0.001094
     1    -0.032144
     2    -0.196519
     3     0.059665
     4    -0.005169
     5     0.007310
     6     0.085466
     7    -0.005087
     8     0.009019
     9     0.208287
    10    -0.344339
    11     0.432518
    12     0.002943
    13     0.471588
    14    -0.000482
    15     0.001883
    16    -0.032410
    17    -0.198848
    18     0.051897
    19    -0.002516
    20     0.003323
    21    -0.082992
    22    -0.001376
    23    -0.000073
    24    -0.198201
    25    -0.342959
    26     0.429183
    27     0.001403
    28     0.470832
    29     0.002181
    30    -0.001810
Sym=    24a
Ene=   -0.247917E-02
Spin= Alpha
Occup= 0.001944
     1    -0.043730
     2     0.096688
     3    -2.212695
     4     0.000976
     5    -0.017228
     6    -0.548741
     7     0.000120
     8    -0.021550
     9    -1.493729
    10    -0.392122
    11    -0.212086
    12     1.167061
    13     0.084515
    14     0.001830
    15    -0.013510
    16    -0.006158
    17    -0.349118
    18     2.252853
    19     0.002597
    20    -0.011708
    21    -0.432112
    22     0.002729
    23    -0.001542
    24    -0.957692
    25     0.007634
    26     0.059077
    27    -0.287920
    28     0.024931
    29     0.000127
    30     0.000751
Sym=    25a
Ene=   -0.107012E-01
Spin= Alpha
Occup= 0.014638
     1     0.031493
     2     0.042514
     3     0.315344
     4     0.000142
     5     0.000557
     6    -0.089226
     7    -0.000007
     8     0.000778
     9     0.138549
    10     0.000718
    11     0.002774
    12     0.002638
    13     0.001404
    14     0.000011
    15    -0.000036
    16     0.260014
    17     1.365588
    18    -1.531845
    19     0.000730
    20     0.000244
    21    -0.665653
    22     0.000745
    23    -0.000101
    24    -0.424499
    25    -0.157771
    26    -0.144425
    27     0.077629
    28    -0.000208
    29    -0.000219
    30    -0.000313
Sym=    26a
Ene=   -0.305629E-02
Spin= Alpha
Occup= 0.001904
     1    -0.000316
     2    -0.001539
     3    -0.002162
     4    -0.220129
     5    -0.226505
     6     0.000226
     7    -0.285595
     8    -0.311658
     9     0.001050
    10     0.000751
    11     0.001004
    12    -0.000686
    13     0.001158
    14     0.351527
    15     0.327083
    16    -0.000353
    17    -0.002081
    18     0.002767
    19    -0.183834
    20    -0.248581
    21    -0.001773
    22    -0.257566
    23    -0.327565
    24    -0.004440
    25     0.002540
    26     0.000174
    27    -0.001768
    28    -0.000741
    29    -0.255171
    30    -0.388240
Sym=    27a
Ene=   -0.174234E-03
Spin= Alpha
Occup= 0.000011
     1     0.000092
     2    -0.003504
     3     0.007746
     4    -0.276435
     5    -0.025256
     6     0.008604
     7    -0.484219
     8    -0.053289
     9     0.003266
    10    -0.037748
    11     0.044571
    12    -0.013275
    13     0.045759
    14     0.715437
    15     0.100735
    16     0.000078
    17     0.004783
    18    -0.007997
    19     0.723049
    20     0.105732
    21     0.009416
    22     0.843316
    23     0.118069
    24     0.004930
    25     0.037657
    26    -0.044613
    27     0.012897
    28    -0.045734
    29     0.505210
    30     0.063334
Sym=    28a
Ene=   -0.233204E-02
Spin= Alpha
Occup= 0.000136
     1     0.818187
     2     3.078768
     3     0.696352
     4    -0.000256
     5     0.000208
     6     0.109708
     7    -0.000092
     8     0.000511
     9    -0.125180
    10    -1.570175
    11    -1.526725
    12    -1.792458
    13     0.018414
    14     0.000140
    15     0.000716
    16     0.025903
    17     0.286144
    18    -0.372976
    19    -0.000123
    20    -0.000233
    21     0.363217
    22    -0.000188
    23    -0.000783
    24     0.142527
    25     0.006094
    26     0.053495
    27     0.163112
    28     0.023478
    29     0.000409
    30    -0.000189
Sym=    29a
Ene=    0.000000E+00
Spin= Alpha
Occup= 0.000000
     1    -0.002006
     2     0.056035
     3     7.985642
     4    -0.001851
     5    -0.014243
     6    -0.481564
     7    -0.005877
     8    -0.023826
     9     4.196560
    10    -0.261859
    11    -0.233540
    12     0.855989
    13     0.014137
    14    -0.003082
    15     0.004963
    16    -0.014149
    17     0.129079
    18    -8.229188
    19     0.001451
    20     0.009224
    21    -0.288500
    22     0.005586
    23     0.019602
    24     4.601181
    25     0.465621
    26     0.489203
    27    -0.972084
    28     0.012639
    29    -0.002768
    30     0.006638
Sym=    30a
Ene=    0.000000E+00
Spin= Alpha
Occup= 0.000000
     1     0.035811
     2    -0.402504
     3     2.411398
     4     0.001380
     5     0.000470
     6     0.319301
     7     0.004230
     8    -0.013795
     9     1.888997
    10    -0.509881
    11    -0.641243
    12     0.465388
    13    -0.057620
    14     0.004481
    15    -0.013000
    16     0.033097
    17    -0.386874
    18    -1.373296
    19     0.001015
    20     0.006289
    21    -0.504134
    22    -0.002212
    23     0.019492
    24     0.164189
    25    -0.353653
    26    -0.455775
    27     0.031694
    28    -0.053909
    29     0.003722
    30    -0.015201
