[Molden Format]
p30-5 set                                                                       
[Atoms] AU
 H        1     1        0.0000        0.0000        0.0000
[GTO]
    1 0
s    4 1.00
     190.691690000000  0.534263696228E-02
      28.605532000000  0.412523382434E-01
       6.509594300000  0.210993525698E+00
       1.841245500000  0.812128545862E+00
s    1 1.00
       0.598537250000  0.100000000000E+01
s    1 1.00
       0.213976240000  0.100000000000E+01
s    1 1.00
       0.080316286000  0.100000000000E+01
p    1 1.00
       2.292000000000  0.100000000000E+01
p    1 1.00
       0.838000000000  0.100000000000E+01
p    1 1.00
       0.292000000000  0.100000000000E+01
d    1 1.00
       2.062000000000  0.100000000000E+01
d    1 1.00
       0.662000000000  0.100000000000E+01
f    1 1.00
       1.397000000000  0.100000000000E+01
 
[MO]
Sym=     1a
Ene=   -0.249992E+00
Spin= Alpha
Occup= 1.000000
     1     0.132251
     2     0.299686
     3     0.474509
     4     0.229252
     5     0.000000
     6     0.000000
     7     0.000000
     8     0.000000
     9     0.000000
    10     0.000000
    11     0.000000
    12     0.000000
    13     0.000000
    14    -0.000154
    15    -0.000154
    16    -0.000154
    17     0.000000
    18     0.000000
    19     0.000000
    20    -0.000300
    21    -0.000300
    22    -0.000300
    23     0.000000
    24     0.000000
    25     0.000000
    26     0.000000
    27     0.000000
    28     0.000000
    29     0.000000
    30     0.000000
    31     0.000000
    32     0.000000
    33     0.000000
    34     0.000000
    35     0.000000
Sym=     2a
Ene=    0.000000E+00
Spin= Alpha
Occup= 0.000000
     1    -0.014648
     2    -0.141390
     3    -1.757685
     4     1.888898
     5     0.000000
     6     0.000000
     7     0.000000
     8     0.000000
     9     0.000000
    10     0.000000
    11     0.000000
    12     0.000000
    13     0.000000
    14     0.023653
    15     0.023653
    16     0.023653
    17     0.000000
    18     0.000000
    19     0.000000
    20     0.137030
    21     0.137030
    22     0.137030
    23     0.000000
    24     0.000000
    25     0.000000
    26     0.000000
    27     0.000000
    28     0.000000
    29     0.000000
    30     0.000000
    31     0.000000
    32     0.000000
    33     0.000000
    34     0.000000
    35     0.000000
Sym=     3a
Ene=    0.000000E+00
Spin= Alpha
Occup= 0.000000
     1     0.000000
     2     0.000000
     3     0.000000
     4     0.000000
     5    -0.122096
     6    -0.571642
     7     0.179029
     8     0.436437
     9     2.043350
    10    -0.639944
    11    -0.281723
    12    -1.318996
    13     0.413088
    14     0.000000
    15     0.000000
    16     0.000000
    17     0.000000
    18     0.000000
    19     0.000000
    20     0.000000
    21     0.000000
    22     0.000000
    23     0.000000
    24     0.000000
    25     0.000000
    26    -0.176979
    27    -0.828594
    28     0.259502
    29    -0.079147
    30    -0.370558
    31     0.116053
    32    -0.079147
    33    -0.370558
    34     0.116053
    35     0.000000
Sym=     4a
Ene=    0.000000E+00
Spin= Alpha
Occup= 0.000000
     1     0.000000
     2     0.000000
     3     0.000000
     4     0.000000
     5     0.328850
     6    -0.216680
     7    -0.467590
     8    -1.175483
     9     0.774530
    10     1.671415
    11     0.758782
    12    -0.499965
    13    -1.078909
    14     0.000000
    15     0.000000
    16     0.000000
    17     0.000000
    18     0.000000
    19     0.000000
    20     0.000000
    21     0.000000
    22     0.000000
    23     0.000000
    24     0.000000
    25     0.000000
    26     0.476667
    27    -0.314078
    28    -0.677771
    29     0.213172
    30    -0.140460
    31    -0.303109
    32     0.213172
    33    -0.140460
    34    -0.303109
    35     0.000000
Sym=     5a
Ene=    0.000000E+00
Spin= Alpha
Occup= 0.000000
     1     0.000000
     2     0.000000
     3     0.000000
     4     0.000000
     5    -0.500683
     6    -0.002916
     7    -0.350772
     8     1.789706
     9     0.010423
    10     1.253846
    11    -1.155267
    12    -0.006728
    13    -0.809366
    14     0.000000
    15     0.000000
    16     0.000000
    17     0.000000
    18     0.000000
    19     0.000000
    20     0.000000
    21     0.000000
    22     0.000000
    23     0.000000
    24     0.000000
    25     0.000000
    26    -0.725739
    27    -0.004226
    28    -0.508444
    29    -0.324560
    30    -0.001890
    31    -0.227383
    32    -0.324560
    33    -0.001890
    34    -0.227383
    35     0.000000
Sym=     6a
Ene=    0.000000E+00
Spin= Alpha
Occup= 0.000000
     1    -0.416221
     2    -1.367799
     3     4.351778
     4    -1.712721
     5     0.000000
     6     0.000000
     7     0.000000
     8     0.000000
     9     0.000000
    10     0.000000
    11     0.000000
    12     0.000000
    13     0.000000
    14    -0.085536
    15    -0.085536
    16    -0.085536
    17     0.000000
    18     0.000000
    19     0.000000
    20    -0.608391
    21    -0.608391
    22    -0.608391
    23     0.000000
    24     0.000000
    25     0.000000
    26     0.000000
    27     0.000000
    28     0.000000
    29     0.000000
    30     0.000000
    31     0.000000
    32     0.000000
    33     0.000000
    34     0.000000
    35     0.000000
Sym=     7a
Ene=    0.000000E+00
Spin= Alpha
Occup= 0.000000
     1     0.000000
     2     0.000000
     3     0.000000
     4     0.000000
     5    -0.202060
     6    -2.116510
     7    -0.206134
     8     0.776388
     9     8.132410
    10     0.792042
    11    -0.157033
    12    -1.644867
    13    -0.160199
    14     0.000000
    15     0.000000
    16     0.000000
    17     0.000000
    18     0.000000
    19     0.000000
    20     0.000000
    21     0.000000
    22     0.000000
    23     0.000000
    24     0.000000
    25     0.000000
    26    -0.298278
    27    -3.124360
    28    -0.304292
    29    -0.133394
    30    -1.397256
    31    -0.136083
    32    -0.133394
    33    -1.397256
    34    -0.136083
    35     0.000000
Sym=     8a
Ene=    0.000000E+00
Spin= Alpha
Occup= 0.000000
     1     0.000000
     2     0.000000
     3     0.000000
     4     0.000000
     5    -1.706553
     6     0.037849
     7     1.284203
     8     6.557205
     9    -0.145431
    10    -4.934381
    11    -1.326265
    12     0.029415
    13     0.998031
    14     0.000000
    15     0.000000
    16     0.000000
    17     0.000000
    18     0.000000
    19     0.000000
    20     0.000000
    21     0.000000
    22     0.000000
    23     0.000000
    24     0.000000
    25     0.000000
    26    -2.519188
    27     0.055872
    28     1.895721
    29    -1.126615
    30     0.024987
    31     0.847792
    32    -1.126615
    33     0.024987
    34     0.847792
    35     0.000000
Sym=     9a
Ene=    0.000000E+00
Spin= Alpha
Occup= 0.000000
     1     0.000000
     2     0.000000
     3     0.000000
     4     0.000000
     5    -1.268772
     6     0.286159
     7    -1.694481
     8     4.875088
     9    -1.099527
    10     6.510819
    11    -0.986039
    12     0.222391
    13    -1.316883
    14     0.000000
    15     0.000000
    16     0.000000
    17     0.000000
    18     0.000000
    19     0.000000
    20     0.000000
    21     0.000000
    22     0.000000
    23     0.000000
    24     0.000000
    25     0.000000
    26    -1.872942
    27     0.422423
    28    -2.501367
    29    -0.837605
    30     0.188913
    31    -1.118645
    32    -0.837605
    33     0.188913
    34    -1.118645
    35     0.000000
Sym=    10a
Ene=    0.000000E+00
Spin= Alpha
Occup= 0.000000
     1     0.000000
     2     0.000000
     3     0.000000
     4     0.000000
     5     0.000000
     6     0.000000
     7     0.000000
     8     0.000000
     9     0.000000
    10     0.000000
    11     0.000000
    12     0.000000
    13     0.000000
    14    -0.017312
    15    -0.028044
    16     0.045356
    17     0.005493
    18    -0.124431
    19    -0.028811
    20     0.136836
    21     0.221664
    22    -0.358500
    23    -0.043421
    24     0.983520
    25     0.227723
    26     0.000000
    27     0.000000
    28     0.000000
    29     0.000000
    30     0.000000
    31     0.000000
    32     0.000000
    33     0.000000
    34     0.000000
    35     0.000000
Sym=    11a
Ene=    0.000000E+00
Spin= Alpha
Occup= 0.000000
     1     0.000000
     2     0.000000
     3     0.000000
     4     0.000000
     5     0.000000
     6     0.000000
     7     0.000000
     8     0.000000
     9     0.000000
    10     0.000000
    11     0.000000
    12     0.000000
    13     0.000000
    14     0.010414
    15     0.018063
    16    -0.028478
    17    -0.014005
    18     0.019015
    19    -0.130578
    20    -0.082316
    21    -0.142776
    22     0.225092
    23     0.110698
    24    -0.150300
    25     1.032108
    26     0.000000
    27     0.000000
    28     0.000000
    29     0.000000
    30     0.000000
    31     0.000000
    32     0.000000
    33     0.000000
    34     0.000000
    35     0.000000
Sym=    12a
Ene=    0.000000E+00
Spin= Alpha
Occup= 0.000000
     1     0.000000
     2     0.000000
     3     0.000000
     4     0.000000
     5     0.000000
     6     0.000000
     7     0.000000
     8     0.000000
     9     0.000000
    10     0.000000
    11     0.000000
    12     0.000000
    13     0.000000
    14     0.007807
    15     0.102903
    16    -0.110709
    17     0.028710
    18    -0.045591
    19     0.016283
    20    -0.061706
    21    -0.813355
    22     0.875062
    23    -0.226925
    24     0.360358
    25    -0.128704
    26     0.000000
    27     0.000000
    28     0.000000
    29     0.000000
    30     0.000000
    31     0.000000
    32     0.000000
    33     0.000000
    34     0.000000
    35     0.000000
Sym=    13a
Ene=    0.000000E+00
Spin= Alpha
Occup= 0.000000
     1     0.000000
     2     0.000000
     3     0.000000
     4     0.000000
     5     0.000000
     6     0.000000
     7     0.000000
     8     0.000000
     9     0.000000
    10     0.000000
    11     0.000000
    12     0.000000
    13     0.000000
    14    -0.133962
    15     0.080443
    16     0.053520
    17    -0.004939
    18     0.014256
    19    -0.004880
    20     1.058854
    21    -0.635828
    22    -0.423025
    23     0.039039
    24    -0.112681
    25     0.038571
    26     0.000000
    27     0.000000
    28     0.000000
    29     0.000000
    30     0.000000
    31     0.000000
    32     0.000000
    33     0.000000
    34     0.000000
    35     0.000000
Sym=    14a
Ene=    0.000000E+00
Spin= Alpha
Occup= 0.000000
     1     0.000000
     2     0.000000
     3     0.000000
     4     0.000000
     5     0.000000
     6     0.000000
     7     0.000000
     8     0.000000
     9     0.000000
    10     0.000000
    11     0.000000
    12     0.000000
    13     0.000000
    14     0.004893
    15     0.016316
    16    -0.021209
    17    -0.131772
    18    -0.017676
    19     0.016408
    20    -0.038678
    21    -0.128961
    22     0.167640
    23     1.041545
    24     0.139712
    25    -0.129688
    26     0.000000
    27     0.000000
    28     0.000000
    29     0.000000
    30     0.000000
    31     0.000000
    32     0.000000
    33     0.000000
    34     0.000000
    35     0.000000
Sym=    15a
Ene=    0.000000E+00
Spin= Alpha
Occup= 0.000000
     1    -0.397774
     2     1.177057
     3     4.090889
     4    -1.075220
     5     0.000000
     6     0.000000
     7     0.000000
     8     0.000000
     9     0.000000
    10     0.000000
    11     0.000000
    12     0.000000
    13     0.000000
    14    -0.219547
    15    -0.219547
    16    -0.219547
    17     0.000000
    18     0.000000
    19     0.000000
    20    -1.812063
    21    -1.812063
    22    -1.812063
    23     0.000000
    24     0.000000
    25     0.000000
    26     0.000000
    27     0.000000
    28     0.000000
    29     0.000000
    30     0.000000
    31     0.000000
    32     0.000000
    33     0.000000
    34     0.000000
    35     0.000000
Sym=    16a
Ene=    0.000000E+00
Spin= Alpha
Occup= 0.000000
     1     0.000000
     2     0.000000
     3     0.000000
     4     0.000000
     5    -0.555854
     6    -4.113386
     7    -0.399161
     8     1.725927
     9    12.772054
    10     1.239394
    11    -0.179482
    12    -1.328186
    13    -0.128887
    14     0.000000
    15     0.000000
    16     0.000000
    17     0.000000
    18     0.000000
    19     0.000000
    20     0.000000
    21     0.000000
    22     0.000000
    23     0.000000
    24     0.000000
    25     0.000000
    26    -0.823713
    27    -6.095566
    28    -0.591511
    29    -0.368375
    30    -2.726020
    31    -0.264532
    32    -0.368375
    33    -2.726020
    34    -0.264532
    35     0.000000
Sym=    17a
Ene=    0.000000E+00
Spin= Alpha
Occup= 0.000000
     1     0.000000
     2     0.000000
     3     0.000000
     4     0.000000
     5    -3.512853
     6     0.258118
     7     2.231925
     8    10.907400
     9    -0.801454
    10    -6.930122
    11    -1.134277
    12     0.083344
    13     0.720674
    14     0.000000
    15     0.000000
    16     0.000000
    17     0.000000
    18     0.000000
    19     0.000000
    20     0.000000
    21     0.000000
    22     0.000000
    23     0.000000
    24     0.000000
    25     0.000000
    26    -5.205645
    27     0.382501
    28     3.307457
    29    -2.328035
    30     0.171059
    31     1.479140
    32    -2.328035
    33     0.171059
    34     1.479140
    35     0.000000
Sym=    18a
Ene=    0.000000E+00
Spin= Alpha
Occup= 0.000000
     1     0.000000
     2     0.000000
     3     0.000000
     4     0.000000
     5    -2.176956
     6     0.633782
     7    -3.499633
     8     6.759445
     9    -1.967890
    10    10.866352
    11    -0.702925
    12     0.204644
    13    -1.130009
    14     0.000000
    15     0.000000
    16     0.000000
    17     0.000000
    18     0.000000
    19     0.000000
    20     0.000000
    21     0.000000
    22     0.000000
    23     0.000000
    24     0.000000
    25     0.000000
    26    -3.226000
    27     0.939192
    28    -5.186054
    29    -1.442711
    30     0.420019
    31    -2.319274
    32    -1.442711
    33     0.420019
    34    -2.319274
    35     0.000000
Sym=    19a
Ene=    0.000000E+00
Spin= Alpha
Occup= 0.000000
     1     0.000000
     2     0.000000
     3     0.000000
     4     0.000000
     5     0.000000
     6     0.000000
     7     0.000000
     8     0.000000
     9     0.000000
    10     0.000000
    11     0.000000
    12     0.000000
    13     0.000000
    14     0.000000
    15     0.000000
    16     0.000000
    17     0.000000
    18     0.000000
    19     0.000000
    20     0.000000
    21     0.000000
    22     0.000000
    23     0.000000
    24     0.000000
    25     0.000000
    26     0.502976
    27     0.340049
    28     0.794358
    29    -0.338796
    30    -0.233420
    31    -0.517097
    32    -0.336017
    33    -0.222804
    34    -0.548646
    35    -0.002249
Sym=    20a
Ene=    0.000000E+00
Spin= Alpha
Occup= 0.000000
     1     0.000000
     2     0.000000
     3     0.000000
     4     0.000000
     5     0.000000
     6     0.000000
     7     0.000000
     8     0.000000
     9     0.000000
    10     0.000000
    11     0.000000
    12     0.000000
    13     0.000000
    14     0.000000
    15     0.000000
    16     0.000000
    17     0.000000
    18     0.000000
    19     0.000000
    20     0.000000
    21     0.000000
    22     0.000000
    23     0.000000
    24     0.000000
    25     0.000000
    26     0.863389
    27    -0.178768
    28    -0.470539
    29    -0.589968
    30     0.092708
    31     0.319298
    32    -0.568390
    33     0.147135
    34     0.311996
    35    -0.005861
Sym=    21a
Ene=    0.000000E+00
Spin= Alpha
Occup= 0.000000
     1     0.000000
     2     0.000000
     3     0.000000
     4     0.000000
     5     0.000000
     6     0.000000
     7     0.000000
     8     0.000000
     9     0.000000
    10     0.000000
    11     0.000000
    12     0.000000
    13     0.000000
    14     0.000000
    15     0.000000
    16     0.000000
    17     0.000000
    18     0.000000
    19     0.000000
    20     0.000000
    21     0.000000
    22     0.000000
    23     0.000000
    24     0.000000
    25     0.000000
    26     0.034008
    27    -0.010449
    28    -0.002397
    29     0.476248
    30     0.626942
    31    -0.275260
    32    -0.521874
    33    -0.612924
    34     0.278475
    35     0.228070
Sym=    22a
Ene=    0.000000E+00
Spin= Alpha
Occup= 0.000000
     1     0.000000
     2     0.000000
     3     0.000000
     4     0.000000
     5     0.000000
     6     0.000000
     7     0.000000
     8     0.000000
     9     0.000000
    10     0.000000
    11     0.000000
    12     0.000000
    13     0.000000
    14     0.000000
    15     0.000000
    16     0.000000
    17     0.000000
    18     0.000000
    19     0.000000
    20     0.000000
    21     0.000000
    22     0.000000
    23     0.000000
    24     0.000000
    25     0.000000
    26    -0.002220
    27     0.021606
    28    -0.026954
    29     0.146980
    30     0.218748
    31     0.837276
    32    -0.144001
    33    -0.247736
    34    -0.801113
    35     0.057192
Sym=    23a
Ene=    0.000000E+00
Spin= Alpha
Occup= 0.000000
     1     0.000000
     2     0.000000
     3     0.000000
     4     0.000000
     5     0.000000
     6     0.000000
     7     0.000000
     8     0.000000
     9     0.000000
    10     0.000000
    11     0.000000
    12     0.000000
    13     0.000000
    14     0.000000
    15     0.000000
    16     0.000000
    17     0.000000
    18     0.000000
    19     0.000000
    20     0.000000
    21     0.000000
    22     0.000000
    23     0.000000
    24     0.000000
    25     0.000000
    26    -0.000679
    27     0.003049
    28     0.000051
    29    -0.181803
    30    -0.116199
    31     0.014064
    32     0.182714
    33     0.112109
    34    -0.014132
    35     0.968535
Sym=    24a
Ene=    0.000000E+00
Spin= Alpha
Occup= 0.000000
     1     0.000000
     2     0.000000
     3     0.000000
     4     0.000000
     5     0.000000
     6     0.000000
     7     0.000000
     8     0.000000
     9     0.000000
    10     0.000000
    11     0.000000
    12     0.000000
    13     0.000000
    14     0.000000
    15     0.000000
    16     0.000000
    17     0.000000
    18     0.000000
    19     0.000000
    20     0.000000
    21     0.000000
    22     0.000000
    23     0.000000
    24     0.000000
    25     0.000000
    26    -0.019135
    27     0.908722
    28    -0.376876
    29     0.130925
    30    -0.706325
    31     0.231444
    32    -0.105253
    33    -0.512853
    34     0.274189
    35     0.011988
Sym=    25a
Ene=    0.000000E+00
Spin= Alpha
Occup= 0.000000
     1     0.000000
     2     0.000000
     3     0.000000
     4     0.000000
     5     0.000000
     6     0.000000
     7     0.000000
     8     0.000000
     9     0.000000
    10     0.000000
    11     0.000000
    12     0.000000
    13     0.000000
    14     0.000000
    15     0.000000
    16     0.000000
    17     0.000000
    18     0.000000
    19     0.000000
    20     0.000000
    21     0.000000
    22     0.000000
    23     0.000000
    24     0.000000
    25     0.000000
    26    -0.006841
    27    -0.161394
    28     0.069429
    29     0.662228
    30    -0.428505
    31    -0.009862
    32    -0.653050
    33     0.645038
    34    -0.083287
    35     0.080439
Sym=    26a
Ene=    0.000000E+00
Spin= Alpha
Occup= 0.000000
     1     0.000000
     2     0.000000
     3     0.000000
     4     0.000000
     5     0.000000
     6     0.000000
     7     0.000000
     8     0.000000
     9     0.000000
    10     0.000000
    11     0.000000
    12     0.000000
    13     0.000000
    14     0.048490
    15    -0.013192
    16    -0.035298
    17     0.110277
    18     1.076154
    19     0.572780
    20    -0.023989
    21     0.006526
    22     0.017462
    23    -0.054555
    24    -0.532388
    25    -0.283362
    26     0.000000
    27     0.000000
    28     0.000000
    29     0.000000
    30     0.000000
    31     0.000000
    32     0.000000
    33     0.000000
    34     0.000000
    35     0.000000
Sym=    27a
Ene=    0.000000E+00
Spin= Alpha
Occup= 0.000000
     1     0.000000
     2     0.000000
     3     0.000000
     4     0.000000
     5     0.000000
     6     0.000000
     7     0.000000
     8     0.000000
     9     0.000000
    10     0.000000
    11     0.000000
    12     0.000000
    13     0.000000
    14     0.020320
    15    -0.016745
    16    -0.003575
    17     1.154378
    18    -0.278837
    19     0.300084
    20    -0.010053
    21     0.008284
    22     0.001769
    23    -0.571086
    24     0.137944
    25    -0.148456
    26     0.000000
    27     0.000000
    28     0.000000
    29     0.000000
    30     0.000000
    31     0.000000
    32     0.000000
    33     0.000000
    34     0.000000
    35     0.000000
Sym=    28a
Ene=    0.000000E+00
Spin= Alpha
Occup= 0.000000
     1     0.000000
     2     0.000000
     3     0.000000
     4     0.000000
     5     0.000000
     6     0.000000
     7     0.000000
     8     0.000000
     9     0.000000
    10     0.000000
    11     0.000000
    12     0.000000
    13     0.000000
    14    -0.031192
    15    -0.026856
    16     0.058048
    17    -0.393557
    18    -0.511150
    19     1.039866
    20     0.015431
    21     0.013286
    22    -0.028717
    23     0.194698
    24     0.252873
    25    -0.514436
    26     0.000000
    27     0.000000
    28     0.000000
    29     0.000000
    30     0.000000
    31     0.000000
    32     0.000000
    33     0.000000
    34     0.000000
    35     0.000000
Sym=    29a
Ene=    0.000000E+00
Spin= Alpha
Occup= 0.000000
     1     0.000000
     2     0.000000
     3     0.000000
     4     0.000000
     5     0.000000
     6     0.000000
     7     0.000000
     8     0.000000
     9     0.000000
    10     0.000000
    11     0.000000
    12     0.000000
    13     0.000000
    14    -0.564283
    15    -0.657785
    16     1.222068
    17     0.024166
    18     0.053259
    19    -0.032764
    20     0.279159
    21     0.325415
    22    -0.604574
    23    -0.011955
    24    -0.026348
    25     0.016209
    26     0.000000
    27     0.000000
    28     0.000000
    29     0.000000
    30     0.000000
    31     0.000000
    32     0.000000
    33     0.000000
    34     0.000000
    35     0.000000
Sym=    30a
Ene=    0.000000E+00
Spin= Alpha
Occup= 0.000000
     1     0.000000
     2     0.000000
     3     0.000000
     4     0.000000
     5     0.000000
     6     0.000000
     7     0.000000
     8     0.000000
     9     0.000000
    10     0.000000
    11     0.000000
    12     0.000000
    13     0.000000
    14     1.085682
    15    -1.032958
    16    -0.052724
    17    -0.025278
    18    -0.029850
    19    -0.018352
    20    -0.537102
    21     0.511018
    22     0.026083
    23     0.012506
    24     0.014767
    25     0.009079
    26     0.000000
    27     0.000000
    28     0.000000
    29     0.000000
    30     0.000000
    31     0.000000
    32     0.000000
    33     0.000000
    34     0.000000
    35     0.000000
Sym=    31a
Ene=    0.000000E+00
Spin= Alpha
Occup= 0.000000
     1    -3.050279
     2     4.345178
     3     2.736170
     4    -0.660569
     5     0.000000
     6     0.000000
     7     0.000000
     8     0.000000
     9     0.000000
    10     0.000000
    11     0.000000
    12     0.000000
    13     0.000000
    14    -0.094935
    15    -0.094935
    16    -0.094935
    17     0.000000
    18     0.000000
    19     0.000000
    20    -2.056992
    21    -2.056992
    22    -2.056992
    23     0.000000
    24     0.000000
    25     0.000000
    26     0.000000
    27     0.000000
    28     0.000000
    29     0.000000
    30     0.000000
    31     0.000000
    32     0.000000
    33     0.000000
    34     0.000000
    35     0.000000
Sym=    32a
Ene=    0.000000E+00
Spin= Alpha
Occup= 0.000000
     1     0.000000
     2     0.000000
     3     0.000000
     4     0.000000
     5    -0.175993
     6    -1.431495
     7    -0.190014
     8     1.128932
     9     9.182549
    10     1.218876
    11    -0.084509
    12    -0.687378
    13    -0.091241
    14     0.000000
    15     0.000000
    16     0.000000
    17     0.000000
    18     0.000000
    19     0.000000
    20     0.000000
    21     0.000000
    22     0.000000
    23     0.000000
    24     0.000000
    25     0.000000
    26    -0.630453
    27    -5.128003
    28    -0.680682
    29    -0.281947
    30    -2.293312
    31    -0.304410
    32    -0.281947
    33    -2.293312
    34    -0.304410
    35     0.000000
Sym=    33a
Ene=    0.000000E+00
Spin= Alpha
Occup= 0.000000
     1     0.000000
     2     0.000000
     3     0.000000
     4     0.000000
     5    -1.344151
     6     0.092433
     7     0.548607
     8     8.622271
     9    -0.592927
    10    -3.519125
    11    -0.645437
    12     0.044385
    13     0.263431
    14     0.000000
    15     0.000000
    16     0.000000
    17     0.000000
    18     0.000000
    19     0.000000
    20     0.000000
    21     0.000000
    22     0.000000
    23     0.000000
    24     0.000000
    25     0.000000
    26    -4.815115
    27     0.331121
    28     1.965258
    29    -2.153385
    30     0.148082
    31     0.878890
    32    -2.153385
    33     0.148082
    34     0.878890
    35     0.000000
Sym=    34a
Ene=    0.000000E+00
Spin= Alpha
Occup= 0.000000
     1     0.000000
     2     0.000000
     3     0.000000
     4     0.000000
     5    -0.527769
     6     0.241940
     7    -1.333860
     8     3.385457
     9    -1.551961
    10     8.556253
    11    -0.253425
    12     0.116175
    13    -0.640496
    14     0.000000
    15     0.000000
    16     0.000000
    17     0.000000
    18     0.000000
    19     0.000000
    20     0.000000
    21     0.000000
    22     0.000000
    23     0.000000
    24     0.000000
    25     0.000000
    26    -1.890611
    27     0.866694
    28    -4.778247
    29    -0.845507
    30     0.387597
    31    -2.136897
    32    -0.845507
    33     0.387597
    34    -2.136897
    35     0.000000
Sym=    35a
Ene=    0.000000E+00
Spin= Alpha
Occup= 0.000000
     1    -6.898355
     2    20.806185
     3     4.773732
     4    -1.052673
     5     0.000000
     6     0.000000
     7     0.000000
     8     0.000000
     9     0.000000
    10     0.000000
    11     0.000000
    12     0.000000
    13     0.000000
    14    -4.010988
    15    -4.010988
    16    -4.010988
    17     0.000000
    18     0.000000
    19     0.000000
    20    -5.983875
    21    -5.983875
    22    -5.983875
    23     0.000000
    24     0.000000
    25     0.000000
    26     0.000000
    27     0.000000
    28     0.000000
    29     0.000000
    30     0.000000
    31     0.000000
    32     0.000000
    33     0.000000
    34     0.000000
    35     0.000000
