[Molden Format]
p30-5 set                                                                       
[Atoms] AU
 MG       1    12        0.0000        0.0000        0.0000
[GTO]
    1 0
s    5 1.00
    4953.833919600000 -0.573034825338E-02
     745.180441540000 -0.427698711217E-01
     169.216049720000 -0.191096515460E+00
      47.300672019000 -0.482411503269E+00
      14.461336973000 -0.422007266852E+00
s    3 1.00
      24.768174789000  0.871156057208E-01
       2.494094534900 -0.546373693218E+00
       0.878075845330 -0.529320757859E+00
s    1 1.00
       0.087212782497  0.100000000000E+01
s    1 1.00
       0.033599293780  0.100000000000E+01
p    5 1.00
      98.053010494000 -0.144805646010E-01
      22.586932277000 -0.954957507867E-01
       6.839150984200 -0.307876726509E+00
       2.233284381800 -0.499362928859E+00
       0.716065993870 -0.315034762129E+00
p    1 1.00
       0.189147961950  0.100000000000E+01
p    1 1.00
       0.053768755187  0.100000000000E+01
d    1 1.00
       0.101000000000  0.100000000000E+01
 
[MO]
Sym=     1a
Ene=   -0.490389E+02
Spin= Alpha
Occup= 2.000000
     1     0.997337
     2     0.011669
     3     0.007013
     4     0.004160
     5    -0.000731
     6    -0.000243
     7     0.000088
     8     0.000009
     9    -0.000000
    10     0.000001
    11     0.000000
    12     0.000001
    13     0.000001
    14    -0.004056
    15    -0.004063
    16    -0.004062
    17     0.000002
    18     0.000003
    19     0.000001
Sym=     2a
Ene=   -0.256674E+01
Spin= Alpha
Occup= 1.999803
     1    -0.116288
     2     0.441543
     3    -0.009302
     4    -0.000488
     5     0.328152
     6     0.002909
     7    -0.838527
     8    -0.002407
     9     0.000023
    10     0.006313
    11    -0.000800
    12     0.000004
    13     0.002156
    14     0.002345
    15     0.002380
    16     0.002336
    17    -0.000012
    18     0.000007
    19     0.000000
Sym=     3a
Ene=   -0.272221E+01
Spin= Alpha
Occup= 1.999793
     1     0.146157
     2    -0.552611
     3     0.011724
     4     0.000625
     5     0.000467
     6     0.795435
     7    -0.271692
     8    -0.000119
     9    -0.006102
    10     0.001963
    11    -0.000122
    12    -0.002036
    13     0.000637
    14    -0.002982
    15    -0.002974
    16    -0.002996
    17     0.000015
    18     0.000018
    19    -0.000006
Sym=     4a
Ene=   -0.276325E+01
Spin= Alpha
Occup= 1.999774
     1    -0.153180
     2     0.578318
     3    -0.012426
     4    -0.000701
     5    -0.730794
     6     0.380642
     7     0.002765
     8     0.005781
     9    -0.002790
    10     0.000107
    11     0.001960
    12    -0.000815
    13     0.000073
    14     0.003157
    15     0.003182
    16     0.003194
    17    -0.000004
    18    -0.000019
    19    -0.000010
Sym=     5a
Ene=   -0.260133E+01
Spin= Alpha
Occup= 1.999638
     1    -0.123102
     2     0.467943
     3    -0.010627
     4    -0.000756
     5     0.593804
     6     0.465820
     7     0.466588
     8    -0.005179
     9    -0.003967
    10    -0.003948
    11    -0.001815
    12    -0.001323
    13    -0.001296
    14     0.002735
    15     0.002750
    16     0.002752
    17    -0.000030
    18    -0.000027
    19    -0.000026
Sym=     6a
Ene=   -0.255716E+00
Spin= Alpha
Occup= 1.864283
     1    -0.052892
     2     0.341522
     3     0.768083
     4     0.291672
     5     0.000167
     6     0.000182
     7     0.000158
     8     0.000011
     9    -0.000124
    10    -0.000144
    11    -0.000193
    12     0.000063
    13     0.000125
    14     0.001104
    15     0.016259
    16     0.017563
    17    -0.015664
    18    -0.014144
    19    -0.008247
Sym=     7a
Ene=   -0.141124E-01
Spin= Alpha
Occup= 0.068119
     1     0.000170
     2    -0.001246
     3    -0.004632
     4     0.001397
     5    -0.129298
     6     0.190674
     7     0.032561
     8    -0.306743
     9     0.452090
    10     0.077270
    11    -0.324071
    12     0.478776
    13     0.081526
    14     0.001083
    15     0.001501
    16     0.001719
    17    -0.000023
    18    -0.000405
    19    -0.000434
Sym=     8a
Ene=   -0.101873E-02
Spin= Alpha
Occup= 0.000362
     1    -0.041417
     2     0.315729
     3     0.843520
     4     0.391564
     5     0.223714
     6     0.163782
     7     0.161275
     8     0.728032
     9     0.566201
    10     0.567953
    11    -0.114475
    12    -0.195473
    13    -0.227521
    14    -0.546965
    15    -0.553404
    16    -0.556678
    17     0.013848
    18     0.012272
    19     0.011189
Sym=     9a
Ene=   -0.609357E-03
Spin= Alpha
Occup= 0.000209
     1     0.049112
     2    -0.374550
     3    -1.002262
     4    -0.462154
     5     0.237954
     6    -0.093477
     7     0.015663
     8     0.911365
     9    -0.466218
    10     0.008668
    11    -0.579623
    12     0.591157
    13     0.134253
    14     0.636497
    15     0.658120
    16     0.670658
    17     0.001347
    18    -0.012115
    19    -0.007340
Sym=    10a
Ene=   -0.584880E-04
Spin= Alpha
Occup= 0.000019
     1     0.000389
     2    -0.003563
     3     0.005039
     4    -0.038226
     5    -0.008093
     6    -0.004927
     7     0.007664
     8    -0.053590
     9    -0.032192
    10     0.023555
    11     0.095462
    12     0.056684
    13     0.001102
    14     0.339250
    15    -0.897443
    16     0.605000
    17     0.181987
    18    -0.076240
    19    -0.309459
Sym=    11a
Ene=   -0.580013E-04
Spin= Alpha
Occup= 0.000020
     1     0.000048
     2    -0.001470
     3     0.030225
     4    -0.079320
     5     0.006667
     6     0.002990
     7     0.010894
     8     0.080970
     9     0.043461
    10     0.074866
    11    -0.202571
    12    -0.114919
    13    -0.137739
    14    -0.294457
    15    -0.105077
    16     0.465483
    17     0.218081
    18    -0.353362
    19     0.755638
Sym=    12a
Ene=   -0.221694E-05
Spin= Alpha
Occup= 0.000000
     1     0.002023
     2    -0.024532
     3     0.208147
     4    -0.652570
     5    -0.008990
     6    -0.008458
     7    -0.007967
     8    -0.081863
     9    -0.062092
    10    -0.057638
    11     0.181162
    12     0.120145
    13     0.110312
    14     0.276114
    15    -0.040431
    16     0.363805
    17    -0.305081
    18     0.764570
    19     0.423286
Sym=    13a
Ene=   -0.140084E-01
Spin= Alpha
Occup= 0.067598
     1     0.000135
     2    -0.001009
     3    -0.003819
     4     0.001295
     5    -0.064944
     6    -0.079687
     7     0.209512
     8    -0.154619
     9    -0.189468
    10     0.498039
    11    -0.160974
    12    -0.198345
    13     0.521827
    14     0.001290
    15     0.000307
    16     0.001749
    17     0.000031
    18    -0.000514
    19    -0.000127
Sym=    14a
Ene=   -0.321355E-05
Spin= Alpha
Occup= 0.000000
     1     0.000239
     2    -0.000019
     3    -0.108914
     4     0.235169
     5    -0.006167
     6    -0.005053
     7    -0.005063
     8    -0.047926
     9    -0.034457
    10    -0.033321
    11     0.096554
    12     0.062885
    13     0.058922
    14     0.499051
    15    -0.090611
    16    -0.541518
    17     0.726414
    18     0.176061
    19     0.245460
Sym=    15a
Ene=   -0.549544E-04
Spin= Alpha
Occup= 0.000017
     1     0.000287
     2    -0.002764
     3     0.000989
     4    -0.024573
     5    -0.001857
     6     0.004773
     7    -0.000350
     8     0.001687
     9     0.026365
    10     0.003555
    11    -0.025153
    12    -0.038677
    13    -0.015694
    14    -0.660355
    15     0.281218
    16     0.417350
    17     0.531453
    18     0.419534
    19    -0.283829
Sym=    16a
Ene=   -0.538342E-03
Spin= Alpha
Occup= 0.000188
     1     0.045860
     2    -0.349867
     3    -0.932932
     4    -0.439344
     5     0.016922
     6     0.242993
     7    -0.067594
     8     0.000687
     9     1.002538
    10    -0.328824
    11     0.174184
    12    -0.832616
    13     0.399374
    14     0.617246
    15     0.596769
    16     0.627784
    17    -0.008647
    18    -0.016151
    19     0.009091
Sym=    17a
Ene=   -0.474742E-03
Spin= Alpha
Occup= 0.000177
     1    -0.036081
     2     0.275404
     3     0.730253
     4     0.355231
     5     0.088750
     6    -0.005124
     7    -0.248188
     8     0.409253
     9    -0.006036
    10    -1.053578
    11    -0.448606
    12    -0.033204
    13     0.949295
    14    -0.480097
    15    -0.519541
    16    -0.457279
    17     0.016467
    18    -0.011155
    19     0.001916
Sym=    18a
Ene=   -0.118760E-05
Spin= Alpha
Occup= 0.000000
     1    -0.001881
     2     0.021081
     3    -0.154503
     4     0.503507
     5    -0.050665
     6    -0.029165
     7    -0.025415
     8    -0.434629
     9    -0.252431
    10    -0.224408
    11     0.931301
    12     0.543634
    13     0.488670
    14    -0.356005
    15    -0.052713
    16    -0.056319
    17     0.022460
    18    -0.208052
    19     0.086638
Sym=    19a
Ene=    0.000000E+00
Spin= Alpha
Occup= 0.000000
     1    -0.007485
     2     0.094863
     3    -0.982362
     4     2.904450
     5     0.006839
     6     0.004019
     7     0.004216
     8     0.059484
     9     0.035336
    10     0.034720
    11    -0.128385
    12    -0.076676
    13    -0.072522
    14    -0.846539
    15    -0.921118
    16    -0.757272
    17    -0.121810
    18     0.183251
    19     0.073665
