[Molden Format]
p30-5 set                                                                       
[Atoms] AU
 N        1     7        0.0000        0.0000        0.0000
[GTO]
    1 0
s    5 1.00
    1712.841585300000 -0.544779958049E-02
     257.648126770000 -0.406271746324E-01
      58.458245853000 -0.181119622506E+00
      16.198367905000 -0.468439755632E+00
       5.005260080900 -0.446168462892E+00
s    1 1.00
       0.587318565710  0.100000000000E+01
s    1 1.00
       0.187645922530  0.100000000000E+01
p    3 1.00
      13.571470233000 -0.588481169695E-01
       2.925737287400 -0.320246247625E+00
       0.799277507540 -0.753282265204E+00
p    1 1.00
       0.219543480340  0.100000000000E+01
d    1 1.00
       1.000000000000  0.100000000000E+01
 
[MO]
Sym=     1a
Ene=   -0.156227E+02
Spin= Alpha
Occup= 1.999675
     1     0.994277
     2    -0.025253
     3     0.014304
     4    -0.000000
     5     0.000001
     6    -0.000001
     7    -0.000002
     8     0.000002
     9    -0.000001
    10     0.003035
    11     0.003043
    12     0.003051
    13     0.000002
    14     0.000001
    15     0.000006
Sym=     2a
Ene=   -0.953775E+00
Spin= Alpha
Occup= 1.960400
     1     0.281280
     2     0.613228
     3     0.439896
     4    -0.000000
     5    -0.000000
     6    -0.000000
     7     0.000001
     8    -0.000000
     9    -0.000000
    10     0.018354
    11     0.018892
    12     0.019322
    13     0.000096
    14     0.000188
    15     0.000474
Sym=     3a
Ene=   -0.302766E+00
Spin= Alpha
Occup= 1.000000
     1    -0.000000
     2     0.000001
     3     0.000002
     4     0.345626
     5    -0.205279
     6     0.559181
     7    -0.225867
     8     0.134654
     9    -0.364395
    10    -0.000001
    11    -0.000001
    12    -0.000002
    13    -0.000000
    14    -0.000000
    15     0.000001
Sym=     4a
Ene=   -0.303243E+00
Spin= Alpha
Occup= 1.000000
     1    -0.000000
     2    -0.000004
     3     0.000001
     4    -0.060157
     5     0.630981
     6     0.270006
     7     0.039598
     8    -0.411539
     9    -0.175264
    10     0.000002
    11     0.000001
    12     0.000001
    13     0.000001
    14     0.000001
    15    -0.000001
Sym=     5a
Ene=   -0.301804E+00
Spin= Alpha
Occup= 1.000000
     1     0.000000
     2     0.000007
     3    -0.000002
     4     0.591936
     5     0.184180
     6    -0.298685
     7    -0.387241
     8    -0.120401
     9     0.195048
    10    -0.000001
    11    -0.000001
    12    -0.000003
    13    -0.000000
    14     0.000000
    15    -0.000001
Sym=     6a
Ene=   -0.118360E-01
Spin= Alpha
Occup= 0.024875
     1     0.343085
     2     1.764634
     3    -1.589364
     4     0.000001
     5     0.000002
     6    -0.000004
     7     0.000002
     8     0.000002
     9    -0.000007
    10    -0.065261
    11    -0.068879
    12    -0.070645
    13    -0.000466
    14    -0.001009
    15    -0.001974
Sym=     7a
Ene=   -0.593268E-03
Spin= Alpha
Occup= 0.000039
     1     0.000002
     2     0.000004
     3     0.000003
     4     0.014482
     5    -0.835133
     6    -0.452020
     7     0.016317
     8    -0.953032
     9    -0.516436
    10    -0.000000
    11     0.000001
    12    -0.000010
    13    -0.000001
    14    -0.000003
    15    -0.000007
Sym=     8a
Ene=   -0.418104E-02
Spin= Alpha
Occup= 0.003699
     1     0.004425
     2     0.018569
     3    -0.002872
     4     0.000001
     5    -0.000007
     6    -0.000005
     7    -0.000000
     8    -0.000010
     9    -0.000004
    10    -0.353458
    11    -0.411853
    12     0.744113
    13     0.068341
    14     0.180345
    15     0.630372
Sym=     9a
Ene=   -0.515284E-03
Spin= Alpha
Occup= 0.000033
     1    -0.000800
     2    -0.004114
     3     0.003198
     4     0.000012
     5     0.000000
     6    -0.000001
     7     0.000013
     8    -0.000000
     9     0.000000
    10     0.899365
    11    -0.616910
    12    -0.280921
    13    -0.025485
    14    -0.186839
    15     0.344775
Sym=    10a
Ene=   -0.417364E-02
Spin= Alpha
Occup= 0.003692
     1     0.001390
     2     0.005829
     3    -0.000902
     4    -0.000000
     5     0.000001
     6    -0.000003
     7     0.000000
     8     0.000000
     9    -0.000002
    10    -0.095275
    11     0.659671
    12    -0.571048
    13     0.182031
    14     0.030857
    15     0.672578
Sym=    11a
Ene=   -0.587207E-03
Spin= Alpha
Occup= 0.000039
     1     0.000004
     2     0.000009
     3     0.000005
     4     0.949637
     5     0.029763
     6    -0.025021
     7     1.082718
     8     0.034052
     9    -0.028334
    10    -0.000017
    11     0.000001
    12    -0.000003
    13     0.000001
    14     0.000002
    15    -0.000005
Sym=    12a
Ene=   -0.416049E-02
Spin= Alpha
Occup= 0.003683
     1     0.000050
     2     0.000204
     3    -0.000029
     4    -0.000000
     5    -0.000002
     6    -0.000001
     7    -0.000000
     8    -0.000000
     9    -0.000001
    10     0.247460
    11    -0.108814
    12    -0.138882
    13     0.421560
    14     0.861249
    15    -0.137698
Sym=    13a
Ene=   -0.589948E-03
Spin= Alpha
Occup= 0.000039
     1     0.000008
     2     0.000029
     3    -0.000006
     4     0.036034
     5    -0.451942
     6     0.834887
     7     0.041217
     8    -0.515132
     9     0.952748
    10    -0.000010
    11    -0.000008
    12    -0.000012
    13    -0.000002
    14     0.000002
    15     0.000001
Sym=    14a
Ene=   -0.412502E-02
Spin= Alpha
Occup= 0.003652
     1     0.000005
     2     0.000025
     3     0.000002
     4    -0.000000
     5    -0.000002
     6     0.000002
     7    -0.000001
     8    -0.000001
     9     0.000003
    10    -0.046130
    11    -0.070852
    12     0.116945
    13     0.885342
    14    -0.435733
    15    -0.111458
Sym=    15a
Ene=   -0.293666E-02
Spin= Alpha
Occup= 0.000175
     1     0.820373
     2     3.103954
     3     0.575155
     4    -0.000005
     5     0.000005
     6    -0.000004
     7    -0.000004
     8     0.000004
     9    -0.000004
    10    -1.584601
    11    -1.585704
    12    -1.588944
    13    -0.000574
    14    -0.000901
    15    -0.003539
