[Molden Format]
p30-5 set                                                                       
[Atoms] AU
 O        1     8        0.0000        0.0000        0.0000
[GTO]
    1 0
s    5 1.00
    2266.176778500000 -0.538935039217E-02
     340.870101910000 -0.402347213890E-01
      77.363135167000 -0.180081842055E+00
      21.479644940000 -0.468288576577E+00
       6.658943312400 -0.446926171602E+00
s    1 1.00
       0.809759756680  0.100000000000E+01
s    1 1.00
       0.255307722340  0.100000000000E+01
p    3 1.00
      17.721504317000  0.626302487632E-01
       3.863550544000  0.333311384824E+00
       1.048092088300  0.741486383081E+00
p    1 1.00
       0.276415444110  0.100000000000E+01
d    1 1.00
       1.200000000000  0.100000000000E+01
 
[MO]
Sym=     1a
Ene=   -0.206699E+02
Spin= Alpha
Occup= 1.999867
     1     0.996028
     2    -0.021291
     3     0.016526
     4    -0.000004
     5    -0.000000
     6    -0.000002
     7    -0.000002
     8     0.000003
     9    -0.000002
    10     0.004665
    11     0.004951
    12     0.004836
    13     0.000053
    14    -0.000218
    15     0.000036
Sym=     2a
Ene=   -0.921930E+00
Spin= Alpha
Occup= 1.975800
     1     0.201225
     2     0.450609
     3     0.313386
     4    -0.394587
     5     0.062973
     6    -0.255325
     7    -0.281110
     8     0.044863
     9    -0.181896
    10     0.005965
    11     0.006102
    12     0.006047
    13     0.000024
    14    -0.000104
    15     0.000017
Sym=     3a
Ene=   -0.921733E+00
Spin= Alpha
Occup= 1.975788
     1     0.201174
     2     0.450469
     3     0.313311
     4     0.394701
     5    -0.062992
     6     0.255398
     7     0.281194
     8    -0.044877
     9     0.181953
    10     0.005962
    11     0.006094
    12     0.006042
    13     0.000027
    14    -0.000104
    15     0.000016
Sym=     4a
Ene=   -0.372425E+00
Spin= Alpha
Occup= 1.000000
     1    -0.000001
     2    -0.000002
     3    -0.000001
     4    -0.267228
     5     0.401593
     6     0.512031
     7    -0.167307
     8     0.251434
     9     0.320578
    10    -0.000000
    11     0.000002
    12     0.000002
    13    -0.000001
    14    -0.000000
    15    -0.000000
Sym=     5a
Ene=   -0.372425E+00
Spin= Alpha
Occup= 1.000000
     1    -0.000002
     2    -0.000004
     3     0.000001
     4     0.284235
     5     0.569963
     6    -0.298689
     7     0.177957
     8     0.356850
     9    -0.187007
    10     0.000002
    11     0.000001
    12     0.000002
    13    -0.000001
    14     0.000000
    15     0.000001
Sym=     6a
Ene=   -0.441561E-02
Spin= Alpha
Occup= 0.003543
     1     0.000000
     2    -0.000002
     3    -0.000001
     4    -0.110905
     5     0.558837
     6     0.309223
     7     0.129203
     8    -0.651042
     9    -0.360244
    10    -0.174512
    11    -0.140374
    12     0.314890
    13     0.523915
    14     0.215758
    15     0.283766
Sym=     7a
Ene=   -0.141535E-01
Spin= Alpha
Occup= 0.017096
     1     0.262438
     2     1.267299
     3    -1.056600
     4    -0.554239
     5     0.088454
     6    -0.358632
     7     0.619578
     8    -0.098881
     9     0.400910
    10    -0.026319
    11    -0.134741
    12    -0.090988
    13    -0.020501
    14     0.083117
    15    -0.013268
Sym=     8a
Ene=   -0.424833E-03
Spin= Alpha
Occup= 0.000021
     1    -0.000003
     2    -0.000011
     3     0.000004
     4     0.000000
     5    -0.000005
     6    -0.000002
     7    -0.000001
     8     0.000005
     9     0.000002
    10     0.114731
    11    -0.639248
    12     0.524525
    13    -0.438328
    14    -0.312851
    15     0.495353
Sym=     9a
Ene=   -0.441889E-02
Spin= Alpha
Occup= 0.003552
     1    -0.000001
     2    -0.000008
     3     0.000003
     4     0.342436
     5     0.317415
     6    -0.450926
     7    -0.398938
     8    -0.369786
     9     0.525328
    10     0.537508
    11    -0.079524
    12    -0.457979
    13     0.238165
    14    -0.207823
    15     0.251381
Sym=    10a
Ene=   -0.442089E-02
Spin= Alpha
Occup= 0.003556
     1    -0.000002
     2    -0.000003
     3    -0.000002
     4     0.091257
     5    -0.577416
     6    -0.283444
     7    -0.106315
     8     0.672688
     9     0.330212
    10    -0.142944
    11    -0.144403
    12     0.287352
    13     0.535571
    14     0.203009
    15     0.297112
Sym=    11a
Ene=   -0.430192E-03
Spin= Alpha
Occup= 0.000022
     1    -0.000002
     2    -0.000003
     3    -0.000001
     4    -0.000010
     5     0.000002
     6     0.000004
     7     0.000013
     8    -0.000004
     9    -0.000004
    10    -0.240376
    11     0.561371
    12    -0.320990
    13    -0.331672
    14     0.347156
    15     0.672439
Sym=    12a
Ene=   -0.141615E-01
Spin= Alpha
Occup= 0.017118
     1     0.262379
     2     1.267081
     3    -1.056591
     4     0.554288
     5    -0.088455
     6     0.358661
     7    -0.619624
     8     0.098883
     9    -0.400937
    10    -0.026254
    11    -0.134626
    12    -0.090896
    13    -0.020497
    14     0.083093
    15    -0.013256
Sym=    13a
Ene=   -0.441768E-02
Spin= Alpha
Occup= 0.003548
     1     0.000004
     2     0.000007
     3     0.000008
     4     0.348088
     5     0.284572
     6    -0.467761
     7    -0.405519
     8    -0.331526
     9     0.544940
    10    -0.546910
    11     0.071365
    12     0.475524
    13    -0.207790
    14     0.219981
    15    -0.234775
Sym=    14a
Ene=   -0.187105E-02
Spin= Alpha
Occup= 0.000090
     1     0.695821
     2     2.235151
     3     1.050843
     4     0.000029
     5    -0.000007
     6     0.000020
     7    -0.000034
     8     0.000010
     9    -0.000024
    10    -1.475993
    11    -1.355216
    12    -1.403953
    13     0.022842
    14    -0.092604
    15     0.014783
Sym=    15a
Ene=    0.000000E+00
Spin= Alpha
Occup= 0.000000
     1     0.027681
     2    -0.004665
     3     0.358503
     4     0.000016
     5     0.000010
     6     0.000023
     7    -0.000020
     8    -0.000011
     9    -0.000026
    10     0.375208
    11    -0.618005
    12    -0.217233
    13    -0.187822
    14     0.761494
    15    -0.121536
