[Molden Format]
p30-5 set                                                                       
[Atoms] AU
 P        1    15        0.0000        0.0000        0.0000
[GTO]
    1 0
s    5 1.00
    8002.479510600000  0.552555527945E-02
    1203.681359000000  0.413263671710E-01
     273.442270310000  0.186070058991E+00
      76.655541517000  0.477107006766E+00
      23.516927435000  0.432247688783E+00
s    3 1.00
      39.791683439000  0.909541455125E-01
       4.277034332300 -0.550855656186E+00
       1.694025688800 -0.518269979075E+00
s    1 1.00
       0.275676746440  0.100000000000E+01
s    1 1.00
       0.104955900990  0.100000000000E+01
p    5 1.00
     219.507558230000  0.957391014006E-02
      51.274155030000  0.679938519137E-01
      15.921595892000  0.249832097533E+00
       5.506991348100  0.481481790475E+00
       1.953771942600  0.388697985432E+00
p    1 1.00
       0.478033979320  0.100000000000E+01
p    1 1.00
       0.136579526210  0.100000000000E+01
d    1 1.00
       0.450000000000  0.100000000000E+01
 
[MO]
Sym=     1a
Ene=   -0.799330E+02
Spin= Alpha
Occup= 2.000000
     1     0.996596
     2    -0.018472
     3    -0.027318
     4     0.000491
     5    -0.000021
     6    -0.000024
     7    -0.000019
     8    -0.000001
     9    -0.000001
    10    -0.000001
    11     0.000000
    12     0.000000
    13    -0.000000
    14     0.009651
    15     0.009649
    16     0.009651
    17    -0.000000
    18    -0.000002
    19     0.000001
Sym=     2a
Ene=   -0.592318E+01
Spin= Alpha
Occup= 1.999745
     1    -0.147287
     2    -0.518775
     3     0.007541
     4    -0.006921
     5     0.674893
     6     0.185420
     7     0.488622
     8     0.027991
     9     0.007690
    10     0.020271
    11    -0.004464
    12    -0.001228
    13    -0.003228
    14     0.000349
    15     0.000299
    16     0.000320
    17     0.000018
    18     0.000055
    19     0.000012
Sym=     3a
Ene=   -0.592049E+01
Spin= Alpha
Occup= 1.999744
     1     0.146947
     2     0.517503
     3    -0.007506
     4     0.006912
     5     0.500718
     6    -0.688885
     7     0.067456
     8     0.020736
     9    -0.028569
    10     0.002840
    11    -0.003335
    12     0.004558
    13    -0.000411
    14    -0.000322
    15    -0.000358
    16    -0.000286
    17     0.000051
    18    -0.000020
    19     0.000009
Sym=     4a
Ene=   -0.591860E+01
Spin= Alpha
Occup= 1.999743
     1     0.146722
     2     0.516628
     3    -0.007479
     4     0.006909
     5     0.442668
     6     0.638278
     7    -0.356833
     8     0.018306
     9     0.026481
    10    -0.014737
    11    -0.002969
    12    -0.004215
    13     0.002411
    14    -0.000312
    15    -0.000357
    16    -0.000295
    17    -0.000044
    18    -0.000002
    19     0.000036
Sym=     5a
Ene=   -0.592406E+01
Spin= Alpha
Occup= 1.999740
     1    -0.147501
     2    -0.519373
     3     0.007558
     4    -0.006935
     5     0.265100
     6    -0.236714
     7    -0.775777
     8     0.010913
     9    -0.009809
    10    -0.032080
    11    -0.001819
    12     0.001576
    13     0.005216
    14     0.000294
    15     0.000328
    16     0.000337
    17    -0.000003
    18     0.000024
    19     0.000018
Sym=     6a
Ene=   -0.699511E+00
Spin= Alpha
Occup= 1.969350
     1     0.070595
     2     0.458805
     3     0.700568
     4     0.372098
     5    -0.000020
     6    -0.000012
     7     0.000005
     8    -0.000028
     9    -0.000004
    10     0.000021
    11     0.000025
    12     0.000004
    13    -0.000020
    14     0.028641
    15     0.026342
    16     0.029962
    17    -0.000316
    18    -0.003477
    19     0.000505
Sym=     7a
Ene=   -0.201537E+00
Spin= Alpha
Occup= 1.000000
     1    -0.000006
     2    -0.000041
     3    -0.000169
     4     0.000173
     5    -0.149439
     6    -0.199907
     7    -0.022602
     8     0.280897
     9     0.375124
    10     0.041868
    11     0.392943
    12     0.527249
    13     0.060990
    14    -0.000041
    15     0.000062
    16    -0.000038
    17     0.000043
    18    -0.000015
    19    -0.000072
Sym=     8a
Ene=   -0.204854E+00
Spin= Alpha
Occup= 1.000000
     1     0.000008
     2     0.000056
     3     0.000242
     4    -0.000260
     5     0.083954
     6    -0.035598
     7    -0.234464
     8    -0.159332
     9     0.067053
    10     0.442193
    11    -0.216883
    12     0.093246
    13     0.612780
    14    -0.000048
    15     0.000020
    16     0.000068
    17    -0.000032
    18     0.000027
    19     0.000051
Sym=     9a
Ene=   -0.201425E+00
Spin= Alpha
Occup= 1.000000
     1    -0.000003
     2    -0.000021
     3    -0.000090
     4     0.000095
     5    -0.183332
     6     0.146774
     7    -0.087356
     8     0.344441
     9    -0.275468
    10     0.163344
    11     0.482489
    12    -0.386993
    13     0.231868
    14    -0.000027
    15     0.000076
    16    -0.000059
    17    -0.000087
    18    -0.000031
    19    -0.000019
Sym=    10a
Ene=   -0.968390E-02
Spin= Alpha
Occup= 0.030650
     1     0.002754
     2     0.018352
     3     0.075909
     4    -0.081213
     5    -0.000014
     6     0.000590
     7     0.001018
     8     0.000062
     9    -0.002170
    10    -0.003757
    11    -0.000082
    12     0.001860
    13     0.003247
    14    -0.081334
    15     0.500298
    16    -0.401862
    17     0.098803
    18     0.835550
    19    -0.106941
Sym=    11a
Ene=   -0.150986E-02
Spin= Alpha
Occup= 0.000260
     1     0.072109
     2     0.765271
     3     2.324590
     4    -0.237925
     5    -0.095107
     6     0.085388
     7     0.279147
     8     0.347662
     9    -0.311444
    10    -1.018854
    11    -0.303431
    12     0.270252
    13     0.885691
    14    -0.864545
    15    -0.839173
    16    -0.796969
    17    -0.006045
    18     0.000338
    19     0.028016
Sym=    12a
Ene=   -0.149258E-02
Spin= Alpha
Occup= 0.000257
     1     0.071686
     2     0.761133
     3     2.311237
     4    -0.233944
     5     0.158938
     6     0.229501
     7    -0.128079
     8    -0.580078
     9    -0.836635
    10     0.467692
    11     0.504195
    12     0.724992
    13    -0.407050
    14    -0.838762
    15    -0.806150
    16    -0.844761
    17     0.055622
    18    -0.039294
    19    -0.041482
Sym=    13a
Ene=   -0.148613E-02
Spin= Alpha
Occup= 0.000256
     1    -0.071730
     2    -0.761698
     3    -2.312674
     4     0.233234
     5    -0.179903
     6     0.248047
     7    -0.024154
     8     0.656258
     9    -0.904361
    10     0.087547
    11    -0.569642
    12     0.783934
    13    -0.074735
    14     0.826563
    15     0.808732
    16     0.856975
    17     0.073110
    18     0.020352
    19     0.005367
Sym=    14a
Ene=   -0.148344E-02
Spin= Alpha
Occup= 0.000255
     1     0.071856
     2     0.763084
     3     2.316753
     4    -0.233252
     5    -0.242750
     6    -0.067118
     7    -0.176569
     8     0.885008
     9     0.244719
    10     0.643689
    11    -0.767066
    12    -0.212150
    13    -0.557817
    14    -0.792449
    15    -0.893271
    16    -0.811424
    17     0.019194
    18     0.023761
    19     0.023115
Sym=    15a
Ene=   -0.818623E-05
Spin= Alpha
Occup= 0.000000
     1     0.006428
     2     0.171747
     3     0.269613
     4     0.790018
     5    -0.003697
     6     0.010225
     7    -0.010262
     8     0.013512
     9    -0.037357
    10     0.037518
    11    -0.011731
    12     0.032379
    13    -0.032575
    14    -0.875240
    15    -0.530416
    16     0.080451
    17    -0.550096
    18     0.201252
    19    -0.434095
Sym=    16a
Ene=    0.000000E+00
Spin= Alpha
Occup= 0.000000
     1    -0.004114
     2    -0.110163
     3    -0.172886
     4    -0.507137
     5     0.020670
     6     0.023537
     7    -0.006276
     8    -0.075621
     9    -0.086013
    10     0.023014
    11     0.065782
    12     0.074611
    13    -0.020140
    14     0.679245
    15    -0.228999
    16     0.400382
    17    -0.504558
    18     0.379268
    19     0.491161
Sym=    17a
Ene=    0.000000E+00
Spin= Alpha
Occup= 0.000000
     1    -0.004078
     2    -0.109442
     3    -0.171532
     4    -0.504548
     5     0.012509
     6    -0.012157
     7     0.015270
     8    -0.045717
     9     0.044433
    10    -0.055819
    11     0.039667
    12    -0.038554
    13     0.048453
    14     0.634793
    15    -0.347898
    16     0.558809
    17     0.403303
    18     0.232318
    19    -0.563548
Sym=    18a
Ene=    0.000000E+00
Spin= Alpha
Occup= 0.000000
     1    -0.004039
     2    -0.107715
     3    -0.169491
     4    -0.494384
     5    -0.022356
     6     0.013764
     7     0.003898
     8     0.081766
     9    -0.050308
    10    -0.014320
    11    -0.071075
    12     0.043663
    13     0.012582
    14     0.716818
    15     0.435711
    16    -0.322140
    17    -0.504154
    18    -0.240373
    19    -0.486732
Sym=    19a
Ene=    0.000000E+00
Spin= Alpha
Occup= 0.000000
     1     0.013193
     2     0.353710
     3     0.554413
     4     1.630237
     5     0.005285
     6     0.003119
     7     0.009502
     8    -0.019258
     9    -0.011394
    10    -0.034784
    11     0.016573
    12     0.009872
    13     0.030306
    14    -0.338902
    15    -1.151919
    16    -1.241706
    17     0.085931
    18     0.056779
    19     0.036367
