[Molden Format]
p30-5 set                                                                       
[Atoms] AU
 S        1    16        0.0000        0.0000        0.0000
[GTO]
    1 0
s    5 1.00
    9184.930301000000 -0.547294661347E-02
    1381.510550300000 -0.409544021551E-01
     313.871475800000 -0.184758289562E+00
      88.053870623000 -0.475672806440E+00
      27.039914905000 -0.434951535842E+00
s    3 1.00
      45.648731303000 -0.919040458089E-01
       4.966452232600  0.556987772145E+00
       2.011624204700  0.511154682985E+00
s    1 1.00
       0.356610770130  0.100000000000E+01
s    1 1.00
       0.135072214770  0.100000000000E+01
p    5 1.00
     261.982334390000 -0.918305465927E-02
      61.306894736000 -0.659022265260E-01
      19.103729887000 -0.245877845187E+00
       6.656772037800 -0.482314710760E+00
       2.395963516100 -0.389563143514E+00
p    1 1.00
       0.617761616790  0.100000000000E+01
p    1 1.00
       0.169933768710  0.100000000000E+01
d    1 1.00
       0.550000000000  0.100000000000E+01
 
[MO]
Sym=     1a
Ene=   -0.919663E+02
Spin= Alpha
Occup= 2.000000
     1     0.995572
     2    -0.021996
     3     0.025798
     4     0.000509
     5    -0.000054
     6     0.000092
     7     0.000092
     8     0.000003
     9    -0.000009
    10    -0.000001
    11     0.000002
    12    -0.000004
    13     0.000000
    14    -0.009297
    15    -0.009295
    16    -0.009299
    17    -0.000004
    18    -0.000002
    19     0.000002
Sym=     2a
Ene=   -0.667361E+01
Spin= Alpha
Occup= 1.999921
     1     0.005612
     2     0.019448
     3     0.000991
     4     0.000078
     5    -0.524199
     6     0.755996
     7     0.366164
     8     0.016073
     9    -0.023553
    10    -0.011847
    11    -0.009262
    12     0.013002
    13     0.005875
    14     0.000086
    15     0.000061
    16    -0.000046
    17    -0.000007
    18     0.000017
    19    -0.000044
Sym=     3a
Ene=   -0.744442E+01
Spin= Alpha
Occup= 1.999821
     1     0.174936
     2     0.599946
     3     0.005172
     4    -0.010235
     5    -0.535541
     6    -0.526444
     7     0.289981
     8     0.023595
     9     0.022342
    10    -0.012726
    11    -0.002756
    12    -0.003807
    13     0.001501
    14     0.000102
    15     0.000012
    16     0.000140
    17     0.000171
    18     0.000059
    19    -0.000093
Sym=     4a
Ene=   -0.744951E+01
Spin= Alpha
Occup= 1.999815
     1     0.174930
     2     0.598783
     3     0.008954
     4    -0.008355
     5     0.635804
     6     0.210128
     7     0.445160
     8    -0.027143
     9    -0.009889
    10    -0.019607
    11     0.004393
    12     0.000411
    13     0.002335
    14     0.000180
    15     0.000082
    16     0.000186
    17     0.000138
    18     0.000077
    19    -0.000057
Sym=     5a
Ene=   -0.745602E+01
Spin= Alpha
Occup= 1.999807
     1    -0.174990
     2    -0.597029
     3    -0.014384
     4     0.005664
     5     0.083613
     6    -0.288737
     7     0.744370
     8    -0.003377
     9     0.012215
    10    -0.032539
    11     0.000817
    12    -0.002159
    13     0.004272
    14    -0.000219
    15    -0.000189
    16    -0.000320
    17    -0.000063
    18    -0.000031
    19     0.000072
Sym=     6a
Ene=   -0.647767E+00
Spin= Alpha
Occup= 1.982126
     1    -0.054435
     2    -0.355617
     3     0.516311
     4     0.280239
     5     0.091960
     6    -0.131437
     7    -0.053266
     8     0.179803
     9    -0.246360
    10    -0.110625
    11     0.257832
    12    -0.355733
    13    -0.157194
    14     0.012362
    15     0.015137
    16     0.014303
    17    -0.001165
    18    -0.000047
    19    -0.001549
Sym=     7a
Ene=   -0.632014E+00
Spin= Alpha
Occup= 1.982089
     1    -0.052252
     2    -0.342502
     3     0.500010
     4     0.268668
     5    -0.096885
     6     0.129648
     7     0.062389
     8    -0.184741
     9     0.258542
    10     0.109627
    11    -0.266160
    12     0.369931
    13     0.160080
    14     0.015079
    15     0.012890
    16     0.013228
    17     0.000640
    18    -0.000319
    19     0.001338
Sym=     8a
Ene=   -0.245873E+00
Spin= Alpha
Occup= 1.000000
     1    -0.000468
     2    -0.002793
     3     0.005861
     4    -0.002570
     5     0.066419
     6    -0.063106
     7     0.253809
     8     0.121764
     9    -0.115719
    10     0.464497
    11     0.158877
    12    -0.151062
    13     0.609961
    14     0.000778
    15     0.001121
    16     0.000543
    17    -0.002016
    18    -0.001312
    19     0.001521
Sym=     9a
Ene=   -0.245425E+00
Spin= Alpha
Occup= 1.000000
     1     0.000307
     2     0.001817
     3    -0.003687
     4     0.001496
     5     0.215087
     6     0.162237
     7    -0.015833
     8     0.393696
     9     0.297003
    10    -0.028942
    11     0.516548
    12     0.389562
    13    -0.038279
    14     0.000011
    15    -0.001709
    16     0.000037
    17     0.000883
    18     0.001119
    19    -0.001051
Sym=    10a
Ene=   -0.901468E-02
Spin= Alpha
Occup= 0.017911
     1     0.029830
     2     0.236824
     3    -0.868158
     4     0.697328
     5     0.112114
     6    -0.181311
     7    -0.053414
     8     0.384430
     9    -0.620980
    10    -0.183518
    11    -0.326779
    12     0.526859
    13     0.156562
    14     0.261698
    15    -0.427662
    16     0.313563
    17     0.532233
    18     0.059067
    19    -0.046174
Sym=    11a
Ene=   -0.892585E-02
Spin= Alpha
Occup= 0.017874
     1    -0.032952
     2    -0.261009
     3     0.957875
     4    -0.773051
     5     0.127910
     6    -0.152244
     7    -0.099233
     8     0.438082
     9    -0.522069
    10    -0.339143
    11    -0.371602
    12     0.443805
    13     0.286547
    14     0.114354
    15    -0.106986
    16    -0.165045
    17    -0.295527
    18    -0.315040
    19     0.512340
Sym=    12a
Ene=   -0.141162E-02
Spin= Alpha
Occup= 0.000193
     1     0.080854
     2     0.882364
     3    -2.451655
     4     0.051309
     5    -0.029678
     6     0.108574
     7    -0.283338
     8    -0.101953
     9     0.372801
    10    -0.972982
    11     0.088537
    12    -0.323655
    13     0.845302
    14     0.971242
    15     0.998328
    16     0.870007
    17    -0.053908
    18    -0.038316
    19     0.076922
Sym=    13a
Ene=   -0.135450E-02
Spin= Alpha
Occup= 0.000185
     1     0.078651
     2     0.866134
     3    -2.389444
     4    -0.006905
     5     0.238190
     6     0.084387
     7     0.165689
     8     0.817955
     9     0.289695
    10     0.569158
    11    -0.710236
    12    -0.251768
    13    -0.494840
    14     0.919830
    15     1.030193
    16     0.890519
    17    -0.138206
    18    -0.117639
    19     0.061598
Sym=    14a
Ene=   -0.130670E-02
Spin= Alpha
Occup= 0.000179
     1    -0.076963
     2    -0.852907
     3     2.341464
     4     0.045454
     5     0.198033
     6     0.197128
     7    -0.103535
     8     0.680150
     9     0.677150
    10    -0.355744
    11    -0.591084
    12    -0.588324
    13     0.309475
    14    -0.929634
    15    -1.009115
    16    -0.894545
    17     0.215000
    18     0.029002
    19    -0.145351
Sym=    15a
Ene=   -0.482076E-03
Spin= Alpha
Occup= 0.000079
     1    -0.000875
     2    -0.015839
     3     0.029713
     4     0.046294
     5     0.063406
     6    -0.108697
     7    -0.047563
     8     0.217416
     9    -0.372696
    10    -0.163246
    11    -0.185085
    12     0.318121
    13     0.139779
    14     0.336322
    15     0.198445
    16    -0.628817
    17    -0.222835
    18    -0.003305
    19    -0.676572
Sym=    16a
Ene=   -0.525762E-05
Spin= Alpha
Occup= 0.000000
     1    -0.016617
     2    -0.404302
     3     0.603665
     4     1.677024
     5     0.047142
     6    -0.056872
     7    -0.040106
     8     0.161900
     9    -0.195347
    10    -0.137979
    11    -0.138579
    12     0.166913
    13     0.119053
    14    -1.368470
    15    -0.566622
    16    -0.901737
    17    -0.309722
    18    -0.016855
    19     0.151488
Sym=    17a
Ene=    0.000000E+00
Spin= Alpha
Occup= 0.000000
     1    -0.005244
     2    -0.128715
     3     0.190435
     4     0.538929
     5    -0.016442
     6     0.056561
     7     0.038306
     8    -0.056469
     9     0.194696
    10     0.131659
    11     0.047586
    12    -0.167947
    13    -0.113175
    14     0.327721
    15    -0.394528
    16    -0.840124
    17    -0.004962
    18     0.497810
    19     0.436067
Sym=    18a
Ene=    0.000000E+00
Spin= Alpha
Occup= 0.000000
     1     0.004450
     2     0.114473
     3    -0.164279
     4    -0.496389
     5     0.068303
     6    -0.051325
     7    -0.040955
     8     0.234710
     9    -0.175968
    10    -0.140667
    11    -0.201872
    12     0.149111
    13     0.120613
    14     0.051237
    15     0.099147
    16     0.672121
    17    -0.401405
    18     0.741747
    19    -0.108841
Sym=    19a
Ene=    0.000000E+00
Spin= Alpha
Occup= 0.000000
     1    -0.004931
     2    -0.126092
     3     0.181973
     4     0.543735
     5    -0.045711
     6     0.071323
     7     0.019667
     8    -0.156477
     9     0.244655
    10     0.067436
    11     0.132482
    12    -0.208758
    13    -0.057193
    14     0.104753
    15    -1.022471
    16     0.014153
    17    -0.504399
    18    -0.287769
    19    -0.147753
