[Molden Format]
p30-5 set                                                                       
[Atoms] AU
 SI       1    14        0.0000        0.0000        0.0000
[GTO]
    1 0
s    5 1.00
    6903.711868600000  0.558446588743E-02
    1038.434641900000  0.417422844355E-01
     235.875814800000  0.187528023742E+00
      66.069385169000  0.478678596587E+00
      20.247945761000  0.429256952162E+00
s    3 1.00
      34.353481730000  0.898348994648E-01
       3.637078819200 -0.545685958777E+00
       1.400204859900 -0.524810829267E+00
s    1 1.00
       0.204844148050  0.100000000000E+01
s    1 1.00
       0.077994095468  0.100000000000E+01
p    5 1.00
     179.839073730000  0.101334983789E-01
      41.907258846000  0.710290410957E-01
      12.955294367000  0.255839142169E+00
       4.438326739300  0.481498047149E+00
       1.546224790400  0.385211960064E+00
p    1 1.00
       0.356076123020  0.100000000000E+01
p    1 1.00
       0.100085137620  0.100000000000E+01
d    1 1.00
       0.350000000000  0.100000000000E+01
 
[MO]
Sym=     1a
Ene=   -0.687812E+02
Spin= Alpha
Occup= 1.999999
     1    -0.995295
     2     0.022783
     3     0.027378
     4    -0.001076
     5     0.000043
     6    -0.000039
     7    -0.000039
     8     0.000002
     9    -0.000002
    10    -0.000002
    11    -0.000000
    12     0.000000
    13     0.000001
    14    -0.009613
    15    -0.009621
    16    -0.009616
    17     0.000002
    18     0.000001
    19    -0.000006
Sym=     2a
Ene=   -0.425688E+01
Spin= Alpha
Occup= 1.999824
     1     0.016961
     2     0.060077
     3    -0.001272
     4     0.000499
     5    -0.169690
     6     0.809926
     7     0.535520
     8    -0.006832
     9     0.032622
    10     0.021543
    11     0.001203
    12    -0.005781
    13    -0.003810
    14    -0.000121
    15    -0.000066
    16     0.000058
    17    -0.000034
    18     0.000119
    19    -0.000099
Sym=     3a
Ene=   -0.487783E+01
Spin= Alpha
Occup= 1.999685
     1     0.168069
     2     0.593250
     3    -0.012954
     4     0.005583
     5    -0.750886
     6    -0.273952
     7     0.115249
     8    -0.029015
     9    -0.010650
    10     0.004417
    11     0.005089
    12     0.001882
    13    -0.000765
    14    -0.000302
    15    -0.000333
    16    -0.000276
    17    -0.000005
    18     0.000020
    19    -0.000065
Sym=     4a
Ene=   -0.487935E+01
Spin= Alpha
Occup= 1.999685
     1    -0.168317
     2    -0.593972
     3     0.012970
     4    -0.005587
     5    -0.594480
     6     0.240066
     7    -0.490242
     8    -0.022991
     9     0.009343
    10    -0.018906
    11     0.004036
    12    -0.001650
    13     0.003312
    14     0.000275
    15     0.000333
    16     0.000306
    17    -0.000054
    18     0.000043
    19     0.000055
Sym=     5a
Ene=   -0.487899E+01
Spin= Alpha
Occup= 1.999685
     1     0.168270
     2     0.593806
     3    -0.012964
     4     0.005585
     5     0.172704
     6     0.431891
     7    -0.659698
     8     0.006685
     9     0.016653
    10    -0.025524
    11    -0.001172
    12    -0.002916
    13     0.004483
    14    -0.000222
    15    -0.000355
    16    -0.000338
    17     0.000014
    18     0.000032
    19    -0.000023
Sym=     6a
Ene=   -0.533159E+00
Spin= Alpha
Occup= 1.841667
     1     0.068318
     2     0.432487
     3     0.693261
     4     0.347666
     5     0.000021
     6     0.000042
     7     0.000032
     8    -0.000041
     9    -0.000057
    10    -0.000041
    11    -0.000122
    12     0.000205
    13     0.000105
    14     0.030455
    15     0.041938
    16     0.034959
    17    -0.002971
    18    -0.001924
    19     0.009010
Sym=     7a
Ene=   -0.160524E+00
Spin= Alpha
Occup= 1.000000
     1    -0.000003
     2    -0.000017
     3    -0.000073
     4     0.000076
     5    -0.034885
     6    -0.127999
     7     0.186424
     8     0.069660
     9     0.255794
    10    -0.372653
    11     0.102428
    12     0.375265
    13    -0.546199
    14    -0.000092
    15     0.000000
    16     0.000077
    17     0.000045
    18    -0.000077
    19    -0.000010
Sym=     8a
Ene=   -0.160481E+00
Spin= Alpha
Occup= 1.000000
     1     0.000012
     2     0.000083
     3     0.000226
     4    -0.000107
     5    -0.222498
     6    -0.014030
     7    -0.051354
     8     0.444640
     9     0.027974
    10     0.102678
    11     0.652279
    12     0.041351
    13     0.150420
    14     0.000011
    15     0.000017
    16    -0.000002
    17    -0.000073
    18     0.000061
    19    -0.000011
Sym=     9a
Ene=   -0.482102E-01
Spin= Alpha
Occup= 0.158333
     1     0.000114
     2     0.000808
     3     0.003410
     4    -0.003209
     5    -0.048674
     6     0.228569
     7     0.147996
     8     0.112995
     9    -0.529835
    10    -0.343237
    11     0.087471
    12    -0.413337
    13    -0.267051
    14    -0.002474
    15    -0.000093
    16     0.002680
    17    -0.001520
    18     0.002918
    19    -0.002035
Sym=    10a
Ene=   -0.154194E-02
Spin= Alpha
Occup= 0.000315
     1    -0.081328
     2    -0.834834
     3    -2.730201
     4     0.345642
     5    -0.057419
     6    -0.148240
     7     0.220199
     8     0.220490
     9     0.568319
    10    -0.845665
    11    -0.190834
    12    -0.489216
    13     0.732104
    14     1.027521
    15     0.955839
    16     0.932136
    17    -0.001917
    18     0.018970
    19     0.027848
Sym=    11a
Ene=   -0.154087E-02
Spin= Alpha
Occup= 0.000315
     1     0.081365
     2     0.835186
     3     2.731431
     4    -0.346063
     5     0.199129
     6    -0.076418
     7     0.167911
     8    -0.764527
     9     0.294362
    10    -0.643862
    11     0.661272
    12    -0.257343
    13     0.554585
    14    -0.975015
    15    -0.976849
    16    -0.964603
    17    -0.038967
    18     0.055787
    19     0.003407
Sym=    12a
Ene=   -0.153947E-02
Spin= Alpha
Occup= 0.000315
     1    -0.081299
     2    -0.834322
     3    -2.729057
     4     0.347301
     5     0.253631
     6     0.090696
     7    -0.039913
     8    -0.973238
     9    -0.349296
    10     0.152403
    11     0.840260
    12     0.305102
    13    -0.129510
    14     0.947683
    15     0.974932
    16     0.989311
    17    -0.018070
    18     0.005136
    19    -0.012562
Sym=    13a
Ene=   -0.674584E-03
Spin= Alpha
Occup= 0.000176
     1    -0.008146
     2    -0.099635
     3    -0.285236
     4    -0.099911
     5     0.023499
     6    -0.168316
     7    -0.109406
     8    -0.096748
     9     0.677567
    10     0.440339
    11     0.101644
    12    -0.670367
    13    -0.435487
    14    -0.166580
    15     0.094862
    16     0.552482
    17    -0.152738
    18     0.460837
    19    -0.349239
Sym=    14a
Ene=   -0.360335E-04
Spin= Alpha
Occup= 0.000001
     1     0.003976
     2     0.077655
     3     0.147981
     4     0.318723
     5    -0.019484
     6     0.078712
     7     0.031693
     8     0.077967
     9    -0.316876
    10    -0.130942
    11    -0.075561
    12     0.312230
    13     0.137938
    14     0.091481
    15    -0.606367
    16    -0.067337
    17     0.147935
    18     0.763614
    19     0.319223
Sym=    15a
Ene=    0.000000E+00
Spin= Alpha
Occup= 0.000000
     1     0.010145
     2     0.230777
     3     0.402376
     4     1.085677
     5    -0.034361
     6     0.098695
     7     0.073605
     8     0.136703
     9    -0.400647
    10    -0.296788
    11    -0.130358
    12     0.403593
    13     0.293683
    14    -1.170847
    15    -0.326774
    16    -0.372601
    17    -0.383734
    18     0.076597
    19    -0.180123
Sym=    16a
Ene=    0.000000E+00
Spin= Alpha
Occup= 0.000000
     1    -0.008265
     2    -0.176867
     3    -0.311881
     4    -0.806965
     5    -0.009978
     6     0.031864
     7     0.033457
     8     0.040070
     9    -0.130415
    10    -0.133856
    11    -0.039199
    12     0.134117
    13     0.129632
    14    -0.216265
    15     0.588068
    16     1.023524
    17     0.291390
    18    -0.044398
    19     0.424156
Sym=    17a
Ene=    0.000000E+00
Spin= Alpha
Occup= 0.000000
     1     0.000114
     2     0.038094
     3     0.033631
     4     0.304142
     5     0.018429
     6    -0.082595
     7    -0.066172
     8    -0.074663
     9     0.335399
    10     0.266057
    11     0.074794
    12    -0.338091
    13    -0.261223
    14    -0.251816
    15     0.395482
    16    -0.582297
    17    -0.259386
    18     0.147587
    19     0.651334
Sym=    18a
Ene=    0.000000E+00
Spin= Alpha
Occup= 0.000000
     1     0.004018
     2     0.101667
     3     0.164985
     4     0.520246
     5     0.011809
     6    -0.052845
     7    -0.034719
     8    -0.047727
     9     0.214029
    10     0.140499
    11     0.047505
    12    -0.214257
    13    -0.140337
    14    -0.146947
    15    -0.938996
    16     0.223286
    17    -0.338038
    18    -0.394185
    19     0.372163
Sym=    19a
Ene=    0.000000E+00
Spin= Alpha
Occup= 0.000000
     1     0.010347
     2     0.237985
     3     0.406194
     4     1.141989
     5     0.023240
     6    -0.067123
     7    -0.034516
     8    -0.092312
     9     0.271559
    10     0.141350
    11     0.087597
    12    -0.271009
    13    -0.145566
    14    -0.761332
    15    -0.579977
    16    -0.599546
    17     0.734313
    18    -0.126531
    19     0.001981
