[Molden Format]
p30-5 set                                                                       
[Atoms] AU
 HE       1     2        0.0000        0.0000       -1.2687
 HE       2     2        0.0000        0.0000        1.2687
[GTO]
    1 0
s    3 1.00
      38.354936737000  0.401838903516E-01
       5.768908147900  0.261391344439E+00
       1.239940703500  0.793039157864E+00
s    1 1.00
       0.297578159530  0.100000000000E+01
p    1 1.00
       1.000000000000  0.100000000000E+01
 
    2 0
s    3 1.00
      38.354936737000  0.401838903516E-01
       5.768908147900  0.261391344439E+00
       1.239940703500  0.793039157864E+00
s    1 1.00
       0.297578159530  0.100000000000E+01
p    1 1.00
       1.000000000000  0.100000000000E+01
 
[MO]
Sym=     1a
Ene=   -0.155548E+01
Spin= Alpha
Occup= 1.971676
     1     0.433410
     2     0.287533
     3    -0.000000
     4    -0.000005
     5     0.023352
     6     0.433386
     7     0.287554
     8    -0.000014
     9     0.000001
    10    -0.023361
Sym=     2a
Ene=   -0.800670E+00
Spin= Alpha
Occup= 1.000000
     1     0.518292
     2     0.324369
     3    -0.000014
     4     0.000000
     5    -0.003201
     6    -0.518291
     7    -0.324378
     8    -0.000001
     9    -0.000005
    10    -0.003187
Sym=     3a
Ene=   -0.120862E-01
Spin= Alpha
Occup= 0.011914
     1     0.751901
     2    -0.640833
     3    -0.000001
     4    -0.000006
     5    -0.223056
     6     0.751917
     7    -0.640836
     8    -0.000015
     9    -0.000000
    10     0.223041
Sym=     4a
Ene=   -0.391823E-02
Spin= Alpha
Occup= 0.003447
     1    -0.314804
     2     0.379204
     3     0.000005
     4     0.000008
     5    -0.610180
     6    -0.314612
     7     0.378950
     8     0.000017
     9    -0.000002
    10     0.610135
Sym=     5a
Ene=   -0.470606E-02
Spin= Alpha
Occup= 0.004207
     1     0.708300
     2    -0.988191
     3    -0.000014
     4     0.000001
     5     0.219681
     6    -0.708373
     7     0.988271
     8    -0.000000
     9    -0.000005
    10     0.219840
Sym=     6a
Ene=   -0.305996E-02
Spin= Alpha
Occup= 0.002507
     1    -0.000020
     2     0.000007
     3    -0.625531
     4     0.299117
     5    -0.000015
     6    -0.000007
     7     0.000009
     8    -0.625554
     9     0.299127
    10    -0.000003
Sym=     7a
Ene=   -0.305996E-02
Spin= Alpha
Occup= 0.002507
     1     0.000020
     2    -0.000007
     3     0.299121
     4     0.625530
     5     0.000012
     6     0.000007
     7    -0.000009
     8     0.299122
     9     0.625555
    10     0.000003
Sym=     8a
Ene=   -0.207742E-02
Spin= Alpha
Occup= 0.001552
     1     0.000005
     2    -0.000006
     3    -0.287307
     4     0.662041
     5    -0.000002
     6     0.000019
     7    -0.000007
     8     0.287300
     9    -0.662014
    10    -0.000010
Sym=     9a
Ene=   -0.207742E-02
Spin= Alpha
Occup= 0.001552
     1    -0.000005
     2     0.000007
     3     0.662037
     4     0.287305
     5     0.000008
     6    -0.000015
     7     0.000003
     8    -0.662018
     9    -0.287303
    10     0.000011
Sym=    10a
Ene=   -0.106743E-02
Spin= Alpha
Occup= 0.000639
     1    -0.342854
     2     0.684607
     3    -0.000016
     4    -0.000001
     5     0.818313
     6     0.342875
     7    -0.684616
     8     0.000000
     9    -0.000003
    10     0.818308
