[Molden Format]
p30-5 set                                                                       
[Atoms] AU
 HE       1     2        0.0000        0.0000       -1.5225
 HE       2     2        0.0000        0.0000        1.5225
[GTO]
    1 0
s    3 1.00
      38.354936737000  0.401838903516E-01
       5.768908147900  0.261391344439E+00
       1.239940703500  0.793039157864E+00
s    1 1.00
       0.297578159530  0.100000000000E+01
p    1 1.00
       1.000000000000  0.100000000000E+01
 
    2 0
s    3 1.00
      38.354936737000  0.401838903516E-01
       5.768908147900  0.261391344439E+00
       1.239940703500  0.793039157864E+00
s    1 1.00
       0.297578159530  0.100000000000E+01
p    1 1.00
       1.000000000000  0.100000000000E+01
 
[MO]
Sym=     1a
Ene=   -0.147217E+01
Spin= Alpha
Occup= 1.968986
     1     0.436371
     2     0.308464
     3    -0.000009
     4     0.000003
     5     0.015031
     6     0.436383
     7     0.308492
     8     0.000004
     9     0.000011
    10    -0.015016
Sym=     2a
Ene=   -0.813896E+00
Spin= Alpha
Occup= 1.000000
     1     0.505767
     2     0.304938
     3    -0.000014
     4    -0.000006
     5     0.001726
     6    -0.505730
     7    -0.304938
     8    -0.000001
     9     0.000002
    10     0.001738
Sym=     3a
Ene=   -0.129738E-01
Spin= Alpha
Occup= 0.014626
     1     0.753056
     2    -0.693578
     3     0.000004
     4     0.000009
     5    -0.176183
     6     0.753166
     7    -0.693698
     8     0.000011
     9    -0.000004
    10     0.176193
Sym=     4a
Ene=   -0.263909E-02
Spin= Alpha
Occup= 0.002237
     1     0.000005
     2    -0.000005
     3    -0.304448
     4    -0.633962
     5     0.000002
     6     0.000019
     7    -0.000008
     8    -0.304716
     9    -0.634781
    10    -0.000010
Sym=     5a
Ene=   -0.150509E-02
Spin= Alpha
Occup= 0.001078
     1     0.325037
     2    -0.491463
     3     0.000013
     4     0.000003
     5    -0.721689
     6    -0.324998
     7     0.491437
     8     0.000001
     9    -0.000003
    10    -0.721679
Sym=     6a
Ene=   -0.263909E-02
Spin= Alpha
Occup= 0.002237
     1    -0.000007
     2    -0.000004
     3    -0.633955
     4     0.304446
     5    -0.000015
     6     0.000008
     7    -0.000007
     8    -0.634788
     9     0.304718
    10    -0.000001
Sym=     7a
Ene=   -0.453956E-02
Spin= Alpha
Occup= 0.004402
     1    -0.730260
     2     0.942158
     3     0.000013
     4     0.000005
     5    -0.208440
     6     0.730313
     7    -0.942224
     8     0.000001
     9    -0.000003
    10    -0.208791
Sym=     8a
Ene=   -0.219980E-02
Spin= Alpha
Occup= 0.001805
     1     0.000010
     2    -0.000001
     3     0.141342
     4     0.696793
     5     0.000022
     6    -0.000004
     7     0.000003
     8    -0.141065
     9    -0.695985
    10    -0.000010
Sym=     9a
Ene=   -0.219980E-02
Spin= Alpha
Occup= 0.001805
     1     0.000017
     2    -0.000005
     3     0.696799
     4    -0.141345
     5     0.000010
     6     0.000003
     7    -0.000004
     8    -0.695980
     9     0.141062
    10     0.000003
Sym=    10a
Ene=   -0.316988E-02
Spin= Alpha
Occup= 0.002826
     1     0.255405
     2    -0.300754
     3    -0.000010
     4    -0.000005
     5     0.663054
     6     0.255033
     7    -0.300286
     8     0.000006
     9     0.000024
    10    -0.662951
