[Molden Format]
p30-5 set                                                                       
[Atoms] AU
 HE       1     2        0.0000        0.0000       -1.0150
 HE       2     2        0.0000        0.0000        1.0150
[GTO]
    1 0
s    3 1.00
      38.354936737000  0.401838903516E-01
       5.768908147900  0.261391344439E+00
       1.239940703500  0.793039157864E+00
s    1 1.00
       0.297578159530  0.100000000000E+01
p    1 1.00
       1.000000000000  0.100000000000E+01
 
    2 0
s    3 1.00
      38.354936737000  0.401838903516E-01
       5.768908147900  0.261391344439E+00
       1.239940703500  0.793039157864E+00
s    1 1.00
       0.297578159530  0.100000000000E+01
p    1 1.00
       1.000000000000  0.100000000000E+01
 
[MO]
Sym=     1a
Ene=   -0.169066E+01
Spin= Alpha
Occup= 1.975510
     1     0.437478
     2     0.250965
     3     0.000004
     4     0.000005
     5     0.031741
     6     0.437455
     7     0.250994
     8    -0.000013
     9     0.000006
    10    -0.031751
Sym=     2a
Ene=   -0.764148E+00
Spin= Alpha
Occup= 1.000000
     1     0.534283
     2     0.371975
     3    -0.000004
     4    -0.000004
     5    -0.014303
     6    -0.534278
     7    -0.371989
     8     0.000013
     9    -0.000006
    10    -0.014310
Sym=     3a
Ene=   -0.499685E-02
Spin= Alpha
Occup= 0.004048
     1     0.271534
     2    -0.385079
     3     0.000002
     4     0.000005
     5     0.558499
     6     0.269860
     7    -0.382543
     8    -0.000014
     9     0.000006
    10    -0.557938
Sym=     4a
Ene=   -0.930972E-02
Spin= Alpha
Occup= 0.007446
     1     0.786432
     2    -0.631690
     3     0.000004
     4     0.000003
     5    -0.243636
     6     0.786472
     7    -0.631726
     8    -0.000012
     9     0.000006
    10     0.243599
Sym=     5a
Ene=   -0.392162E-02
Spin= Alpha
Occup= 0.003063
     1    -0.000005
     2     0.000015
     3     0.032642
     4     0.665138
     5     0.000014
     6    -0.000015
     7    -0.000005
     8     0.032670
     9     0.665167
    10     0.000020
Sym=     6a
Ene=   -0.392162E-02
Spin= Alpha
Occup= 0.003063
     1     0.000003
     2    -0.000007
     3     0.665154
     4    -0.032660
     5    -0.000006
     6     0.000019
     7    -0.000005
     8     0.665152
     9    -0.032652
    10    -0.000014
Sym=     7a
Ene=   -0.528827E-02
Spin= Alpha
Occup= 0.004147
     1    -0.710805
     2     1.066555
     3     0.000003
     4     0.000004
     5    -0.240275
     6     0.711407
     7    -1.067421
     8    -0.000014
     9     0.000006
    10    -0.241609
Sym=     8a
Ene=   -0.184920E-02
Spin= Alpha
Occup= 0.001199
     1    -0.000006
     2     0.000020
     3     0.571813
     4     0.496041
     5     0.000019
     6    -0.000016
     7    -0.000009
     8    -0.571808
     9    -0.496006
    10     0.000025
Sym=     9a
Ene=   -0.184920E-02
Spin= Alpha
Occup= 0.001199
     1    -0.000004
     2     0.000009
     3     0.496020
     4    -0.571812
     5     0.000008
     6    -0.000021
     7     0.000004
     8    -0.496027
     9     0.571809
    10     0.000013
Sym=    10a
Ene=   -0.649498E-03
Spin= Alpha
Occup= 0.000325
     1    -0.245449
     2     1.002864
     3    -0.000010
     4    -0.000015
     5     1.052713
     6     0.245475
     7    -1.002878
     8     0.000020
     9    -0.000005
    10     1.052713
