[Molden Format]
p30-5 set                                                                       
[Atoms] AU
 HE       1     2        0.0000        0.0000       -1.7762
 HE       2     2        0.0000        0.0000        1.7762
[GTO]
    1 0
s    3 1.00
      38.354936737000  0.401838903516E-01
       5.768908147900  0.261391344439E+00
       1.239940703500  0.793039157864E+00
s    1 1.00
       0.297578159530  0.100000000000E+01
p    1 1.00
       1.000000000000  0.100000000000E+01
 
    2 0
s    3 1.00
      38.354936737000  0.401838903516E-01
       5.768908147900  0.261391344439E+00
       1.239940703500  0.793039157864E+00
s    1 1.00
       0.297578159530  0.100000000000E+01
p    1 1.00
       1.000000000000  0.100000000000E+01
 
[MO]
Sym=     1a
Ene=   -0.141820E+01
Spin= Alpha
Occup= 1.967748
     1     0.441334
     2     0.319392
     3    -0.000005
     4     0.000002
     5     0.010444
     6     0.441332
     7     0.319356
     8    -0.000003
     9    -0.000013
    10    -0.010438
Sym=     2a
Ene=   -0.816023E+00
Spin= Alpha
Occup= 1.000000
     1     0.497110
     2     0.296688
     3     0.000004
     4    -0.000001
     5     0.002685
     6    -0.497157
     7    -0.296673
     8     0.000002
     9     0.000016
    10     0.002693
Sym=     3a
Ene=   -0.124509E-01
Spin= Alpha
Occup= 0.015188
     1    -0.763639
     2     0.747319
     3     0.000007
     4    -0.000003
     5     0.129144
     6    -0.763543
     7     0.747233
     8     0.000003
     9     0.000012
    10    -0.129149
Sym=     4a
Ene=   -0.245560E-02
Spin= Alpha
Occup= 0.002168
     1     0.000004
     2    -0.000004
     3     0.682512
     4     0.184638
     5    -0.000002
     6     0.000017
     7    -0.000007
     8     0.681388
     9     0.184340
    10    -0.000011
Sym=     5a
Ene=   -0.272189E-02
Spin= Alpha
Occup= 0.002452
     1     0.179035
     2    -0.212338
     3    -0.000006
     4     0.000003
     5     0.690003
     6     0.179188
     7    -0.212548
     8    -0.000003
     9    -0.000013
    10    -0.689801
Sym=     6a
Ene=   -0.462541E-02
Spin= Alpha
Occup= 0.004772
     1     0.758756
     2    -0.924059
     3     0.000002
     4    -0.000001
     5     0.170397
     6    -0.758802
     7     0.924116
     8     0.000003
     9     0.000017
    10     0.170308
Sym=     7a
Ene=   -0.245560E-02
Spin= Alpha
Occup= 0.002168
     1     0.000003
     2    -0.000001
     3     0.184658
     4    -0.682491
     5     0.000005
     6    -0.000016
     7     0.000006
     8     0.184321
     9    -0.681410
    10     0.000011
Sym=     8a
Ene=   -0.224847E-02
Spin= Alpha
Occup= 0.001968
     1    -0.000004
     2     0.000005
     3    -0.562579
     4     0.428475
     5     0.000003
     6    -0.000018
     7     0.000007
     8     0.563508
     9    -0.429179
    10     0.000013
Sym=     9a
Ene=   -0.224846E-02
Spin= Alpha
Occup= 0.001968
     1    -0.000000
     2     0.000001
     3     0.428470
     4     0.562608
     5     0.000004
     6    -0.000019
     7     0.000008
     8    -0.429184
     9    -0.563479
    10     0.000013
Sym=    10a
Ene=   -0.189327E-02
Spin= Alpha
Occup= 0.001568
     1    -0.248143
     2     0.328721
     3     0.000005
     4    -0.000002
     5     0.697604
     6     0.248094
     7    -0.328671
     8     0.000002
     9     0.000017
    10     0.697824
