p30-5 set                                                                       
ENERGY    PNOF7    /home/ion/p30-5/def2-qzvp/pnof7/ncwo/def2-qzvp.bas                              
Number of atoms                            I                1
Charge                                     I                0
Multiplicity                               I                3
Number of electrons                        I                8
Number of alpha electrons                  I                5
Number of beta electrons                   I                3
Number of basis functions                  I               72
Number of independent functions            I               47
Number of contracted shells                I               17
Highest angular momentum                   I                4
Largest degree of contraction              I                8
Number of primitive shells                 I               29
Virial Ratio                               R      0.000000000000000E+00
Atomic numbers                             I   N=           1
           8
Nuclear charges                            R   N=           1
  8.00000000E+00
Current cartesian coordinates              R   N=           3
  0.00000000E+00  0.00000000E+00  0.00000000E+00
Total Energy                               R     -7.496139521719861E+01
Shell types                                I   N=          17
           0           0           0           0           0           0
           0           1           1           1           1           2
           2           2           3           3           4
Number of primitives per shell             I   N=          17
           8           2           1           1           1           1
           1           5           1           1           1           1
           1           1           1           1           1
Shell to atom map                          I   N=          17
           1           1           1           1           1           1
           1           1           1           1           1           1
           1           1           1           1           1
Coordinates of each shell                  R   N=          51
  0.00000000E+00  0.00000000E+00  0.00000000E+00  0.00000000E+00  0.00000000E+00
  0.00000000E+00  0.00000000E+00  0.00000000E+00  0.00000000E+00  0.00000000E+00
  0.00000000E+00  0.00000000E+00  0.00000000E+00  0.00000000E+00  0.00000000E+00
  0.00000000E+00  0.00000000E+00  0.00000000E+00  0.00000000E+00  0.00000000E+00
  0.00000000E+00  0.00000000E+00  0.00000000E+00  0.00000000E+00  0.00000000E+00
  0.00000000E+00  0.00000000E+00  0.00000000E+00  0.00000000E+00  0.00000000E+00
  0.00000000E+00  0.00000000E+00  0.00000000E+00  0.00000000E+00  0.00000000E+00
  0.00000000E+00  0.00000000E+00  0.00000000E+00  0.00000000E+00  0.00000000E+00
  0.00000000E+00  0.00000000E+00  0.00000000E+00  0.00000000E+00  0.00000000E+00
  0.00000000E+00  0.00000000E+00  0.00000000E+00  0.00000000E+00  0.00000000E+00
  0.00000000E+00
Primitive exponents                        R   N=          29
  1.16506469E+05  1.75043497E+04  3.99345132E+03  1.13300632E+03  3.69995696E+02
  1.33620743E+02  5.20356436E+01  2.14619393E+01  8.98350513E+01  2.64280108E+01
  9.28228246E+00  4.09477285E+00  1.32553491E+00  5.18772308E-01  1.97726765E-01
  1.91152558E+02  4.52333567E+01  1.43534659E+01  5.24223718E+00  2.07924186E+00
  8.42823714E-01  3.36176949E-01  1.28639980E-01  3.77500000E+00  1.30000000E+00
  4.44000000E-01  2.66600000E+00  8.59000000E-01  1.84600000E+00
Contraction coefficients                   R   N=          29
  7.19875758E-05  5.57148772E-04  2.91300317E-03  1.21720511E-02  4.30037618E-02
  1.29647624E-01  3.19696086E-01  5.89314588E-01  9.48480528E-02  9.25363788E-01
  1.00000000E+00  1.00000000E+00  1.00000000E+00  1.00000000E+00  1.00000000E+00
  2.53595741E-03  2.02338243E-02  9.45180200E-02  3.09154328E-01  6.84689495E-01
  1.00000000E+00  1.00000000E+00  1.00000000E+00  1.00000000E+00  1.00000000E+00
  1.00000000E+00  1.00000000E+00  1.00000000E+00  1.00000000E+00
Alpha Orbital Energies                     R   N=          47
 -2.06745521E+01 -9.94434668E-01 -9.04847480E-01 -3.85305204E-01 -3.85285429E-01
 -5.31906954E-03 -1.61167716E-03 -9.02080783E-04 -5.47350330E-04 -5.01843095E-03
 -1.74546289E-03 -5.33399128E-03 -1.46455919E-02 -7.97599075E-03 -1.54817276E-02
 -4.26546590E-03 -1.12065893E-04 -3.40512924E-04 -4.08983418E-04 -4.14546934E-05
 -4.59661647E-03 -4.27765953E-03 -9.77529966E-05 -5.56497717E-04 -3.67570921E-04
 -5.76993436E-05 -4.94912247E-04 -4.16650881E-04 -4.96001399E-05 -4.94855585E-04
 -3.69309022E-04 -4.98315357E-05 -7.57505120E-04 -5.03047435E-03 -1.74081412E-03
 -7.81013574E-04 -5.16084600E-04 -5.79078876E-05 -3.44499177E-04 -1.37720943E-04
 -5.20549236E-04 -1.24868156E-04 -1.55952710E-04 -9.30545177E-05 -5.18217356E-04
 -1.55709464E-04 -8.37283323E-05
Alpha MO coefficients                      R   N=        3384
  5.64118535E-01  3.03394999E-04  3.69907216E-01  1.62555497E-01  6.00221670E-03
 -9.36194663E-03 -6.10945626E-03 -3.18551230E-04 -7.54673127E-05  1.37463653E-04
 -3.24054262E-04 -7.67209603E-05  1.39820408E-04 -2.96309390E-04 -7.01914854E-05
  1.28038475E-04 -1.27409726E-04 -3.01263202E-05  5.53345300E-05 -1.24178655E-03
 -2.70264856E-04 -4.06396436E-04 -2.81587806E-04  5.12402249E-04  1.22166448E-04
 -2.83358322E-03 -7.04740608E-03 -6.47192702E-03  1.22383265E-03 -2.23296610E-03
 -5.26994774E-04 -7.68783688E-04 -5.34975773E-04 -5.62528211E-04 -6.86495750E-05
  1.27018150E-04  2.84117003E-05  1.45816581E-06  1.79561728E-06 -1.63158204E-06
  3.19132053E-06 -8.90550681E-07  8.09463396E-07  1.33347685E-06 -1.88582047E-08
 -1.20723779E-06  9.69069807E-07 -2.08467993E-05  7.21831922E-07 -4.70333648E-06
 -2.60718237E-07 -8.87650559E-06  1.92471340E-05 -1.76912237E-06  8.02518115E-07
 -5.24503183E-07  4.13750568E-06  2.08267724E-03  1.96621740E-04  1.31582922E-03
  1.96871481E-04  2.41166190E-03  8.31906388E-04 -2.04049475E-04  3.72642405E-04
 -4.56837797E-04  6.11062577E-04  8.89750654E-05  7.08183457E-04  8.36630578E-04
 -4.58058026E-04  6.41521298E-06 -8.55966201E-02 -1.51930631E-02 -1.11899893E-01
 -4.49712224E-02  2.35518427E-01  3.92499419E-01  1.92704098E-01 -2.19191326E-01
 -5.19957540E-02  9.47716099E-02 -2.12187547E-01 -5.03384983E-02  9.17537751E-02
 -1.98557019E-01 -4.71089395E-02  8.58709468E-02 -9.68408109E-02 -2.29724859E-02
  4.18736386E-02  3.93052535E-03  2.21575256E-03  2.44889418E-03  4.97526568E-04
 -9.08826779E-04 -2.14489809E-04  1.60633580E-02  2.12820363E-02  2.05890517E-02
 -1.51547177E-03  2.77763897E-03  6.49573194E-04  4.80152699E-03  1.98235615E-03
  2.28363826E-03  8.30866305E-04 -1.54557658E-03 -3.36234262E-04  3.02149802E-04
 -4.02511870E-04  6.08125970E-04 -6.52638672E-04  4.80571269E-04 -8.72301905E-04
 -2.80012758E-04 -6.43250502E-05  2.82071762E-04 -3.36100029E-04  1.03474429E-03
 -1.13719248E-03  1.75473352E-03 -1.83779894E-03  1.43187193E-03 -2.62849112E-03
 -7.73762324E-04 -1.90244649E-04  7.95273512E-04 -9.82494642E-04 -5.54341341E-03
 -2.20264515E-04 -3.35425399E-03 -2.15413481E-04 -5.89096531E-03 -9.29782601E-04
  2.12926474E-04 -4.18192105E-04  5.14028896E-04 -2.62270377E-03 -4.97687175E-05
 -2.67854804E-03 -7.91678873E-04  4.33376482E-04 -3.40122930E-03 -7.43214774E-02
 -1.33219419E-02 -9.76744157E-02 -3.92444524E-02  2.07103637E-01  3.43493064E-01
  1.68921057E-01  2.49901906E-01  5.92721828E-02 -1.08031538E-01  2.42091493E-01
  5.74225292E-02 -1.04662227E-01  2.27289419E-01  5.39193669E-02 -9.82763417E-02
  1.10945246E-01  2.63127180E-02 -4.79718467E-02  3.42511948E-03  1.95259784E-03
  2.16701308E-03  4.26762974E-04 -7.73680918E-04 -1.86223418E-04  1.41404851E-02
  1.82454373E-02  1.76838900E-02 -1.19627514E-03  2.17753307E-03  5.10216738E-04
  4.34040142E-03  1.15469673E-03  1.68476901E-03  9.12129786E-04 -1.63076208E-03
 -4.17433595E-04 -3.45024077E-04  4.07063433E-04 -6.17953558E-04  6.57394101E-04
 -5.00841140E-04  9.13101897E-04  2.74621752E-04  6.46286924E-05 -2.84759394E-04
  3.47438219E-04 -7.29851242E-04  1.08143679E-03 -1.66042785E-03  1.76289846E-03
 -1.27164250E-03  2.31985116E-03  7.77371052E-04  1.84410129E-04 -7.59942280E-04
  8.93492902E-04 -4.80758406E-03 -1.63533122E-04 -2.89784850E-03 -1.57293741E-04
 -5.09173168E-03 -6.77922829E-04  1.82312237E-04 -3.03787180E-04  3.64862978E-04
 -2.26338582E-03 -1.22912655E-04 -2.40293406E-03 -8.19524950E-04  4.52778978E-04
 -2.94367164E-03 -3.24142188E-06 -2.19685692E-06 -4.95175679E-06  5.37456819E-05
 -1.73706117E-05 -8.48255403E-05 -1.84171310E-04 -1.60593069E-01  2.65056169E-01
 -2.26004521E-01 -1.61172560E-01  2.66018610E-01 -2.26826803E-01 -1.40857245E-01
  2.32547401E-01 -1.98264891E-01 -4.49503624E-02  7.41744910E-02 -6.32019138E-02
 -3.95149887E-05  1.65254800E-05  2.46724361E-05  2.97807537E-05 -2.30017280E-05
 -2.41255557E-05  2.54603564E-04  4.98258651E-05  4.05161560E-05 -1.20183203E-04
  6.47261075E-05  7.81385383E-05  4.27035116E-04 -7.24355070E-05 -1.50832482E-04
 -2.98673466E-04  1.97473333E-04  2.20483987E-04  9.86240793E-04  1.64518365E-03
 -1.02730876E-03 -1.18057074E-03 -2.82557144E-04 -1.94334187E-04 -1.47413512E-03
  2.65332647E-04 -3.05435458E-04  1.02528813E-03  5.38096339E-03  1.26008718E-03
  1.07932569E-04 -2.62148693E-03 -2.59634613E-03  8.60439090E-04 -3.51988770E-03
 -8.99996844E-04  5.14960908E-04  3.18136072E-03 -2.18726302E-05 -1.07202204E-05
 -1.09787955E-05 -4.71975095E-06 -2.62315457E-05 -1.40810624E-05  1.66212338E-05
 -1.06074177E-05  7.47605256E-06 -8.10355409E-06 -2.30235172E-05 -1.84461603E-06
 -2.43812173E-06  2.63238851E-05 -9.45280740E-05  2.30663999E-06 -1.34748854E-06
  1.12563392E-06  7.79014798E-05 -4.24340581E-05 -1.47288589E-04 -2.61221651E-04
  5.47092184E-02  2.64956955E-01  2.71888013E-01  5.49031973E-02  2.65914136E-01
  2.72885319E-01  4.80000320E-02  2.32465536E-01  2.38516963E-01  1.52803663E-02
  7.41644651E-02  7.60753777E-02  1.21654544E-05  1.82766877E-05 -2.71537608E-05
  3.49780211E-05  3.67710610E-05 -6.87520700E-06  1.32150048E-04  8.57426316E-05
  2.44557804E-04 -1.47126840E-04 -1.30472360E-04  2.69447492E-05 -4.12257612E-05
 -4.15092355E-05  3.60119568E-04 -3.74565213E-04 -3.11987602E-04  7.19250771E-05
 -3.35795461E-04  1.64766517E-03  1.22692803E-03 -5.86297518E-04 -8.80060074E-04
 -4.68122156E-04  1.48984770E-03  8.55477085E-04  1.07165630E-03  3.72925005E-04
 -1.83258947E-03  1.26835886E-03 -1.39412968E-04 -2.16866130E-03 -4.44938691E-03
 -3.21845354E-03  4.26142354E-03  9.38692010E-04  1.56026362E-03  1.16541795E-03
 -5.62144888E-05  8.93308701E-07 -2.11446223E-05 -3.72345639E-06 -3.48905833E-05
  2.60720655E-05  1.97613828E-06 -5.70099222E-06  7.84773932E-06 -5.71044690E-05
 -1.26754670E-05 -3.68239174E-06  3.38091381E-05  4.61102309E-05 -3.80155961E-05
 -2.19683181E-05  6.99818271E-06 -2.82599820E-05 -3.27115883E-04  3.64965204E-04
  4.28667300E-04  9.65908455E-04 -4.35605406E-02  3.11952140E-01  7.03633092E-02
 -4.73834937E-02  3.39979580E-01  7.66683202E-02  6.21318321E-02 -4.45817500E-01
 -1.00501779E-01  4.21927977E-02 -3.02407143E-01 -6.83479888E-02 -1.77746494E-02
  3.02158203E-02 -1.24457270E-02  7.13131114E-02  2.10488427E-02 -2.78311262E-02
 -9.76878744E-02  1.65413802E-01 -6.95140237E-02  3.88743867E-01  1.15100098E-01
 -1.54137935E-01 -5.54069212E-02  9.17699437E-02 -3.74886278E-02  2.21592771E-01
  6.49156475E-02 -8.28723073E-02 -1.58554620E-02  2.88695587E-02  9.15652071E-03
  1.73522704E-02  4.82497655E-02  1.63507533E-02 -1.04461367E-02  1.62834987E-02
 -5.35018592E-03 -1.70396136E-02 -1.70780228E-02 -1.06676037E-01 -1.71398081E-02
  5.77623873E-02  4.78925658E-02  2.52985238E-02 -1.60895395E-02 -3.89749586E-02
 -3.24852740E-02 -4.49038661E-02  6.03570793E-03  8.67540642E-03 -1.83643789E-03
  8.50401620E-03 -1.38778013E-02 -5.61123394E-03 -8.50394212E-03 -4.38355270E-03
 -2.02598655E-02  2.48705771E-03  1.00627510E-03  1.78047907E-03 -3.73920573E-03
 -1.53579720E-02  5.93274722E-03 -1.78970665E-02  7.75355446E-03 -5.38723209E-02
 -1.29076920E-01  4.45345266E-01 -2.42735781E-01  2.62698695E-01 -4.75593852E-01
 -1.11994205E-01  2.02737397E-01  3.94101031E-01  9.28065892E-02 -1.67841373E-01
  8.21583701E-03  1.92725129E-03 -3.66707366E-03 -5.26194590E-01 -1.23694947E-01
  2.23148854E-01  1.52388368E-02  1.01586071E-03  8.90044870E-03  3.22999646E-03
 -3.72332157E-03 -2.97757902E-03 -5.50547502E-01  9.41175609E-02  7.98154351E-02
 -1.96960298E-01  3.84228507E-01  6.53798414E-02 -4.57646686E-02 -4.68032995E-02
 -6.73680903E-02  3.50610792E-03 -1.40873226E-02  3.90248911E-03  6.22126292E-02
 -4.23664090E-02  6.47290350E-02 -6.78121624E-02  6.11875036E-02 -1.11851681E-01
 -2.49173270E-02 -6.46480129E-03  2.88964969E-02 -4.00546338E-02  4.46681569E-01
 -6.77942784E-02  1.12223205E-01 -8.74276234E-02  2.19657967E-01 -4.20116667E-01
  2.66086151E-02 -2.15533946E-03  4.10979703E-02 -1.22564273E-01 -1.92256670E-02
 -1.16711260E-02 -1.30515968E-02 -1.35688097E-02 -2.30334734E-02 -7.08247272E-02
  9.97530747E-03 -3.15184329E-02  4.01495415E-02  1.62605465E-02  1.60118686E-02
  3.82371684E-02 -1.03221431E-02  3.24329258E-03  8.15806501E-02 -1.22393732E-01
  4.53635342E-02  2.05496733E-01 -6.90749724E-02 -3.07953450E-01  2.39192606E-01
 -1.93488064E-01 -1.34998719E+00 -3.18824617E-01  5.78532429E-01  1.03490311E-01
  2.45157368E-02 -4.45085400E-02  4.02713472E-01  9.53320039E-02 -1.73607315E-01
  7.38213200E-02  1.72980804E-02 -3.12232491E-02  4.64447073E-02  6.79651317E-02
  6.11208872E-02 -5.47855265E-03  8.14995930E-03  3.47021749E-03  8.31928232E-03
 -6.79408686E-02 -7.35902879E-02  2.44442474E-02 -5.04805572E-02 -6.48930971E-03
 -3.38341295E-02  4.70260746E-02  5.48873148E-02 -2.62597903E-02  5.48797453E-02
  6.34553027E-03  1.06696637E+00  2.45179964E-01 -4.51072671E-01  4.65792390E-01
  1.17681936E-01 -2.10248491E-01  4.73729969E-01  1.13056923E-01 -1.99824324E-01
 -4.52751249E-03 -6.99050271E-01 -9.79242621E-02  1.97382482E-01 -2.00121278E-01
 -1.36693588E-01  2.46004727E-01 -2.54108950E-01 -6.07488902E-02  8.63096763E-02
  4.72441356E-02  5.69427806E-02  9.70735504E-04  3.35898550E-02  2.02679924E-03
  5.74479539E-02  6.67536917E-03 -4.51606015E-05  3.87081759E-03 -5.23133433E-03
  3.10223539E-02 -2.77821557E-03  2.70974729E-02 -2.16625183E-04  1.03648159E-03
  4.93354851E-02 -8.19001389E-06 -2.25289861E-05 -5.85840003E-05  9.15427871E-04
 -1.21816127E-03 -1.52935287E-04 -1.62223570E-03 -1.03851686E-02  7.90410741E-02
  1.91253596E-02 -6.25986538E-03  4.60445077E-02  1.14909678E-02 -7.68509397E-03
  5.86326057E-02  1.43222221E-02 -1.98837830E-02  1.51486454E-01  3.67799843E-02
 -2.88058353E-02  5.77193710E-02 -2.87992503E-02  1.21538352E-01  3.94449543E-02
 -5.97265287E-02  4.54227226E-03  2.82477517E-02 -3.01840966E-02 -1.59588652E-02
  4.49885339E-03 -6.54000868E-02  9.26659715E-03 -3.93740046E-02  3.17671691E-02
 -3.63208883E-02 -1.82788889E-02  6.54279468E-02  4.41527340E-02  2.73390451E-01
  3.91439313E-02 -1.50371386E-01 -1.30658390E-01 -6.77500390E-02  4.84965495E-02
  8.75478388E-02  9.36126495E-02  1.14294809E-01  2.07209468E-01 -9.63232191E-03
 -7.74376726E-02 -3.56455932E-01 -6.52664421E-01 -2.56698543E-01  1.79343575E-01
 -9.90368320E-02  1.74590432E-01  3.17561210E-01 -7.45184388E-03 -1.91769478E-02
 -2.54332736E-02 -1.53223128E-02  7.50651051E-02 -1.74178787E-02 -7.19111446E-03
  1.21492458E-01  9.08326600E-02  9.00276421E-02  1.55167816E-01 -1.87305281E-01
 -1.06395305E-01 -1.73123911E-01  7.09384238E-02 -1.14890931E-04 -2.57505110E-06
 -1.89480870E-04  4.40399210E-06  1.10665921E-03 -9.44849803E-04 -4.69569916E-04
 -1.05974603E-01  3.79919222E-02 -2.22036543E-01 -1.31306297E-01  4.84091277E-02
 -2.80774503E-01  1.63701911E-01 -5.97234126E-02  3.47317015E-01  1.27449620E-01
 -4.68928805E-02  2.71884988E-01  5.54861081E-02 -4.63142331E-03 -5.07628832E-02
 -4.23722229E-03  5.45653310E-02  2.12422040E-02  3.40201492E-01 -2.69410146E-02
 -3.12352133E-01 -2.63419999E-02  3.35331277E-01  1.31244140E-01  2.00767908E-01
 -1.78443517E-02 -1.82944904E-01 -1.57924677E-02  1.99457962E-01  7.64808501E-02
 -5.65878422E-02  3.63052112E-03 -3.50137768E-02 -8.10883397E-04 -1.09377970E-03
 -3.49735055E-02  3.30447403E-02  1.22830075E-02 -1.12023435E-02 -1.43098513E-02
 -1.05306588E-01 -1.75802413E-02  5.80545143E-02  3.36040788E-02 -1.67598362E-02
 -3.83218744E-02  1.45883710E-01  2.68297209E-02  3.99805468E-02 -4.73339071E-02
  2.89044683E-02 -7.04652658E-03  9.09822083E-03 -8.35902063E-03  2.35154799E-03
 -1.62080197E-02 -2.23722212E-03 -8.54614161E-03  1.38716864E-03 -9.02972817E-03
 -9.06921508E-04 -9.64951307E-03 -1.75459399E-02  3.43840246E-03 -2.07356895E-02
 -4.07247455E-05  5.31997384E-06  4.90389565E-05  1.84751434E-04 -5.03057070E-04
  2.90415224E-04 -2.94274374E-04  2.21376906E-01 -1.62600854E+00 -3.79500574E-01
 -6.54261406E-02  4.80652497E-01  1.12198557E-01 -5.06479614E-02  3.71953543E-01
  8.68525426E-02  2.26206881E-02 -1.66134846E-01 -3.87113798E-02 -4.79559856E-03
  8.57524123E-03 -3.69120201E-03  1.96827915E-02  5.95071071E-03 -8.09773614E-03
  6.02734409E-03 -8.78936693E-03  3.06922857E-03 -2.38742322E-02 -6.69003874E-03
  6.77684273E-03 -2.81632771E-03  3.84799490E-03 -9.05469361E-04  1.13576451E-02
  3.04290866E-03 -2.34192740E-03 -1.38753224E-01  9.41897323E-01  2.22745534E-01
 -3.97241781E-02  4.53381558E-01  1.10789340E-01 -6.57527426E-02  4.24881606E-01
  9.02949413E-02 -1.58051848E-02  7.93402130E-02 -4.88899015E-01 -1.17165480E-01
  8.52312828E-03 -2.57517538E-01 -6.61446680E-02  3.96583378E-02 -2.22269415E-01
 -4.18949598E-02  1.90416278E-02 -3.12649687E-03 -4.70032090E-03  5.99056080E-04
 -4.16682029E-03  8.30305135E-03  2.40562171E-03  4.11839002E-03  5.46650408E-03
  1.16553884E-02  1.77143146E-03  5.04020096E-03 -7.27365663E-03 -2.19260538E-03
 -1.64395245E-05  3.40080777E-04  1.28244579E-04  1.18131143E-05  1.86637414E-04
  1.30015720E-04 -1.31828254E-03  8.55351428E-04  2.66913250E-04 -1.38382011E-01
  4.67381540E-02 -2.92187441E-01 -1.47583270E-01  5.09973326E-02 -3.16832043E-01
  1.95326449E-01 -6.68996530E-02  4.16559397E-01  1.31113591E-01 -4.50341788E-02
  2.80788049E-01 -5.48855181E-02  4.17885476E-03  5.06229574E-02  3.47060891E-03
 -5.43619241E-02 -2.08814594E-02 -2.99213878E-01  2.17884457E-02  2.76851529E-01
  1.92772188E-02 -2.97078087E-01 -1.14609513E-01 -1.67722118E-01  1.34508770E-02
  1.54639417E-01  1.08999661E-02 -1.68104737E-01 -6.37645658E-02 -4.86378288E-02
  4.17335119E-03 -3.80060274E-02 -2.86491198E-03 -5.64626078E-04 -3.20574760E-02
  2.32663384E-02  1.04154894E-02 -1.30343175E-02 -1.08797446E-02 -5.11937832E-02
 -1.59107769E-02  7.09051211E-02  2.80003141E-02 -1.38821741E-02 -9.56185083E-03
  1.00653841E-01  1.49231206E-02  4.08558643E-02 -2.97904235E-02 -2.20807237E-02
  5.36143161E-03 -7.01159628E-03  6.33181847E-03 -1.69645630E-03  1.31337446E-02
  1.28137527E-03  6.75237128E-03 -8.86949604E-04  5.08531404E-03  1.28490397E-03
  7.31386841E-03  1.38799687E-02 -2.13854546E-03  1.79487309E-02 -9.81292887E-02
 -1.49238504E-02 -1.41112172E-01  1.14593951E-01  6.39036166E-01 -4.28912813E-01
 -9.33267249E-01 -3.40441462E-01 -8.06893064E-02  1.46855332E-01 -2.30496944E-01
 -5.45930416E-02  9.92723196E-02  3.29600636E-01  7.80626500E-02 -1.42009046E-01
  2.57041505E-01  6.09297212E-02 -1.10845571E-01  4.04120915E-02  1.31420601E-02
  1.67664605E-02  7.93299804E-03 -1.44841199E-02 -3.38643738E-03  4.46315308E-01
  3.21562688E-01  3.37995959E-01  3.63059364E-02 -6.63726349E-02 -1.54756024E-02
  8.43927745E-02  7.98347504E-02  7.98164359E-02  1.43743956E-03 -2.80746663E-03
 -4.57849317E-04 -3.17232620E-02 -5.26811877E-03  1.00404646E-02 -1.04888509E-02
 -5.52608551E-03  1.01689659E-02 -1.21301138E-02 -2.85464671E-03  4.47859986E-03
  1.59401543E-03  4.41738014E-02  1.68140912E-02 -2.90279412E-02  3.03564708E-02
 -1.35570000E-03  2.43993416E-03  2.53393457E-02  6.01253911E-03 -1.30595021E-02
  4.51664507E-03 -9.69165964E-02  1.84957949E-03 -5.57444069E-02  1.88744545E-03
 -9.37104097E-02  7.57726916E-03 -1.62117408E-03  3.45602536E-03 -4.39286814E-03
 -6.14828929E-02  6.83643990E-05 -6.13885765E-02  5.62792876E-03 -3.07204063E-03
 -1.13335797E-01 -1.40984465E+00 -6.76419540E-02  2.09471017E+00 -8.07500011E-01
 -1.19043935E+00  1.38135749E+00  5.16136677E-01  4.02942605E-02  9.45062058E-03
 -1.71393571E-02 -2.33925366E-02 -5.54193810E-03  9.78162813E-03 -6.79905090E-04
 -7.48898554E-05  5.20538529E-04  2.72515478E-02  6.47278539E-03 -1.14192672E-02
  5.59825631E-01  6.40392684E-01  6.22650763E-01 -2.22908273E-02  3.80185717E-02
  1.13802908E-02 -1.65407280E+00 -1.78206631E+00 -1.76743990E+00  3.76513125E-02
 -6.98948202E-02 -1.55002171E-02 -1.55610675E-01 -2.08793066E-01 -1.94982366E-01
  1.43287283E-02 -2.34779553E-02 -7.89595646E-03 -1.34851282E-02  4.72761843E-04
  3.11520169E-03  2.09787075E-04 -3.98344843E-03  5.29525165E-03 -4.32213093E-03
 -1.82941638E-03  2.04546614E-04  2.40957711E-03 -1.50767841E-02 -7.28866737E-05
 -6.86945416E-03 -1.45211154E-03 -7.13531747E-03  1.81574077E-02  4.01176622E-04
  2.12257373E-03 -3.46797190E-04  2.79132678E-03  8.21156911E-01  4.76165450E-03
  4.83157696E-01  6.17385666E-03  8.29831021E-01  2.14272813E-02 -4.85318403E-03
  1.10862866E-02 -1.41448760E-02  4.61431256E-01  3.23363271E-03  4.63733468E-01
  2.94255444E-02 -1.41685788E-02  7.59146828E-01  9.07731680E-02  1.38592772E-02
  1.30906799E-01 -1.06571674E-01 -5.89446521E-01  3.90583451E-01  8.69749013E-01
 -3.71757651E-01 -8.80441864E-02  1.60422147E-01 -2.41989106E-01 -5.72599876E-02
  1.04319705E-01  3.48713861E-01  8.25801119E-02 -1.50383139E-01  2.83177208E-01
  6.70517639E-02 -1.22258612E-01 -4.06791544E-02 -9.44086026E-03 -1.36488393E-02
 -9.07207325E-03  1.65869046E-02  3.89133693E-03 -4.21313122E-01 -2.95901483E-01
 -3.11098413E-01 -3.67538924E-02  6.79477723E-02  1.53214324E-02 -7.35427063E-02
 -7.51040651E-02 -7.77895054E-02  9.30758589E-04 -2.74791745E-03  3.49711384E-04
 -3.03343845E-02 -5.01316374E-03  9.28768609E-03 -9.99692463E-03 -5.39137133E-03
  1.01322895E-02 -1.14663106E-02 -2.61590023E-03  4.25561855E-03  1.56848266E-03
  4.56061039E-02  1.65900834E-02 -2.76800322E-02  3.01710543E-02 -3.71402187E-04
 -1.19969456E-04  2.49890635E-02  5.64933135E-03 -1.28263609E-02  4.05574583E-03
  8.89760925E-02 -1.64101834E-03  5.15415616E-02 -1.79949963E-03  8.69481107E-02
 -8.21234576E-03  1.77268320E-03 -3.66018316E-03  4.51266986E-03  5.74275376E-02
 -1.83271222E-04  5.75374009E-02 -6.71898729E-03  3.47660287E-03  1.07304474E-01
  8.40557712E-04  2.24752982E-05  1.35447740E-03  1.70343204E-03 -1.13464304E-02
  7.72679454E-03 -8.40554969E-05  8.31072089E-03  1.89940545E-03 -3.13598154E-03
 -7.59139136E-03 -1.92815226E-03  3.99363366E-03  2.21552805E-03  6.80394731E-04
 -1.83353808E-03  7.19257129E-03  1.75378899E-03 -3.25812029E-03  1.47735066E-02
 -7.38403071E-02  5.82946245E-02  6.03788227E-03  3.58490065E-02 -3.45219611E-02
  9.79336936E-02 -4.69707456E-01  3.72900105E-01  3.94091164E-02  2.26609075E-01
 -2.20392544E-01  7.68582514E-02 -3.74411030E-01  2.97938298E-01  3.08050114E-02
  1.82317993E-01 -1.75668063E-01 -1.69552428E-02  1.99380159E-02  2.79998682E-02
  3.63123515E-02 -7.37252553E-03 -2.73769173E-02 -1.57498939E-02 -1.99301426E-02
 -9.05921887E-03  1.46588860E-02 -6.68209983E-02  8.02639275E-02  1.15167453E-01
  1.46339547E-01 -2.82649522E-02 -1.15272488E-01 -6.43236311E-02 -8.11595605E-02
 -3.64859110E-02  5.84103783E-02 -1.58503653E-02  5.52758188E-03  1.53839160E-03
  7.55918537E-03  2.25089278E-02 -9.30584470E-03  8.94962043E-04 -2.50691814E-03
 -2.76622242E-03 -6.38667092E-03  2.72474743E-03  2.88996057E-03 -2.91590175E-03
 -1.24219021E-03 -4.01391117E-03 -6.37045176E+00  8.65338231E+00 -8.07567570E+00
  8.52924749E+00  2.61611636E+00 -5.62065070E+00 -1.29850911E-01 -3.79931118E-03
 -8.82956280E-04  1.47340482E-03 -1.27956620E-01 -3.08168146E-02  5.33345976E-02
  3.98405184E-02  9.57138217E-03 -1.60989802E-02  4.28278300E-02  1.02468714E-02
 -1.77545507E-02 -1.89236564E+00 -3.54746554E+00 -2.93797766E+00  4.20266107E-01
 -6.11080999E-01 -2.75100468E-01  2.82873584E+00  9.49338169E+00  6.96994063E+00
 -1.68149498E+00  2.41284746E+00  1.11996357E+00  9.52122107E-01  2.63334923E-01
  5.34167553E-01  1.72122623E-01 -2.42236979E-01 -1.17617768E-01  2.86664358E-02
  8.01879812E-02  4.17653668E-02  1.45792903E-01 -1.95252796E-02 -8.43730571E-02
 -8.48880340E-03 -4.59350137E-02 -4.47747621E-02  4.29911466E-02  3.55326194E-03
 -5.40805108E-02 -7.67271036E-02 -1.00645719E-01  7.50878809E-03  1.01448759E-01
  3.51013557E-02  5.07164706E-02  2.60155089E-02 -3.06311269E-02 -3.61471252E+00
 -4.25116129E-01 -2.55330724E+00 -4.41701257E-01 -5.10895023E+00 -9.05178039E-01
  2.73160605E-01 -4.21439922E-01  6.63426788E-01 -1.40535815E+00 -1.85314262E-01
 -1.81912260E+00 -9.45334059E-01  6.41640875E-01 -1.19510009E+00 -1.24204576E-04
 -2.31229961E-04 -3.80563719E-04  5.83321022E-03 -1.01474631E-02  4.07285290E-03
 -6.50367233E-03 -1.68585763E-02  1.02916703E-02 -3.12059826E-02 -1.32883015E-01
  9.41985248E-02 -2.70624905E-01  1.90283863E-01 -1.30710364E-01  3.81391713E-01
  1.83358423E-01 -1.23129342E-01  3.61133871E-01  1.66553515E-01 -2.62032675E-02
 -1.40177437E-01 -4.25229964E-02  1.47748448E-01  7.19810136E-02  8.08318446E-01
 -1.23750546E-01 -6.74649309E-01 -2.02731818E-01  7.11946308E-01  3.44804984E-01
 -3.75717027E-01  6.10054015E-02  3.17910477E-01  9.46247282E-02 -3.33297921E-01
 -1.60608792E-01  5.11743787E-01 -4.07498251E-02  2.23537326E-01 -3.96307148E-02
 -5.25178266E-02  2.61358836E-01 -3.21685658E-01 -1.15472605E-01  8.58249624E-02
  1.63273228E-01 -2.87559260E-01  1.55717511E-01 -4.81373187E-01 -9.27316554E-02
  7.53198033E-02 -2.33076386E-01 -6.94199751E-02  8.55848708E-02 -2.04840513E-01
 -1.75785871E-02  4.83095436E-01 -1.43291625E-01  1.58545655E-01 -1.65654649E-01
  9.34039090E-02 -2.39900296E-01 -3.39210532E-02 -1.22204953E-01  9.11347080E-02
 -2.26065603E-01  1.50037643E-02 -1.78065230E-01 -2.81132105E-01  1.09121832E-01
 -2.99174212E-01  1.06371092E-05  1.98350819E-05 -5.17693215E-05 -9.68198835E-05
  4.53544978E-04 -5.49757238E-04  5.28363632E-05 -9.51650681E-05 -6.63060104E-04
  1.04438592E-04  3.15925070E-03 -1.74127770E-02 -2.78670897E-03 -6.56721645E-03
  3.66317638E-02  6.19775275E-03 -6.76258425E-03  3.83394191E-02  6.13715131E-03
 -1.54921903E-02 -8.17502709E-02  9.72339315E-02  7.97789247E-02 -8.47955027E-03
  2.16990639E-01 -1.22512334E-01 -4.99848131E-01  6.22765105E-01  6.15576107E-01
 -3.33378821E-02  1.38431357E+00  6.90142121E-02  2.76643914E-01 -3.45558705E-01
 -3.43967137E-01  1.80482635E-02 -7.67741089E-01  5.44832283E-02  8.34560562E-02
  1.16090985E-01  2.98553182E-02 -2.04092808E-01 -4.98574586E-03 -1.16873623E-01
  1.77354369E-01 -1.36369887E-01 -1.93103058E-01  3.28232982E-02 -3.85740132E-02
  1.16048081E-03 -2.03471881E-02 -9.33449126E-02 -1.96515214E-02  1.88460216E-03
 -4.60469141E-03 -7.46764025E-03  3.58247429E-03 -2.91004902E-01 -4.28324414E-01
 -3.63400758E-02 -4.33145321E-01  2.34738107E-01 -1.39946284E-02 -1.22675035E-01
  2.15741840E-02 -2.15931850E-01 -5.59017443E-02 -1.87615667E-01  1.12865408E-01
  2.49213196E-02 -1.22956808E-01  3.24743109E-02  6.44883400E-04 -7.97888295E-04
  3.85075310E-04 -1.72379965E-04 -4.52123873E-04  2.28079354E-04 -1.77536086E-05
 -2.83422959E-05 -1.10197597E-04 -7.88331826E-06  8.15560003E-05  1.84171436E-03
  3.51654985E-04 -2.47737045E-05 -1.67811830E-04 -2.28536319E-05  1.48496858E-05
 -1.22708733E-04 -3.35840448E-05  9.15687823E-04  1.23170716E-03 -1.66162104E-03
 -4.08399781E-03 -2.59810230E-04 -4.41693576E-03 -3.41737158E-03 -4.87177382E-03
  7.41807921E-03  1.68620593E-02  1.05831807E-03  1.85811124E-02  3.70319764E-04
  6.21198577E-04 -1.08079856E-03 -1.98726259E-03 -1.21507332E-04 -2.44601286E-03
 -3.59478730E-04 -1.44654092E-03 -2.99423483E-04  1.87977826E-04  1.30434362E-03
 -1.62535881E-04  2.65384684E-04 -1.13185008E-03  1.93725538E-04  5.59941117E-04
  2.01943153E-04  4.88035292E-05 -2.76057107E-05 -1.82616954E-04 -1.25440517E-03
  4.77364097E-05 -1.34702675E-04  3.74041945E-04 -1.55519084E-04 -2.57679002E-04
  4.74532208E-01  4.41772257E-01 -8.42934897E-01 -6.50975169E-01  4.59976325E-01
  2.07541414E-01  4.90592793E-01 -2.17063596E-01 -4.46206820E-01  1.00482538E-03
  2.58951170E-01  4.08967634E-02 -4.66812630E-02  6.57041692E-02 -2.14164482E-02
 -1.86585873E-02 -1.19287941E-03 -3.29343317E-02  2.04423547E-02  1.55135414E-01
 -1.39204603E-01 -1.48299232E-01  2.54359749E-01  6.00108865E-02 -1.08396637E-01
 -1.86378732E-01 -4.36992963E-02  7.90228657E-02 -6.67519226E-02 -1.59095922E-02
  2.86381209E-02  2.77591345E-01  6.50945998E-02 -1.17527842E-01 -4.50350109E-02
  3.68420994E-02  2.94978421E-02 -2.41046008E-02  4.49966939E-02  9.33071596E-03
 -2.76202050E-01  2.63018717E-01  2.07887197E-01 -1.57816812E-01  2.92189163E-01
  6.27901106E-02 -3.07903398E-01  2.22106929E-01  1.69486959E-01 -1.55498070E-01
  2.88481904E-01  6.16009003E-02 -4.43641483E-02  1.53535697E-02 -2.27621519E-02
  2.34000460E-02 -2.94961285E-02  5.42224562E-02  4.18509928E-03  1.38308967E-03
 -9.99380649E-03  1.81586346E-02 -1.95498730E-01  4.75322517E-02 -7.27067630E-02
  6.83524264E-02 -1.11874434E-01  2.09332287E-01  2.12365258E-03  2.98906159E-03
 -3.04759352E-02  6.60442574E-02 -2.17066508E-02 -1.70061346E-03 -1.38057503E-02
 -1.75650120E-03 -2.42560676E-02 -7.04356709E-03  3.02550122E-04 -3.17807472E-03
  4.58071734E-03 -1.32532247E-02  4.09059935E-03 -8.97592826E-03  6.81451220E-03
 -3.44860288E-03 -2.10403293E-02  5.99282204E-06  1.62693908E-07  9.64942037E-06
 -1.35929881E-05 -3.02901296E-05  4.33941277E-05  5.36482095E-05 -8.49124650E-05
  7.84512427E-04  5.55211744E-05 -4.67349789E-04  2.79983009E-03  6.02512140E-04
  4.71988973E-04 -2.86604836E-03 -5.67998169E-04  2.29844643E-04 -1.14016916E-03
 -2.87047196E-04 -8.40171619E-03 -2.48547815E-02  3.32422485E-02  3.86959138E-02
 -1.53898019E-03  7.56516673E-02 -5.24639824E-02 -1.56515747E-01  2.08893160E-01
  2.42020777E-01 -9.94737614E-03  4.75387037E-01 -4.43328652E-02 -1.30036096E-01
  1.74331539E-01  2.03703862E-01 -7.85737479E-03  3.96627088E-01  9.62741476E-03
  6.61965252E-03  1.64809406E-02  4.77168174E-03 -3.33720898E-02 -4.14539970E-04
 -1.77895982E-02  2.49996226E-02 -2.15948981E-02 -3.03477346E-02  3.86379416E-02
  2.53844033E-02  6.52945582E-02  1.83479992E-02 -1.33599465E-01 -2.21599456E-03
 -7.01278217E-02  9.86961935E-02 -8.54326373E-02 -1.19485044E-01 -8.03467935E-03
 -1.24606835E-02 -2.20904264E-03 -1.29776231E-02  6.85294333E-03 -1.49196073E-03
 -5.26370867E-03  2.15510012E-03 -7.26245570E-03 -3.18549187E-04 -3.81899564E-03
  2.82476973E-03  5.33080637E-04 -2.98843082E-03  8.97465286E-04 -7.89817997E-03
  8.10165679E-03  3.45163839E-03 -7.30207701E-03  2.95301802E-03  2.21400336E-04
  1.40833210E-03 -1.15031913E-04 -1.41430342E-04  4.04080755E-05  9.83504179E-05
  1.30982412E-02  1.45076973E-03  1.26646241E-04 -5.13223536E-03 -7.27617044E-04
  9.96740000E-05 -7.22489772E-04 -9.94891460E-05 -3.32942011E-01 -8.41713279E-01
  1.17928868E+00  1.45817559E+00 -4.18873982E-02  2.72433429E+00  1.14497060E+00
  2.89971891E+00 -4.05510794E+00 -5.01554080E+00  1.46070522E-01 -9.37320578E+00
 -1.12424046E-01 -2.82310529E-01  3.93825993E-01  4.89696327E-01 -1.39702207E-02
  9.12166967E-01 -5.79553893E-02 -4.68337873E-02 -9.35820430E-02 -2.10243765E-02
  1.95133054E-01  2.72556438E-03  9.92197896E-02 -1.47695976E-01  1.20875107E-01
  1.70041821E-01  3.59853272E-02  2.50025538E-02  5.84214170E-02  1.40746985E-02
 -1.23552356E-01 -5.73417124E-04 -6.30898603E-02  9.20216967E-02 -7.71552105E-02
 -1.09073701E-01  2.29241081E+00  3.48069417E+00  2.29066111E-01  3.48754759E+00
 -1.64561574E+00 -1.09204730E-03  9.01748749E-01 -6.24182510E-02  1.90475644E+00
  4.52610370E-01  1.53304764E+00 -7.05969340E-01 -7.92376437E-02  1.76121401E+00
 -6.11733563E-01  9.31457156E-06 -9.65694422E-05  3.38402074E-04  1.38217845E-04
 -4.76711646E-04 -5.09698017E-04 -7.77783902E-05  3.67374363E-02 -1.45794966E-02
  8.02226345E-02  1.75872882E-02 -5.24940160E-03  3.10420418E-02  2.71825082E-02
 -1.14147609E-02  6.18473364E-02  6.89652537E-02 -2.65183857E-02  1.47512499E-01
  9.64061442E-02 -4.64382631E-03 -9.21622209E-02 -8.55891273E-03  9.43113262E-02
  4.00951182E-02  1.29917538E-02  2.01696770E-02 -3.13948206E-02 -1.92654571E-03
  7.73913481E-03  1.86481908E-02 -4.76687650E-02 -1.00108263E-02  5.72828964E-02
  4.16572398E-03 -4.20896783E-02 -2.78796999E-02 -1.44252298E-01 -4.74656427E-02
  1.73008162E-01  7.42627275E-02 -3.38458059E-02 -3.04156785E-02  2.62408269E-01
  4.21813703E-02  1.05102059E-01 -8.22103723E-02 -6.95849798E-01 -4.19020940E-03
 -2.34413146E-01  4.81873448E-02 -3.37644992E-02 -3.81776487E-01  5.45820106E-01
  1.69828248E-01 -2.75584810E-02 -2.17084708E-01 -7.44017562E-02 -9.18010157E-03
 -2.22418117E-02  2.94116225E-02 -1.97238403E-02 -6.72802939E-02  9.49760578E-02
  1.09766054E-02 -3.85004270E-03  2.76335023E-01 -8.43783999E-02  4.80290985E-02
 -2.26784569E-02 -5.87191079E-02 -2.49790407E-01 -4.93448375E-05 -1.45196314E-04
 -1.54422671E-04  3.24669424E-03 -5.16411248E-03  1.28302857E-03 -4.77640100E-03
  1.34782933E-03 -2.54505992E-02 -1.17640866E-02  6.04613696E-03 -1.92281164E-01
 -9.01286209E-02 -1.20059801E-02  3.31978872E-01  1.54177937E-01 -1.32657138E-02
  3.73968903E-01  1.74406912E-01  1.44515658E-02 -7.84613752E-02  6.41252731E-02
 -2.12377988E-01 -9.99858449E-02  4.97557961E-02  8.37803467E-02 -4.09102991E-01
  3.32980885E-01 -1.15422100E+00 -5.35385687E-01  2.42116146E-01 -4.01100802E-02
  2.04510532E-01 -1.60472674E-01  5.79588852E-01  2.67531340E-01 -1.14649115E-01
 -3.84958555E-02  1.27783081E-01  9.73190759E-02  1.65285539E-01  4.17574440E-01
  1.99491550E-01 -1.36337049E-01  5.25989038E-02 -3.01702293E-02 -1.14346136E-01
  2.80811593E-02 -4.47467302E-01 -2.32226490E-01 -6.90580765E-02 -3.47269139E-01
 -1.69520166E-01  7.34662486E-02 -2.10841415E-01 -5.82508585E-02  5.80567899E-02
 -1.76109131E-01 -8.64557055E-02  1.71525507E-02 -8.49302579E-02  2.14512664E-01
  1.89422761E-01  1.84229146E-01  7.42628540E-02  3.97028525E-01 -7.24252342E-02
 -4.32496872E-02  5.27771909E-02  1.85385459E-01  3.88460279E-01 -3.89507967E-02
 -2.68641125E-03  3.12554216E-03 -3.93459428E-04 -6.25729478E-04  1.04235079E-03
 -4.70189812E-04  2.92657145E-04  2.12612108E-05 -5.48276417E-04 -2.29727326E-04
  1.33321847E-02 -9.14733616E-02 -1.99902261E-02 -3.22313804E-03  2.21471460E-02
  4.94283243E-03 -6.96053545E-04  4.93342659E-03  1.08535082E-03  7.53066326E-01
 -1.37573122E+00  6.22860979E-01 -3.17678364E+00 -9.87183504E-01  1.29719520E+00
 -2.84446557E+00  5.20051188E+00 -2.35646072E+00  1.19977661E+01  3.72999396E+00
 -4.90905156E+00  2.75971485E-01 -5.07650541E-01  2.31787006E-01 -1.16355896E+00
 -3.62733605E-01  4.83010377E-01 -2.09289115E-02 -9.35892195E-03  3.50016532E-02
  3.00308512E-02  6.41811046E-02  2.08120537E-02 -1.74617254E-02  5.65160398E-02
 -4.36873808E-02 -1.38445315E-02  1.53778472E-02  5.75927435E-02 -1.67991903E-02
 -3.79922710E-02 -4.73271984E-02 -1.93854370E-02  1.59770845E-02 -2.18739368E-02
  4.32085504E-02  2.18207091E-02  1.35376678E+00  1.83822505E+00 -5.09726773E-01
  1.83038589E+00 -2.94198979E+00 -1.42854016E+00 -2.04493840E+00 -5.53105068E-01
 -4.47544657E+00  9.24251214E-01  8.96573084E-01 -4.90790756E-01 -1.45780137E+00
 -4.61279103E+00  1.67468379E+00  8.01084547E-05  3.24297750E-04 -3.18379499E-04
 -4.39264913E-03  9.18122246E-03 -4.59667944E-03  5.36701644E-03  1.66052056E-03
  2.31929587E-03 -1.40679631E-03 -4.70262104E-03 -2.87997483E-03  7.73872805E-03
  5.10416462E-04  3.90957240E-03 -6.45349493E-03  1.41055383E-03  4.73291968E-03
 -7.59751421E-03 -8.08027498E-04 -3.40129777E-04  1.70107228E-03  2.91319843E-03
 -4.94790866E-03 -2.91501104E-03 -2.96165594E-03 -1.18132677E-02  5.72542352E-03
  1.16847868E-03 -2.89346237E-02 -8.59116417E-03 -1.97605773E-04  4.54047614E-03
 -4.67597085E-03 -1.03489375E-03  1.53733324E-02  5.55165939E-03 -2.35935040E-02
 -2.64709637E-01 -6.53391379E-02  1.49664109E-01  1.30799803E-02 -8.92337821E-02
 -1.17547333E-01  3.51751135E-01  1.63365963E-01  1.29074929E-01 -3.61351325E-02
 -4.56742109E-01 -9.48642318E-02  2.53586641E-01  1.09066551E-02 -1.34115662E-01
 -2.02195916E-01  5.82933902E-01  2.81280681E-01  2.23297579E-01  2.08092139E-02
 -1.17656537E-01  7.45657009E-03  7.10812025E-02 -5.06479137E-02  2.88017490E-02
  7.48849223E-02  5.76977864E-02 -6.36313666E-02 -5.34431122E-02  7.22575439E-02
  8.93745508E-02 -4.95944583E-02  4.88856103E-03 -1.87043531E-02  8.14477644E-04
  2.01621410E-03 -1.64921274E-03 -2.97772401E-02  6.44298488E-02 -3.28560290E-02
  3.07648527E-02 -1.16935361E-02 -2.76441502E-03  5.10276423E-03 -1.40923148E-03
  4.28236929E-04 -2.21569743E-03 -3.82107526E-03 -2.99314940E-03  9.90032449E-03
 -6.66952641E-03 -3.90964806E-03  1.18953967E-02 -2.93469595E-03 -1.83246025E-01
  1.83446030E-01 -3.07551203E-03  1.31315283E-01 -9.47733152E-02  1.00487673E-01
 -1.25311779E+00  1.10646396E+00  3.07130103E-02  7.68883931E-01 -6.22084416E-01
 -6.70995291E-02  6.79980147E-01 -6.31409679E-01 -1.53546253E-02 -4.30741293E-01
  3.45140770E-01 -8.27762265E-02  1.13036034E-01  1.61832955E-01  2.14258195E-01
 -3.79249725E-02 -1.59964138E-01 -7.82167891E-02 -1.12931624E-01 -4.65549878E-02
  8.44487100E-02 -3.42763792E-02  1.17872653E-02 -6.72782011E-02  1.41440394E-02
 -2.63516811E-02  6.32160315E-02  3.75972360E-02  2.12937502E-02 -1.40150654E-02
  7.76641537E-03 -5.24171527E-01  2.00824120E-01  1.91995943E-02  1.95483827E-01
  5.81170113E-01 -1.86713000E-01 -1.02582824E-02 -9.03128842E-02 -3.03971483E-02
 -1.64807956E-01  5.71882827E-02  1.33982049E-01 -3.00556218E-01  2.31072497E-02
 -2.61919691E-02 -1.43599076E-02  1.71233229E-02 -4.12092524E-03 -7.52151430E-05
  3.92996409E-03 -3.39261107E-03  1.50412119E-03 -3.75940804E-04  1.72513475E-04
 -8.69027146E-04  2.07855149E-03 -2.65292126E-03  5.91160030E-03 -9.71283941E-05
  9.25752836E-04  5.56497757E-05  4.62494342E-04 -2.98656556E-04  9.20615440E-04
  1.63791459E-01 -3.94330610E-02 -1.24654697E-01 -1.05477946E-01  1.38256759E-01
  9.96653284E-02 -6.31943037E-01  1.52459203E-01  4.82546068E-01  4.05140498E-01
 -5.33618449E-01 -3.84502774E-01  6.12306524E-02 -1.45757991E-02 -4.59650313E-02
 -3.89822804E-02  5.16384698E-02  3.73582257E-02 -1.80521588E-02  6.82452271E-02
 -6.18476504E-01  3.86583732E-01 -1.72501379E-01 -1.20414918E-01 -3.63035859E-01
  8.30525254E-02  9.47668881E-01 -2.27327058E-01  1.17164743E-02 -5.15192343E-02
  4.78555167E-01 -3.01468546E-01  1.34587181E-01  9.03340755E-02  2.83108050E-01
 -6.44478473E-02 -7.39681727E-01  1.77043474E-01 -5.14689262E-01  2.18038329E-01
  1.25986051E-01 -1.94242074E-02 -9.86598987E-02  2.85092159E-01 -1.25549757E-01
 -1.44948751E-01 -2.46168083E-01  1.99611446E-01  1.91883699E-01 -1.35696646E-01
  2.96870756E-01 -2.00653780E-02  3.91727632E-01  4.60966618E-05  1.77957459E-04
 -1.52342316E-04 -2.53232996E-03  5.21771393E-03 -2.53913836E-03  3.02035042E-03
  1.33224823E-03 -2.16697584E-03 -1.66386204E-03 -2.39643831E-03 -9.13405217E-04
  4.66131712E-03  6.48339160E-04 -2.32566331E-03 -5.17006967E-03  1.11048555E-03
 -2.72241753E-03 -5.96317946E-03 -3.04487688E-05 -2.04591198E-03  2.34422232E-03
 -1.38980582E-03 -3.78176375E-03  3.60408372E-04 -6.62324799E-03 -3.15881090E-03
  4.67237370E-03  1.43675814E-02 -1.21113033E-02 -6.74076271E-03  2.32238777E-03
  1.58540561E-03 -4.21434502E-03 -7.27050324E-03  6.80324018E-03  2.57992136E-03
  8.71947134E-03  1.45684151E-01 -2.55876217E-01  1.07862412E-01 -7.83032721E-02
 -2.14155627E-02 -1.18269680E-01 -1.24163450E-01  3.53467025E-01 -1.63830456E-01
  1.40371849E-02  2.58545293E-01 -4.14379943E-01  1.84430380E-01 -1.24900683E-01
 -2.29775390E-02 -2.04542350E-01 -2.03891563E-01  5.98560730E-01 -2.74790748E-01
  9.63676026E-02  2.34150423E-02 -1.07634082E-01  4.50459332E-02  3.14086858E-02
 -4.17068121E-02 -1.31699165E-02  8.24255396E-02  6.38476094E-02 -6.91095152E-02
 -8.57417230E-02  5.54608353E-02 -9.04510269E-03 -6.16272479E-02  1.08523202E-02
 -1.04616545E-04 -1.65064693E-04 -1.66908738E-04  4.16398612E-03 -8.35264374E-03
  4.48259592E-03 -4.87570272E-03 -1.09869687E-02  1.01780955E-02 -2.20671286E-02
 -9.40651115E-02  7.73931118E-02 -1.75704932E-01  1.58672621E-01 -1.33141457E-01
  2.97669848E-01  1.82065727E-01 -1.50221992E-01  3.37336582E-01 -1.74211131E-01
  3.45343904E-02  1.40268111E-01  6.25541403E-02 -1.47352670E-01 -7.38934218E-02
 -9.37589181E-01  1.89943229E-01  7.54207875E-01  3.40494619E-01 -7.90362973E-01
 -3.86447217E-01  4.71176433E-01 -9.32624498E-02 -3.75157320E-01 -1.71718073E-01
  3.96801487E-01  1.90966511E-01  4.36523345E-01 -5.32375355E-02  2.16363824E-01
 -4.47629283E-02 -8.47404843E-02  2.12850223E-01 -2.30532481E-01 -1.01936242E-01
  7.80387928E-02  1.32682381E-01 -3.79487789E-01  1.80505919E-01 -4.41824102E-01
 -6.87373707E-02  1.05345024E-01 -2.52917442E-01  1.92183736E-02  1.17675371E-01
 -1.96420098E-01 -6.38875123E-02 -3.89248366E-01  1.31594292E-01 -1.45869467E-01
  1.32743776E-01 -9.82726294E-02  2.68012369E-01 -5.68046376E-02  1.22755936E-01
 -1.15352989E-01  1.82305326E-02  6.62521901E-02  1.16111597E-01  2.72915560E-01
 -1.13649617E-01  4.97901038E-01  9.82619870E-03 -1.17036049E-02  2.76377299E-03
 -1.13087195E-04 -2.08669320E-03  2.12102053E-03 -9.01056824E-04  2.35164930E-04
 -4.82506945E-05  5.44907831E-04 -5.90518617E-04 -2.13219082E-03 -3.91470953E-03
 -2.04961272E-04  1.40377377E-03  3.04140718E-04 -3.29855739E-04 -1.32879144E-05
 -7.19805264E-04 -6.49465243E-02 -5.18346042E-02  1.16672208E-01 -1.14698985E-01
 -1.54061445E-01  1.05108438E-02  2.50992879E-01  1.97751320E-01 -4.50815095E-01
  4.40093821E-01  5.93680863E-01 -4.04581282E-02 -2.44280760E-02 -1.92846639E-02
  4.32224018E-02 -4.22493696E-02 -5.76001400E-02  4.46246008E-03  7.53172416E-02
  7.45974693E-01 -1.12252845E-01 -2.36149289E-01 -1.06937123E-01  1.57952026E-01
  1.34703407E-01 -8.91199203E-01 -5.62700265E-03 -4.42047945E-01 -5.71255256E-02
 -5.80156106E-01  8.90900606E-02  1.83231155E-01  8.28658537E-02 -1.21010897E-01
 -1.04871817E-01  6.94332154E-01  5.89230675E-03  3.44928085E-01  2.09240384E-01
 -2.71120373E-01  1.65490004E-01  1.24657387E-01 -2.72640974E-01 -1.33565296E-01
  1.07633235E-01 -6.59538577E-02 -3.74240528E-01  6.11102284E-03  2.43785170E-01
  7.87958472E-02 -3.44293652E-01 -9.68740102E-02 -2.18309241E-01  3.60041488E-04
  1.21284790E-03  2.54902697E-03 -4.37473692E-02  8.48818103E-02 -3.98615374E-02
  5.26526767E-02  9.95585363E-03  2.25645569E-03 -2.98781641E-03 -2.50939762E-02
 -5.91948851E-03  1.13828589E-02  2.89532252E-02  6.81977737E-03 -1.15819281E-02
 -1.03653413E-02 -2.52352722E-03  6.81724553E-03  1.32291328E-03  2.07870872E-03
 -7.85849315E-03  6.57572009E-04 -4.82251073E-03  9.87254123E-04 -1.45237482E-01
  4.37244116E-01 -3.72420781E-01 -6.40293070E-02 -1.86461496E-01  1.84835398E-01
  3.57792651E-02 -1.33429744E-01  6.71563797E-02  2.46705907E-02  2.95451158E-02
 -4.61911253E-02 -8.94263314E-02  1.20210249E-01  1.60162868E-01  2.16995839E-01
 -5.34175440E-02 -1.56094284E-01 -8.77324048E-02 -1.05753278E-01 -5.99200503E-02
  7.70443817E-02 -2.27764204E-01  2.86518977E-01  4.09960854E-01  5.19366055E-01
 -1.17558619E-01 -4.12664035E-01 -2.28021200E-01 -2.69895653E-01 -1.40668507E-01
  1.87312536E-01  9.22831982E-02  2.42001302E-03 -1.31669797E-02 -9.14385457E-02
 -1.79118013E-01  1.59405089E-01 -7.07716651E-02 -2.30891384E-02  1.15563316E-01
  5.26837164E-02  2.54850478E-02  1.02649961E-01 -6.99583708E-02 -3.65483946E-02
 -4.26899446E-02 -2.91963070E-05  4.87927071E-06 -3.50358114E-05 -3.69169390E-04
  4.75368238E-04  4.39914163E-04  9.58690005E-04 -3.30550262E-02  2.44202045E-01
  5.76311165E-02 -4.11079123E-02  3.04516637E-01  7.17882650E-02  5.11134535E-02
 -3.78707638E-01 -8.92866948E-02  3.98274381E-02 -2.94138947E-01 -6.93634680E-02
  1.72798085E-02 -3.00608723E-02  1.27672572E-02 -7.14570110E-02 -2.16391436E-02
  2.71937368E-02  1.04458631E-01 -1.84810375E-01  7.85198976E-02 -4.34844987E-01
 -1.31966850E-01  1.68426136E-01  6.25028344E-02 -1.07336553E-01  4.36331533E-02
 -2.60108748E-01 -7.80033482E-02  9.37709281E-02 -1.75007817E-02  2.35815050E-02
  8.94126295E-03  2.22776040E-02  5.46857715E-02  1.94684720E-02 -1.24370851E-02
  1.45461962E-02 -7.67102712E-03 -2.08143182E-02 -3.24934872E-02 -1.11272718E-01
 -1.49656086E-02  8.49081697E-02  9.69287031E-02  4.43870850E-02 -2.93230673E-02
 -3.61729263E-02 -4.52429974E-02 -6.79838379E-02 -7.52725297E-03 -1.09564968E-02
  2.16790784E-03 -1.06645029E-02  1.82230472E-02  6.97033087E-03  1.05075852E-02
  6.65811185E-03  2.58853292E-02 -1.92703615E-03  2.90294784E-04 -3.65702525E-03
  3.75829470E-03  1.73671509E-02 -5.94443227E-03  3.33438294E-04 -6.00837760E-05
 -5.14251020E-04 -3.37173927E-04  1.63851073E-03 -8.71330282E-04  8.79700413E-04
  7.05572394E-01 -2.55677530E-01  1.50723639E+00 -2.08488836E-01  7.56585806E-02
 -4.45838369E-01 -1.60911132E-01  5.85544743E-02 -3.44963811E-01  7.10056956E-02
 -2.62077445E-02  1.53495120E-01 -1.61525739E-02  8.92911831E-04  1.47725833E-02
  1.27324480E-03 -1.58198158E-02 -6.32506515E-03  1.84713671E-02 -2.20868449E-03
 -1.67917195E-02 -1.66332514E-03  1.87145852E-02  6.88628245E-03 -8.84492491E-03
  1.20167769E-03  7.34571518E-03  8.92282282E-04 -9.13978618E-03 -3.05228299E-03
 -4.41971827E-01  1.48040986E-01 -8.84739082E-01 -1.80877856E-01  6.43793371E-02
 -4.08837301E-01 -1.57096824E-01  7.41424493E-02 -3.92036590E-01 -1.00361228E-02
  2.56607065E-01 -7.68406633E-02  4.66404954E-01  9.13313845E-02 -3.15073417E-02
  2.26329988E-01  5.90196789E-02 -4.44683594E-02  2.04395285E-01  1.34320865E-02
  1.35052033E-02 -2.15519532E-03  4.31763482E-03 -4.38133335E-03  1.41817362E-03
 -3.52436632E-03 -4.35732279E-03 -3.79576921E-03  6.56565125E-04 -1.34131332E-02
  2.56844495E-03 -5.67590703E-03 -5.61044818E-03  3.59752570E-03  1.46353491E-03
 -1.31307709E-05 -3.75822079E-05 -1.00957301E-04  1.39535725E-03 -2.66319202E-03
  1.29193878E-03 -1.74306833E-03 -6.62339617E-04  2.47084392E-03  3.97746743E-04
  7.17717910E-05  2.50132925E-03  2.58810765E-04 -1.14470209E-03  2.79533061E-03
  8.09128904E-04 -5.06235296E-04  6.60521484E-03  7.70571170E-04  2.33301393E-03
  7.59629042E-03 -9.74994363E-03 -1.05699222E-02  6.59340316E-04 -2.28026541E-02
  8.03288407E-02  1.86044995E-01 -2.63914423E-01 -3.31616188E-01  1.78780924E-02
 -6.42315824E-01 -2.45355030E-02 -5.83270582E-02  8.40609495E-02  1.02142078E-01
 -4.48254157E-03  1.99208608E-01  7.28701061E-02  4.69933545E-02  1.06490078E-01
  1.69358065E-02 -2.33005512E-01  5.42134879E-04 -1.15910507E-01  1.77918704E-01
 -1.42188625E-01 -2.05278304E-01  1.41819974E-01  6.77428403E-02  1.94188142E-01
  2.92482699E-02 -4.46801820E-01  3.59875164E-03 -2.15240479E-01  3.29229277E-01
 -2.68367315E-01 -3.87818879E-01  8.52724958E-02  1.46036076E-01  5.56120087E-02
  1.60405211E-01 -7.57438739E-02  4.72112014E-02  1.19869664E-01 -6.40380198E-02
  1.02683956E-01 -2.92475276E-02  1.29406880E-02 -4.75318293E-02 -7.25435062E-03
 -2.83357640E-02  1.34146157E-02 -5.13674139E-03 -2.03061793E-02  1.51163193E-02
  3.27051307E-01 -6.73987795E-01  3.64226723E-01 -5.00798361E-01  1.39439259E-01
  3.29646880E-02 -5.99156683E-02 -4.28091629E-01 -1.01140661E-01  1.83725463E-01
  3.03000713E-01  7.17550900E-02 -1.30389410E-01  2.91318683E-01  6.91081208E-02
 -1.25681945E-01 -1.54194909E-01  8.44908245E-02  4.93058463E-02 -6.88207367E-02
  1.25004104E-01  3.05100261E-02 -6.36459561E-01  7.76787911E-01  5.72061244E-01
 -4.06357715E-01  7.36025551E-01  1.79311756E-01  4.89138918E-01 -2.25099789E-01
 -1.07217692E-01  2.03045510E-01 -3.62233374E-01 -9.33564912E-02  3.82786032E-01
 -6.67383984E-02  4.90147911E-02 -9.47690686E-02  1.80417632E-01 -3.03425709E-01
  4.70500456E-02  1.97718382E-02  3.55460006E-02 -1.09571556E-01 -2.17231748E-01
 -1.29751210E-01  2.40958649E-01 -2.26514235E-01  5.71649327E-02 -1.19206230E-01
 -1.80927816E-01 -4.93963453E-02  9.94883258E-02 -5.55574879E-02 -1.92280932E-01
 -7.64037819E-02 -1.51935418E-01 -8.09233051E-02 -3.18069291E-01 -3.27547897E-01
  6.06007672E-02 -1.44660746E-01  1.90377212E-01  4.58574874E-02  3.56695083E-02
  8.41455433E-02 -1.25685075E-01  7.04815413E-02  3.75035029E-01  1.90673414E-02
 -2.23024354E-02  3.79974507E-03  1.03492256E-03 -2.33421953E-03  1.79607732E-03
 -6.15024068E-04 -1.91400035E-04  3.37639001E-05 -7.11019616E-04 -4.30505785E-02
  1.83433153E-02 -8.91668544E-02  1.10788333E-02 -4.62265660E-03  2.29481151E-02
  2.36218448E-03 -1.08928184E-03  5.34070051E-03 -2.48224130E+00  2.02828591E-01
  2.27753407E+00  2.12505999E-01 -2.45043440E+00 -9.69904086E-01  9.37028179E+00
 -7.69044466E-01 -8.60183575E+00 -8.01453983E-01  9.24980620E+00  3.66204155E+00
 -9.11972996E-01  7.28900856E-02  8.38012228E-01  7.81421214E-02 -9.00005774E-01
 -3.57507268E-01  6.58195969E-02 -3.12871527E-02  4.58100250E-03  3.31814219E-02
 -5.10941708E-03  2.90653367E-02 -7.08652462E-02  2.57820155E-02  7.07087089E-02
  2.37140422E-02 -4.97749712E-02  1.33690119E-02  3.72062768E-02 -1.22791919E-02
 -1.81367154E-03 -1.32330930E-02  8.20278686E-02 -1.76636899E-02 -3.16475901E-02
 -2.49801069E-02  4.89335949E+00 -1.36201491E+00  1.58022547E+00 -1.38062838E+00
  4.46160886E-01 -3.51976932E+00  1.71461952E-01 -1.57283219E+00  3.03825688E-01
  2.75616977E-02 -6.62771400E-01 -1.44765223E+00 -3.48600246E+00  2.76677288E-01
 -5.51872259E+00 -4.01515164E-05 -1.44445575E-04 -2.03111275E-04  3.07474171E-03
 -4.66194358E-03  1.17387832E-03 -4.52750144E-03  2.09869997E-03 -3.25240549E-02
 -1.24356237E-02  2.33792807E-02 -2.96136263E-01 -1.11060964E-01 -3.14823293E-02
  4.15427086E-01  1.56864013E-01 -2.95309397E-02  3.95533650E-01  1.49778943E-01
 -2.74133165E-02  8.46496580E-02 -5.72531450E-02  2.06241015E-01  8.51886982E-02
 -6.88271117E-02 -1.27857127E-01  4.06733298E-01 -2.71906235E-01  9.96311511E-01
  4.11186492E-01 -3.24378844E-01  6.21862560E-02 -1.88124117E-01  1.29558453E-01
 -4.68607512E-01 -1.93206508E-01  1.51032963E-01 -8.24180254E-02  1.15949465E-01
  9.26267558E-02  2.13994848E-01  4.77207180E-01  2.13832132E-01 -1.57444808E-01
  7.64101598E-02 -7.10754741E-02 -1.72219681E-01  4.82080372E-02 -5.07881067E-01
 -1.95271137E-01 -8.34435958E-03 -2.80674496E-01 -1.09258382E-01  3.24027971E-02
 -2.24696879E-01 -7.76048449E-02  1.96322349E-02  1.92896478E-01  1.58855088E-01
 -4.70721657E-03  1.51443295E-01 -3.06918335E-01 -1.46892387E-01 -1.80712410E-01
 -1.59462796E-01 -4.54571206E-01 -1.86936300E-02 -3.85487197E-02  7.45557434E-02
 -8.69758809E-02 -2.64751489E-01  5.29212595E-02  3.27984200E-04  7.51770743E-03
  5.30150191E-02 -2.67469837E-01  3.95918842E-01 -1.33371313E-01  1.75569166E-01
 -1.25489898E-02 -2.92028546E-03  5.06140798E-03  3.00148358E-02  6.43623664E-03
 -8.49005507E-03  8.17529250E-03  2.13161636E-03 -4.99649322E-03 -1.89340791E-02
 -4.48725539E-03  8.53271701E-03 -2.91013081E-03 -1.22625267E-01  1.37157405E-01
 -6.61159809E-03  1.10146346E-01 -6.33115781E-02 -3.26441898E-01  9.64896356E-02
 -1.85880825E-01 -8.57327673E-02  6.03207789E-02  9.37496950E-02  2.94352965E-02
 -8.68511378E-02 -1.67445773E-02  2.48572707E-02 -2.29351733E-02 -2.47596778E-02
  1.48648745E-01 -1.93952977E-01 -2.61995286E-01 -3.47472078E-01  6.47447550E-02
  2.66342433E-01  1.29892583E-01  1.91817163E-01  8.83769734E-02 -1.37468160E-01
 -9.60394681E-02  9.77058107E-02  9.42410784E-02  1.72025380E-01 -5.06028769E-02
 -7.57356673E-02 -5.15628659E-02 -8.23370186E-02 -4.76332014E-02  7.45590753E-02
 -3.40845094E-02  1.79650680E-01 -4.57965964E-02 -2.43804335E-01 -2.98084399E-01
  7.54431963E-01 -3.52520930E-01 -7.62579874E-02  3.47389383E-01  1.69663341E-01
  1.26892731E-02  4.55291107E-01 -8.04620008E-01 -3.49769193E-03 -1.70693608E-01
 -3.48702083E+00  2.74836484E+00  3.93667065E+00 -4.67982271E+00 -1.03390907E+00
  2.32400211E+00 -3.86282042E-01  4.28357947E-02  1.01567509E-02 -1.80534423E-02
  7.78451510E-02  1.85238560E-02 -3.10601846E-02 -3.59770057E-02 -8.71479511E-03
  1.41693266E-02 -5.26677234E-02 -1.25738320E-02  2.16526705E-02  1.62070423E+00
  9.19124267E-01  1.15690397E+00  1.79613015E-01 -2.70570107E-01 -1.15014328E-01
 -3.46477760E+00 -1.49391119E+00 -2.15431385E+00 -5.06023644E-01  7.65884154E-01
  3.21508156E-01 -1.58022737E-01 -2.35360935E-01 -2.06793651E-01  1.93682184E-02
 -2.80568498E-02 -1.30995533E-02 -8.14611850E-02 -3.02566567E-02  3.42280587E-02
 -5.55199175E-02 -3.53792481E-03  1.59360887E-02 -3.84837415E-02 -4.09856436E-03
  2.16673795E-02 -6.95270137E-03  6.47310074E-02  1.05722456E-02  9.44476504E-04
  2.23838846E-02  1.76911685E-02 -4.53952175E-02  1.46987123E-02 -2.25115009E-03
 -6.89076389E-03 -4.31612254E-03  1.21109703E+00 -1.09696606E-01  5.99731410E-01
 -1.28284507E-01  8.30589234E-01 -2.45877501E-01  6.65354517E-02 -1.28277684E-01
  2.00783842E-01  9.30115854E-01 -4.93532020E-02  8.36392073E-01 -3.06087676E-01
  1.79174479E-01  1.92290330E+00  1.69856035E-03  1.78021675E-02  5.89415414E-02
 -3.21619733E-01  3.64890796E-01 -2.14740495E-02  1.74130016E-01  4.29818240E-02
  1.01387206E-02 -1.82382777E-02 -4.84886728E-01 -1.14075538E-01  2.04263542E-01
  1.78222752E-01  4.18018800E-02 -7.49974850E-02 -6.24211851E-02 -1.46725602E-02
  2.66010346E-02  3.22815192E-01 -2.41950481E-01  1.95328160E-02  1.32389431E-01
 -1.61035819E-01 -1.02975810E-01 -4.02599636E-01 -5.07111346E-01  3.67516991E-01
 -1.00902750E-01  5.22979365E-01 -1.66089517E-01  8.50552366E-02 -2.87134347E-02
 -1.13438053E-01  4.77408685E-02 -1.25769192E-01  3.60850552E-03  3.09980469E-01
 -1.94508108E-01 -5.52690877E-01 -3.67731729E-01  5.02999090E-02  5.16240280E-01
  3.34130384E-01  3.00419373E-01  6.53897485E-02 -1.48013024E-01 -5.62739540E-02
  2.18626304E-01  3.36747612E-01  4.10042092E-01 -3.56951889E-02 -4.23834206E-01
 -1.64687186E-01 -2.17332267E-01 -1.00939806E-01  1.30245515E-01 -3.02854169E-01
 -3.43678123E-03 -1.01713886E-02  5.02874171E-02  3.34625345E-01 -6.60062251E-01
  7.08743297E-02 -2.19060532E-01  1.90879663E-01 -1.53532593E-01  2.96503156E-01
  2.74619800E-01  4.22111005E-01 -2.57876975E-01 -5.82177074E-02  2.49105175E-05
  5.61089848E-05  1.10607561E-03 -4.72150571E-03  6.76296381E-03 -2.51938682E-03
  3.00534435E-03 -3.44371204E-04 -1.23750749E-02 -7.51392982E-03  5.83565007E-03
  2.60609643E-01  1.60163542E-01 -8.52981369E-04 -7.66103865E-02 -4.56145928E-02
  4.91327967E-04 -1.78939329E-03  5.21584308E-04  1.28072082E-02  8.43619786E-02
 -9.68366142E-02  2.04101758E-01  1.27686594E-01 -5.79000138E-02 -2.17361100E-02
 -1.50576823E-01  1.65319916E-01 -2.80740701E-01 -1.79684292E-01  1.28552383E-01
  4.55595266E-03  3.65378671E-02 -4.22750527E-02  7.04226276E-02  4.43632411E-02
 -3.24952827E-02  3.56950292E-02 -3.12418156E-01 -9.61119680E-02  2.04424905E-01
  1.88696674E-01  1.34894851E-01 -2.60629563E-01 -1.03445448E-01 -2.12427058E-01
 -1.76704657E-01 -1.03199420E-02  4.18091280E-02 -3.94771469E-03 -4.41912408E-02
 -2.51714659E-02 -2.81716205E-02  5.78988398E-02  8.31128637E-04  5.04135312E-02
  4.94867510E-02 -3.53166224E-01 -2.04192751E-01 -1.24642554E-01 -1.43696520E-01
  4.07804421E-01 -3.05155948E-02  1.55954375E-01  4.75564220E-01  4.40319152E-01
  6.18936639E-01  3.53797745E-01 -4.76489211E-01 -2.38320996E-01 -4.28892972E-01
 -7.21130873E-02  2.32314619E+00 -2.64493488E+00  5.92295495E-02  8.40720149E-01
 -7.82144357E-01  3.60868094E-01 -3.28115809E-01 -2.35244638E-03 -5.04693926E-04
  8.27291413E-04  4.94938276E-03  4.78197272E-04  2.70174999E-03  2.84333693E-02
  6.71328641E-03 -1.29781217E-02  1.21197291E-02  2.88153305E-03 -5.57079844E-03
  2.20184491E+00 -2.04412013E+00 -6.48946914E-01  1.09218111E+00 -1.63647929E+00
 -6.56944034E-01 -8.29096292E+00  7.13852052E+00  1.89130116E+00 -3.94090603E+00
  5.82237959E+00  2.41638585E+00  8.07441151E-01 -6.52337537E-01 -1.43278141E-01
  3.70941884E-01 -5.41825277E-01 -2.30347061E-01 -6.05760948E-02  8.86673966E-02
  1.21578587E-01  1.69358469E-01 -3.29044828E-02 -1.35470623E-01 -7.35588936E-02
 -8.19628077E-02 -3.89134796E-02  6.13897878E-02  2.07311061E-02 -8.47675025E-02
 -1.14874877E-01 -1.62663361E-01  1.95135257E-02  1.47359781E-01  5.88606067E-02
  7.66758559E-02  3.80583021E-02 -5.24752849E-02 -9.53937093E-01 -8.85984768E-01
 -1.45562497E+00 -9.58517019E-01 -4.04188964E+00 -2.07552455E+00  5.99988786E-01
 -9.99367093E-01  1.55094626E+00  1.17013848E+00 -3.89917796E-01  3.43484334E-01
 -2.28099175E+00  1.46633528E+00  4.84152753E+00 -4.14154274E-03 -1.67384128E-02
  1.60121732E-02  2.31766195E-01 -4.89288648E-01  2.62088645E-01 -3.14672047E-01
 -1.03235523E-01 -2.44035889E-02  4.43374181E-02  3.63338375E-01  8.59237027E-02
 -1.55754126E-01 -1.65330472E-01 -3.90509026E-02  7.13956902E-02 -2.38400550E-01
 -5.60367585E-02  1.02139895E-01 -1.63721933E-01  1.10585289E-01  2.66460456E-02
 -7.13894384E-02  1.10634766E-01  4.28168250E-02 -6.82283193E-01  7.99544488E-01
  3.81833510E-01 -3.91634145E-01  6.21084450E-01  2.23717696E-01  4.71271041E-01
 -3.36320810E-01 -9.36485294E-02  2.10856171E-01 -3.27617285E-01 -1.24902770E-01
 -3.66827008E-01  8.42324868E-02 -1.14761745E-01  1.30997823E-01 -2.03034068E-01
  3.61989010E-01 -1.31398360E-02  1.88779089E-03 -4.75445705E-02  1.22921484E-01
  6.95975001E-02  9.39212558E-02 -2.38399590E-01  1.71378310E-01 -9.38979962E-02
  2.15968543E-01  1.35725873E-01  6.17927428E-02 -6.87409889E-02  6.32705947E-02
 -1.04115715E-01 -1.01888771E-01 -1.36488039E-01 -8.59277697E-02 -3.39583022E-01
 -3.14634229E-01  7.13262517E-02 -1.22636253E-01  1.71393588E-01  6.03938461E-02
  2.98262058E-02  5.88682642E-02 -5.28356154E-02  6.48482123E-02  3.85194698E-01
  7.89176684E-05  1.00094958E-04  2.57120460E-03 -1.10239806E-02  1.54069365E-02
 -5.07254275E-03  7.43185155E-03 -6.29099913E-03  7.12462680E-03 -9.58397089E-03
  1.24248642E-01 -1.51578969E-01  2.07236802E-01 -3.34735691E-02  4.36568682E-02
 -5.77656171E-02  9.66400045E-04  9.48213004E-05  2.78453084E-03  1.77458933E-01
 -4.87468475E-02 -1.28203831E-01 -9.68859817E-02  1.32466938E-01  9.41726182E-02
 -2.56854181E-01  5.69376706E-02  1.83960740E-01  1.31823637E-01 -1.70799634E-01
 -1.62286741E-01  6.15658449E-02 -1.74679758E-02 -4.77954666E-02 -3.22559549E-02
  4.11279780E-02  4.01013523E-02  2.65162815E-01  1.93540226E-01 -1.77459165E-01
 -1.71000995E-01 -2.38192802E-02  2.32267438E-02 -3.44606657E-01 -4.10229115E-02
 -5.41194145E-02  2.21103665E-01 -5.27549516E-02 -3.02519631E-02  1.79004316E-02
  2.69289719E-02  1.56049978E-03 -6.48501384E-03  5.38712900E-02  2.22870242E-02
  2.17020422E-03 -4.91240957E-02 -4.75700263E-01  1.54427521E-01 -1.14043857E-01
  2.56338039E-01 -2.07499511E-01 -6.54745627E-02  2.91832470E-01 -7.54068222E-02
 -2.06830265E-01  8.25689093E-01 -4.26952559E-01  4.47288919E-01  1.97595127E-01
 -7.09433773E-02 -6.30607002E-01 -6.71000029E-02  6.87839189E-02  4.65253751E-02
 -1.60131966E-01  2.02352509E-01 -5.87009903E-02  7.32310854E-02  1.28354419E-02
  3.07106936E-03 -5.64569950E-03 -1.48375531E-01 -3.55437754E-02  6.44930166E-02
  5.06180611E-02  1.18973974E-02 -2.09994347E-02 -8.64359888E-03 -2.00215737E-03
  3.60458436E-03 -2.11996095E-02  2.45008358E+00 -2.43349113E+00  1.35686913E-02
 -1.81731550E+00  1.16897160E+00  8.52125837E-02 -8.87212209E+00  8.65404087E+00
 -2.15249329E-02  6.46904797E+00 -4.20341461E+00 -5.50888336E-03  8.60264725E-01
 -8.78959476E-01  9.60141130E-03 -6.57450964E-01  4.14895753E-01  7.18567281E-02
 -1.19468189E-02 -7.61596503E-02 -2.06794382E-02  8.83212226E-03  4.87068212E-02
  5.00130031E-02  3.73086666E-02 -8.13410650E-04 -1.43278412E-02 -1.25782709E-02
  4.13093128E-02  4.32407471E-02  7.41570418E-02 -1.21476604E-02 -5.59019590E-02
 -1.86618738E-02 -3.37267656E-02 -2.05527620E-02  2.42740868E-02 -4.96119517E+00
  1.58249731E+00  1.30129523E-02  1.51844829E+00  4.98967438E+00 -2.38303845E+00
 -4.64989247E-02 -1.11921437E+00  1.02337021E-01 -1.46917372E+00  7.62141383E-01
  1.56087049E+00 -2.40618842E+00 -5.81817718E-02 -1.55576729E-01
Total SCF Density                          R   N=        2628
  6.62547854E-01  4.76414026E-03  9.71291052E-04  4.50045344E-01  6.18589821E-03
  3.18911940E-01  1.96681518E-01  2.38505540E-03  1.36529448E-01  6.07400012E-02
 -6.47753412E-02 -1.27405765E-02 -9.07869449E-02 -3.23678281E-02  2.07302641E-01
 -1.26067763E-01 -2.05638664E-02 -1.56606229E-01 -6.62142215E-02  3.12473857E-01
  5.41936762E-01 -6.12926320E-02 -9.76004943E-03 -7.49662952E-02 -3.56715488E-02
  1.39074600E-01  2.75907481E-01  1.57413778E-01 -5.95334436E-05 -1.30297678E-05
 -7.78390242E-05  1.27646856E-04  5.49588559E-04 -5.81803043E-04 -8.28423947E-04
  2.51265036E-01 -1.30431100E-05 -3.82036870E-06 -1.78739041E-05  6.58458896E-05
  1.11104825E-04 -2.05057990E-04 -3.17166962E-04  2.44744613E-02  1.53865366E-01
  2.42402750E-05  5.35753090E-06  3.16850266E-05 -4.96686073E-05 -2.36734767E-04
  2.45302736E-04  3.41101124E-04 -4.45969477E-02 -1.05807654E-02  1.67349470E-01
 -4.03073033E-05 -1.12168495E-06 -8.51828647E-05 -6.44043897E-05  5.29826424E-04
 -3.18341070E-04 -8.58851086E-06  2.42159577E-01  2.22295756E-02 -4.05136559E-02
  2.35343231E-01 -8.27458966E-06 -9.74834235E-07 -1.93004235E-05  2.06617177E-05
  1.05860671E-04 -1.43847748E-04 -1.24232750E-04  2.22309207E-02  1.53703493E-01
 -9.61452311E-03  2.04348292E-02  1.54036711E-01  1.55961344E-05  2.16022427E-07
  3.42304447E-05  3.16929609E-05 -2.26115115E-04  1.34748712E-04 -8.03381077E-06
 -4.05118961E-02 -9.61068086E-03  1.65960922E-01 -3.72432394E-02 -8.83660078E-03
  1.65309557E-01 -9.15729476E-05 -1.65630097E-05 -1.20512061E-04 -1.20842003E-04
  3.26719103E-04  4.43817512E-04  6.66053513E-04  2.18198904E-01  2.14198433E-02
 -3.90270709E-02  2.13524823E-01  2.02314272E-02 -3.68617565E-02  2.05704151E-01
 -2.09767154E-05 -4.68301366E-06 -2.82409455E-05  4.71084626E-06  5.96181334E-05
  4.39903818E-05  4.51585983E-05  2.14196656E-02  1.33022911E-01 -9.25942175E-03
  2.02255644E-02  1.33086049E-01 -8.74321518E-03  2.15586927E-02  1.20001562E-01
  3.77916781E-05  6.78926861E-06  4.96061604E-05  5.82496151E-05 -1.41035369E-04
 -1.94210537E-04 -3.04154377E-04 -3.90478047E-02 -9.26331689E-03  1.44812720E-01
 -3.68676746E-02 -8.74861011E-03  1.44223910E-01 -3.92830214E-02 -9.32106885E-03
  1.31861414E-01 -2.94206846E-05 -1.23063873E-05 -2.03417307E-05 -1.27196809E-05
 -4.16681543E-05  3.65441871E-04  3.59537068E-04  1.01375209E-01  1.44477813E-02
 -2.63547863E-02  9.85992734E-02  1.37969281E-02 -2.51717060E-02  9.78678177E-02
  1.43606666E-02 -2.61976506E-02  4.81451254E-02 -6.20062274E-06 -3.09008381E-06
 -4.10025117E-06  8.49234355E-06 -1.69240470E-05  6.36904032E-05  4.60023919E-05
  1.44591158E-02  4.38516567E-02 -6.24562864E-03  1.38053999E-02  4.36763939E-02
 -5.96451461E-03  1.43695941E-02  4.07123602E-02 -6.20889851E-03  8.47605007E-03
  1.44058129E-02  1.30651559E-05  5.27592919E-06  9.22088283E-06  9.28151198E-06
  1.51439069E-05 -1.63564354E-04 -1.66828370E-04 -2.63660655E-02 -6.24389884E-03
  5.18007136E-02 -2.51749099E-02 -5.96296624E-03  5.12702338E-02 -2.61977522E-02
 -6.20577559E-03  4.86132063E-02 -1.54592646E-02 -3.66122295E-03  1.90666473E-02
 -2.90679873E-03 -2.27465862E-04 -2.27346058E-03 -1.07248219E-03  3.88978590E-03
  5.03667458E-03  1.50383889E-03  1.21474275E-05 -2.04276074E-05  3.73787887E-05
  6.12648740E-05 -6.51977218E-06  1.14458140E-05 -3.75423392E-05 -8.93634892E-07
 -2.62205361E-07 -8.67196948E-05 -1.79056829E-05  3.18625155E-05  3.00595435E-04
 -1.23720663E-03 -1.30165683E-04 -7.35996514E-04 -5.75097539E-04  1.85758067E-03
  3.12058143E-03  1.18814869E-03  2.26645271E-05  2.88772542E-05 -9.01030108E-06
 -2.89908597E-05  1.45121239E-05  1.29836209E-05  1.39708296E-05 -3.71187247E-06
 -5.43442809E-06  4.89974743E-05  9.24740550E-06 -2.07281929E-05  1.14958126E-04
  2.21589471E-04 -1.46942660E-03 -1.42707412E-04 -9.52459497E-04 -6.48888131E-04
  2.14663527E-03  3.38706034E-03  1.24037949E-03  1.85154531E-05  5.26514609E-06
 -5.06020121E-05 -2.77788922E-05 -5.78865086E-06 -2.57583413E-05  1.96248293E-05
  4.81663221E-06  8.29975562E-06  3.97729327E-05  9.51216945E-06 -1.15331235E-05
  1.10449211E-04  1.01955593E-04  2.36223610E-04 -4.84239913E-04 -2.83941044E-05
 -4.45541848E-04 -1.43418286E-04  5.88109023E-04  5.56283339E-04  9.04648861E-05
 -1.84990287E-05  4.53472650E-05  1.25887175E-05  1.35791063E-05  4.81979780E-05
 -1.37943129E-06 -9.75812348E-06 -2.22203097E-05  2.02587658E-06 -3.81656800E-05
 -1.53964119E-05  1.55347909E-05  6.33838576E-06  1.74436749E-05  1.91243712E-06
  1.06627578E-04  8.81925343E-04  5.21292623E-05  8.10503937E-04  2.59336150E-04
 -1.06826003E-03 -1.01421923E-03 -1.62021874E-04  3.90588897E-05  1.43993892E-05
  3.09327355E-05 -2.33512797E-05 -4.85876136E-07  5.19338325E-05  2.08229779E-05
  3.68750759E-06 -2.63834940E-05  7.23711184E-05  1.66000147E-05 -3.63638197E-05
 -1.21040621E-05 -7.50648403E-06 -2.79507658E-05  2.25303331E-06  1.04624260E-04
  2.09555326E-04  1.20168187E-05  1.93460187E-04  6.33091854E-05 -2.56075313E-04
 -2.40527721E-04 -4.12652575E-05  1.18432333E-05 -2.14576992E-05  8.97535068E-06
 -5.86003520E-08 -2.15767644E-05  1.23136426E-05  7.93608388E-07  8.85734717E-06
 -5.69399919E-06  1.40471218E-05  6.22026262E-06 -7.69677022E-06  3.47841929E-06
 -7.19503645E-06 -6.88430216E-06 -1.32304486E-05  4.77199958E-06  8.35940456E-05
 -8.74536101E-03 -1.04356763E-03 -1.12978662E-02 -1.33592931E-03  2.26019985E-02
  1.54575470E-02 -2.66180853E-03  3.22188863E-04  1.24605277E-04 -6.07383228E-05
  1.58332011E-04  1.18638430E-04 -5.32580896E-05 -2.03835885E-04  1.11488716E-04
 -5.61850658E-05 -2.65642812E-04 -1.52515561E-05  7.94024657E-05  7.27378559E-04
 -6.83037012E-05 -4.86266673E-05  1.11018942E-04 -2.01705863E-04 -1.64659326E-05
  1.04044752E-02 -1.45918691E-02 -1.24771136E-03 -1.59037424E-02 -3.81691417E-03
  2.42644551E-02  2.38316015E-02  4.23253879E-03  1.23074244E-04  1.22404750E-04
 -4.08011214E-05 -2.52082814E-04  1.60011674E-06  1.18326269E-04 -2.88409935E-04
 -9.29293683E-05  1.36216558E-04 -1.82976150E-05 -6.96420833E-06  1.39427236E-05
  3.53779702E-04  1.09092369E-04 -1.08068298E-06  1.93841641E-04 -2.14263182E-04
 -8.13181779E-05  5.53651436E-03  8.10569755E-03 -1.37900493E-02 -1.21761466E-03
 -1.52754790E-02 -3.51368941E-03  2.40711723E-02  2.26992066E-02  3.36681267E-03
  1.12935820E-04  9.94270536E-05 -1.02913805E-04 -2.43885308E-04  1.47287184E-05
  1.13114246E-04 -2.20728882E-04  1.27853609E-05  2.64874386E-04 -2.93763920E-05
  1.49795391E-05  5.87143116E-05  3.20227826E-04 -5.77385914E-05  2.24432388E-04
  1.07333376E-04 -3.36669536E-04 -7.89952503E-05  5.43660636E-03  4.94375108E-03
  8.48928255E-03  1.69755153E-03  5.89547412E-05  1.33797966E-03  7.26462991E-04
 -4.89280567E-04 -2.43351307E-03 -2.01463744E-03  3.87211567E-05  6.77834348E-05
 -1.24167873E-05  1.25302852E-04  1.55288451E-05 -5.60869169E-05  7.66167995E-05
 -1.80033963E-04 -5.29247142E-05 -5.94081263E-05 -6.71580997E-05  1.96600630E-05
 -1.22919029E-05  6.90768668E-05 -1.42677917E-05  2.51075241E-04  2.49491947E-05
 -6.80021220E-05  2.08212499E-04  4.77999382E-04  1.39586217E-04  2.71142477E-03
 -3.09612993E-03 -1.06717111E-04 -2.44178178E-03 -1.33986211E-03  9.07525209E-04
  4.44394805E-03  3.70652911E-03 -7.63591275E-05 -1.96092590E-05  1.01417863E-04
 -2.46087715E-04 -6.60974247E-05  1.04737262E-04 -1.40075931E-04 -5.68653471E-05
 -1.15529988E-04  1.10899535E-04  1.89062437E-05 -9.22703015E-05  2.51702943E-05
  7.41626177E-06 -1.08239254E-04  2.63792806E-05  2.18242833E-04  2.38698625E-05
 -4.01239435E-04 -3.55517644E-04 -7.88032864E-04  6.10932909E-05  2.65585807E-03
 -7.31482881E-04 -2.58913734E-05 -5.75344610E-04 -3.03407490E-04  2.00625215E-04
  1.04327178E-03  8.46774672E-04 -6.36065644E-06 -3.59780599E-05  2.54773086E-05
 -4.44239450E-05 -8.75346352E-06  2.09069770E-05 -5.91956021E-05  7.58734384E-05
 -2.53417351E-05  1.57888696E-05  2.70404077E-05 -1.95426151E-05  3.72302652E-05
 -3.04866162E-05 -2.62027233E-05 -7.35570599E-05  2.44159387E-05  1.27014370E-04
  5.20851977E-05 -1.98076891E-04 -1.84408897E-04 -2.74796411E-04  9.96039366E-05
  2.21722420E-03 -2.49086578E-03 -2.97002756E-04 -2.88060055E-03 -6.32424617E-04
  5.41467854E-03  5.69675024E-03  8.87417077E-04 -2.06234545E-04  4.33200427E-05
 -2.96433936E-07  1.67702357E-04  1.46198510E-04 -1.89300316E-04  6.56212899E-05
  1.44303826E-04 -1.92673990E-04 -2.60359846E-04 -3.17881374E-05  8.07555187E-05
  2.64454229E-04 -1.81336584E-05 -2.59270080E-05  7.99769413E-06 -1.69723432E-05
  6.15160301E-06  2.16861058E-03  9.73012852E-04  8.87848787E-04 -4.33726330E-05
  7.54129518E-05  8.07233841E-05  1.10504142E-03 -1.29844136E-03 -1.22846230E-04
 -1.55631061E-03 -1.03064139E-04  3.24667936E-03  1.02284049E-03 -1.35844504E-03
 -3.36077505E-05 -1.64412651E-05  2.44069021E-05 -3.95413805E-04 -1.16436833E-04
  1.78390383E-04 -3.39313378E-04 -1.29490543E-04  1.55299299E-04  5.40517608E-05
  8.01925757E-06 -1.95957350E-05  4.46035026E-05  1.32905311E-04 -2.90884016E-05
  4.63952762E-05 -4.68157155E-05 -2.15641974E-05  1.05164173E-03  1.67971295E-03
  8.39704051E-04  2.06461493E-04 -1.33530871E-04 -8.88354991E-05 -1.91436790E-04
  1.08580452E-03 -1.46113873E-03 -1.48567064E-04 -1.73429254E-03 -1.51935139E-04
  3.52207454E-03  1.66861979E-03 -1.11330279E-03  1.17552218E-04  7.24225502E-05
  5.03792000E-05 -2.11032700E-04 -5.14367528E-06  2.20248088E-04 -1.76070034E-04
 -1.72677284E-06  2.53566572E-04  7.94078013E-05  3.36374748E-05  2.96355191E-06
  3.29507775E-05 -3.85608040E-05  1.66807558E-04  2.30595301E-05 -7.79732246E-05
 -1.77499335E-05  9.96499945E-04  8.53944610E-04  1.85916856E-03  4.63402659E-05
 -3.31976258E-04 -7.78276711E-05 -1.67506992E-04 -1.26647493E-04  1.07999410E-03
 -3.46437387E-04 -5.02702685E-05 -3.85268507E-04 -1.57528293E-04  6.33287430E-04
  1.35646066E-03  6.62236247E-04 -3.69828380E-05 -1.34819474E-04 -1.48848576E-06
  1.96302871E-04 -1.11536579E-04 -1.03537346E-04  1.69923942E-04 -1.74849896E-04
 -9.84446292E-05 -8.71765962E-05 -6.16521596E-05  3.07785678E-05 -1.11880878E-05
  3.02908568E-05  1.34163036E-06  1.61051885E-04  1.57450347E-05 -1.84072234E-05
 -7.34671014E-05  1.86695905E-04  7.78840964E-06  8.26856387E-04  1.02298687E-04
 -1.24748441E-04  2.58492902E-05 -3.00709459E-05 -4.89774889E-06  8.24739331E-04
  6.32178511E-04  9.09579832E-05  7.04196470E-04  2.96455513E-04 -1.16363873E-03
 -2.47197354E-03 -1.23134623E-03  1.21026661E-04  1.45693550E-05 -1.45382474E-04
 -3.31654147E-04 -9.44266588E-05  1.43102918E-05 -2.90558342E-04 -8.99076868E-05
 -5.59775977E-05  1.78067765E-04  3.68432046E-05 -1.07330146E-04  2.04035775E-05
 -1.25081132E-05 -4.40505550E-05  1.57055481E-05  1.38419223E-04  4.03593898E-06
  1.47731264E-04 -6.78967539E-05 -2.71815180E-04  1.01422707E-04  6.92450608E-04
  2.40526518E-05 -4.98804600E-05  3.78736982E-05  3.56183582E-05 -2.64472999E-05
  8.46109155E-04  1.49168741E-04  2.21615493E-05  1.65166654E-04  6.16058633E-05
 -2.67072001E-04 -5.86325948E-04 -2.68962695E-04 -3.46755115E-05  4.94398339E-05
 -1.20922207E-05 -1.19201866E-04  4.66780230E-05  1.42442148E-05 -1.10068285E-04
  7.15234152E-05 -5.62188109E-06  1.73287120E-05  2.57491409E-05 -1.66489970E-05
  1.16925824E-05 -1.21257168E-05 -9.19130249E-06 -1.40023198E-05  5.26387136E-06
  1.22931648E-04  7.74667997E-05 -7.84455504E-05 -7.12798002E-05 -1.08381143E-04
  2.73448585E-05  6.04007133E-04 -2.18408426E-05  3.41390862E-06  1.66897483E-05
  1.65818107E-05  1.04498970E-05  8.27812272E-04  6.39740371E-06  1.29659150E-06
  4.21271365E-06 -1.51094405E-06 -3.53485786E-05  3.21052756E-05  2.56666470E-05
 -1.66175440E-04  1.36161487E-04 -2.48731888E-04 -1.54696132E-04  9.97948242E-05
 -1.81650930E-04 -7.94605847E-04  7.85451738E-05 -1.42806265E-04 -5.50686595E-04
 -1.06317270E-05  1.95933520E-05  5.71133336E-06 -4.52386390E-06 -5.50573259E-06
  6.95027628E-06 -1.25214730E-05  1.68606625E-06 -1.07037223E-05 -1.33773732E-05
 -9.58259217E-06  2.49679231E-05 -4.18585771E-05  7.67007281E-06  3.75096987E-05
 -1.56255105E-05 -3.25829973E-05  2.54331301E-05 -5.06056827E-05  8.35842871E-06
  2.49393847E-04  1.00290216E-05  8.06529815E-07  1.25065484E-05  1.23427016E-05
 -3.36923926E-05 -3.21354324E-05 -3.23455273E-05  2.87348904E-04  9.34026298E-04
 -1.22881700E-04  1.97235852E-04  1.07002621E-03 -8.39524860E-05  1.31255744E-04
  7.76801459E-04 -5.65384812E-05  1.08267656E-04  2.19543114E-04 -4.66530676E-05
 -6.95967470E-06 -1.33768820E-06  6.44336307E-06  7.18970276E-06  7.96597290E-06
 -3.22639312E-06  3.59834589E-06 -2.03709305E-05  3.44993726E-05  1.12141042E-05
  1.90025612E-05 -4.97425899E-06 -1.17416821E-05 -5.37775403E-06  2.46472432E-05
  7.55756047E-07  2.17925109E-05 -1.85722379E-07 -2.49888063E-05  1.40512568E-04
 -1.40827236E-05 -2.10790881E-06 -2.05071366E-05 -1.19776337E-05  5.37540293E-05
  3.85714202E-05  4.61121304E-05 -4.77600324E-04 -1.15684640E-04  8.54826928E-04
 -3.17646949E-04 -7.72573506E-05  9.44031033E-04 -2.27636663E-04 -5.59153210E-05
  5.87587957E-04 -1.70847726E-04 -4.10450547E-05  1.71696339E-04  7.88624744E-06
 -1.25241067E-05  4.15573634E-06  5.68711017E-06  7.27729312E-06  1.43547556E-06
  6.91293161E-06 -6.12379174E-05  3.84325311E-05  1.93810173E-05  1.48497363E-05
  3.80630359E-06  2.51481899E-05 -4.15749263E-05  4.38441821E-06  2.13628383E-05
 -1.01343273E-05  2.62592920E-06  3.73591222E-05  8.62089723E-06  1.60756541E-04
  1.72404683E-05  1.38190108E-06  2.10611473E-05  2.03668432E-05 -5.76810657E-05
 -5.17028042E-05 -5.09693907E-05  8.95427195E-04 -2.40403269E-04 -2.20044367E-04
  8.07205344E-04 -2.75678667E-04 -1.51961900E-04  5.67369514E-04 -3.65582971E-04
 -1.02764948E-04  2.64197363E-04 -1.15321231E-04 -7.67197428E-05 -3.96139605E-06
 -1.00129832E-05  1.03486031E-05 -5.04974847E-06  1.20614279E-05 -4.96687618E-07
  1.63370222E-05 -4.75279736E-05  5.66397675E-05 -6.77239221E-06  3.03645640E-05
 -1.05747724E-05 -1.34891608E-05 -1.42317874E-05  3.79115272E-05 -7.98245182E-06
  3.47102680E-05 -4.64526156E-06 -1.71784698E-05  1.70512513E-05  1.61409487E-05
  8.71811706E-05 -6.84999739E-06 -5.52945895E-07 -1.06714387E-05 -1.02509430E-05
  2.01744540E-05  3.81700284E-05  3.84495793E-05 -4.42944526E-04 -3.50003818E-04
  3.48566771E-05 -4.03298725E-04 -2.68106226E-04  1.88944169E-05 -4.36767369E-04
 -5.07689282E-04  7.48068421E-06 -2.76291186E-04 -2.54506973E-04  5.13856777E-05
  6.96553603E-06 -2.20558818E-08 -7.66136147E-06 -4.28353748E-06 -7.34867014E-06
 -1.06301104E-05  1.14510395E-05 -9.99622441E-07 -3.61545713E-05 -3.91283116E-05
 -1.88332412E-05 -4.53412454E-05  2.90918979E-05 -3.18571778E-06 -3.71873734E-05
 -3.46408901E-06 -3.13258590E-05 -3.29733488E-05  1.19205035E-05  2.54307191E-05
  4.98361515E-06  1.16213946E-05  1.42289345E-04  1.10649760E-05  1.48725354E-06
  1.99405697E-05  1.42402666E-05 -3.75092421E-05 -6.11689819E-05 -6.78198636E-05
  8.04360704E-04  3.43574868E-05 -3.91602644E-04  7.25792416E-04  1.68782959E-05
 -2.86090584E-04  7.99433595E-04  7.70420807E-06 -5.17911961E-04  5.06610051E-04
  5.20706714E-05 -3.20860778E-04 -9.61767889E-06  1.67924661E-05 -3.20509925E-06
 -6.38889850E-06  2.25279522E-06  6.95414912E-06 -2.62668140E-05  7.55832350E-05
 -9.83439883E-06 -2.14509275E-05 -1.67278845E-05  2.73433976E-05 -5.46051336E-05
  5.51615121E-05  2.02383289E-05 -2.93442186E-05  4.34210465E-05  1.71084806E-05
 -1.75724236E-05  7.14581410E-06  1.81148508E-05  9.58157617E-06 -2.24011745E-06
  1.43168134E-04  9.61037622E-06  1.43975977E-06  1.26668704E-05  7.17558068E-06
 -3.79226073E-05 -1.74706857E-05 -2.22943844E-05  6.78165674E-04  9.07586355E-05
  4.93808480E-04  6.26394024E-04  6.13352340E-05  5.41983406E-04  4.14416852E-04
  4.62510779E-05  6.83362982E-04  1.31048119E-04  2.05816978E-05  2.48970816E-04
  4.68201870E-06  6.20804841E-06 -1.17538113E-05 -2.70540366E-06  2.72821020E-06
 -1.57562839E-06  1.67023814E-05  3.27969194E-05 -4.56779421E-05 -1.21817571E-05
  7.17883448E-06 -1.25754973E-05 -5.50748009E-07  2.05095988E-05 -1.51219680E-05
 -1.13135526E-05  2.10130123E-06 -9.16938649E-06 -9.99023248E-06 -9.77650543E-06
 -2.69730338E-05 -7.72606599E-06 -3.19018862E-06 -2.43630221E-05  9.28878159E-05
  1.69724603E-06  5.29880802E-07  3.12845135E-06 -3.66695852E-08 -8.85055944E-06
 -1.40413730E-06 -4.87238955E-06  8.96763627E-05  3.09043081E-04  1.14799753E-04
  5.79022104E-05  3.73020778E-04  1.27607126E-04  4.64732057E-05  2.28262787E-04
  1.60393263E-04  2.15177648E-05  4.84508893E-05  5.83069938E-05 -9.08325664E-07
  4.62707902E-06 -2.93864997E-06  6.97560884E-06 -2.65229799E-06  9.58346887E-06
 -6.83525323E-06  1.64373080E-05 -1.04520169E-05  1.78572852E-05 -1.16994416E-05
  5.40452475E-05 -7.15471686E-06  9.58623201E-06 -4.83553034E-07  1.12573381E-05
 -5.01595335E-06  2.97786605E-05 -7.49325493E-06  2.08276425E-05 -7.36801769E-06
 -3.73678574E-06  1.26984748E-05  2.18311385E-06  4.79729568E-06  7.66711235E-05
 -7.16303021E-06 -6.77532259E-07 -9.12841226E-06 -7.97495935E-06  2.45981681E-05
  2.13597413E-05  2.18030442E-05 -2.19607653E-04  1.04660352E-04  4.80185923E-04
 -1.51051705E-04  1.19418643E-04  5.20628397E-04 -1.03236766E-04  1.58216203E-04
  3.77179169E-04 -7.72184277E-05  4.97800708E-05  1.19969063E-04  5.16727266E-06
  4.31033964E-06 -8.34438531E-06 -7.24357575E-07 -3.94898607E-07 -5.77032410E-06
  4.32409230E-07  2.10858666E-05 -3.14881892E-05 -1.14595976E-05 -5.39641048E-06
 -3.00146999E-05  1.03516708E-05  7.03390297E-06 -2.18838718E-05 -5.44927106E-06
 -1.07689048E-05 -1.77741465E-05  1.91890825E-05 -7.14682351E-06  1.66220562E-05
 -9.20027692E-06  3.33365779E-06  8.16128440E-06  4.07660160E-06 -7.09659050E-06
  6.79792178E-05  5.88875478E-06  3.84634948E-07  8.11001946E-06  8.58993153E-06
 -1.79498724E-05 -2.70537060E-05 -2.65904138E-05  1.96880209E-04  4.03756257E-04
 -2.55430730E-04  1.58317830E-04  3.91611083E-04 -2.37968032E-04  1.42472513E-04
  4.51558223E-04 -2.59990521E-04  1.23689808E-04  1.85193962E-04 -1.27337537E-04
 -5.01827014E-06  2.76810758E-06  1.85679824E-06 -4.16500796E-06  5.40232478E-06
 -1.19883689E-05 -9.33158951E-07  1.13756782E-05  6.99670643E-06 -1.60034398E-05
  1.33490388E-05 -6.12577104E-05 -1.18643386E-05  1.00032845E-05  8.97918985E-06
 -2.08212478E-05  2.24625434E-05 -3.07309538E-05 -2.50567543E-06 -2.91482614E-06
  1.54368824E-06 -7.62808108E-07 -2.02916431E-05  1.18817353E-05 -4.22085292E-06
 -2.01848479E-05  9.46712301E-06  6.38996519E-05 -7.64087880E-05 -6.53213254E-06
 -1.09494677E-04 -1.13598932E-04  2.62162515E-04  2.91872243E-04  3.97053011E-04
 -2.55254097E-03  4.49332592E-04 -8.23285684E-04 -1.71278087E-03  6.42894150E-04
 -1.17211910E-03 -1.18114047E-03  9.27743404E-04 -1.68734358E-03 -7.31556738E-04
  2.99456860E-04 -5.45354991E-04  7.24054283E-06 -7.66555015E-06 -6.47620552E-06
  3.19249957E-05 -6.06724393E-05 -4.31601448E-06 -9.11780014E-05 -7.14761761E-05
 -9.84272805E-05  7.01591939E-05 -1.39912386E-04  1.28870756E-05  1.03623815E-04
 -8.31589606E-05 -1.40045538E-04  1.43126010E-04 -2.71231767E-04  3.28416769E-05
 -4.46697377E-06 -1.49874128E-05  1.35606663E-05 -1.13109287E-04  1.65424721E-05
 -3.20531568E-05 -9.32194991E-05  7.84167623E-06  5.25380476E-06 -2.07729752E-05
  6.88362651E-04  3.24311646E-05  5.59141347E-06  4.18423985E-05  1.80647861E-05
 -6.99590753E-05 -1.65307778E-04 -9.83940352E-05  7.97567367E-04  6.76441138E-04
 -3.41809738E-04  7.36376361E-04  5.68968036E-04 -3.16377016E-04  9.20329352E-04
  1.18459542E-03 -3.95722805E-04  5.86799325E-04  5.89766172E-04 -2.52097506E-04
 -4.44124584E-06 -1.60826239E-05  2.00329048E-05 -2.08912299E-06  1.51060765E-05
 -4.56338000E-09 -1.52857888E-05 -5.77574505E-05  8.51337235E-05  2.47061344E-05
  6.39196163E-05 -1.90357785E-05 -3.20139319E-05 -7.72206475E-05  1.22047778E-04
  2.89564447E-06  9.30135694E-05 -2.97795170E-07  1.67853332E-06 -2.41248509E-05
 -1.29088835E-07 -1.37971423E-05 -1.56988132E-04 -4.00017039E-08  2.30242489E-07
 -8.47193919E-05  5.22993442E-06  4.16176398E-05 -3.77053795E-05  3.16584901E-04
 -5.18069903E-05 -6.97525549E-06 -6.52961917E-05 -5.15654730E-05  1.29906596E-04
  2.56943648E-04  1.86921348E-04 -1.39809236E-03 -3.33534430E-04  4.11005775E-04
 -1.34589427E-03 -3.21562890E-04  3.11737728E-04 -1.66392578E-03 -3.97355264E-04
  8.54995145E-04 -1.01525791E-03 -2.41352709E-04  5.54178183E-04  1.28611146E-05
 -4.11761797E-05  2.79109765E-05  1.52207124E-05 -1.22118665E-05 -2.75473078E-06
  2.46445121E-05 -1.71642682E-04  8.25796645E-05  5.04571715E-05  2.02874954E-05
 -4.67068422E-06  8.16664364E-05 -2.34720466E-04  1.22732292E-04  9.51484100E-05
 -1.88702752E-05  2.88899574E-06  2.50853878E-07 -1.16327635E-06 -3.02503139E-05
 -3.36500003E-06 -4.19083219E-06 -1.59048471E-04  3.35445274E-05  1.28915664E-05
 -7.89289411E-05 -2.89751185E-05  3.75173943E-05  2.45844323E-05  3.72564125E-04
  4.95690170E-05  9.09362449E-06  6.34687769E-05  2.07050808E-05 -9.94457061E-05
 -2.56685305E-04 -1.34727369E-04  1.64439806E-03 -7.71286630E-04 -6.17134361E-04
  1.54560970E-03 -7.59975363E-04 -5.93307023E-04  2.17301033E-03 -9.48854993E-04
 -7.56406126E-04  1.24444083E-03 -3.00708789E-04 -4.52050479E-04 -8.69272487E-07
 -3.38125809E-05  3.32972006E-05 -1.47612587E-05  2.19895763E-05 -2.83846294E-06
  2.00854502E-06 -1.44711626E-04  1.37130260E-04 -3.87490058E-05  9.86049625E-05
 -2.39056434E-05 -2.62533852E-05 -1.55692025E-04  1.91314137E-04 -3.71139637E-05
  1.47695192E-04 -3.67845965E-05 -1.44498169E-04  1.56193539E-05 -8.34007214E-07
  9.11893834E-05 -1.00392088E-05  2.68404983E-05 -3.54505297E-05 -5.48185923E-06
 -1.80403761E-05  4.33210477E-06 -1.49838968E-04  4.82568379E-05  4.65555606E-05
  3.49753409E-04 -5.75207409E-05 -7.05098797E-06 -7.75058881E-05 -6.37400660E-05
  1.63540664E-04  2.58250309E-04  2.41942391E-04 -1.24882732E-03 -2.02100495E-03
  5.81064494E-05 -8.94888363E-04 -1.93640600E-03 -8.24385868E-05 -9.38871146E-04
 -2.18386094E-03 -1.81669009E-04 -6.93261928E-04 -9.27563667E-04  6.19774151E-05
  2.93151217E-05 -9.63309933E-06 -2.19478345E-05 -3.27413231E-05 -3.10406548E-05
 -2.06601291E-05  2.55861783E-05 -3.37707854E-05 -1.09869293E-04 -9.82768420E-05
 -7.41724918E-05 -8.14656601E-05  1.30462927E-04 -1.61190485E-05 -1.73117107E-04
 -9.60911813E-05 -1.40650937E-04 -1.75924829E-04  3.39666437E-05 -1.02244327E-04
 -2.87661712E-07 -2.24701825E-05  9.41877843E-05 -3.02687767E-05  6.14657096E-06
 -5.45791210E-05  2.19551924E-05  6.18602255E-06  9.29587242E-05 -1.07058167E-04
 -1.49653535E-06  6.10249214E-06  4.20896497E-04  1.08265088E-04  1.19470801E-05
  1.44940944E-04  1.34491189E-04 -3.19845054E-04 -4.78547377E-04 -4.73356105E-04
  2.29736832E-03  6.22717558E-05 -2.10160074E-03  1.65308066E-03 -7.93341120E-05
 -1.83708084E-03  1.70452950E-03 -1.86147723E-04 -1.94357505E-03  1.27559442E-03
  6.45634051E-05 -1.00886075E-03 -5.94884192E-05  5.04172844E-05  1.40408024E-05
 -3.28493088E-05  1.01641769E-05  1.91283494E-05 -4.73989381E-05  2.39789381E-04
  5.52271722E-05 -7.23047476E-05 -2.20158035E-05  6.85185377E-05 -2.49381314E-04
  3.13886333E-04  4.87585194E-05 -1.43002761E-04  1.03333687E-04  1.04228369E-04
 -7.18041514E-05  1.19427952E-05 -1.18347282E-04  2.35174342E-05 -3.34048581E-05
  1.23102326E-04  1.03529145E-05  6.70100325E-06 -4.74873743E-05  1.71545997E-05
 -1.63265878E-04 -5.35360279E-06 -1.65435355E-04  2.39110575E-05 -6.88014100E-05
  5.38109502E-04  1.44220135E-05  2.86138560E-06  1.56636581E-05  4.76617887E-06
 -2.05770161E-05 -8.95798082E-05 -2.39318987E-05  1.08910332E-03  2.78301690E-04
  1.51859353E-03  1.19065910E-03  3.11239486E-04  1.41203268E-03  1.79871807E-03
  4.10118573E-04  1.73746621E-03  8.81795248E-04  1.95281979E-04  6.43289985E-04
  1.22905514E-05  2.15970973E-05 -3.52939092E-05 -4.33410895E-06  1.43484404E-05
 -4.75673090E-06  3.35012309E-05  8.00314508E-05 -1.33350200E-04 -2.46161691E-05
  3.47999932E-05 -1.48897013E-05  2.01538150E-05  1.14960468E-04 -1.42550694E-04
 -4.79400636E-05  6.20139440E-06 -4.86506099E-05 -1.35096649E-04 -2.87082361E-06
 -1.65048295E-05 -3.59404008E-05 -3.10533569E-06  3.88857325E-07  8.64336501E-05
  3.55444679E-06  1.17865438E-05  2.35867193E-06 -1.07709562E-04 -2.02436491E-05
 -6.51624782E-05 -3.45609160E-05 -4.06917398E-06 -4.07689920E-05  3.52385860E-04
  4.83176288E-06  3.14930701E-07  5.28166793E-06  9.08677650E-06 -1.43078242E-05
 -2.54434941E-05 -2.08328205E-05  2.85401150E-04 -2.16508997E-05  3.52976715E-04
  3.16936563E-04 -4.90649833E-05  3.28586153E-04  4.06720115E-04  1.53168359E-04
  4.07864969E-04  2.00657084E-04  9.83557910E-05  1.47974593E-04 -2.06532548E-06
  9.84564862E-06 -7.70329134E-06  4.20100756E-06 -3.43404014E-06  3.46647355E-05
 -8.37194437E-06  5.48265041E-05 -3.41626818E-05  3.46991155E-05 -2.76250159E-05
  1.24549337E-04 -2.83246593E-05  5.79337250E-05 -2.61339105E-05  5.40406078E-05
 -3.85713024E-05  1.91550940E-04  6.36653425E-06 -7.65697662E-05  1.56693576E-07
 -1.87180292E-05 -7.70713980E-05  9.64070953E-07  3.58683046E-06  5.94538991E-05
 -2.35929311E-06 -7.11446631E-06  9.97328369E-06 -1.19279516E-05 -2.41063972E-05
 -4.80998635E-05 -5.74622908E-05  3.25302198E-05  3.86638472E-05  2.21616808E-04
 -2.20271524E-05 -3.73250032E-06 -2.81094388E-05 -1.27006129E-05  4.71943703E-05
  1.12421214E-04  6.52408125E-05 -6.21036279E-04  3.34455172E-04  4.82159749E-04
 -5.94784307E-04  3.29652687E-04  4.30378025E-04 -7.51011974E-04  4.11574710E-04
  7.51174744E-04 -4.52697460E-04  1.29751654E-04  3.93904468E-04  2.81452354E-06
  1.40831926E-05 -1.65492716E-05 -1.40890804E-06 -8.14924695E-06 -1.96150730E-05
  1.35410529E-05  5.62441504E-05 -7.52776848E-05 -1.23018218E-05 -2.17073744E-05
 -6.49378438E-05  3.14219233E-05  6.68857614E-05 -1.04555328E-04 -3.58074262E-05
 -4.63976140E-05 -1.07433555E-04 -4.73018866E-06 -7.75113092E-06 -8.81285458E-05
 -1.90636622E-05  1.07437749E-05 -6.69198558E-05  3.42349972E-05 -2.31601605E-06
  5.96454716E-05  3.81354939E-06  2.02270232E-05 -1.84459231E-05 -1.79516984E-05
 -7.65542445E-05  2.98934073E-05 -4.07542571E-05  6.15310116E-05 -1.45273110E-05
  1.99732736E-04  3.55977499E-05  4.92755181E-06  4.76467482E-05  3.31437060E-05
 -9.41276329E-05 -1.65257151E-04 -1.38262495E-04  5.24273216E-04  1.22719756E-03
 -7.46739792E-04  3.38795465E-04  1.15858590E-03 -6.55069849E-04  3.35154172E-04
  1.43100327E-03 -7.87368330E-04  3.41242834E-04  6.23494096E-04 -4.05907634E-04
 -1.65819015E-05  9.57673610E-06  7.90087815E-06 -4.99116963E-06  1.46446063E-05
 -3.83276365E-05 -1.70663075E-05  2.98877761E-05  4.31914836E-05 -2.55809936E-05
  4.57320029E-05 -1.42535015E-04 -5.00179672E-05  4.47351611E-05  3.57649932E-05
 -8.58786547E-05  9.55808805E-05 -1.98798258E-04 -1.62845046E-05  1.23923624E-05
 -1.36741880E-05  5.65150496E-06 -8.42771721E-06  1.89593954E-05  2.31042483E-06
 -2.07749745E-05  9.30911286E-06  9.20774414E-05 -3.74081743E-05  6.59086053E-05
 -3.23200058E-05  4.80393089E-06 -5.29040946E-05  4.73531862E-05 -1.49541233E-05
 -7.75033748E-05  3.59112371E-05  2.52655112E-04  3.99240318E-03  3.28238473E-04
  4.60504540E-03  9.35176048E-04 -6.70839711E-03 -5.94836149E-03 -7.29147540E-04
 -3.07413654E-05 -2.71613788E-05  7.41713833E-06  1.79267327E-05 -1.55529120E-05
 -3.29698763E-05  4.28329552E-05 -9.03961237E-06 -2.48091014E-05  3.67996756E-05
  2.46726081E-06 -1.71089753E-05 -7.43880072E-05  4.30834477E-05  7.48478073E-05
 -3.29395656E-05  8.57124287E-05  2.02432208E-05 -1.74498397E-03 -1.56081465E-03
 -2.47710717E-03 -4.97047463E-05  1.71902628E-04  4.40369644E-05 -4.02876863E-04
 -3.86313897E-04 -2.66205173E-04 -2.91729846E-06  4.92974317E-05  1.38531214E-05
 -3.05713287E-06 -3.34315581E-06 -1.15196671E-05 -5.04465544E-06  3.28072041E-06
  8.84558773E-06  2.88335365E-07 -1.23754899E-06  1.11989574E-05  8.45539098E-07
  1.85749668E-05  7.88769400E-06  3.41009344E-06  1.27012657E-05 -6.28650282E-06
 -4.23224854E-06 -1.85542395E-05 -9.02230846E-08  4.09560158E-06 -8.42743783E-06
  8.97876283E-04  2.76609941E-04  1.04849116E-05  2.20002110E-04  9.02268459E-05
 -1.12341302E-04 -3.15901294E-04 -1.79629688E-04  1.89608143E-05  3.46253208E-06
 -6.07036073E-06  1.32240221E-05 -5.51668799E-06 -1.26260884E-06  1.30967050E-05
  1.36783441E-06 -2.40966789E-06  9.54734748E-06  2.36358837E-06 -3.33411188E-06
 -2.69824465E-06  8.68725719E-07  2.55967207E-06  1.00376581E-05 -4.40380044E-06
  2.29905343E-05 -7.26867310E-06  3.41413413E-06 -9.30481553E-06  3.28478879E-05
 -1.46926560E-05 -3.77504141E-04 -1.50746771E-05  1.10160017E-05  7.53823142E-06
  1.30814279E-05  9.81266724E-07  6.46414168E-05 -1.41862341E-06  6.38730131E-06
  3.54370962E-07  3.21551776E-07  6.68640295E-06 -1.86149052E-06  2.87979044E-06
 -1.46779456E-05  9.97226430E-07  4.02047234E-06  9.62446065E-07  1.65631909E-05
  8.18346174E-06  3.69353009E-06 -1.38914699E-05  5.38288726E-06 -6.82548269E-06
 -4.44545159E-06 -1.58742957E-05 -1.79862785E-05 -5.55922980E-07  1.23085721E-04
  2.47415657E-03  1.97674748E-04  2.80517796E-03  5.87901883E-04 -3.97966528E-03
 -3.64127426E-03 -5.09872659E-04 -1.37744193E-05 -1.30152984E-05  4.23558285E-06
  1.21730280E-05 -5.90291165E-06 -1.25361177E-05  3.24341780E-05  1.06426359E-06
 -1.62214636E-05  2.57187230E-05  3.88220886E-06 -1.17827514E-05 -4.26921104E-05
  4.09329391E-05  2.85768530E-05 -2.43627371E-05  4.22767315E-05  1.09534809E-05
 -1.03007810E-03 -1.16780691E-03 -1.20517465E-03 -4.74523395E-05  8.14989444E-05
  5.04699847E-06 -2.43549497E-04 -1.82255969E-04 -1.92258477E-04 -9.49692918E-06
  2.00453823E-05  1.15654871E-05 -9.71900176E-08 -2.89938038E-06  5.57339664E-06
 -1.03728178E-06  6.13823574E-07  7.91837465E-07  2.00360712E-07  4.08051270E-06
 -7.73853258E-06  7.65420465E-07  9.53282251E-06 -5.67453030E-06  1.06365529E-05
  3.30123912E-07  6.96886449E-07  1.36850374E-06 -4.93403691E-07  9.24533926E-06
 -1.70374744E-05 -1.52194363E-06  3.99905058E-04  3.34194065E-06  2.38198876E-04
  2.74673795E-04  9.81964786E-06  2.17193580E-04  9.43355313E-05 -1.13525694E-04
 -3.05761776E-04 -1.82471826E-04  2.00354208E-05  4.37099380E-06 -9.29327943E-06
  1.46879847E-05 -4.69934131E-06 -2.41268593E-06  1.05185418E-05  1.39594057E-06
 -5.04677372E-06  9.56901033E-06  2.52981802E-06 -4.34769209E-06 -2.28738022E-06
  1.95240612E-06  1.75774483E-06  9.85701793E-06 -4.54511498E-06  2.32165749E-05
 -1.57224987E-06 -9.06857323E-06  8.64528208E-06  3.27699113E-05 -1.78353432E-05
 -3.90922468E-04 -1.56694974E-05  1.23060022E-05  9.57428495E-06  1.29623867E-05
  6.94119915E-07  6.51835054E-05 -3.20157206E-06 -2.45978193E-06 -4.68435116E-06
  3.69577585E-06  5.77955155E-06 -1.88479025E-06  1.27506680E-06 -1.92044992E-06
  7.80500607E-06  5.99641204E-06  1.95173545E-06 -6.29613757E-06 -9.62349986E-06
 -1.16421176E-06 -1.33303743E-05  1.06947052E-05 -3.63218020E-06  2.57099819E-05
 -3.63771749E-07 -1.97043453E-05 -5.58652416E-06  1.16791001E-04  4.50769821E-06
  1.28051689E-04  4.45465825E-03  3.46162226E-04  4.97168810E-03  1.07327456E-03
 -6.87950125E-03 -6.47006755E-03 -1.00573728E-03 -2.46461888E-05 -2.37833808E-05
  7.87216787E-06  1.30218390E-05 -2.00159402E-06 -7.74214965E-06  5.83979092E-05
 -4.44745571E-06 -2.82852426E-05  4.56489798E-05  4.26783317E-06 -2.12541418E-05
 -7.36452606E-05  9.82124639E-05  2.40480926E-05 -4.52476844E-05  5.93359290E-05
  1.86467106E-05 -1.77755271E-03 -2.45680420E-03 -1.60137345E-03 -1.01757325E-04
  1.07585278E-04  3.96635273E-05 -4.26368373E-04 -2.35235080E-04 -3.93119863E-04
 -3.64070106E-05  1.89792219E-05  1.60396113E-05  4.12459721E-06  6.91863407E-06
  4.25228234E-06  3.55813403E-06 -4.89914400E-06 -6.45689564E-06 -2.13546792E-06
 -4.48057340E-06 -2.40498282E-06 -2.39512652E-06  1.93987439E-05  1.09870577E-06
 -1.97869457E-05 -1.73675456E-05  2.35579056E-06  6.00480177E-06  1.67244268E-05
 -6.64993388E-06  1.03016775E-05  4.09697869E-06  4.68566683E-04 -4.01761893E-06
  3.92808812E-04  5.69572729E-07  9.01677079E-04  1.16536561E-03  4.24660338E-05
  9.25316635E-04  4.03196604E-04 -4.93678403E-04 -1.31835546E-03 -7.89977409E-04
  1.01043215E-04  2.56494928E-05 -3.74831712E-05  6.93053038E-05  1.92226053E-05
 -1.84570692E-05  4.41284503E-05  1.29391985E-05 -5.29105438E-06  4.22356749E-05
  1.09087645E-05 -1.41896310E-05  2.54147362E-07 -1.10090002E-05  1.08253624E-05
 -1.04930968E-06  7.92502470E-06 -6.90319717E-06  6.02455714E-05 -1.91360627E-05
 -3.89468668E-05  1.17402768E-05 -4.58397544E-04 -2.59400950E-05 -3.44295945E-05
  2.55493298E-05  3.47901326E-05 -1.86826671E-05  6.94972239E-05  8.28394607E-06
 -4.37401321E-06  1.32754688E-06  8.33274970E-06  4.52887233E-06 -3.93361291E-06
  1.34748395E-06 -9.58222478E-06  1.79215517E-07 -5.87670352E-06  2.77833646E-06
 -1.64361487E-05  1.20167902E-05  1.24777418E-05  2.63566192E-05 -1.69131539E-05
  8.70978428E-06 -1.92400734E-05 -4.21240979E-06 -1.83010076E-05  1.36692339E-05
  9.33787014E-06  1.50605733E-05  6.46772600E-06  2.03593466E-06 -8.22757821E-07
  1.75475318E-04 -2.86253062E-04 -1.06367446E-05 -2.27810571E-04 -9.55432736E-05
  1.20622208E-04  3.21199517E-04  1.85094133E-04 -9.81850944E-06  3.82466972E-07
  1.55528120E-06 -9.37942897E-07  5.37783626E-06  3.95535826E-06 -2.18717949E-06
  6.29182177E-06 -6.67070893E-06 -3.42271983E-06  1.47582781E-06 -9.02724357E-07
  1.80164049E-06 -1.10728748E-06 -6.68803051E-07  1.95705410E-06  1.68901427E-07
  3.48250461E-06 -3.06161849E-06 -3.60144786E-06  1.76477116E-05 -1.97708167E-04
 -7.01159776E-06 -3.09043888E-05  4.93498512E-06 -1.14927624E-05  3.06695109E-06
  2.28334068E-05 -8.96829375E-06  1.08023870E-05 -2.35794950E-06 -4.66294295E-06
 -1.09499901E-06  1.03143767E-06 -1.23927653E-06 -4.19070040E-07  2.11086705E-06
  9.00379520E-06  3.18398606E-07 -3.30533440E-06 -3.86447997E-07 -1.49089706E-05
 -4.11761764E-06 -6.66901606E-06 -8.89908532E-06 -7.19897969E-07  7.61796739E-06
  2.76505197E-05 -1.28987821E-06 -1.90047016E-05 -9.75138194E-06  1.85452433E-06
 -8.68230164E-07  1.27971099E-05  2.84022882E-06 -1.19481769E-05  4.28200693E-05
  5.22000340E-04  1.87512118E-05  4.14542909E-04  1.85426342E-04 -2.29537256E-04
 -5.88592431E-04 -3.59078175E-04  4.47267033E-05  8.20370164E-06 -1.93313885E-05
  3.13392077E-05  1.30475328E-05 -7.31297984E-06  1.99372163E-05 -4.85502539E-06
 -8.28226957E-06  1.94506288E-05  1.31808631E-06 -8.36894392E-06 -4.12864000E-07
 -2.99685980E-06  3.85567779E-06  2.69624479E-06  4.51935078E-06 -2.39050229E-06
  2.93413191E-05 -3.83036984E-05  1.68714026E-05  1.36788936E-06 -2.12254038E-04
  1.46102912E-05 -1.43913035E-05  1.27171954E-05  1.50198698E-05 -1.25685316E-05
  2.95042000E-05  3.72673859E-07 -2.73928244E-06  7.12394530E-08 -5.87149587E-06
 -3.99267849E-07 -3.70721139E-06  4.18378020E-07 -8.17597170E-07 -7.16202837E-07
  9.29846996E-06  4.06723193E-06 -3.82851839E-06  1.55117210E-06 -2.14143335E-05
 -7.75157827E-06 -1.11537401E-05  5.20316966E-06  7.64847644E-06  4.99742869E-07
  2.15452941E-05  1.32430561E-05 -7.85648016E-06 -8.13743306E-06 -2.58478593E-06
 -2.70227758E-06  2.14299830E-05  6.21735899E-05  1.47789924E-06  4.56174665E-05
 -6.38952216E-04 -2.27913551E-05 -5.06448279E-04 -2.26775021E-04  2.76669024E-04
  7.18892973E-04  4.39660524E-04 -5.79775051E-05 -1.25705051E-05  2.49238143E-05
 -4.21736579E-05  7.50906601E-06  2.00326644E-05 -2.63993869E-05 -5.54815838E-06
  1.10687164E-05 -2.59093206E-05 -5.95107129E-06  1.09520725E-05 -1.83818465E-06
 -3.01289165E-06  3.37341177E-06  7.77178709E-06  5.69481704E-07  7.46898348E-06
 -3.84127782E-05  2.14255254E-05  5.48938965E-06 -4.53431419E-04  1.86381602E-05
  2.52521676E-05  1.89002808E-05 -3.44711012E-05 -1.70309889E-06  4.72743575E-05
 -1.94108531E-05  1.34554185E-05  4.02890659E-06  4.22201220E-06 -2.64960289E-06
 -1.52019349E-06  2.95423912E-07 -2.75641651E-06  1.47550271E-06 -6.20636131E-06
  3.78735525E-06 -2.05007927E-06  7.66188175E-06  1.83757249E-05  1.98774970E-05
  8.54057676E-06 -2.08840501E-05 -2.90373004E-05 -1.23004286E-05 -1.37427813E-05
 -1.76576911E-06 -5.77850621E-06 -4.71373901E-06 -6.53866305E-06 -4.00670793E-06
 -1.38241155E-05 -5.16902621E-07 -2.12796283E-06  5.55430766E-05  2.64278780E-06
  1.58292217E-04  1.48603692E-03  1.61817548E-04  2.01902885E-03  2.45343826E-04
 -3.54016836E-03 -2.54241744E-03  1.38838716E-04 -3.51413897E-05 -2.34672420E-05
  7.27429860E-06  2.21075556E-05 -1.07834266E-05  9.65939552E-07  3.54177022E-05
 -7.98637816E-06 -4.17219882E-05  1.78568887E-05 -1.20192369E-06 -1.64281432E-05
 -3.45038339E-05  2.90680332E-05  3.03253363E-05 -1.84611925E-05  4.90971065E-05
  1.03817852E-05 -1.34029027E-03 -9.08951261E-04 -1.13085400E-03 -3.95512246E-05
  3.88973526E-05  2.17651581E-05 -2.03727755E-04 -2.36827247E-04 -1.93719363E-04
  3.13908926E-06 -2.73858919E-06 -4.04371720E-06 -9.24657460E-06 -1.03921802E-06
  1.90286968E-06 -5.30077489E-06  9.16743697E-07 -7.10919824E-06  1.57386451E-05
 -9.87325315E-07 -6.29454012E-07  1.64987064E-07 -2.28849695E-05  2.17214809E-06
  8.88615505E-06 -5.72625153E-06 -1.57571756E-06 -3.52908470E-05  4.18055145E-05
  4.88938899E-07 -3.28824302E-07 -4.17693738E-06  3.51801695E-04 -5.44254997E-07
  1.84457649E-04  4.33518895E-07  2.75266323E-04  1.99841529E-06  1.36173396E-05
  1.03608276E-05  8.28033204E-06  2.87948224E-04  1.24965526E-04  4.60176290E-06
  1.00726397E-04  4.08333179E-05 -6.41005727E-05 -1.26483544E-04 -6.50529070E-05
 -3.89171918E-05 -1.46505180E-05  1.79028903E-05 -4.04535206E-05 -6.70047817E-06
  1.63896202E-05 -2.93456051E-05 -2.39161796E-05  1.81366955E-05 -1.97362019E-05
 -1.00090938E-05  1.01808448E-05 -6.18907107E-06  4.47114948E-06  1.92744029E-06
  6.58482287E-06 -6.01560006E-07  9.77583191E-06 -3.30400842E-05  6.81561520E-06
  4.25480909E-06 -2.81700794E-05  2.48041057E-05 -1.30883417E-04  1.13373486E-06
 -6.89183048E-06  2.66745185E-06  5.91503117E-06 -2.47871390E-06  2.68362425E-05
  5.59097265E-06 -4.61460680E-06 -1.10585707E-06 -4.61683578E-06  1.51993121E-06
 -6.75260365E-07  1.99675248E-06  1.86532371E-06  1.38707119E-06  1.21535714E-05
  1.48257038E-05  1.08319595E-06  1.22736160E-05 -5.16507254E-06 -1.39280286E-05
 -1.34004259E-05 -8.23301271E-06  3.39501745E-06 -2.24783861E-06  2.34138674E-05
 -4.93696544E-07  3.67344042E-05  1.99379866E-07  3.68559383E-05  6.60136595E-06
 -6.02231391E-06  7.69479131E-07  4.58391922E-06  1.82372220E-05 -5.01244237E-06
  4.21294234E-05  1.62433861E-03  1.67583867E-04  2.13118523E-03  2.82165089E-04
 -3.60281645E-03 -2.68877179E-03  7.70014507E-05 -8.47021707E-05 -2.50940236E-05
  3.42322565E-05 -2.97906478E-05 -2.42236827E-05  1.59841428E-05  4.45281416E-06
  7.82289114E-06 -2.77122886E-06 -4.63008945E-06  8.08461425E-07  1.30161374E-06
 -3.99998888E-05  4.44388278E-05  2.10766369E-05 -2.83887328E-05  3.79396465E-05
  1.18229355E-05 -1.38816711E-03 -1.11288602E-03 -9.21893943E-04 -2.72270324E-05
  9.54612063E-05  2.74061802E-05 -2.02346399E-04 -2.00744978E-04 -2.38397502E-04
  9.90941671E-07 -1.02083492E-05 -1.11794875E-05  1.04134201E-06 -4.38531579E-06
 -2.40281699E-07  9.64902563E-06  8.26042210E-06 -6.11070649E-06 -3.48506830E-06
  3.02327334E-06  3.46185500E-06 -3.79797783E-06 -8.49407902E-06 -4.10097749E-06
  1.47916468E-05  3.87510145E-05  2.85016665E-05 -3.12221548E-05 -1.32463664E-05
 -5.57646250E-06  1.92952795E-06 -6.44893685E-06  2.66987026E-04  4.54443172E-06
  1.87877785E-04  3.35131868E-07  3.61135031E-04 -1.39202936E-06 -4.13187370E-06
 -1.81672901E-05 -5.73991885E-06  2.04772337E-04 -1.41168176E-05  2.73367983E-04
  1.16978462E-03  4.11317504E-05  9.31957997E-04  4.20505968E-04 -5.56192127E-04
 -1.26701670E-03 -7.63423456E-04 -3.89841074E-05 -4.01687257E-06  2.24052788E-05
 -5.37759631E-05 -1.24877880E-05  3.56332686E-05 -7.34565966E-05 -6.09093300E-06
  4.35244840E-05 -3.08507117E-05 -3.68222663E-06  1.66587627E-05 -7.76917407E-06
 -7.49462091E-07  9.78330903E-06 -5.80782999E-06  1.18204079E-05 -2.63494004E-08
 -5.91165712E-05  3.78092785E-06  3.73286073E-05 -1.81865333E-06 -3.53403164E-04
 -3.60110519E-06 -1.59520142E-05  2.14138515E-06  3.27394878E-05 -1.02842006E-05
  6.03357544E-05 -9.20168192E-06  6.04274197E-07 -3.61167195E-06 -1.08464433E-05
 -8.05814911E-06  3.68269908E-06  1.97705320E-05  3.60747268E-06  2.06268826E-06
 -2.00857051E-06 -3.79404598E-06  6.91049916E-07 -4.04117895E-06 -1.05096766E-05
 -2.77345698E-06  1.23250791E-05  2.12611367E-05  3.71899153E-07 -6.77959162E-07
 -7.78400255E-06 -8.77221394E-06 -8.98104898E-06 -3.20571559E-06 -2.20644681E-06
  8.78526764E-06 -2.09375587E-06  8.56134941E-05  1.28753228E-05  4.47765831E-05
 -1.50337313E-05  2.78685537E-06 -1.08917068E-05  1.08109192E-06  1.41362633E-04
 -6.41833197E-04 -2.32265932E-05 -5.11855426E-04 -2.21769297E-04  2.94195440E-04
  7.00991660E-04  4.08685622E-04  2.48110650E-05  1.76569222E-05 -7.19522177E-06
  3.41475099E-05  2.13479022E-05 -1.56434147E-05  3.84780747E-05  3.34704108E-05
 -7.60350845E-06  1.72978995E-05  1.14553463E-05 -4.72430933E-06  2.84334335E-06
 -9.59000743E-06  6.06696070E-06  7.46219199E-06 -4.46364328E-06  1.12381464E-05
  3.93909511E-05 -3.07236482E-05  1.83929211E-05 -3.41428224E-04 -4.91552209E-06
  4.14847640E-05  1.05071097E-05 -6.93734453E-06 -1.02057955E-05  3.89863116E-05
 -1.15364367E-05  3.52069590E-06 -3.30809608E-06 -6.76707155E-06  4.69057047E-07
  3.40618009E-06  1.84052271E-05  1.57792403E-06  1.84153047E-07 -7.39241593E-06
 -4.22679921E-07  6.43529349E-06  5.08590659E-06 -1.85538192E-05 -2.33872350E-06
 -5.89667621E-07  3.00329692E-05  1.77276271E-05 -5.25433581E-06  2.29426556E-06
 -8.47781068E-06 -6.53415895E-06  8.24646692E-07 -7.60913126E-06  6.07625594E-06
 -8.90460391E-06  4.28226885E-06  4.79591141E-06  4.52731607E-05 -8.97714417E-06
  9.92984634E-05 -2.13639453E-05 -8.89514884E-06  5.84918257E-06  6.53029666E-06
  1.17573375E-04  1.08576012E-03  2.23783411E-04  2.29322839E-03 -8.38905867E-05
 -5.40899908E-03 -2.72785878E-03  1.19515757E-03 -9.64912280E-05 -5.43070548E-05
  4.66320405E-05  2.37991465E-05 -2.52830182E-05 -5.79816283E-06  1.00246414E-04
 -1.68093294E-05 -1.73755381E-05  2.78131565E-05 -6.41155330E-06 -5.11572520E-06
 -6.23801734E-05  5.82121811E-05  4.61241931E-05 -3.60954900E-05  6.34735089E-05
  7.85858631E-06 -2.66460381E-03 -1.53746597E-03 -1.54836187E-03 -9.40264951E-05
  1.70237571E-04  9.90333228E-06 -2.72961313E-04 -4.19887515E-04 -4.15443469E-04
  2.18796568E-05 -4.27052496E-05 -8.76632303E-06  2.27448756E-05  1.15080601E-06
  2.80373777E-06 -8.22178149E-06 -8.33664888E-07 -1.74032502E-06 -1.21239703E-05
 -8.83113760E-07 -9.31913224E-07 -7.03444991E-07  7.40817843E-05 -7.01622198E-06
  3.04412776E-06 -3.48549590E-05  1.50713716E-05 -1.50282592E-05 -2.57628399E-05
 -2.87052782E-06  6.44351960E-06 -2.73946351E-06  4.75235583E-04 -2.26854606E-06
  2.73057663E-04 -3.80172658E-06  4.69377646E-04 -2.68603015E-05 -5.14211590E-06
 -8.67411474E-06  1.73173814E-05  3.60487472E-04  2.50776105E-05  3.88403147E-04
  1.53978158E-05 -3.20777597E-06  8.94334848E-04
Natural orbital occupancies                R   N=          47
  9.99773076E-01  9.83876083E-01  9.83872523E-01  5.00000000E-01  5.00000000E-01
  2.28150419E-03  4.34408002E-04  1.85096279E-05  1.09167075E-04  2.01242954E-03
  3.68524430E-05  2.29423553E-03  8.21417502E-03  1.20280586E-04  8.95097039E-03
  1.51081498E-03  5.10263765E-07  5.36485765E-05  6.84116103E-05  8.37213190E-07
  1.68983947E-03  1.52629850E-03  1.85450379E-06  1.11360208E-04  6.30863063E-05
  1.08915829E-06  8.92872371E-05  7.07825008E-05  9.88718089E-07  8.92672923E-05
  6.34451779E-05  9.99492483E-07  1.53784831E-04  2.02308578E-03  3.67471717E-05
  1.50320860E-04  9.21880974E-05  1.09395998E-06  5.45524223E-05  1.36550349E-05
  4.35811408E-06  1.21658767E-05  1.55695117E-05  1.20990824E-06  8.73725507E-05
  1.55671323E-05  1.59291114E-06
Dipole Moment                              R   N=           3
 -6.88550478E-04 -1.12072465E-04  2.71561617E-04
