[Molden Format]
p30-5 set                                                                       
[Atoms] AU
 O        1     8        0.0000        0.0000        0.0000
[GTO]
    1 0
s    8 1.00
  116506.469079999995  0.719875757604E-04
   17504.349724000000  0.557148772252E-03
    3993.451323000000  0.291300316833E-02
    1133.006318600000  0.121720510774E-01
     369.995695940000  0.430037618269E-01
     133.620743490000  0.129647623897E+00
      52.035643649000  0.319696085629E+00
      21.461939313000  0.589314587967E+00
s    2 1.00
      89.835051252000  0.948480527627E-01
      26.428010844000  0.925363787917E+00
s    1 1.00
       9.282282464900  0.100000000000E+01
s    1 1.00
       4.094772853300  0.100000000000E+01
s    1 1.00
       1.325534907800  0.100000000000E+01
s    1 1.00
       0.518772307870  0.100000000000E+01
s    1 1.00
       0.197726764540  0.100000000000E+01
p    5 1.00
     191.152558100000  0.253595741393E-02
      45.233356739000  0.202338242941E-01
      14.353465922000  0.945180199981E-01
       5.242237183200  0.309154328074E+00
       2.079241859900  0.684689495338E+00
p    1 1.00
       0.842823714240  0.100000000000E+01
p    1 1.00
       0.336176948910  0.100000000000E+01
p    1 1.00
       0.128639979740  0.100000000000E+01
d    1 1.00
       3.775000000000  0.100000000000E+01
d    1 1.00
       1.300000000000  0.100000000000E+01
d    1 1.00
       0.444000000000  0.100000000000E+01
f    1 1.00
       2.666000000000  0.100000000000E+01
f    1 1.00
       0.859000000000  0.100000000000E+01
g    1 1.00
       1.846000000000  0.100000000000E+01
 
[MO]
Sym=     1a
Ene=   -0.206746E+02
Spin= Alpha
Occup= 1.999550
     1    -0.564104
     2    -0.000301
     3    -0.369883
     4    -0.162597
     5    -0.005949
     6     0.009246
     7     0.006169
     8    -0.000157
     9    -0.000071
    10    -0.000115
    11    -0.000130
    12    -0.000058
    13    -0.000096
    14    -0.000121
    15    -0.000053
    16    -0.000090
    17    -0.000078
    18    -0.000032
    19    -0.000062
    20     0.000943
    21     0.000362
    22     0.000603
    23     0.000381
    24     0.000618
    25     0.000279
    26     0.004061
    27     0.006596
    28     0.005543
    29    -0.001662
    30    -0.002690
    31    -0.001215
    32     0.000677
    33     0.000536
    34     0.000593
    35     0.000094
    36     0.000150
    37     0.000068
    38     0.000004
    39     0.000000
    40     0.000001
    41     0.000001
    42     0.000003
    43     0.000006
    44     0.000004
    45     0.000002
    46     0.000000
    47     0.000003
    48     0.000007
    49    -0.000009
    50     0.000001
    51     0.000001
    52     0.000011
    53     0.000018
    54     0.000006
    55     0.000002
    56     0.000003
    57     0.000013
    58    -0.001569
    59     0.000453
    60    -0.001094
    61     0.000452
    62    -0.002169
    63     0.001003
    64     0.000279
    65     0.000450
    66     0.000618
    67    -0.000668
    68     0.000206
    69    -0.000846
    70     0.001007
    71     0.000622
    72    -0.000723
Sym=     2a
Ene=   -0.885832E+00
Spin= Alpha
Occup= 1.967630
     1     0.072481
     2     0.012878
     3     0.094779
     4     0.038833
     5    -0.200096
     6    -0.334025
     7    -0.165286
     8    -0.216128
     9    -0.097628
    10    -0.158061
    11    -0.209727
    12    -0.094701
    13    -0.153342
    14    -0.197440
    15    -0.089117
    16    -0.144227
    17    -0.095804
    18    -0.043331
    19    -0.070187
    20    -0.002842
    21    -0.001935
    22    -0.002311
    23    -0.000593
    24    -0.000953
    25    -0.000433
    26    -0.013730
    27    -0.016017
    28    -0.015061
    29     0.001486
    30     0.002376
    31     0.001085
    32    -0.002734
    33    -0.000766
    34    -0.001594
    35    -0.001285
    36    -0.002095
    37    -0.000947
    38    -0.000212
    39    -0.000581
    40    -0.000616
    41    -0.000323
    42     0.000485
    43     0.000788
    44     0.000265
    45     0.000115
    46    -0.000242
    47     0.000676
    48    -0.000648
    49    -0.001634
    50    -0.001765
    51    -0.000917
    52     0.001323
    53     0.002135
    54     0.000679
    55     0.000289
    56    -0.000695
    57     0.001854
    58     0.003894
    59    -0.000390
    60     0.002434
    61    -0.000386
    62     0.004411
    63    -0.000843
    64    -0.000232
    65    -0.000377
    66    -0.000535
    67     0.002072
    68    -0.000163
    69     0.002223
    70    -0.000832
    71    -0.000524
    72     0.003166
Sym=     3a
Ene=   -0.101342E+01
Spin= Alpha
Occup= 1.967200
     1    -0.087242
     2    -0.015568
     3    -0.114389
     4    -0.045577
     5     0.241362
     6     0.401181
     7     0.196624
     8    -0.179348
     9    -0.081016
    10    -0.131170
    11    -0.173582
    12    -0.078397
    13    -0.126908
    14    -0.162775
    15    -0.073513
    16    -0.118881
    17    -0.078967
    18    -0.035681
    19    -0.057888
    20     0.003518
    21     0.002516
    22     0.002932
    23     0.000657
    24     0.001068
    25     0.000481
    26     0.018546
    27     0.021916
    28     0.020526
    29    -0.002214
    30    -0.003599
    31    -0.001625
    32     0.004193
    33     0.002556
    34     0.003222
    35     0.001078
    36     0.001726
    37     0.000781
    38    -0.000204
    39    -0.000537
    40    -0.000580
    41    -0.000304
    42     0.000451
    43     0.000730
    44     0.000244
    45     0.000109
    46    -0.000229
    47     0.000628
    48    -0.000480
    49    -0.001514
    50    -0.001622
    51    -0.000836
    52     0.001337
    53     0.002148
    54     0.000739
    55     0.000329
    56    -0.000633
    57     0.001822
    58    -0.005290
    59     0.000491
    60    -0.003287
    61     0.000494
    62    -0.005934
    63     0.001090
    64     0.000295
    65     0.000490
    66     0.000672
    67    -0.002839
    68     0.000216
    69    -0.003019
    70     0.001088
    71     0.000668
    72    -0.004381
Sym=     4a
Ene=   -0.385908E+00
Spin= Alpha
Occup= 1.000000
     1     0.000008
     2    -0.000003
     3     0.000014
     4    -0.000342
     5     0.000047
     6     0.001008
     7     0.000879
     8     0.129779
     9     0.199760
    10    -0.300880
    11     0.130361
    12     0.200488
    13    -0.301985
    14     0.114094
    15     0.175137
    16    -0.263872
    17     0.035866
    18     0.055505
    19    -0.083520
    20    -0.000109
    21    -0.000093
    22     0.000083
    23    -0.000082
    24     0.000060
    25    -0.000001
    26    -0.000725
    27    -0.000666
    28    -0.000527
    29    -0.000076
    30     0.000094
    31    -0.000014
    32    -0.000995
    33    -0.000796
    34     0.000546
    35    -0.000639
    36     0.000509
    37    -0.000037
    38    -0.000354
    39     0.001024
    40    -0.000585
    41    -0.000491
    42    -0.000722
    43    -0.000472
    44     0.001979
    45     0.001024
    46    -0.001251
    47    -0.000261
    48    -0.002962
    49     0.000239
    50     0.002542
    51    -0.002318
    52    -0.003460
    53     0.000484
    54     0.005132
    55     0.001810
    56    -0.001846
    57    -0.000784
    58     0.000272
    59    -0.000038
    60     0.000128
    61     0.000015
    62     0.000085
    63    -0.000062
    64    -0.000058
    65     0.000056
    66    -0.000049
    67     0.000030
    68     0.000033
    69     0.000113
    70     0.000047
    71     0.000015
    72     0.000158
Sym=     5a
Ene=   -0.385911E+00
Spin= Alpha
Occup= 1.000000
     1    -0.000000
     2    -0.000000
     3     0.000002
     4    -0.000051
     5     0.000010
     6     0.000139
     7     0.000134
     8    -0.213854
     9     0.300156
    10     0.107024
    11    -0.214654
    12     0.301281
    13     0.107427
    14    -0.187543
    15     0.263210
    16     0.093860
    17    -0.059364
    18     0.083345
    19     0.029711
    20     0.000118
    21    -0.000080
    22    -0.000048
    23    -0.000065
    24     0.000016
    25    -0.000086
    26     0.000007
    27    -0.000154
    28    -0.000136
    29    -0.000062
    30     0.000016
    31    -0.000080
    32     0.000874
    33    -0.000634
    34    -0.000411
    35    -0.000514
    36     0.000130
    37    -0.000678
    38     0.000541
    39     0.001528
    40     0.000206
    41    -0.001647
    42     0.000488
    43     0.001218
    44    -0.000855
    45    -0.000043
    46    -0.000606
    47    -0.000974
    48     0.004674
    49     0.000323
    50    -0.000904
    51    -0.003589
    52    -0.000449
    53     0.002985
    54    -0.001210
    55    -0.002043
    56    -0.002511
    57    -0.002932
    58    -0.000014
    59    -0.000036
    60     0.000014
    61    -0.000050
    62    -0.000078
    63     0.000040
    64     0.000035
    65     0.000075
    66    -0.000024
    67     0.000028
    68     0.000006
    69     0.000092
    70    -0.000081
    71    -0.000064
    72     0.000064
Sym=     6a
Ene=   -0.160928E-03
Spin= Alpha
Occup= 0.000031
     1     0.000025
     2    -0.000010
     3     0.000601
     4    -0.002825
     5     0.004539
     6    -0.001359
     7     0.001332
     8     0.000232
     9     0.000184
    10    -0.000277
    11    -0.000902
    12    -0.001339
    13     0.002415
    14    -0.000070
    15     0.000269
    16    -0.000754
    17    -0.000085
    18     0.000018
    19     0.000396
    20    -0.017387
    21    -0.017777
    22     0.034859
    23     0.050902
    24    -0.004987
    25    -0.057677
    26     0.152526
    27     0.157831
    28    -0.314561
    29    -0.440861
    30     0.033625
    31     0.494519
    32    -0.043086
    33    -0.045380
    34     0.088313
    35     0.125717
    36    -0.010405
    37    -0.140654
    38    -0.271709
    39    -0.129731
    40     0.407127
    41     0.150427
    42     0.564433
    43    -0.140800
    44     0.214468
    45    -0.389333
    46    -0.407005
    47    -0.150128
    48     0.135947
    49     0.064775
    50    -0.202333
    51    -0.073558
    52    -0.277605
    53     0.068689
    54    -0.107791
    55     0.191243
    56     0.201384
    57     0.074118
    58    -0.051974
    59    -0.138113
    60     0.491496
    61    -0.117681
    62    -0.106082
    63    -0.426302
    64     0.417890
    65     0.206306
    66     0.333108
    67    -0.039581
    68    -0.221736
    69    -0.487022
    70     0.245297
    71    -0.268882
    72     0.199415
Sym=     7a
Ene=   -0.752584E-03
Spin= Alpha
Occup= 0.000296
     1     0.000007
     2     0.000021
     3     0.000048
     4    -0.000856
     5     0.001477
     6    -0.000640
     7     0.001771
     8    -0.000287
     9    -0.000130
    10     0.000386
    11     0.000249
    12     0.000214
    13    -0.000891
    14     0.000001
    15     0.000030
    16     0.000160
    17    -0.000453
    18    -0.000213
    19     0.000213
    20    -0.012628
    21    -0.019801
    22     0.032326
    23     0.043338
    24    -0.006660
    25    -0.045124
    26    -0.168117
    27    -0.263271
    28     0.429178
    29     0.578177
    30    -0.091265
    31    -0.603145
    32     0.066825
    33     0.105257
    34    -0.173538
    35    -0.232592
    36     0.036599
    37     0.242698
    38    -0.089185
    39    -0.063391
    40     0.168113
    41     0.045486
    42     0.221110
    43    -0.066754
    44     0.073904
    45    -0.136278
    46    -0.157994
    47    -0.053076
    48    -0.200594
    49    -0.142227
    50     0.378097
    51     0.102593
    52     0.497463
    53    -0.151214
    54     0.167245
    55    -0.306435
    56    -0.356362
    57    -0.119696
    58    -0.090498
    59     0.131828
    60    -0.119956
    61     0.113320
    62     0.095020
    63     0.119361
    64    -0.131036
    65    -0.040880
    66    -0.176868
    67    -0.020964
    68     0.092552
    69     0.137259
    70    -0.041479
    71    -0.026682
    72     0.000843
Sym=     8a
Ene=   -0.594196E-04
Spin= Alpha
Occup= 0.000002
     1     0.647334
     2    -0.755940
     3     0.108428
     4    -0.018979
     5     0.164050
     6    -0.028046
     7     0.008536
     8    -0.003188
     9    -0.015164
    10    -0.009455
    11    -0.068204
    12     0.268430
    13     0.121812
    14     0.032636
    15    -0.050402
    16    -0.012687
    17     0.014554
    18    -0.009848
    19    -0.003217
    20     2.295137
    21    -2.445210
    22    -0.062022
    23    -0.997607
    24     2.116888
    25    -1.029476
    26    -8.897261
    27     8.956268
    28    -0.026604
    29     3.818869
    30    -7.929368
    31     3.927628
    32     0.856015
    33    -0.865951
    34    -0.004898
    35    -0.370912
    36     0.757744
    37    -0.382522
    38     0.087921
    39    -0.131758
    40    -0.097839
    41    -0.125168
    42    -0.030236
    43     0.150171
    44     0.096874
    45    -0.042224
    46    -0.123423
    47     0.000342
    48    -0.060643
    49    -0.014644
    50     0.029421
    51     0.136229
    52    -0.048413
    53    -0.195396
    54    -0.089462
    55    -0.029261
    56     0.089587
    57    -0.013784
    58    -0.007050
    59    -1.492015
    60    -1.536859
    61    -1.508355
    62    -5.144691
    63     2.970055
    64    -0.656651
    65     1.272608
    66    -1.486082
    67     1.572657
    68    -0.641045
    69    -0.077559
    70     3.100737
    71    -1.409254
    72     5.152878
Sym=     9a
Ene=   -0.101650E-03
Spin= Alpha
Occup= 0.000021
     1    -0.000985
     2     0.000719
     3     0.077197
     4    -0.332402
     5     0.526510
     6    -0.160020
     7     0.142163
     8    -0.004121
     9    -0.002308
    10    -0.001858
    11     0.201418
    12     0.068346
    13     0.159853
    14    -0.196988
    15    -0.074648
    16    -0.156943
    17     0.027703
    18     0.018575
    19     0.015079
    20    -0.033862
    21     0.008562
    22    -0.016461
    23    -0.025836
    24    -0.050239
    25    -0.018141
    26    -0.214096
    27    -0.078816
    28    -0.148441
    29    -0.077499
    30    -0.151815
    31    -0.053389
    32    -0.049083
    33     0.049121
    34     0.006875
    35    -0.065390
    36    -0.106284
    37    -0.046837
    38    -0.140455
    39    -0.333752
    40    -0.380036
    41    -0.229434
    42     0.297604
    43     0.519978
    44     0.212028
    45     0.087652
    46    -0.181899
    47     0.412344
    48     0.104978
    49     0.275963
    50     0.311233
    51     0.185695
    52    -0.251300
    53    -0.439086
    54    -0.183366
    55    -0.073606
    56     0.149361
    57    -0.345027
    58     0.265398
    59     0.147424
    60    -0.036486
    61     0.320675
    62    -0.088151
    63     0.361568
    64    -0.223640
    65     0.141920
    66     0.434662
    67    -0.369402
    68    -0.447819
    69     0.045726
    70    -0.121375
    71    -0.078462
    72     0.339850
Sym=    10a
Ene=   -0.518410E-02
Spin= Alpha
Occup= 0.004162
     1    -0.000140
     2    -0.000013
     3    -0.000197
     4    -0.000808
     5     0.001258
     6     0.001906
     7     0.000905
     8     0.094505
     9    -0.164604
    10    -0.024420
    11     0.135277
    12    -0.241389
    13    -0.038132
    14    -0.163938
    15     0.289664
    16     0.044909
    17    -0.132024
    18     0.236962
    19     0.037550
    20     0.060524
    21    -0.048247
    22    -0.012305
    23    -0.046473
    24     0.015664
    25    -0.049983
    26     0.320679
    27    -0.257969
    28    -0.066339
    29    -0.247648
    30     0.083591
    31    -0.266144
    32     0.238951
    33    -0.190860
    34    -0.050814
    35    -0.184246
    36     0.061165
    37    -0.198769
    38     0.047106
    39    -0.023144
    40    -0.007435
    41    -0.024437
    42    -0.020415
    43     0.021945
    44     0.004333
    45    -0.025304
    46    -0.023991
    47    -0.024221
    48     0.086354
    49     0.054796
    50    -0.005345
    51    -0.118918
    52    -0.009650
    53     0.085146
    54    -0.019261
    55    -0.026939
    56    -0.073303
    57    -0.083601
    58     0.003623
    59     0.008117
    60     0.001895
    61     0.008294
    62     0.016290
    63    -0.004179
    64    -0.000115
    65    -0.007946
    66     0.006881
    67    -0.001908
    68     0.001005
    69    -0.006991
    70     0.004332
    71     0.009188
    72    -0.010528
Sym=    11a
Ene=   -0.592265E-04
Spin= Alpha
Occup= 0.000002
     1     0.606741
     2    -0.708236
     3     0.100573
     4    -0.021291
     5     0.167026
     6    -0.032647
     7     0.010484
     8    -0.018025
     9    -0.000686
    10     0.002362
    11     0.269674
    12    -0.061697
    13    -0.138704
    14    -0.041624
    15     0.022270
    16     0.042517
    17    -0.006569
    18     0.010942
    19     0.012815
    20    -2.109896
    21    -0.411169
    22     2.315096
    23     0.409049
    24     2.100843
    25     1.681443
    26     7.768737
    27     1.276862
    28    -9.007308
    29    -1.500453
    30    -7.871752
    31    -6.324051
    32    -0.757372
    33    -0.120907
    34     0.865402
    35     0.144068
    36     0.752651
    37     0.610361
    38    -0.228130
    39    -0.022928
    40     0.054221
    41    -0.065431
    42     0.003191
    43     0.086739
    44     0.131062
    45     0.100994
    46    -0.010695
    47     0.098698
    48     0.063280
    49     0.057483
    50     0.022917
    51    -0.002493
    52    -0.001725
    53    -0.069640
    54    -0.203634
    55    -0.088495
    56     0.043446
    57    -0.108436
    58     5.168539
    59     2.411151
    60     1.311642
    61     2.352341
    62    -0.760587
    63     3.026029
    64     0.330503
    65     1.349985
    66     0.543954
    67     0.293280
    68     1.115914
    69    -1.513828
    70     2.936117
    71     0.532982
    72    -4.569206
Sym=    12a
Ene=   -0.140250E-02
Spin= Alpha
Occup= 0.000727
     1    -0.015721
     2     0.010847
     3    -0.052324
     4    -0.204795
     5     0.557007
     6    -0.259779
     7     0.418200
     8    -0.385760
     9    -0.172815
    10    -0.285539
    11     0.339789
    12     0.154493
    13     0.247382
    14    -0.030947
    15    -0.014442
    16    -0.017453
    17    -0.403094
    18    -0.177112
    19    -0.306408
    20     0.012462
    21    -0.000222
    22     0.005530
    23     0.008249
    24     0.013959
    25     0.006171
    26    -0.430195
    27     0.004414
    28    -0.167722
    29    -0.288919
    30    -0.458551
    31    -0.207623
    32    -0.068721
    33    -0.119370
    34    -0.103424
    35     0.035385
    36     0.051420
    37     0.024125
    38    -0.015386
    39    -0.067518
    40    -0.069091
    41    -0.035736
    42     0.064714
    43     0.104057
    44     0.038069
    45     0.017057
    46    -0.026539
    47     0.085757
    48     0.176855
    49    -0.121692
    50    -0.053373
    51    -0.014827
    52     0.258027
    53     0.419149
    54     0.224528
    55     0.099768
    56    -0.008521
    57     0.281248
    58     0.045703
    59     0.032280
    60     0.006953
    61     0.042950
    62    -0.000306
    63     0.070640
    64    -0.001420
    65     0.029418
    66     0.060318
    67     0.003842
    68    -0.021933
    69     0.024015
    70     0.036829
    71     0.024472
    72     0.095101
Sym=    13a
Ene=   -0.518570E-02
Spin= Alpha
Occup= 0.004164
     1     0.000046
     2     0.000003
     3    -0.000000
     4     0.002399
     5    -0.000619
     6    -0.007415
     7    -0.004756
     8     0.082255
     9     0.072009
    10    -0.157945
    11     0.120985
    12     0.104754
    13    -0.229608
    14    -0.146135
    15    -0.125845
    16     0.275945
    17    -0.118231
    18    -0.102897
    19     0.224718
    20     0.054132
    21     0.021084
    22    -0.074731
    23     0.040879
    24    -0.036176
    25    -0.006883
    26     0.291531
    27     0.116186
    28    -0.395114
    29     0.218001
    30    -0.193193
    31    -0.036369
    32     0.216920
    33     0.084641
    34    -0.293154
    35     0.160309
    36    -0.142709
    37    -0.027431
    38     0.042020
    39     0.010036
    40    -0.046268
    41     0.018446
    42     0.031510
    43    -0.010544
    44    -0.036195
    45    -0.011672
    46    -0.000262
    47     0.002124
    48     0.077738
    49    -0.023568
    50    -0.029945
    51     0.033290
    52     0.081948
    53     0.020531
    54    -0.155017
    55    -0.066901
    56     0.056630
    57     0.006763
    58     0.018965
    59    -0.002086
    60     0.004467
    61     0.002371
    62    -0.008191
    63    -0.001201
    64    -0.007230
    65     0.005544
    66    -0.007533
    67    -0.005772
    68     0.002854
    69    -0.003327
    70     0.010063
    71    -0.001380
    72    -0.010803
Sym=    14a
Ene=   -0.639184E-04
Spin= Alpha
Occup= 0.000002
     1    -1.037303
     2     1.202073
     3    -0.118273
     4    -0.106674
     5    -0.098745
     6     0.007357
     7     0.029987
     8     0.008255
     9    -0.000350
    10     0.013758
    11    -0.042104
    12     0.122694
    13    -0.252675
    14    -0.011687
    15    -0.042911
    16     0.044659
    17    -0.013231
    18    -0.020755
    19     0.011393
    20    -1.459339
    21    -0.197236
    22     1.990341
    23    -2.738444
    24    -0.720516
    25    -1.235329
    26     5.802922
    27     1.158438
    28    -7.136336
    29    10.246831
    30     2.596000
    31     4.599979
    32    -0.560792
    33    -0.122843
    34     0.698300
    35    -0.994102
    36    -0.236315
    37    -0.443005
    38     0.003026
    39     0.010224
    40     0.180280
    41     0.005838
    42    -0.124685
    43    -0.053539
    44     0.002764
    45    -0.030844
    46     0.046764
    47    -0.101252
    48     0.037853
    49    -0.078103
    50    -0.046348
    51     0.007733
    52     0.115875
    53     0.139912
    54     0.020321
    55     0.010035
    56     0.016700
    57     0.119864
    58     4.098067
    59    -1.692998
    60     0.973784
    61    -1.730190
    62    -0.635078
    63    -0.897486
    64    -1.718046
    65    -0.510504
    66    -3.836792
    67     0.264426
    68    -0.858779
    69    -1.245664
    70    -1.018615
    71    -3.932673
    72    -3.367114
Sym=    15a
Ene=   -0.265555E-03
Spin= Alpha
Occup= 0.000082
     1    -0.007734
     2    -0.015465
     3    -0.042528
     4     0.448874
     5    -0.752705
     6     0.309447
     7    -0.570765
     8     0.023714
     9     0.038557
    10    -0.015766
    11     0.055501
    12     0.343515
    13    -0.327199
    14    -0.091441
    15    -0.386411
    16     0.334338
    17    -0.080512
    18    -0.320738
    19     0.272067
    20     0.084636
    21     0.083528
    22    -0.143060
    23     0.179687
    24    -0.037456
    25     0.068468
    26     0.647238
    27     0.668869
    28    -0.472968
    29     0.872919
    30    -0.216726
    31     0.328474
    32    -0.012399
    33    -0.001386
    34     0.406479
    35    -0.329048
    36     0.059269
    37    -0.128390
    38    -0.151833
    39    -0.208834
    40     0.396151
    41    -0.239658
    42    -0.386984
    43     0.140403
    44     0.264207
    45    -0.048017
    46    -0.065360
    47    -0.155214
    48     0.144415
    49     0.360585
    50    -0.446620
    51     0.106457
    52     0.328593
    53    -0.098676
    54    -0.027251
    55     0.174692
    56    -0.110361
    57     0.110940
    58     0.478537
    59    -0.169806
    60     0.058112
    61    -0.083479
    62    -0.385679
    63     0.049468
    64    -0.235885
    65     0.143471
    66    -0.326406
    67    -0.127739
    68    -0.081657
    69    -0.105274
    70     0.066130
    71    -0.340420
    72    -0.255129
Sym=    16a
Ene=   -0.407346E-03
Spin= Alpha
Occup= 0.000151
     1     0.001266
     2     0.002959
     3     0.003058
     4    -0.076528
     5     0.136369
     6    -0.055270
     7     0.116024
     8     0.004871
     9     0.000095
    10     0.006166
    11    -0.032483
    12    -0.054155
    13     0.018969
    14     0.030587
    15     0.086288
    16    -0.056720
    17     0.023197
    18     0.091646
    19    -0.071817
    20    -0.054328
    21     0.254243
    22    -0.206173
    23     0.008308
    24     0.117686
    25    -0.051699
    26    -0.300028
    27     1.132186
    28    -0.996476
    29     0.034778
    30     0.517419
    31    -0.248219
    32     0.136319
    33    -0.771730
    34     0.556687
    35    -0.002912
    36    -0.337388
    37     0.162311
    38     0.027832
    39     0.058137
    40    -0.097401
    41     0.083203
    42     0.090402
    43    -0.018394
    44    -0.069767
    45    -0.007939
    46     0.036915
    47     0.033606
    48     0.132943
    49    -0.353228
    50     0.343908
    51    -0.208154
    52     0.068950
    53    -0.159929
    54    -0.042763
    55     0.113346
    56    -0.072522
    57     0.040407
    58     0.518536
    59     0.148418
    60    -0.019152
    61    -0.010781
    62    -0.534064
    63    -0.087956
    64     0.036086
    65    -0.103379
    66    -0.131417
    67     0.061031
    68     0.052813
    69    -0.151956
    70    -0.208975
    71     0.074683
    72     0.206829
Sym=    17a
Ene=   -0.919867E-04
Spin= Alpha
Occup= 0.000004
     1    -0.008494
     2     0.008781
     3     0.003915
     4    -0.009054
     5     0.004977
     6    -0.000230
     7     0.001587
     8     0.000002
     9     0.000043
    10    -0.000152
    11    -0.001931
    12    -0.001619
    13     0.003736
    14     0.000608
    15     0.000476
    16    -0.000924
    17     0.000044
    18     0.000005
    19    -0.000225
    20    -0.562275
    21    -1.073709
    22     1.641016
    23     2.121528
    24    -0.424810
    25    -2.134142
    26     1.972334
    27     3.764793
    28    -5.749049
    29    -7.434453
    30     1.486910
    31     7.478382
    32    -0.202375
    33    -0.385436
    34     0.587504
    35     0.760882
    36    -0.152147
    37    -0.765599
    38     0.002372
    39     0.005560
    40    -0.014505
    41     0.000896
    42    -0.013084
    43     0.006967
    44    -0.002075
    45     0.007226
    46     0.008846
    47     0.001991
    48    -0.017640
    49    -0.018626
    50     0.046415
    51     0.007573
    52     0.057484
    53    -0.021998
    54     0.016389
    55    -0.032143
    56    -0.041111
    57    -0.012232
    58     3.262589
    59    -2.773630
    60     0.312297
    61    -2.773266
    62    -2.131866
    63    -0.536075
    64     1.220371
    65    -0.253303
    66     2.751216
    67     0.627983
    68    -1.235432
    69    -0.937517
    70    -0.560930
    71     2.769416
    72    -1.126861
Sym=    18a
Ene=   -0.436520E-02
Spin= Alpha
Occup= 0.003074
     1    -0.000012
     2    -0.000000
     3    -0.000035
     4     0.000058
     5     0.000154
     6    -0.000255
     7    -0.000174
     8     0.000236
     9     0.000236
    10    -0.000600
    11     0.000019
    12     0.000031
    13    -0.000008
    14    -0.000137
    15    -0.000108
    16     0.000167
    17     0.000002
    18     0.000004
    19    -0.000108
    20    -0.020757
    21    -0.015308
    22     0.036066
    23     0.055310
    24    -0.001395
    25    -0.064694
    26    -0.135209
    27    -0.099772
    28     0.235210
    29     0.362062
    30    -0.009368
    31    -0.423033
    32    -0.104534
    33    -0.076866
    34     0.181655
    35     0.279486
    36    -0.007044
    37    -0.326794
    38     0.021302
    39     0.007310
    40    -0.027372
    41    -0.012823
    42    -0.040035
    43     0.008205
    44    -0.015683
    45     0.030270
    46     0.028535
    47     0.011436
    48     0.075746
    49     0.024490
    50    -0.095130
    51    -0.046150
    52    -0.140528
    53     0.028074
    54    -0.055705
    55     0.107402
    56     0.100275
    57     0.040616
    58    -0.011370
    59     0.014627
    60    -0.005554
    61     0.015045
    62     0.005420
    63     0.003026
    64    -0.008401
    65    -0.001254
    66    -0.013783
    67    -0.000580
    68     0.007700
    69     0.006943
    70    -0.001315
    71    -0.010279
    72     0.004944
Sym=    19a
Ene=   -0.477656E-03
Spin= Alpha
Occup= 0.000175
     1    -0.000633
     2    -0.001781
     3    -0.000852
     4     0.040815
     5    -0.078808
     6     0.038856
     7    -0.059097
     8    -0.005888
     9    -0.002128
    10    -0.003783
    11     0.022751
    12     0.006951
    13     0.015565
    14    -0.015186
    15    -0.002359
    16    -0.008243
    17    -0.013061
    18    -0.002440
    19    -0.006556
    20    -0.006252
    21     0.007301
    22     0.000880
    23    -0.003612
    24    -0.010419
    25    -0.002628
    26    -0.004200
    27     0.059293
    28     0.029548
    29    -0.014746
    30    -0.046651
    31    -0.009524
    32     0.028145
    33    -0.007692
    34     0.009308
    35     0.007411
    36     0.026092
    37     0.004731
    38    -0.034541
    39     0.002640
    40     0.125001
    41     0.208503
    42    -0.128659
    43     0.092226
    44    -0.187033
    45     0.120873
    46    -0.275671
    47     0.031727
    48    -0.028638
    49     0.000869
    50     0.255353
    51     0.412419
    52    -0.241426
    53     0.214719
    54    -0.342926
    55     0.241930
    56    -0.543228
    57     0.072654
    58     0.117147
    59     0.135486
    60    -0.138029
    61    -0.136578
    62    -0.022533
    63    -0.064949
    64     0.047900
    65    -0.041211
    66     0.113735
    67    -0.086856
    68     0.011596
    69     0.129909
    70     0.129470
    71    -0.138185
    72    -0.016441
Sym=    20a
Ene=   -0.363843E-04
Spin= Alpha
Occup= 0.000001
     1     0.008982
     2    -0.011081
     3     0.003505
     4     0.000197
     5    -0.006216
     6     0.006206
     7    -0.001581
     8     0.000754
     9    -0.000595
    10     0.000699
    11    -0.006878
    12     0.008097
    13    -0.008915
    14     0.000509
    15    -0.000310
    16     0.000877
    17     0.000130
    18    -0.000425
    19     0.000261
    20    -0.006012
    21     0.011865
    22    -0.003465
    23    -0.013613
    24    -0.008385
    25     0.005902
    26     0.026224
    27    -0.044515
    28     0.007992
    29     0.046781
    30     0.035212
    31    -0.015377
    32    -0.005594
    33    -0.001352
    34     0.005209
    35     0.004868
    36    -0.004264
    37    -0.007905
    38    -0.199342
    39    -0.155064
    40     0.319578
    41    -0.035145
    42     0.618300
    43    -0.247262
    44     0.307936
    45    -0.417375
    46    -0.173625
    47    -0.164000
    48     0.184727
    49     0.135575
    50    -0.283163
    51     0.035122
    52    -0.563351
    53     0.227911
    54    -0.278624
    55     0.376587
    56     0.156628
    57     0.149371
    58     0.012020
    59     0.096845
    60    -0.154805
    61    -0.236080
    62     0.040168
    63     0.428108
    64    -0.508040
    65    -0.135714
    66    -0.063474
    67     0.088877
    68     0.258712
    69     0.165436
    70    -0.353309
    71     0.361380
    72    -0.152963
Sym=    21a
Ene=   -0.436418E-02
Spin= Alpha
Occup= 0.003075
     1     0.000007
     2     0.000001
     3     0.000027
     4     0.000220
     5    -0.000415
     6    -0.000156
     7    -0.000480
     8     0.000311
     9    -0.000616
    10    -0.000114
    11     0.000026
    12     0.000065
    13    -0.000072
    14    -0.000129
    15     0.000266
    16     0.000138
    17    -0.000044
    18    -0.000120
    19    -0.000104
    20     0.026951
    21    -0.068891
    22     0.042056
    23     0.012272
    24    -0.049976
    25     0.032194
    26     0.177097
    27    -0.451026
    28     0.275021
    29     0.079878
    30    -0.326882
    31     0.210236
    32     0.137110
    33    -0.349728
    34     0.213118
    35     0.061814
    36    -0.253530
    37     0.163274
    38    -0.027078
    39     0.031287
    40    -0.031058
    41     0.026759
    42    -0.015230
    43     0.030117
    44     0.009592
    45    -0.026791
    46     0.011504
    47    -0.008254
    48    -0.101800
    49     0.116920
    50    -0.114807
    51     0.100258
    52    -0.055368
    53     0.112117
    54     0.036051
    55    -0.100959
    56     0.042137
    57    -0.031334
    58    -0.013135
    59    -0.004453
    60     0.003959
    61    -0.011240
    62     0.025730
    63     0.014496
    64     0.001120
    65     0.004395
    66    -0.007446
    67    -0.012492
    68    -0.003082
    69     0.002311
    70     0.010089
    71    -0.000064
    72    -0.006058
Sym=    22a
Ene=   -0.448480E-03
Spin= Alpha
Occup= 0.000158
     1    -0.000204
     2    -0.000526
     3    -0.000314
     4     0.012594
     5    -0.022372
     6     0.008526
     7    -0.019889
     8     0.003834
     9    -0.004911
    10    -0.004702
    11     0.104165
    12    -0.089520
    13    -0.075004
    14    -0.181523
    15     0.163381
    16     0.137755
    17    -0.196750
    18     0.181360
    19     0.153784
    20    -0.232735
    21     0.096972
    22     0.136698
    23     0.064927
    24     0.004878
    25     0.138577
    26    -1.128105
    27     0.480454
    28     0.676107
    29     0.316912
    30     0.027139
    31     0.677419
    32     0.673376
    33    -0.272114
    34    -0.387685
    35    -0.186882
    36    -0.016485
    37    -0.398493
    38    -0.399341
    39     0.089573
    40     0.174287
    41     0.095345
    42     0.013509
    43    -0.110819
    44     0.096652
    45     0.179131
    46     0.142007
    47     0.134900
    48     0.350542
    49    -0.245137
    50    -0.241698
    51     0.077966
    52    -0.103233
    53    -0.056315
    54     0.085909
    55    -0.151414
    56    -0.113516
    57    -0.041583
    58    -0.317605
    59    -0.208783
    60    -0.154161
    61    -0.204618
    62    -0.223990
    63    -0.004965
    64    -0.042754
    65    -0.001111
    66    -0.096362
    67     0.065883
    68    -0.095211
    69     0.089226
    70    -0.012709
    71    -0.098333
    72     0.529417
Sym=    23a
Ene=   -0.397821E-04
Spin= Alpha
Occup= 0.000002
     1     0.015154
     2    -0.018719
     3     0.006913
     4    -0.001578
     5    -0.007831
     6     0.006370
     7    -0.002557
     8    -0.000649
     9    -0.000298
    10    -0.000039
    11     0.010266
    12     0.001392
    13    -0.000942
    14    -0.001694
    15     0.000229
    16     0.000023
    17    -0.000756
    18     0.000053
    19     0.000174
    20    -0.012826
    21     0.010435
    22     0.007069
    23     0.002865
    24    -0.006142
    25    -0.005175
    26     0.052817
    27    -0.042022
    28    -0.023680
    29    -0.007857
    30     0.023121
    31     0.016435
    32    -0.004270
    33     0.005095
    34    -0.001640
    35    -0.003940
    36    -0.001725
    37     0.003251
    38     0.135908
    39     0.073329
    40    -0.387143
    41    -0.366150
    42    -0.077013
    43    -0.086039
    44     0.174190
    45    -0.022150
    46     0.606385
    47     0.000012
    48    -0.128937
    49    -0.067445
    50     0.353339
    51     0.333115
    52     0.067016
    53     0.080805
    54    -0.163608
    55     0.021922
    56    -0.554330
    57     0.000769
    58    -0.398142
    59     0.152504
    60     0.608419
    61    -0.343739
    62    -0.018631
    63     0.004458
    64    -0.344961
    65     0.182105
    66     0.382588
    67     0.142569
    68     0.210102
    69    -0.531162
    70    -0.163589
    71    -0.099448
    72     0.183299
Sym=    24a
Ene=   -0.168630E-03
Spin= Alpha
Occup= 0.000043
     1     0.018549
     2     0.050964
     3     0.274649
     4    -1.718436
     5     2.678366
     6    -1.067086
     7     1.552051
     8    -0.053309
     9    -0.021795
    10    -0.041868
    11     0.199791
    12     0.239011
    13    -0.075600
    14    -0.031267
    15    -0.095977
    16     0.096374
    17     0.008724
    18    -0.040638
    19     0.069519
    20    -0.054875
    21     0.122014
    22    -0.031944
    23    -0.065741
    24    -0.212103
    25    -0.070116
    26    -1.175063
    27    -0.517215
    28    -1.098854
    29    -0.223937
    30    -0.780022
    31    -0.252480
    32    -0.182692
    33    -0.379821
    34    -0.257532
    35     0.100342
    36     0.217061
    37     0.086741
    38    -0.110887
    39    -0.165996
    40     0.052692
    41    -0.200346
    42    -0.064135
    43     0.266870
    44     0.264688
    45     0.057088
    46    -0.115625
    47     0.086392
    48    -0.011496
    49     0.147577
    50     0.004033
    51     0.121592
    52    -0.080063
    53    -0.333098
    54    -0.249902
    55    -0.077600
    56     0.074261
    57    -0.175666
    58     0.241399
    59    -0.012728
    60     0.130963
    61    -0.043684
    62    -0.169871
    63     0.126738
    64     0.157659
    65     0.232986
    66    -0.167451
    67     0.362760
    68     0.434927
    69     0.159604
    70     0.575304
    71     0.266197
    72     0.250142
Sym=    25a
Ene=   -0.135429E-03
Spin= Alpha
Occup= 0.000029
     1    -0.004254
     2    -0.026937
     3    -0.196342
     4     0.985907
     5    -1.374027
     6     0.353800
     7    -0.603839
     8    -0.044301
     9    -0.010044
    10    -0.040882
    11     0.466870
    12    -0.016655
    13     0.546075
    14    -0.189024
    15    -0.015920
    16    -0.200930
    17     0.034355
    18     0.015148
    19     0.027447
    20    -0.070915
    21     0.170300
    22    -0.183446
    23     0.073747
    24    -0.273843
    25    -0.011047
    26     0.696140
    27     0.136629
    28     0.709358
    29     0.038131
    30     0.603672
    31     0.117775
    32     0.012348
    33     0.184353
    34     0.036647
    35    -0.040612
    36    -0.185265
    37    -0.049291
    38    -0.212270
    39    -0.049943
    40    -0.322841
    41    -0.315948
    42     0.038857
    43     0.211395
    44     0.215188
    45     0.117282
    46    -0.298885
    47     0.112771
    48    -0.030518
    49     0.063941
    50     0.053553
    51     0.070035
    52    -0.079020
    53    -0.191066
    54    -0.117559
    55    -0.045739
    56     0.053292
    57    -0.106816
    58    -0.447063
    59     0.145006
    60    -0.209401
    61    -0.221181
    62     0.384765
    63     0.095483
    64     0.278209
    65    -0.590190
    66    -0.125533
    67     0.605321
    68    -0.013466
    69    -0.438981
    70    -0.019670
    71    -0.137000
    72    -0.342301
Sym=    26a
Ene=   -0.319877E-04
Spin= Alpha
Occup= 0.000001
     1    -0.749099
     2     0.984256
     3    -0.689877
     4     0.676144
     5     0.138056
     6    -0.472172
     7    -0.025076
     8    -0.141992
     9     0.079442
    10     0.140097
    11     1.912321
    12    -1.086181
    13    -1.928932
    14    -0.143656
    15     0.077067
    16     0.140291
    17    -0.101797
    18     0.062566
    19     0.114241
    20    -0.207825
    21    -0.233611
    22    -0.109697
    23     0.117562
    24     0.170162
    25     0.128211
    26     0.709298
    27     0.769245
    28     0.230491
    29    -0.495841
    30    -0.715075
    31    -0.555350
    32     0.015724
    33     0.055444
    34     0.118206
    35     0.045932
    36     0.070823
    37     0.067364
    38    -0.161211
    39     0.489527
    40     0.580373
    41    -0.601551
    42     0.423698
    43     0.685711
    44    -0.860817
    45    -0.120831
    46     0.243492
    47    -0.242426
    48    -1.049300
    49     0.204803
    50     0.646612
    51     0.055561
    52    -0.113364
    53    -0.137583
    54     0.311630
    55     0.426857
    56     0.304266
    57     0.237585
    58    -0.191112
    59     0.256414
    60    -0.145599
    61     0.156064
    62    -0.492582
    63     0.431951
    64     0.238437
    65     0.201187
    66     0.216119
    67    -0.029346
    68     0.101554
    69    -0.138982
    70     0.064751
    71     0.058416
    72    -0.476636
Sym=    27a
Ene=   -0.521422E-02
Spin= Alpha
Occup= 0.004535
     1    -0.000337
     2    -0.000041
     3    -0.000281
     4    -0.006323
     5     0.008486
     6     0.005503
     7     0.016562
     8    -0.210124
     9    -0.049567
    10     0.315646
    11    -0.203390
    12    -0.047230
    13     0.308237
    14     0.280984
    15     0.065144
    16    -0.423208
    17     0.174541
    18     0.042605
    19    -0.267101
    20     0.052496
    21     0.005266
    22    -0.058846
    23     0.020998
    24    -0.023811
    25    -0.015510
    26     0.305065
    27     0.024855
    28    -0.357685
    29     0.124173
    30    -0.143444
    31    -0.093236
    32     0.133008
    33     0.008269
    34    -0.161189
    35     0.057095
    36    -0.061388
    37    -0.039237
    38    -0.048851
    39    -0.006261
    40     0.053246
    41    -0.014179
    42    -0.016837
    43     0.014112
    44     0.012860
    45     0.009245
    46     0.015398
    47     0.002825
    48    -0.002234
    49     0.014119
    50    -0.047471
    51     0.018455
    52    -0.031769
    53    -0.048083
    54     0.089111
    55     0.036745
    56    -0.043783
    57     0.005863
    58     0.039117
    59     0.005987
    60     0.011203
    61     0.006753
    62    -0.001124
    63     0.008812
    64    -0.004401
    65     0.004669
    66    -0.008672
    67     0.001831
    68     0.003524
    69    -0.009078
    70     0.011219
    71    -0.007318
    72    -0.029454
Sym=    28a
Ene=   -0.402346E-03
Spin= Alpha
Occup= 0.000150
     1    -0.000037
     2    -0.000052
     3    -0.000192
     4     0.002547
     5    -0.004278
     6     0.001858
     7    -0.005206
     8     0.000140
     9     0.000089
    10     0.000084
    11     0.001437
    12     0.001615
    13    -0.002379
    14    -0.001455
    15    -0.002989
    16     0.004869
    17    -0.001802
    18    -0.003344
    19     0.004628
    20     0.075583
    21     0.021570
    22    -0.096710
    23    -0.176859
    24    -0.013384
    25     0.221632
    26     0.346051
    27     0.096723
    28    -0.436860
    29    -0.796903
    30    -0.064440
    31     1.003207
    32    -0.219058
    33    -0.061427
    34     0.284819
    35     0.512011
    36     0.039973
    37    -0.643687
    38     0.004574
    39    -0.004171
    40     0.003386
    41    -0.007704
    42    -0.009740
    43    -0.000930
    44    -0.002530
    45     0.009313
    46     0.004894
    47     0.002118
    48    -0.176599
    49    -0.021076
    50     0.163710
    51     0.120037
    52     0.282767
    53    -0.035193
    54     0.122388
    55    -0.243433
    56    -0.201090
    57    -0.090684
    58     0.255360
    59    -0.334698
    60    -0.079577
    61    -0.311046
    62    -0.043530
    63     0.116836
    64     0.008723
    65    -0.042084
    66     0.221350
    67     0.052698
    68    -0.103096
    69     0.063389
    70    -0.038716
    71     0.345987
    72    -0.256398
Sym=    29a
Ene=   -0.492981E-03
Spin= Alpha
Occup= 0.000007
     1    -4.139049
     2     3.537029
     3     4.114837
     4    -5.889973
     5     0.523090
     6     1.748653
     7     0.445159
     8     0.033911
     9     0.008329
    10     0.033123
    11    -0.076227
    12    -0.037946
    13    -0.017828
    14     0.031552
    15     0.028067
    16     0.000505
    17    -0.036332
    18    -0.000675
    19    -0.051141
    20     1.502773
    21     1.170330
    22     1.263989
    23     0.238152
    24     0.332143
    25     0.166536
    26    -3.585320
    27    -2.445657
    28    -2.772040
    29    -0.814354
    30    -1.142398
    31    -0.568414
    32    -0.268811
    33    -0.354081
    34    -0.348152
    35     0.071184
    36     0.078747
    37     0.045512
    38    -0.022796
    39     0.010233
    40    -0.031681
    41    -0.032729
    42    -0.013939
    43     0.008329
    44     0.052726
    45     0.023414
    46    -0.044658
    47     0.002717
    48     0.054631
    49    -0.011738
    50     0.041301
    51     0.045155
    52     0.023660
    53     0.009065
    54    -0.035347
    55    -0.019417
    56     0.050547
    57     0.006371
    58     1.361261
    59     0.202212
    60     0.743205
    61     0.206397
    62     1.151619
    63     0.410700
    64     0.130843
    65     0.209416
    66     0.290267
    67     0.923232
    68     0.116103
    69     0.881474
    70     0.442381
    71     0.315738
    72     1.812707
Sym=    30a
Ene=   -0.659400E-03
Spin= Alpha
Occup= 0.000267
     1    -0.000053
     2    -0.000183
     3    -0.000221
     4     0.006017
     5    -0.011325
     6     0.005174
     7    -0.008815
     8    -0.074225
     9     0.077990
    10     0.056223
    11    -0.012609
    12     0.006660
    13     0.007913
    14    -0.025159
    15     0.029759
    16     0.019372
    17    -0.078303
    18     0.083573
    19     0.059668
    20     0.077482
    21    -0.035727
    22    -0.041598
    23    -0.025639
    24    -0.001147
    25    -0.048568
    26    -0.186816
    27     0.089089
    28     0.110645
    29     0.062690
    30    -0.001094
    31     0.118503
    32     0.037565
    33    -0.013263
    34    -0.019270
    35    -0.011941
    36     0.001436
    37    -0.021955
    38     0.137904
    39     0.117063
    40     0.004574
    41    -0.178496
    42     0.063490
    43     0.162163
    44    -0.155033
    45    -0.064170
    46    -0.057864
    47    -0.121284
    48     0.696344
    49    -0.068276
    50    -0.246117
    51    -0.296805
    52     0.003468
    53     0.293675
    54    -0.240473
    55    -0.324291
    56    -0.260141
    57    -0.304725
    58    -0.040669
    59     0.013299
    60     0.027386
    61    -0.035811
    62    -0.081053
    63     0.094672
    64     0.102867
    65     0.107499
    66     0.011287
    67     0.032053
    68     0.022503
    69     0.108890
    70    -0.174130
    71    -0.091224
    72    -0.074689
Sym=    31a
Ene=   -0.434313E-03
Spin= Alpha
Occup= 0.000154
     1    -0.003255
     2    -0.007712
     3    -0.007707
     4     0.198576
     5    -0.353328
     6     0.141005
     7    -0.300410
     8    -0.013505
     9    -0.000833
    10    -0.016176
    11     0.087254
    12     0.133925
    13    -0.049079
    14    -0.086633
    15    -0.217720
    16     0.150478
    17    -0.067084
    18    -0.234705
    19     0.192830
    20    -0.086645
    21    -0.018500
    22     0.121231
    23    -0.188452
    24     0.149173
    25    -0.086054
    26    -0.264123
    27    -0.004399
    28     0.696669
    29    -0.861265
    30     0.753732
    31    -0.383474
    32     0.309525
    33     0.134687
    34    -0.239802
    35     0.502702
    36    -0.458033
    37     0.227441
    38    -0.123938
    39    -0.099041
    40     0.211364
    41    -0.175771
    42    -0.251708
    43     0.094493
    44     0.199340
    45    -0.018223
    46    -0.079101
    47    -0.099566
    48     0.180596
    49     0.244355
    50    -0.194534
    51     0.016688
    52     0.226609
    53    -0.231003
    54    -0.045600
    55     0.188077
    56    -0.121492
    57     0.034990
    58    -0.270660
    59     0.151848
    60    -0.077708
    61     0.096181
    62     0.046602
    63    -0.192328
    64     0.133167
    65    -0.117354
    66     0.239202
    67    -0.090466
    68     0.044570
    69     0.039182
    70    -0.258011
    71     0.290818
    72     0.199915
Sym=    32a
Ene=   -0.917453E-03
Spin= Alpha
Occup= 0.000038
     1    -0.127112
     2     0.047133
     3     0.207871
     4    -0.062319
     5    -0.297746
     6     0.216241
     7    -0.231722
     8    -1.143735
     9    -0.514116
    10    -0.842026
    11     0.062970
    12     0.027546
    13     0.048199
    14     0.397846
    15     0.179166
    16     0.289652
    17     0.035285
    18     0.013983
    19     0.030681
    20     0.057679
    21     0.058471
    22     0.053088
    23     0.002867
    24    -0.002243
    25     0.000807
    26    -0.014839
    27    -0.045298
    28    -0.032832
    29     0.019786
    30     0.031695
    31     0.014608
    32     0.008051
    33     0.062131
    34     0.045784
    35    -0.039213
    36    -0.055024
    37    -0.026950
    38     0.903677
    39     0.408759
    40     0.667893
    41     0.404841
    42     0.178558
    43     0.293834
    44     0.403506
    45     0.181318
    46     0.298062
    47    -0.003340
    48    -0.534098
    49    -0.187231
    50    -0.345338
    51    -0.214757
    52    -0.165306
    53    -0.269939
    54    -0.276373
    55    -0.123668
    56    -0.159017
    57    -0.073817
    58     0.051581
    59     0.001636
    60     0.029291
    61     0.002565
    62     0.050760
    63     0.002620
    64    -0.001258
    65     0.000965
    66     0.004264
    67     0.026977
    68    -0.003504
    69     0.030074
    70    -0.001138
    71     0.000096
    72     0.054154
Sym=    33a
Ene=   -0.160341E-03
Spin= Alpha
Occup= 0.000031
     1     0.000012
     2    -0.000056
     3    -0.000195
     4     0.000208
     5     0.000220
     6     0.000970
     7    -0.000541
     8    -0.000109
     9     0.000457
    10     0.000153
    11     0.002283
    12    -0.002130
    13    -0.001463
    14    -0.000806
    15     0.000407
    16     0.000159
    17     0.000065
    18    -0.000820
    19     0.000553
    20    -0.027879
    21     0.065763
    22    -0.038697
    23    -0.007193
    24     0.047364
    25    -0.035373
    26     0.227390
    27    -0.552137
    28     0.324270
    29     0.071308
    30    -0.407270
    31     0.306571
    32    -0.062914
    33     0.152348
    34    -0.089242
    35    -0.018879
    36     0.111557
    37    -0.083089
    38    -0.400212
    39     0.436946
    40    -0.410562
    41     0.385835
    42    -0.174981
    43     0.421781
    44     0.149011
    45    -0.410632
    46     0.130689
    47    -0.131787
    48     0.196156
    49    -0.215986
    50     0.203853
    51    -0.190180
    52     0.087539
    53    -0.210304
    54    -0.073457
    55     0.204818
    56    -0.063364
    57     0.066256
    58     0.048849
    59     0.227701
    60     0.159687
    61    -0.478962
    62     0.373848
    63     0.403151
    64     0.247765
    65    -0.033204
    66    -0.501942
    67    -0.618823
    68    -0.017955
    69    -0.182003
    70    -0.027793
    71     0.254596
    72     0.307182
Sym=    34a
Ene=   -0.136754E-03
Spin= Alpha
Occup= 0.000031
     1    -0.008798
     2    -0.045587
     3    -0.294236
     4     1.566665
     5    -2.217425
     6     0.609550
     7    -1.086535
     8    -0.068439
     9    -0.037852
    10    -0.042429
    11     0.749162
    12     0.451351
    13     0.425438
    14    -0.288536
    15    -0.162288
    16    -0.177833
    17     0.046431
    18     0.024372
    19     0.030746
    20    -0.182703
    21    -0.031546
    22     0.096585
    23    -0.240812
    24    -0.121620
    25    -0.124538
    26     1.210968
    27     0.728568
    28     0.576344
    29     0.581998
    30     0.441416
    31     0.326110
    32     0.033436
    33     0.236663
    34     0.225383
    35    -0.186460
    36    -0.199784
    37    -0.117199
    38    -0.248488
    39    -0.431630
    40    -0.390819
    41    -0.055065
    42     0.264417
    43     0.183789
    44    -0.257233
    45    -0.110104
    46     0.016939
    47     0.322730
    48    -0.068571
    49     0.105199
    50     0.088894
    51    -0.035038
    52    -0.187949
    53    -0.181015
    54    -0.004632
    55    -0.014711
    56    -0.035199
    57    -0.177022
    58    -0.072522
    59    -0.320748
    60     0.093218
    61    -0.199488
    62    -0.339968
    63    -0.530866
    64    -0.042509
    65     0.220096
    66    -0.440964
    67    -0.205500
    68     0.434452
    69     0.126605
    70     0.105616
    71     0.114460
    72    -0.388725
Sym=    35a
Ene=   -0.171770E-02
Spin= Alpha
Occup= 0.000073
     1    -0.009269
     2     0.001633
     3     0.015550
     4     0.006580
     5    -0.044928
     6     0.029357
     7    -0.031630
     8    -0.215278
     9     1.530885
    10    -0.641556
    11     0.064966
    12    -0.447597
    13     0.187326
    14     0.045070
    15    -0.339667
    16     0.142936
    17    -0.024902
    18     0.166556
    19    -0.067755
    20     0.002025
    21     0.014640
    22    -0.000259
    23     0.010933
    24    -0.005828
    25     0.006546
    26     0.006116
    27    -0.002494
    28     0.005132
    29    -0.010477
    30     0.000117
    31    -0.008003
    32    -0.001498
    33     0.025036
    34    -0.006593
    35     0.025004
    36    -0.011699
    37     0.015688
    38     0.130189
    39    -0.903432
    40     0.385493
    41     0.041492
    42    -0.416373
    43     0.177201
    44     0.066155
    45    -0.405450
    46     0.159384
    47    -0.011069
    48    -0.074238
    49     0.455583
    50    -0.207078
    51     0.013500
    52     0.234423
    53    -0.111056
    54    -0.056141
    55     0.207208
    56    -0.056277
    57     0.026296
    58     0.002110
    59     0.004740
    60    -0.002969
    61     0.001404
    62     0.008529
    63     0.006824
    64    -0.000562
    65    -0.010248
    66     0.002592
    67     0.008628
    68    -0.006570
    69    -0.008661
    70     0.004517
    71    -0.002191
    72     0.003841
Sym=    36a
Ene=   -0.654790E-03
Spin= Alpha
Occup= 0.000265
     1     0.000588
     2     0.002069
     3     0.001998
     4    -0.062583
     5     0.128121
     6    -0.072365
     7     0.093874
     8    -0.032149
     9    -0.089194
    10     0.077171
    11     0.011026
    12     0.002370
    13     0.018795
    14    -0.018746
    15    -0.039268
    16     0.023842
    17    -0.037169
    18    -0.099025
    19     0.081027
    20     0.021339
    21     0.037996
    22    -0.066004
    23     0.056926
    24    -0.040935
    25     0.013762
    26    -0.109190
    27    -0.123888
    28     0.113561
    29    -0.139820
    30     0.079842
    31    -0.041038
    32     0.000394
    33    -0.005873
    34    -0.045738
    35     0.027749
    36    -0.008228
    37     0.010899
    38     0.039699
    39    -0.131520
    40     0.009081
    41     0.125099
    42     0.103287
    43    -0.008439
    44    -0.234295
    45    -0.108791
    46     0.161379
    47     0.065984
    48     0.231780
    49     0.095857
    50    -0.344122
    51     0.376244
    52     0.434921
    53    -0.205581
    54    -0.536929
    55    -0.094492
    56     0.237776
    57     0.149778
    58    -0.052861
    59     0.073656
    60    -0.047267
    61    -0.020711
    62     0.094116
    63     0.121400
    64     0.065738
    65    -0.124950
    66     0.025722
    67     0.159411
    68    -0.061958
    69    -0.094893
    70    -0.018650
    71    -0.064857
    72    -0.012321
Sym=    37a
Ene=   -0.157893E-01
Spin= Alpha
Occup= 0.018510
     1     0.090260
     2     0.013804
     3     0.130932
     4    -0.121978
     5    -0.570631
     6     0.404670
     7     0.907098
     8    -0.315898
     9    -0.142686
    10    -0.230988
    11    -0.206019
    12    -0.093082
    13    -0.150989
    14     0.296381
    15     0.133381
    16     0.216480
    17     0.240780
    18     0.109867
    19     0.175301
    20    -0.031561
    21    -0.013884
    22    -0.021247
    23    -0.011573
    24    -0.018810
    25    -0.008484
    26    -0.402052
    27    -0.330903
    28    -0.360280
    29    -0.046681
    30    -0.075119
    31    -0.034119
    32    -0.086915
    33    -0.091745
    34    -0.090129
    35     0.003446
    36     0.005003
    37     0.002419
    38    -0.021779
    39    -0.007269
    40    -0.013483
    41    -0.008607
    42    -0.007242
    43    -0.011591
    44    -0.011502
    45    -0.005180
    46    -0.006273
    47    -0.003572
    48     0.043065
    49     0.022924
    50     0.035665
    51     0.021438
    52     0.004594
    53     0.007235
    54     0.015826
    55     0.007108
    56     0.016031
    57    -0.005338
    58     0.099956
    59     0.004013
    60     0.056714
    61     0.004359
    62     0.094301
    63     0.008801
    64     0.001824
    65     0.003934
    66     0.005928
    67     0.059489
    68     0.000790
    69     0.058911
    70     0.007867
    71     0.004929
    72     0.107092
Sym=    38a
Ene=   -0.887873E-04
Spin= Alpha
Occup= 0.000001
     1     6.523120
     2    -9.223829
     3    10.565763
     4   -12.301595
     5    -1.990461
     6     6.660611
     7     0.985820
     8    -0.004073
     9     0.016115
    10     0.036749
    11     0.140624
    12    -0.242026
    13    -0.328181
    14     0.026774
    15     0.043830
    16     0.032854
    17    -0.045918
    18     0.010428
    19    -0.029932
    20     3.537130
    21     3.937722
    22     3.844473
    23    -0.273878
    24    -0.378972
    25    -0.179971
    26    -7.867599
    27    -9.459747
    28    -9.110447
    29     1.085762
    30     1.488704
    31     0.707086
    32    -0.957838
    33    -0.801299
    34    -0.845363
    35    -0.095562
    36    -0.144706
    37    -0.062878
    38    -0.001991
    39     0.138010
    40     0.115003
    41    -0.090261
    42     0.019174
    43     0.068415
    44    -0.064175
    45     0.012651
    46     0.011158
    47    -0.077700
    48    -0.098845
    49    -0.002946
    50     0.098105
    51     0.043337
    52     0.047432
    53     0.034882
    54     0.020557
    55     0.050313
    56     0.084849
    57     0.082754
    58     4.534728
    59    -0.275042
    60     2.719026
    61    -0.268325
    62     4.708822
    63    -0.554427
    64    -0.179604
    65    -0.233094
    66    -0.411478
    67     2.423135
    68    -0.131123
    69     2.521063
    70    -0.607644
    71    -0.440673
    72     3.787053
Sym=    39a
Ene=   -0.137268E-03
Spin= Alpha
Occup= 0.000027
     1     0.000001
     2    -0.000031
     3    -0.000168
     4     0.000839
     5    -0.000961
     6     0.000166
     7    -0.001034
     8    -0.000101
     9    -0.000025
    10     0.000261
    11    -0.000077
    12     0.001013
    13    -0.001244
    14     0.000366
    15    -0.000329
    16    -0.000298
    17    -0.000097
    18    -0.000004
    19    -0.000048
    20    -0.000188
    21    -0.000465
    22     0.000528
    23    -0.000818
    24    -0.000005
    25     0.001371
    26     0.003089
    27    -0.000357
    28    -0.001105
    29    -0.000636
    30    -0.001141
    31     0.000462
    32     0.000097
    33     0.000087
    34     0.000688
    35    -0.000303
    36     0.000017
    37     0.000708
    38    -0.070927
    39    -0.133992
    40     0.103639
    41     0.327310
    42    -0.103366
    43     0.195792
    44    -0.231673
    45     0.282088
    46    -0.334489
    47    -0.066641
    48     0.025399
    49     0.047716
    50    -0.035771
    51    -0.118227
    52     0.035841
    53    -0.070444
    54     0.083483
    55    -0.099988
    56     0.120337
    57     0.024307
    58    -0.252357
    59    -0.644989
    60     0.251038
    61     0.547123
    62     0.201908
    63     0.343297
    64    -0.121004
    65     0.184878
    66    -0.244318
    67     0.193230
    68     0.128365
    69    -0.604092
    70    -0.479880
    71     0.336122
    72     0.231752
Sym=    40a
Ene=   -0.481232E-03
Spin= Alpha
Occup= 0.000176
     1     0.004125
     2     0.011641
     3     0.005614
     4    -0.267258
     5     0.515391
     6    -0.253464
     7     0.388024
     8     0.036201
     9     0.016816
    10     0.025853
    11    -0.137956
    12    -0.058992
    13    -0.107064
    14     0.082894
    15     0.038875
    16     0.061265
    17     0.070796
    18     0.035925
    19     0.049691
    20     0.023029
    21    -0.036191
    22     0.000467
    23     0.031898
    24     0.067634
    25     0.027248
    26    -0.068367
    27    -0.328308
    28    -0.158584
    29     0.136970
    30     0.301384
    31     0.119332
    32    -0.128442
    33     0.015223
    34    -0.083585
    35    -0.072712
    36    -0.167860
    37    -0.065192
    38     0.124179
    39     0.193863
    40     0.105526
    41    -0.086426
    42    -0.029595
    43     0.049049
    44     0.059636
    45    -0.172327
    46    -0.076649
    47     0.287495
    48     0.071049
    49     0.364370
    50     0.121112
    51    -0.203090
    52    -0.155784
    53    -0.100352
    54    -0.048339
    55    -0.410810
    56    -0.175827
    57     0.473716
    58     0.114095
    59    -0.194673
    60    -0.084671
    61    -0.017517
    62     0.238560
    63    -0.077957
    64     0.031025
    65    -0.026660
    66    -0.008335
    67    -0.022042
    68     0.166521
    69    -0.080574
    70    -0.121406
    71    -0.117576
    72     0.057666
Sym=    41a
Ene=   -0.426579E-04
Spin= Alpha
Occup= 0.000002
     1    -0.027950
     2     0.033760
     3    -0.007916
     4    -0.004504
     5     0.016585
     6    -0.011375
     7     0.005840
     8     0.000282
     9     0.000168
    10     0.000114
    11    -0.004763
    12    -0.002740
    13    -0.002180
    14     0.000973
    15     0.000515
    16     0.000566
    17     0.000495
    18     0.000292
    19     0.000230
    20     0.008742
    21    -0.011154
    22    -0.000942
    23     0.012131
    24     0.020924
    25     0.009054
    26    -0.034672
    27     0.044293
    28     0.004001
    29    -0.048227
    30    -0.083031
    31    -0.036071
    32     0.004059
    33    -0.003207
    34     0.000349
    35     0.004579
    36     0.007622
    37     0.003327
    38    -0.000196
    39    -0.002633
    40    -0.002307
    41     0.001170
    42     0.001926
    43     0.000269
    44     0.003858
    45     0.004287
    46     0.005145
    47    -0.007602
    48     0.002553
    49     0.004145
    50     0.003513
    51     0.000210
    52    -0.001519
    53    -0.000432
    54    -0.002753
    55    -0.003415
    56    -0.004194
    57     0.006429
    58    -0.177839
    59    -0.427833
    60     0.659744
    61     0.265134
    62    -0.605180
    63     0.420781
    64     0.093515
    65    -0.698351
    66     0.227566
    67    -0.360622
    68     0.262036
    69     0.340818
    70     0.174795
    71    -0.253774
    72     0.030281
Sym=    42a
Ene=   -0.507525E-03
Spin= Alpha
Occup= 0.000205
     1     0.006475
     2     0.026369
     3    -0.012216
     4    -0.502066
     5     0.991770
     6    -0.487210
     7     0.809358
     8    -0.146361
     9    -0.062758
    10    -0.110761
    11     0.379971
    12     0.170793
    13     0.278505
    14    -0.308054
    15    -0.123876
    16    -0.241916
    17    -0.255091
    18    -0.091625
    19    -0.219697
    20     0.061316
    21    -0.059222
    22     0.000622
    23     0.070856
    24     0.128769
    25     0.055312
    26     0.012872
    27    -0.745434
    28    -0.394248
    29     0.474676
    30     0.812617
    31     0.359716
    32    -0.329004
    33     0.060544
    34    -0.125016
    35    -0.239755
    36    -0.418266
    37    -0.183484
    38    -0.157051
    39     0.045184
    40    -0.031434
    41    -0.024539
    42    -0.144248
    43    -0.242057
    44    -0.143053
    45    -0.060994
    46    -0.025368
    47    -0.148797
    48     0.315328
    49     0.230472
    50     0.390104
    51     0.189907
    52    -0.093657
    53    -0.093947
    54     0.059498
    55     0.011731
    56     0.157961
    57    -0.175414
    58     0.042726
    59    -0.128146
    60     0.097871
    61    -0.146587
    62     0.239872
    63    -0.287773
    64    -0.031825
    65    -0.116533
    66    -0.196382
    67     0.040588
    68     0.021297
    69     0.040640
    70    -0.215018
    71    -0.120596
    72    -0.147700
Sym=    43a
Ene=   -0.499847E-03
Spin= Alpha
Occup= 0.000177
     1    -0.009926
     2    -0.028230
     3    -0.013114
     4     0.647783
     5    -1.251016
     6     0.616354
     7    -0.943593
     8    -0.088529
     9    -0.040057
    10    -0.064427
    11     0.334261
    12     0.137888
    13     0.262865
    14    -0.202450
    15    -0.085095
    16    -0.154782
    17    -0.173682
    18    -0.079217
    19    -0.126412
    20    -0.056035
    21     0.092811
    22    -0.005705
    23    -0.073098
    24    -0.166871
    25    -0.063488
    26     0.164926
    27     0.822874
    28     0.360188
    29    -0.309611
    30    -0.750264
    31    -0.277767
    32     0.312983
    33    -0.051961
    34     0.217759
    35     0.163050
    36     0.418676
    37     0.151477
    38    -0.096165
    39     0.168121
    40     0.040101
    41    -0.027557
    42    -0.186437
    43    -0.334008
    44    -0.182952
    45    -0.167406
    46    -0.002619
    47    -0.098481
    48     0.234988
    49     0.357884
    50     0.309924
    51     0.013805
    52    -0.153057
    53    -0.171622
    54     0.055698
    55    -0.165321
    56     0.050175
    57     0.024309
    58     0.030487
    59     0.051461
    60    -0.150040
    61     0.175209
    62    -0.207857
    63     0.320606
    64    -0.000686
    65     0.116220
    66     0.208814
    67    -0.106962
    68    -0.029518
    69    -0.125717
    70     0.136892
    71     0.024930
    72     0.134446
Sym=    44a
Ene=   -0.424386E-04
Spin= Alpha
Occup= 0.000002
     1     0.015305
     2    -0.018571
     3     0.005006
     4     0.000721
     5    -0.007044
     6     0.005680
     7    -0.002549
     8    -0.000616
     9     0.000641
    10    -0.000076
    11     0.007803
    12    -0.003559
    13    -0.001195
    14    -0.000716
    15    -0.001022
    16     0.000431
    17    -0.000395
    18    -0.000257
    19     0.000244
    20     0.003860
    21    -0.011696
    22     0.009586
    23    -0.009898
    24    -0.000843
    25    -0.007664
    26    -0.015853
    27     0.047277
    28    -0.039653
    29     0.039804
    30     0.003628
    31     0.031028
    32     0.000712
    33    -0.004539
    34     0.002978
    35    -0.003848
    36    -0.000093
    37    -0.002884
    38     0.137035
    39     0.507373
    40     0.383022
    41     0.038700
    42    -0.347090
    43    -0.038294
    44    -0.229458
    45    -0.331661
    46    -0.474123
    47     0.526579
    48    -0.130189
    49    -0.461975
    50    -0.350231
    51    -0.037275
    52     0.319744
    53     0.034904
    54     0.208003
    55     0.305057
    56     0.434762
    57    -0.481917
    58     0.135236
    59     0.025470
    60    -0.098246
    61    -0.321065
    62     0.137467
    63     0.065612
    64    -0.173751
    65     0.012680
    66     0.373652
    67    -0.087069
    68     0.359108
    69    -0.196958
    70    -0.078839
    71    -0.279900
    72     0.175011
Sym=    45a
Ene=   -0.141598E-01
Spin= Alpha
Occup= 0.015787
     1     0.098461
     2     0.014899
     3     0.141528
     4    -0.114568
     5    -0.641305
     6     0.432031
     7     0.932600
     8     0.285922
     9     0.128764
    10     0.209497
    11     0.194086
    12     0.087541
    13     0.142220
    14    -0.281619
    15    -0.126777
    16    -0.205724
    17    -0.214326
    18    -0.095949
    19    -0.158346
    20    -0.032480
    21    -0.015906
    22    -0.022822
    23    -0.010834
    24    -0.017566
    25    -0.007924
    26    -0.410590
    27    -0.333096
    28    -0.365584
    29    -0.050609
    30    -0.082387
    31    -0.037107
    32    -0.082009
    33    -0.079915
    34    -0.081547
    35    -0.000908
    36    -0.002473
    37    -0.000865
    38     0.025521
    39     0.009483
    40     0.016792
    41     0.010361
    42     0.007314
    43     0.012043
    44     0.013049
    45     0.005881
    46     0.007582
    47     0.002845
    48    -0.043005
    49    -0.025069
    50    -0.036373
    51    -0.021646
    52    -0.002777
    53    -0.004518
    54    -0.015547
    55    -0.007133
    56    -0.015745
    57     0.007542
    58     0.101829
    59     0.004016
    60     0.057902
    61     0.004250
    62     0.096282
    63     0.008925
    64     0.002053
    65     0.003994
    66     0.005753
    67     0.061029
    68     0.001185
    69     0.060088
    70     0.008359
    71     0.005138
    72     0.109009
Sym=    46a
Ene=   -0.493901E-02
Spin= Alpha
Occup= 0.003677
     1     0.018046
     2     0.001340
     3     0.031946
     4    -0.021747
     5    -0.150578
     6     0.141274
     7     0.141584
     8    -0.184644
     9    -0.083477
    10    -0.136661
    11     0.143042
    12     0.063379
    13     0.103674
    14     0.026858
    15     0.013415
    16     0.023453
    17    -0.192184
    18    -0.084653
    19    -0.142525
    20     0.023298
    21    -0.032571
    22    -0.009446
    23     0.035960
    24     0.058733
    25     0.026123
    26     0.114808
    27    -0.224246
    28    -0.084019
    29     0.218687
    30     0.356073
    31     0.159020
    32     0.151374
    33    -0.186852
    34    -0.043271
    35     0.216400
    36     0.356939
    37     0.158389
    38     0.011006
    39    -0.018863
    40    -0.014651
    41    -0.006910
    42     0.028500
    43     0.046704
    44     0.022928
    45     0.010143
    46    -0.005218
    47     0.033463
    48     0.052862
    49    -0.066109
    50    -0.045991
    51    -0.021009
    52     0.110607
    53     0.181122
    54     0.091396
    55     0.040552
    56    -0.015336
    57     0.126734
    58     0.017925
    59    -0.001385
    60     0.012153
    61    -0.003368
    62     0.020906
    63    -0.003077
    64     0.002230
    65    -0.001217
    66    -0.004536
    67     0.016017
    68     0.004672
    69     0.011126
    70     0.001916
    71     0.000784
    72     0.016579
Sym=    47a
Ene=   -0.913094E-04
Spin= Alpha
Occup= 0.000003
     1     0.010121
     2    -0.010488
     3    -0.004596
     4     0.010743
     5    -0.005244
     6    -0.001068
     7    -0.002069
     8     0.000281
     9    -0.000041
    10     0.000022
    11    -0.004798
    12     0.003201
    13     0.001240
    14     0.001239
    15    -0.000643
    16    -0.000247
    17     0.000279
    18    -0.000328
    19     0.000025
    20     1.143561
    21    -2.416966
    22     1.267216
    23     0.047291
    24    -1.830081
    25     1.672782
    26    -4.015388
    27     8.482033
    28    -4.450938
    29    -0.164441
    30     6.425192
    31    -5.871932
    32     0.409469
    33    -0.861460
    34     0.453094
    35     0.016431
    36    -0.652984
    37     0.597104
    38    -0.057287
    39     0.056522
    40    -0.052355
    41     0.057892
    42    -0.016789
    43     0.052163
    44     0.023537
    45    -0.062368
    46     0.016773
    47    -0.020727
    48     0.087216
    49    -0.084155
    50     0.073045
    51    -0.082510
    52     0.021978
    53    -0.077109
    54    -0.033512
    55     0.090190
    56    -0.021365
    57     0.029666
    58     2.511414
    59     2.157123
    60    -0.679274
    61     2.203365
    62    -4.814202
    63    -2.402834
    64     0.009408
    65    -1.061127
    66     0.092073
    67     1.443364
    68     0.975279
    69    -0.723573
    70    -2.374052
    71     0.043412
    72     2.247477
Sym=    48a
Ene=   -0.137190E-03
Spin= Alpha
Occup= 0.000027
     1     0.000007
     2     0.000044
     3     0.000318
     4    -0.001526
     5     0.001850
     6    -0.000494
     7     0.001706
     8     0.000013
     9    -0.000025
    10    -0.000180
    11    -0.000688
    12     0.002728
    13     0.000554
    14     0.000312
    15    -0.001115
    16     0.000397
    17     0.000111
    18    -0.000058
    19     0.000126
    20     0.000391
    21    -0.000744
    22     0.000539
    23     0.000767
    24    -0.001087
    25    -0.000127
    26    -0.000307
    27    -0.003925
    28     0.001715
    29    -0.000920
    30     0.000541
    31    -0.001049
    32    -0.000455
    33    -0.000518
    34    -0.000323
    35     0.000548
    36    -0.000641
    37    -0.000037
    38     0.091221
    39     0.322609
    40     0.217280
    41    -0.012845
    42    -0.201787
    43    -0.046664
    44    -0.108779
    45    -0.234106
    46    -0.244704
    47     0.325721
    48    -0.031605
    49    -0.116357
    50    -0.077292
    51     0.003755
    52     0.072835
    53     0.016139
    54     0.038447
    55     0.083511
    56     0.085992
    57    -0.116346
    58    -0.536491
    59     0.355561
    60     0.623469
    61     0.019407
    62    -0.481984
    63    -0.051174
    64    -0.162816
    65     0.002845
    66    -0.387484
    67     0.315044
    68    -0.501277
    69     0.229199
    70     0.049826
    71     0.508828
    72    -0.310180
Sym=    49a
Ene=   -0.753782E-03
Spin= Alpha
Occup= 0.000311
     1     0.000010
     2     0.000030
     3    -0.000032
     4    -0.000918
     5     0.001865
     6    -0.000747
     7     0.001363
     8     0.000286
     9     0.000584
    10     0.000380
    11    -0.000043
    12    -0.000952
    13    -0.000354
    14     0.000687
    15    -0.000312
    16     0.000440
    17     0.000515
    18     0.000137
    19     0.001168
    20     0.020147
    21    -0.044910
    22     0.024681
    23     0.002366
    24    -0.033739
    25     0.028471
    26     0.287966
    27    -0.640703
    28     0.350721
    29     0.034457
    30    -0.478576
    31     0.405173
    32    -0.116812
    33     0.258667
    34    -0.142713
    35    -0.013608
    36     0.193334
    37    -0.163853
    38     0.138467
    39    -0.137626
    40     0.122507
    41    -0.131242
    42     0.041293
    43    -0.131465
    44    -0.054625
    45     0.143579
    46    -0.032180
    47     0.045542
    48     0.391358
    49    -0.390817
    50     0.345057
    51    -0.372272
    52     0.117677
    53    -0.372372
    54    -0.154592
    55     0.407519
    56    -0.093061
    57     0.130718
    58    -0.074798
    59    -0.023298
    60     0.055864
    61    -0.149537
    62     0.215917
    63     0.138957
    64     0.048647
    65     0.030114
    66    -0.089657
    67    -0.154456
    68    -0.033637
    69    -0.015506
    70     0.072688
    71     0.036684
    72    -0.010582
Sym=    50a
Ene=   -0.172262E-02
Spin= Alpha
Occup= 0.000073
     1     0.005742
     2    -0.001149
     3    -0.008663
     4    -0.005134
     5     0.027105
     6    -0.017294
     7     0.018522
     8    -1.071670
     9     0.364698
    10     1.232585
    11     0.321066
    12    -0.111300
    13    -0.369996
    14     0.233898
    15    -0.076874
    16    -0.268535
    17    -0.120292
    18     0.043054
    19     0.136789
    20    -0.018047
    21    -0.000418
    22     0.009651
    23    -0.000251
    24     0.003962
    25     0.007234
    26     0.016452
    27    -0.006667
    28    -0.015867
    29    -0.001502
    30    -0.002966
    31    -0.009103
    32    -0.038641
    33     0.003584
    34     0.025440
    35    -0.001084
    36     0.006945
    37     0.015734
    38     0.651865
    39    -0.212268
    40    -0.733639
    41     0.275596
    42    -0.085352
    43    -0.314356
    44     0.262737
    45    -0.106741
    46    -0.326136
    47    -0.006270
    48    -0.375965
    49     0.104354
    50     0.392204
    51    -0.129641
    52     0.025445
    53     0.143416
    54    -0.095589
    55     0.076132
    56     0.171368
    57     0.017691
    58     0.002824
    59    -0.002621
    60    -0.000051
    61     0.002753
    62     0.000666
    63    -0.009535
    64    -0.006634
    65    -0.001692
    66    -0.001469
    67    -0.006438
    68     0.002392
    69    -0.003572
    70     0.011021
    71     0.008076
    72     0.001461
Sym=    51a
Ene=   -0.521331E-02
Spin= Alpha
Occup= 0.004533
     1    -0.000278
     2    -0.000033
     3    -0.000196
     4    -0.005339
     5     0.007271
     6     0.004199
     7     0.013853
     8     0.135807
     9    -0.356137
    10     0.032857
    11     0.133084
    12    -0.345897
    13     0.032197
    14    -0.182504
    15     0.475793
    16    -0.044025
    17    -0.114305
    18     0.299321
    19    -0.029637
    20    -0.034546
    21     0.040228
    22    -0.006537
    23     0.043044
    24    -0.019348
    25     0.035826
    26    -0.212980
    27     0.234626
    28    -0.044726
    29     0.255607
    30    -0.116875
    31     0.212846
    32    -0.093572
    33     0.100450
    34    -0.023227
    35     0.115036
    36    -0.049896
    37     0.095063
    38     0.031667
    39    -0.043925
    40     0.005664
    41    -0.012416
    42    -0.029406
    43     0.015860
    44     0.013170
    45    -0.025509
    46    -0.012605
    47    -0.014202
    48     0.001597
    49     0.098504
    50    -0.003514
    51    -0.068546
    52     0.016495
    53     0.031629
    54    -0.001152
    55     0.028191
    56    -0.041850
    57    -0.038475
    58     0.005849
    59    -0.014599
    60    -0.004746
    61    -0.014586
    62    -0.024175
    63     0.008124
    64    -0.007228
    65     0.004781
    66    -0.017411
    67     0.008446
    68    -0.005719
    69     0.001202
    70     0.007523
    71    -0.017306
    72     0.023601
Sym=    52a
Ene=   -0.101630E-03
Spin= Alpha
Occup= 0.000020
     1    -0.000009
     2     0.000161
     3    -0.000363
     4     0.000047
     5    -0.000382
     6     0.001506
     7    -0.000345
     8     0.000153
     9     0.000185
    10     0.000331
    11     0.002800
    12    -0.012557
    13    -0.001205
    14    -0.002754
    15     0.005254
    16    -0.000825
    17    -0.001418
    18     0.001789
    19    -0.001379
    20     0.024586
    21    -0.053226
    22     0.029144
    23     0.005498
    24    -0.034299
    25     0.035335
    26     0.062466
    27    -0.137364
    28     0.072941
    29     0.002750
    30    -0.101447
    31     0.080642
    32     0.033513
    33    -0.074344
    34     0.041190
    35     0.005847
    36    -0.053847
    37     0.048604
    38     0.442784
    39    -0.435333
    40     0.391426
    41    -0.426762
    42     0.134224
    43    -0.412390
    44    -0.171961
    45     0.464048
    46    -0.113380
    47     0.148684
    48    -0.360913
    49     0.359530
    50    -0.316838
    51     0.349678
    52    -0.108279
    53     0.336186
    54     0.139880
    55    -0.377042
    56     0.093744
    57    -0.121462
    58     0.082367
    59     0.227716
    60     0.174182
    61    -0.399581
    62     0.251441
    63     0.293456
    64     0.254444
    65    -0.028802
    66    -0.417457
    67    -0.540199
    68    -0.021416
    69    -0.208281
    70    -0.051251
    71     0.213256
    72     0.320211
Sym=    53a
Ene=   -0.794704E-02
Spin= Alpha
Occup= 0.000237
     1     1.428095
     2     0.064564
     3    -2.117611
     4     0.725820
     5     1.406408
     6    -1.489782
     7    -0.387962
     8    -0.037244
     9    -0.015174
    10    -0.030210
    11     0.008829
    12     0.002518
    13     0.008207
    14     0.010447
    15     0.007864
    16     0.003827
    17    -0.022725
    18    -0.006042
    19    -0.022846
    20    -0.594306
    21    -0.641835
    22    -0.623624
    23     0.031942
    24     0.049745
    25     0.023080
    26     1.634901
    27     1.728525
    28     1.696014
    29    -0.065175
    30    -0.097412
    31    -0.045863
    32     0.154784
    33     0.180688
    34     0.166595
    35    -0.014975
    36    -0.028379
    37    -0.011915
    38     0.014476
    39     0.004141
    40     0.007973
    41     0.003751
    42     0.006049
    43     0.011892
    44     0.011697
    45     0.005171
    46     0.002335
    47     0.004611
    48     0.005048
    49    -0.009813
    50     0.001708
    51     0.002470
    52     0.008704
    53     0.012891
    54     0.000074
    55    -0.001035
    56     0.005218
    57     0.009660
    58    -0.806043
    59     0.015921
    60    -0.476325
    61     0.014882
    62    -0.825251
    63     0.034314
    64     0.012662
    65     0.017485
    66     0.020802
    67    -0.458020
    68     0.013126
    69    -0.466161
    70     0.040310
    71     0.026700
    72    -0.771863
Sym=    54a
Ene=   -0.250707E-03
Spin= Alpha
Occup= 0.000070
     1    -0.000507
     2    -0.001009
     3    -0.003264
     4     0.030844
     5    -0.051047
     6     0.021000
     7    -0.038648
     8     0.028379
     9    -0.024877
    10    -0.021030
    11     0.389642
    12    -0.363287
    13    -0.305994
    14    -0.357684
    15     0.330837
    16     0.277212
    17    -0.265999
    18     0.247111
    19     0.208731
    20     0.216582
    21    -0.092170
    22    -0.122817
    23    -0.055705
    24    -0.002672
    25    -0.125477
    26     0.999603
    27    -0.400435
    28    -0.541751
    29    -0.259081
    30    -0.014951
    31    -0.574447
    32    -0.304402
    33     0.143222
    34     0.187888
    35     0.081146
    36     0.002940
    37     0.182008
    38    -0.682089
    39     0.211582
    40     0.326002
    41     0.117087
    42     0.051089
    43    -0.135970
    44     0.106106
    45     0.304730
    46     0.238919
    47     0.206724
    48     0.512735
    49    -0.303112
    50    -0.316692
    51     0.054143
    52    -0.111541
    53    -0.018884
    54     0.059215
    55    -0.220520
    56    -0.178244
    57    -0.080981
    58     0.415913
    59     0.238222
    60     0.164443
    61     0.291448
    62     0.351130
    63    -0.084943
    64    -0.054550
    65    -0.093920
    66     0.106168
    67    -0.130710
    68     0.087598
    69    -0.213851
    70     0.171398
    71     0.203033
    72    -0.587087
Sym=    55a
Ene=   -0.142387E-03
Spin= Alpha
Occup= 0.000029
     1    -0.000302
     2    -0.002211
     3    -0.013918
     4     0.073441
     5    -0.104505
     6     0.027754
     7    -0.045830
     8     0.005592
     9    -0.010132
    10    -0.009838
    11    -0.148997
    12     0.188132
    13     0.179483
    14     0.038783
    15    -0.057278
    16    -0.055764
    17    -0.006575
    18     0.008676
    19     0.010396
    20     0.266893
    21    -0.103225
    22    -0.169163
    23    -0.073807
    24    -0.028632
    25    -0.165878
    26    -0.353641
    27     0.189275
    28     0.280858
    29     0.120476
    30     0.057281
    31     0.255195
    32     0.080196
    33    -0.020663
    34    -0.042083
    35    -0.027320
    36    -0.015903
    37    -0.052549
    38    -0.208609
    39    -0.163906
    40    -0.037356
    41     0.220544
    42    -0.093604
    43    -0.205165
    44     0.247640
    45     0.099749
    46     0.051990
    47     0.176564
    48     0.073755
    49     0.017326
    50    -0.010683
    51    -0.045956
    52     0.003272
    53     0.030849
    54    -0.051101
    55    -0.036952
    56    -0.027188
    57    -0.052452
    58    -0.283970
    59     0.036162
    60     0.057311
    61    -0.228198
    62    -0.357802
    63     0.442525
    64     0.473504
    65     0.388012
    66     0.017465
    67     0.241557
    68     0.062325
    69     0.433476
    70    -0.766218
    71    -0.439550
    72    -0.226913
Sym=    56a
Ene=   -0.413998E-04
Spin= Alpha
Occup= 0.000002
     1    -0.006564
     2     0.007982
     3    -0.002000
     4    -0.001568
     5     0.005816
     6    -0.003810
     7     0.001840
     8    -0.000513
     9     0.000017
    10     0.000579
    11     0.009169
    12    -0.000431
    13    -0.012170
    14    -0.001122
    15     0.000059
    16     0.001813
    17    -0.000528
    18     0.000100
    19     0.001019
    20    -0.006671
    21    -0.006897
    22     0.011713
    23     0.007533
    24     0.017605
    25     0.004771
    26     0.027157
    27     0.026442
    28    -0.048572
    29    -0.030090
    30    -0.070266
    31    -0.018348
    32    -0.002178
    33    -0.002229
    34     0.004771
    35     0.002569
    36     0.006369
    37     0.001984
    38     0.151249
    39     0.370196
    40    -0.019105
    41    -0.473731
    42     0.044006
    43    -0.300845
    44     0.262345
    45    -0.540182
    46     0.338286
    47     0.274927
    48    -0.143873
    49    -0.339052
    50     0.024584
    51     0.432360
    52    -0.040211
    53     0.278593
    54    -0.243446
    55     0.495113
    56    -0.307389
    57    -0.252516
    58     0.175817
    59    -0.488975
    60    -0.219522
    61     0.581069
    62     0.147242
    63     0.076771
    64     0.312678
    65     0.034680
    66    -0.317757
    67    -0.033548
    68    -0.101684
    69    -0.073702
    70    -0.039090
    71     0.111947
    72     0.040704
Sym=    57a
Ene=    0.000000E+00
Spin= Alpha
Occup= 0.000000
     1     1.623985
     2    -3.181223
     3    12.211310
     4   -16.338954
     5   -11.385368
     6    18.950003
     7    -0.602501
     8     0.548876
     9    -0.200745
    10     0.491809
    11    -3.228427
    12     1.492389
    13    -3.033170
    14    -2.761607
    15     0.033828
    16    -1.868643
    17     0.894171
    18     0.198260
    19     0.443895
    20     8.216764
    21    10.256550
    22     9.279067
    23    -0.301885
    24     1.010328
    25    -0.108742
    26   -17.096380
    27   -27.306848
    28   -22.484638
    29     1.589563
    30    -4.937053
    31     0.587848
    32    -1.264283
    33    -1.002304
    34    -1.185670
    35    -0.009801
    36     0.142619
    37    -0.009371
    38     1.015639
    39    -0.365630
    40     0.939216
    41     0.365691
    42    -0.269921
    43     0.445532
    44     0.549879
    45    -0.175997
    46     0.328140
    47    -0.073659
    48     2.559217
    49    -0.767316
    50     2.109576
    51     1.226232
    52    -0.212790
    53     0.931455
    54     1.045556
    55    -0.319206
    56     1.036401
    57     0.089471
    58    11.485767
    59    -0.284827
    60     7.646028
    61    -0.249574
    62    14.570324
    63     2.072422
    64    -0.330924
    65     0.984637
    66    -0.703195
    67     5.647836
    68    -0.088720
    69     6.621508
    70     2.118361
    71    -0.686786
    72     7.886878
Sym=    58a
Ene=    0.000000E+00
Spin= Alpha
Occup= 0.000000
     1    -0.089535
     2     0.173197
     3    -0.525018
     4    -6.718448
     5    11.730055
     6    11.527065
     7    -0.730023
     8     0.284784
     9     0.986969
    10     0.435350
    11    -1.858424
    12    -6.733525
    13    -2.763262
    14    -1.162380
    15    -2.343573
    16    -1.950744
    17     0.361009
    18     0.228159
    19     0.649532
    20    -2.260362
    21     0.242990
    22    -0.593614
    23     0.347142
    24    -1.806772
    25     0.749571
    26    -6.108938
    27   -18.673893
    28   -14.434723
    29    -1.756614
    30     9.037426
    31    -3.748843
    32    -0.574972
    33    -0.366245
    34    -0.395501
    35     0.014655
    36    -0.181918
    37     0.077165
    38     0.579872
    39     1.901842
    40     0.817562
    41     0.410361
    42     1.047097
    43     0.381430
    44     0.144435
    45     0.881151
    46     0.518982
    47     0.151943
    48     1.274484
    49     4.069429
    50     2.032473
    51     0.415666
    52     1.618556
    53     0.897715
    54     0.687861
    55     1.785049
    56     0.752080
    57    -0.156558
    58     5.500780
    59     1.645846
    60     4.042060
    61     1.602447
    62     8.429391
    63    -3.892009
    64     0.362249
    65    -1.835621
    66     0.753295
    67     1.702971
    68     0.718366
    69     2.385178
    70    -3.853730
    71     0.778003
    72     0.041398
Sym=    59a
Ene=    0.000000E+00
Spin= Alpha
Occup= 0.000000
     1    -0.101486
     2     0.167163
     3     0.059670
     4    -6.295119
     5     8.573200
     6    11.049365
     7    -0.351170
     8    -0.336476
     9     0.029156
    10    -0.291973
    11     2.029491
    12    -0.134925
    13     2.315646
    14     1.594093
    15    -0.124444
    16     0.075583
    17    -0.521305
    18     0.013764
    19     0.214534
    20    -0.587212
    21     2.251450
    22    -1.198228
    23     0.836617
    24     1.295929
    25    -3.183009
    26    -9.996588
    27   -24.039508
    28    -6.892174
    29    -4.161924
    30    -6.403987
    31    15.801818
    32    -0.702991
    33    -0.264034
    34    -0.714532
    35     0.113024
    36     0.208751
    37    -0.436250
    38    -0.652486
    39     0.028635
    40    -0.731232
    41    -0.230277
    42     0.051262
    43    -0.296411
    44    -0.334545
    45    -0.022261
    46    -0.268726
    47     0.023198
    48    -1.507126
    49     0.125402
    50    -0.981259
    51    -0.754008
    52     0.013125
    53    -0.483365
    54    -0.642723
    55     0.113690
    56    -0.495937
    57    -0.018243
    58     1.006165
    59    -6.780275
    60     3.876844
    61    -6.762243
    62    12.278038
    63     2.738151
    64     0.797862
    65     1.208320
    66     1.810284
    67     1.265042
    68    -3.034844
    69     4.508680
    70     2.730362
    71     1.762820
    72     3.082347
Sym=    60a
Ene=    0.000000E+00
Spin= Alpha
Occup= 0.000000
     1    -0.673498
     2     1.324363
     3    -5.123544
     4     2.141172
     5    12.039561
     6     0.083991
     7    -0.763131
     8     0.142465
     9    -0.250355
    10     0.054966
    11     0.216213
    12     1.088407
    13    -1.291800
    14    -2.868654
    15     2.066963
    16     1.724159
    17     1.266896
    18    -0.814637
    19    -0.878793
    20    -4.278912
    21    -3.972472
    22    -4.713401
    23     0.699975
    24     1.141017
    25    -0.144323
    26     0.823981
    27    -0.752437
    28     2.886290
    29    -3.503127
    30    -5.698794
    31     0.664249
    32     0.386436
    33     0.379344
    34     0.252133
    35     0.075642
    36     0.138185
    37    -0.059528
    38    -0.124045
    39    -0.349553
    40     0.413395
    41     0.045408
    42    -0.213411
    43     0.084269
    44     0.043672
    45    -0.127854
    46     0.195285
    47     0.010988
    48     1.256359
    49    -1.360978
    50    -0.249649
    51     0.448811
    52    -0.541027
    53     0.000190
    54     0.454720
    55    -0.631943
    56    -0.122141
    57    -0.005317
    58    -3.093833
    59    -0.265121
    60    -1.128744
    61    -0.253128
    62    -0.726739
    63     2.452833
    64     0.661671
    65     1.087094
    66     1.525709
    67    -1.435017
    68    -0.133841
    69    -0.751042
    70     2.459470
    71     1.509432
    72    -1.798115
Sym=    61a
Ene=    0.000000E+00
Spin= Alpha
Occup= 0.000000
     1    -0.858353
     2     1.601238
     3    -4.859597
     4    -0.721321
     5    13.987741
     6     6.239293
     7    -0.929169
     8     0.255121
     9     0.602836
    10    -0.321269
    11    -1.907896
    12    -4.268067
    13     2.340841
    14    -0.365350
    15    -2.261300
    16     1.140295
    17    -0.021685
    18     0.802178
    19    -0.400979
    20    -4.055538
    21    -2.989305
    22    -3.142513
    23    -2.624434
    24     1.058367
    25     0.515810
    26    -3.980257
    27    -9.142779
    28    -8.482181
    29    12.999165
    30    -5.372930
    31    -2.584574
    32    -0.117173
    33     0.106685
    34    -0.027552
    35    -0.335928
    36     0.076960
    37     0.080681
    38     0.619451
    39     1.519153
    40    -0.739008
    41     0.063839
    42     0.505058
    43    -0.261603
    44     0.405962
    45     0.652416
    46    -0.510202
    47    -0.145128
    48     0.921200
    49     2.501378
    50    -1.417119
    51     0.630067
    52     1.310668
    53    -0.712729
    54     0.283122
    55     1.144523
    56    -0.462158
    57     0.146493
    58     2.801005
    59     1.054851
    60     1.764855
    61     1.118925
    62     3.042010
    63     2.280016
    64    -2.519895
    65     1.157291
    66    -5.587587
    67     0.667825
    68     0.540225
    69     0.950292
    70     2.317594
    71    -5.562415
    72    -0.201994
Sym=    62a
Ene=    0.000000E+00
Spin= Alpha
Occup= 0.000000
     1    -0.257999
     2     0.542515
     3    -3.039815
     4     6.414638
     5     0.740809
     6    -9.960126
     7    -0.036422
     8    -0.703394
     9    -0.129641
    10    -0.524696
    11     5.960880
    12     1.632710
    13     4.207933
    14    -0.332251
    15    -1.148835
    16     0.273542
    17     0.641422
    18     0.621509
    19     0.220814
    20    -3.906813
    21    -2.705543
    22    -2.652167
    23    -0.781000
    24    -1.172999
    25    -0.356899
    26    17.538998
    27    11.492159
    28    11.241833
    29     3.932749
    30     5.894478
    31     1.805490
    32     0.607064
    33     0.724620
    34     0.733386
    35    -0.076466
    36    -0.127741
    37    -0.032992
    38    -1.822539
    39    -0.465890
    40    -1.270255
    41    -0.818541
    42    -0.252949
    43    -0.611675
    44    -0.812017
    45    -0.219877
    46    -0.584338
    47    -0.035598
    48    -2.319228
    49    -0.197562
    50    -1.883171
    51    -1.036989
    52    -0.033921
    53    -0.781661
    54    -1.034019
    55    -0.072532
    56    -0.825659
    57     0.044853
    58    -5.117919
    59    -0.776724
    60    -3.054995
    61    -0.764570
    62    -5.300649
    63    -2.532246
    64    -0.778612
    65    -1.130772
    66    -1.680278
    67    -4.255367
    68    -0.377007
    69    -4.270359
    70    -2.554782
    71    -1.705779
    72    -9.275769
Sym=    63a
Ene=    0.000000E+00
Spin= Alpha
Occup= 0.000000
     1     0.612978
     2    -1.132468
     3     2.738611
     4     1.616720
     5    -9.046483
     6    -4.921111
     7    -0.438258
     8    -0.287943
     9     0.467284
    10    -0.480944
    11     1.748969
    12    -4.056721
    13     2.656961
    14     1.305458
    15     0.064284
    16     2.890022
    17    -0.378452
    18    -0.307726
    19    -1.037618
    20     0.792223
    21     1.992263
    22     0.000540
    23    -0.942625
    24    -1.281951
    25    -0.828204
    26    10.986097
    27     4.992777
    28    14.881705
    29     4.670418
    30     6.371149
    31     4.098921
    32     0.293918
    33     0.451086
    34     0.173165
    35    -0.133923
    36    -0.174106
    37    -0.118318
    38    -0.604027
    39     1.257331
    40    -0.876457
    41    -0.313307
    42     0.551505
    43    -0.297338
    44    -0.094055
    45     0.625611
    46    -0.453860
    47     0.042310
    48    -1.249138
    49     1.623336
    50    -2.316572
    51    -0.513607
    52     0.729691
    53    -1.150735
    54    -0.745101
    55     0.656825
    56    -0.976394
    57    -0.053824
    58    -7.621566
    59    -1.784600
    60    -2.546038
    61    -1.771309
    62    -1.165453
    63    -2.777623
    64    -0.884172
    65    -1.188242
    66    -2.032791
    67    -3.706448
    68    -0.725256
    69    -1.783127
    70    -2.716654
    71    -1.978391
    72    -5.094467
Sym=    64a
Ene=    0.000000E+00
Spin= Alpha
Occup= 0.000000
     1     0.012677
     2    -0.054159
     3     0.729183
     4    -7.922234
     5    10.776818
     6    11.292091
     7    -2.767366
     8    -0.804584
     9    -0.292272
    10     0.659632
    11     5.419016
    12     2.120664
    13    -4.639228
    14     2.584900
    15     0.276231
    16    -1.488506
    17    -0.630110
    18     0.168863
    19     0.162594
    20     2.230014
    21    -0.545434
    22    -0.564212
    23     0.115617
    24    -1.378922
    25     0.065405
    26   -24.296295
    27   -10.489913
    28   -10.435481
    29    -0.557831
    30     6.807752
    31    -0.315142
    32     0.731560
    33     0.402960
    34     0.387669
    35     0.021975
    36    -0.218666
    37     0.024470
    38    -1.746463
    39    -0.574300
    40     1.470030
    41    -0.867061
    42    -0.389656
    43     0.648151
    44    -0.568153
    45    -0.199881
    46     0.527392
    47    -0.047480
    48    -3.327699
    49    -1.112270
    50     2.558614
    51    -1.391854
    52    -0.357687
    53     1.164086
    54    -1.699906
    55    -0.559210
    56     1.281388
    57     0.052929
    58     3.015226
    59     0.114661
    60     1.787343
    61     0.115705
    62     3.003243
    63    -2.922554
    64     0.112663
    65    -1.258766
    66     0.212624
    67     4.395304
    68     0.087998
    69     4.464045
    70    -2.915223
    71     0.249348
    72    12.107033
Sym=    65a
Ene=    0.000000E+00
Spin= Alpha
Occup= 0.000000
     1     0.343407
     2    -0.701094
     3     3.320911
     4    -8.618849
     5     2.679765
     6    12.219113
     7    -0.183685
     8     0.215893
     9    -0.441635
    10    -0.872524
    11    -1.258851
    12     2.244558
    13     6.693348
    14    -0.986333
    15     2.762532
    16     0.998710
    17     0.267197
    18    -0.969643
    19     0.196131
    20     4.352005
    21     3.112477
    22     0.791802
    23    -0.640870
    24    -0.273803
    25     1.556729
    26   -23.708788
    27   -17.544021
    28    -5.931340
    29     3.159411
    30     1.413013
    31    -7.702746
    32    -0.525563
    33    -0.677733
    34    -0.924555
    35    -0.118968
    36    -0.000891
    37     0.233407
    38     0.421320
    39    -0.695392
    40    -2.049517
    41     0.170080
    42    -0.296060
    43    -0.920270
    44     0.111389
    45    -0.339473
    46    -0.905818
    47    -0.020171
    48     0.936334
    49    -2.170737
    50    -3.233257
    51     0.442468
    52    -0.970968
    53    -1.441493
    54     0.509288
    55    -0.946805
    56    -1.469139
    57     0.020913
    58     0.669519
    59     3.302844
    60     2.640892
    61     3.285735
    62     8.335253
    63    -0.600733
    64    -0.579727
    65    -0.275622
    66    -1.335371
    67     3.835853
    68     1.465329
    69     6.068489
    70    -0.649238
    71    -1.357733
    72    12.383639
Sym=    66a
Ene=    0.000000E+00
Spin= Alpha
Occup= 0.000000
     1     0.054052
     2    -0.020020
     3    -1.452697
     4     2.193541
     5     2.807126
     6    -3.826970
     7    -0.848805
     8    -0.891633
     9    -0.344488
    10     0.245160
    11     5.597812
    12     2.205917
    13    -1.427917
    14     3.466626
    15     1.637998
    16    -1.186188
    17    -0.936336
    18    -0.589773
    19     0.376516
    20    -3.922415
    21    -1.287313
    22    -1.863216
    23    -0.369196
    24     1.919397
    25     1.912858
    26    15.432278
    27     2.263706
    28     5.107745
    29     1.838255
    30    -9.503254
    31    -9.512003
    32     0.383908
    33     0.679926
    34     0.572229
    35    -0.072300
    36     0.255973
    37     0.229128
    38    -1.718174
    39    -0.752647
    40     0.418864
    41    -0.679086
    42    -0.268195
    43     0.156151
    44    -0.869215
    45    -0.359078
    46     0.272637
    47     0.037040
    48    -3.889539
    49    -1.553376
    50     1.152011
    51    -1.832204
    52    -0.749594
    53     0.540741
    54    -1.640344
    55    -0.672674
    56     0.420018
    57    -0.037715
    58    -2.714729
    59     4.098170
    60    -1.064611
    61     4.101538
    62    -0.837026
    63     4.066664
    64    -0.365781
    65     1.777961
    66    -0.772434
    67    -3.568716
    68     1.813307
    69    -3.091381
    70     4.114543
    71    -0.773469
    72    -9.536854
Sym=    67a
Ene=    0.000000E+00
Spin= Alpha
Occup= 0.000000
     1     0.588220
     2    -1.212828
     3     6.196485
     4    -9.171142
     5    -6.728466
     6    12.321514
     7     1.741813
     8    -0.489504
     9     0.067790
    10    -0.039513
    11     3.456430
    12     0.453072
    13    -0.778637
    14     1.168398
    15    -1.244482
    16     1.778601
    17    -0.167230
    18     0.362839
    19    -0.712328
    20     6.320116
    21     7.368151
    22     4.994036
    23    -1.446815
    24     0.126497
    25     0.712371
    26   -19.283481
    27   -24.574174
    28   -12.779156
    29     7.211919
    30    -0.565554
    31    -3.525585
    32    -1.436114
    33    -1.348511
    34    -1.662405
    35    -0.197523
    36     0.057893
    37     0.102570
    38    -1.116747
    39    -0.325364
    40     0.219853
    41    -0.261017
    42     0.040931
    43     0.045683
    44    -0.608768
    45    -0.117989
    46     0.289637
    47     0.162463
    48    -1.911397
    49     0.625923
    50    -0.472721
    51    -1.093506
    52     0.090636
    53    -0.183658
    54    -0.744114
    55     0.244159
    56    -0.419986
    57    -0.177941
    58     6.139131
    59     1.546847
    60     5.837171
    61     1.512162
    62    13.966078
    63     0.265327
    64    -1.374583
    65     0.001904
    66    -3.071501
    67     4.917848
    68     0.623422
    69     7.024854
    70     0.247829
    71    -3.116750
    72    10.392952
Sym=    68a
Ene=    0.000000E+00
Spin= Alpha
Occup= 0.000000
     1     0.167106
     2    -0.279133
     3     0.179907
     4     3.855378
     5    -5.697265
     6    -6.872624
     7     0.566608
     8    -0.282134
     9     1.123016
    10     0.255813
    11     2.302489
    12    -7.565003
    13    -1.394972
    14     0.074980
    15    -3.610896
    16    -1.456009
    17     0.160332
    18     0.875087
    19     0.482112
    20     1.986184
    21    -0.570508
    22    -2.198549
    23     0.667350
    24     1.734265
    25     0.545279
    26    -1.500614
    27    11.164802
    28    19.280836
    29    -3.331804
    30    -8.585100
    31    -2.713617
    32     0.445224
    33     0.122070
    34    -0.077431
    35     0.068294
    36     0.242510
    37     0.075720
    38    -0.770987
    39     2.393079
    40     0.494752
    41    -0.267903
    42     0.983902
    43     0.092226
    44    -0.283538
    45     1.073205
    46     0.219076
    47    -0.031301
    48    -0.921409
    49     4.673654
    50     1.166055
    51    -0.493277
    52     2.198985
    53     0.666453
    54    -0.466038
    55     2.094941
    56     0.519141
    57     0.045138
    58   -10.438025
    59     1.169523
    60    -4.556395
    61     1.175291
    62    -5.108493
    63     3.691147
    64     0.636129
    65     1.647057
    66     1.460108
    67    -2.129047
    68     0.497645
    69    -0.560049
    70     3.661018
    71     1.426160
    72     3.203915
Sym=    69a
Ene=    0.000000E+00
Spin= Alpha
Occup= 0.000000
     1    -0.284041
     2     0.639040
     3    -3.998805
     4     8.138890
     5     1.995962
     6   -13.248006
     7    -0.682736
     8     0.441756
     9    -0.322293
    10     0.705096
    11    -2.983912
    12     2.319552
    13    -4.796710
    14    -1.325000
    15     1.134668
    16    -2.507412
    17     0.283379
    18    -0.395094
    19     0.744433
    20    -2.874103
    21    -4.408187
    22    -4.948786
    23    -2.653379
    24     0.193638
    25    -1.232580
    26    10.953569
    27    18.580126
    28    21.264718
    29    13.222877
    30    -0.913070
    31     6.165180
    32     1.361478
    33     1.189703
    34     1.114109
    35    -0.327555
    36     0.059712
    37    -0.123319
    38     0.882316
    39    -0.875432
    40     1.463044
    41     0.605907
    42    -0.186498
    43     0.636719
    44     0.263182
    45    -0.370505
    46     0.844007
    47     0.163601
    48     1.868663
    49    -1.273060
    50     3.102730
    51     0.625224
    52    -0.770776
    53     1.394249
    54     0.972448
    55    -0.590727
    56     1.188006
    57    -0.166949
    58   -11.140495
    59    -2.643926
    60    -6.010216
    61    -2.677270
    62    -9.320274
    63     0.405391
    64    -2.515777
    65     0.116454
    66    -5.684908
    67    -4.453257
    68    -1.203258
    69    -4.047855
    70     0.382050
    71    -5.707565
    72    -4.347424
Sym=    70a
Ene=    0.000000E+00
Spin= Alpha
Occup= 0.000000
     1    -0.653528
     2     1.186309
     3    -3.142311
     4     9.152756
     5    -6.205814
     6   -12.042543
     7     1.285143
     8    -0.201875
     9    -0.194004
    10     0.795191
    11     1.510164
    12     0.460000
    13    -4.911359
    14     0.356243
    15     1.696503
    16    -2.996509
    17    -0.015894
    18    -0.516648
    19     0.735764
    20    -1.734449
    21     1.167727
    22    -2.249058
    23    -0.379878
    24    -0.872621
    25     0.087384
    26    15.166438
    27     0.828056
    28    17.743988
    29     1.812182
    30     4.233887
    31    -0.493706
    32     0.248749
    33     0.653187
    34     0.168453
    35    -0.075355
    36    -0.137198
    37    -0.007007
    38    -0.488269
    39     0.018791
    40     1.548300
    41    -0.423682
    42    -0.212901
    43     0.755471
    44     0.036933
    45     0.020599
    46     0.475527
    47    -0.135829
    48    -0.761715
    49    -1.165012
    50     3.384408
    51    -0.138287
    52    -0.298467
    53     1.436205
    54    -0.597192
    55    -0.532577
    56     1.721954
    57     0.129983
    58    -8.106004
    59     0.179063
    60    -1.494247
    61     0.242876
    62     2.861054
    63    -1.851559
    64    -0.369934
    65    -0.714077
    66    -0.760848
    67    -4.345095
    68     0.132579
    69    -0.952524
    70    -1.815610
    71    -0.746347
    72    -6.453541
Sym=    71a
Ene=    0.000000E+00
Spin= Alpha
Occup= 0.000000
     1     0.444954
     2    -0.939001
     3     4.940698
     4    -8.129233
     5    -4.082154
     6    11.355822
     7     0.781632
     8    -0.632000
     9     0.344019
    10     0.087780
    11     4.612587
    12    -3.395321
    13    -0.163112
    14     1.216263
    15     0.908457
    16    -0.967122
    17    -0.091784
    18    -0.659226
    19     0.352472
    20     4.871108
    21     2.538854
    22     7.014410
    23    -0.956487
    24     0.369430
    25    -1.125683
    26   -16.316385
    27    -4.809680
    28   -27.033065
    29     4.757997
    30    -1.827036
    31     5.577488
    32    -1.027844
    33    -1.372061
    34    -0.792703
    35    -0.104027
    36     0.034773
    37    -0.156088
    38    -1.462242
    39     1.035063
    40     0.051384
    41    -0.564113
    42     0.476903
    43    -0.054047
    44    -0.639472
    45     0.491734
    46     0.064972
    47     0.038305
    48    -2.417631
    49     1.007862
    50     0.508929
    51    -1.171787
    52     0.423274
    53     0.310975
    54    -1.097289
    55     0.418074
    56     0.191855
    57    -0.042047
    58    15.511461
    59    -2.397276
    60     4.812817
    61    -2.382336
    62     0.893327
    63     0.776843
    64    -0.936154
    65     0.380291
    66    -2.054270
    67     6.950534
    68    -1.068975
    69     2.751761
    70     0.785876
    71    -2.037675
    72     8.441939
Sym=    72a
Ene=    0.000000E+00
Spin= Alpha
Occup= 0.000000
     1    -0.153274
     2     0.353766
     3    -2.556439
     4    35.017144
     5   -26.835567
     6   -86.008411
     7   -12.068346
     8     0.026414
     9     0.080902
    10    -0.087183
    11    -0.172933
    12    -0.570323
    13     0.587960
    14    -0.101943
    15    -0.179283
    16     0.273581
    17     0.029601
    18     0.018149
    19    -0.064899
    20     0.190177
    21     0.456211
    22     0.409481
    23     0.038723
    24     0.121975
    25     0.012750
    26    66.305726
    27    64.979749
    28    65.215088
    29    -0.195892
    30    -0.603338
    31    -0.066511
    32    12.711573
    33    12.741389
    34    12.736268
    35     0.003220
    36     0.018782
    37    -0.001247
    38     0.056240
    39     0.168332
    40    -0.188367
    41     0.036468
    42     0.087846
    43    -0.084872
    44     0.009372
    45     0.072132
    46    -0.071429
    47     0.006772
    48     0.114900
    49     0.324821
    50    -0.359581
    51     0.038983
    52     0.134974
    53    -0.158303
    54     0.066427
    55     0.149546
    56    -0.173303
    57    -0.005168
    58   -21.308875
    59     0.030885
    60   -12.432144
    61     0.028961
    62   -21.146787
    63     0.257791
    64     0.039329
    65     0.109512
    66     0.084420
    67   -12.678617
    68     0.013997
    69   -12.644452
    70     0.261592
    71     0.085353
    72   -22.025203
