[Molden Format]
p30-5 set                                                                       
[Atoms] AU
 N        1     7        0.0000        0.0000       -2.2705
 N        2     7        0.0000        0.0000       -0.1368
 O        3     8        0.0000        0.0000        2.1063
[GTO]
    1 0
s    5 1.00
    1712.841585300000 -0.544779958049E-02
     257.648126770000 -0.406271746324E-01
      58.458245853000 -0.181119622506E+00
      16.198367905000 -0.468439755632E+00
       5.005260080900 -0.446168462892E+00
s    1 1.00
       0.587318565710  0.100000000000E+01
s    1 1.00
       0.187645922530  0.100000000000E+01
p    3 1.00
      13.571470233000 -0.588481169695E-01
       2.925737287400 -0.320246247625E+00
       0.799277507540 -0.753282265204E+00
p    1 1.00
       0.219543480340  0.100000000000E+01
d    1 1.00
       1.000000000000  0.100000000000E+01

    2 0
s    5 1.00
    1712.841585300000 -0.544779958049E-02
     257.648126770000 -0.406271746324E-01
      58.458245853000 -0.181119622506E+00
      16.198367905000 -0.468439755632E+00
       5.005260080900 -0.446168462892E+00
s    1 1.00
       0.587318565710  0.100000000000E+01
s    1 1.00
       0.187645922530  0.100000000000E+01
p    3 1.00
      13.571470233000 -0.588481169695E-01
       2.925737287400 -0.320246247625E+00
       0.799277507540 -0.753282265204E+00
p    1 1.00
       0.219543480340  0.100000000000E+01
d    1 1.00
       1.000000000000  0.100000000000E+01

    3 0
s    5 1.00
    2266.176778500000 -0.538935039217E-02
     340.870101910000 -0.402347213890E-01
      77.363135167000 -0.180081842055E+00
      21.479644940000 -0.468288576577E+00
       6.658943312400 -0.446926171602E+00
s    1 1.00
       0.809759756680  0.100000000000E+01
s    1 1.00
       0.255307722340  0.100000000000E+01
p    3 1.00
      17.721504317000  0.626302487632E-01
       3.863550544000  0.333311384824E+00
       1.048092088300  0.741486383081E+00
p    1 1.00
       0.276415444110  0.100000000000E+01
d    1 1.00
       1.200000000000  0.100000000000E+01

[MO]
Sym=     1a
Ene=   -0.206285E+02
Spin= Alpha
Occup= 1.999927
     1     0.000057
     2    -0.001015
     3    -0.005566
     4     0.000008
     5    -0.000008
     6     0.001121
     7     0.000002
     8     0.000000
     9    -0.002551
    10    -0.000261
    11    -0.000267
    12    -0.001052
    13    -0.000008
    14    -0.000000
    15     0.000006
    16     0.000112
    17    -0.000752
    18    -0.005359
    19     0.000047
    20    -0.000051
    21    -0.001476
    22    -0.000030
    23     0.000027
    24    -0.012107
    25    -0.000163
    26    -0.000152
    27     0.002829
    28     0.000008
    29    -0.000001
    30     0.000006
    31     0.993616
    32    -0.028727
    33     0.027609
    34    -0.000060
    35     0.000080
    36     0.005141
    37    -0.000032
    38     0.000054
    39    -0.005256
    40     0.003687
    41     0.003686
    42     0.003122
    43     0.000001
    44     0.000004
    45    -0.000005
Sym=     2a
Ene=   -0.156907E+02
Spin= Alpha
Occup= 1.999846
     1     0.994716
     2    -0.026367
     3     0.001066
     4     0.000005
     5     0.000004
     6     0.006321
     7    -0.000003
     8    -0.000001
     9    -0.007346
    10     0.002591
    11     0.002577
    12    -0.000133
    13    -0.000014
    14     0.000004
    15    -0.000000
    16     0.000932
    17     0.002085
    18    -0.001035
    19     0.000001
    20     0.000005
    21     0.003749
    22    -0.000001
    23     0.000002
    24    -0.021833
    25    -0.000186
    26    -0.000182
    27     0.002128
    28     0.000008
    29     0.000002
    30     0.000003
    31     0.000116
    32    -0.001486
    33     0.018910
    34     0.000000
    35    -0.000005
    36     0.000793
    37     0.000005
    38    -0.000008
    39    -0.007459
    40    -0.000724
    41    -0.000727
    42    -0.000650
    43    -0.000002
    44     0.000003
    45     0.000002
Sym=     3a
Ene=   -0.158096E+02
Spin= Alpha
Occup= 1.999841
     1     0.000587
     2     0.003128
     3    -0.016812
     4    -0.000009
     5     0.000004
     6    -0.005516
     7     0.000005
     8    -0.000020
     9    -0.005274
    10    -0.000293
    11    -0.000290
    12     0.001752
    13     0.000016
    14    -0.000007
    15    -0.000004
    16     0.993046
    17    -0.029436
    18     0.016670
    19     0.000006
    20    -0.000055
    21     0.000515
    22    -0.000002
    23     0.000044
    24    -0.015956
    25     0.002860
    26     0.002859
    27    -0.001857
    28    -0.000028
    29    -0.000015
    30    -0.000003
    31     0.000044
    32    -0.000517
    33     0.009691
    34    -0.000025
    35     0.000134
    36    -0.003527
    37    -0.000012
    38     0.000085
    39    -0.007389
    40    -0.000414
    41    -0.000411
    42     0.002653
    43     0.000001
    44    -0.000009
    45    -0.000011
Sym=     4a
Ene=   -0.870961E+00
Spin= Alpha
Occup= 1.988303
     1     0.002058
     2     0.007871
     3     0.006503
     4    -0.012934
     5    -0.008071
     6    -0.005153
     7    -0.031233
     8    -0.020336
     9     0.004966
    10     0.000776
    11     0.000612
    12     0.000833
    13    -0.000042
    14     0.009315
    15     0.005962
    16     0.004971
    17    -0.007554
    18    -0.027400
    19    -0.200953
    20    -0.128816
    21    -0.006694
    22     0.110933
    23     0.070942
    24    -0.000885
    25    -0.005142
    26    -0.004788
    27     0.005640
    28     0.000193
    29     0.022458
    30     0.014623
    31     0.169060
    32     0.359502
    33     0.283587
    34     0.368988
    35     0.237665
    36     0.105584
    37     0.252255
    38     0.162742
    39     0.070459
    40     0.007363
    41     0.007025
    42     0.002724
    43     0.000114
    44    -0.022293
    45    -0.014495
Sym=     5a
Ene=   -0.851039E+00
Spin= Alpha
Occup= 1.987860
     1     0.002219
     2     0.007613
     3     0.006790
     4     0.016287
     5    -0.008252
     6    -0.005284
     7     0.033874
     8    -0.016672
     9     0.005007
    10     0.000698
    11     0.000529
    12     0.000728
    13    -0.000039
    14    -0.010581
    15     0.005236
    16     0.008801
    17     0.002416
    18    -0.022556
    19     0.226360
    20    -0.112055
    21    -0.011157
    22    -0.125263
    23     0.061738
    24     0.001307
    25    -0.004757
    26    -0.004267
    27     0.006389
    28     0.000184
    29    -0.024843
    30     0.012410
    31     0.155655
    32     0.331207
    33     0.256962
    34    -0.409565
    35     0.201945
    36     0.088540
    37    -0.279672
    38     0.137743
    39     0.061160
    40     0.006425
    41     0.006378
    42     0.003030
    43    -0.000092
    44     0.025014
    45    -0.012353
Sym=     6a
Ene=   -0.846266E+00
Spin= Alpha
Occup= 1.987678
     1     0.001565
     2     0.006699
     3     0.005989
     4    -0.000889
     5     0.015825
     6    -0.004019
     7    -0.000533
     8     0.038882
     9     0.004347
    10     0.000683
    11     0.000644
    12     0.000683
    13    -0.000050
    14     0.000300
    15    -0.011492
    16     0.004373
    17    -0.008318
    18    -0.025388
    19    -0.005833
    20     0.248237
    21    -0.007003
    22     0.003296
    23    -0.136778
    24    -0.000495
    25    -0.004720
    26    -0.004527
    27     0.005135
    28     0.000214
    29     0.000543
    30    -0.028060
    31     0.157239
    32     0.334075
    33     0.263487
    34     0.008549
    35    -0.456084
    36     0.097850
    37     0.005772
    38    -0.311741
    39     0.065198
    40     0.006613
    41     0.006808
    42     0.002482
    43     0.000118
    44    -0.000638
    45     0.027847
Sym=     7a
Ene=   -0.142383E+01
Spin= Alpha
Occup= 1.984477
     1     0.141614
     2     0.288119
     3    -0.036170
     4    -0.001930
     5     0.001315
     6    -0.328256
     7     0.000945
     8    -0.000444
     9     0.072539
    10    -0.007902
    11    -0.007864
    12     0.039933
    13    -0.000450
    14     0.000259
    15    -0.000150
    16     0.183713
    17     0.392241
    18     0.134554
    19    -0.002760
    20     0.002327
    21     0.340622
    22     0.001552
    23    -0.001127
    24    -0.079250
    25     0.001687
    26     0.001845
    27     0.037209
    28    -0.000422
    29    -0.000157
    30    -0.000029
    31    -0.010547
    32    -0.024317
    33    -0.008116
    34     0.001242
    35    -0.001587
    36     0.048340
    37     0.000566
    38    -0.000905
    39     0.034526
    40     0.001000
    41     0.001015
    42    -0.007664
    43     0.000036
    44    -0.000147
    45     0.000136
Sym=     8a
Ene=   -0.773951E+00
Spin= Alpha
Occup= 1.980374
     1     0.225505
     2     0.491508
     3     0.619214
     4     0.002236
     5    -0.000094
     6     0.358813
     7    -0.001463
     8     0.000006
     9    -0.117515
    10     0.023316
    11     0.022851
    12    -0.001569
    13     0.000263
    14    -0.000179
    15     0.000046
    16    -0.046754
    17    -0.125217
    18    -0.165547
    19     0.001493
    20    -0.000202
    21    -0.087388
    22    -0.000816
    23     0.000145
    24     0.155366
    25    -0.005299
    26    -0.005313
    27    -0.000675
    28     0.000053
    29     0.000231
    30     0.000011
    31     0.004674
    32     0.017106
    33    -0.061932
    34     0.000850
    35    -0.000027
    36    -0.023048
    37     0.000882
    38    -0.000077
    39     0.009609
    40     0.001313
    41     0.001311
    42     0.002076
    43    -0.000004
    44     0.000002
    45    -0.000006
Sym=     9a
Ene=   -0.115498E+01
Spin= Alpha
Occup= 1.974259
     1    -0.019268
     2    -0.052247
     3     0.066283
     4    -0.000633
     5     0.000882
     6     0.069531
     7    -0.000604
     8    -0.000388
     9     0.000563
    10     0.001328
    11     0.001499
    12    -0.013143
    13    -0.000106
    14     0.000255
    15    -0.000186
    16     0.174996
    17     0.403046
    18     0.082009
    19    -0.004924
    20     0.003214
    21    -0.373423
    22     0.002855
    23    -0.001597
    24     0.134223
    25     0.003153
    26     0.002659
    27     0.050037
    28     0.000624
    29     0.000529
    30    -0.000058
    31     0.031309
    32     0.061636
    33    -0.181104
    34     0.007794
    35    -0.003148
    36    -0.428299
    37     0.004970
    38    -0.002203
    39    -0.170719
    40    -0.011105
    41    -0.011034
    42     0.033734
    43     0.000063
    44    -0.000513
    45     0.000077
Sym=    10a
Ene=   -0.583397E+00
Spin= Alpha
Occup= 1.847223
     1     0.000195
     2     0.000336
     3    -0.000703
     4     0.036357
     5    -0.471118
     6    -0.000914
     7    -0.021785
     8     0.281183
     9    -0.000014
    10    -0.000084
    11    -0.000002
    12     0.000077
    13     0.000005
    14    -0.002855
    15     0.040542
    16     0.001040
    17     0.002473
    18     0.001076
    19     0.028756
    20    -0.388627
    21     0.000052
    22    -0.014368
    23     0.199880
    24    -0.000204
    25     0.000090
    26     0.000019
    27     0.000183
    28    -0.000102
    29     0.003814
    30    -0.049765
    31    -0.000432
    32    -0.000917
    33    -0.001137
    34     0.020457
    35    -0.246082
    36    -0.000867
    37     0.019213
    38    -0.237909
    39    -0.000312
    40     0.000216
    41    -0.000300
    42     0.000058
    43     0.000061
    44    -0.000157
    45     0.000583
Sym=    11a
Ene=   -0.582937E+00
Spin= Alpha
Occup= 1.846052
     1    -0.000539
     2    -0.001330
     3    -0.002670
     4     0.470201
     5     0.035684
     6    -0.002609
     7    -0.281377
     8    -0.021286
     9     0.000706
    10    -0.000175
    11    -0.000115
    12     0.000129
    13    -0.000051
    14    -0.041365
    15    -0.003408
    16     0.001166
    17     0.002786
    18     0.001820
    19     0.387311
    20     0.030765
    21     0.001199
    22    -0.200106
    23    -0.016244
    24    -0.000631
    25     0.000135
    26     0.000075
    27     0.000087
    28    -0.000052
    29     0.050358
    30     0.003845
    31    -0.000638
    32    -0.001393
    33    -0.001111
    34     0.247922
    35     0.017102
    36     0.000006
    37     0.239372
    38     0.017216
    39     0.000168
    40     0.000019
    41    -0.000105
    42    -0.000017
    43    -0.000282
    44    -0.000633
    45     0.000042
Sym=    12a
Ene=   -0.668457E-01
Spin= Alpha
Occup= 0.150721
     1    -0.000366
     2    -0.000720
     3    -0.000350
     4    -0.612632
     5    -0.046618
     6     0.002795
     7     0.296647
     8     0.022889
     9    -0.000906
    10     0.000580
    11    -0.000469
    12    -0.000167
    13     0.000707
    14    -0.000849
    15     0.000985
    16     0.001246
    17     0.004200
    18     0.003768
    19     0.609020
    20     0.047704
    21    -0.000051
    22    -0.354248
    23    -0.025935
    24     0.002722
    25     0.000514
    26     0.000351
    27    -0.000757
    28    -0.000568
    29     0.017366
    30     0.001762
    31    -0.000702
    32    -0.001965
    33    -0.003032
    34     0.274885
    35     0.019856
    36     0.002444
    37     0.256402
    38     0.019353
    39     0.002421
    40     0.000475
    41    -0.000627
    42     0.000088
    43    -0.002661
    44     0.007402
    45     0.000296
Sym=    13a
Ene=   -0.664394E-01
Spin= Alpha
Occup= 0.149638
     1     0.000513
     2     0.001860
     3     0.000758
     4     0.046801
     5    -0.611828
     6    -0.002438
     7    -0.022055
     8     0.297590
     9     0.000826
    10     0.000516
    11    -0.000477
    12     0.000146
    13     0.000261
    14     0.001284
    15    -0.005266
    16    -0.001045
    17    -0.004040
    18    -0.000951
    19    -0.045358
    20     0.606674
    21    -0.000184
    22     0.027715
    23    -0.357828
    24     0.000636
    25    -0.000734
    26     0.000126
    27    -0.000081
    28     0.000334
    29    -0.000853
    30     0.015068
    31     0.000326
    32     0.000728
    33     0.000661
    34    -0.021695
    35     0.274038
    36    -0.001248
    37    -0.019858
    38     0.258822
    39    -0.001401
    40    -0.002436
    41     0.002526
    42    -0.000081
    43    -0.000559
    44    -0.000586
    45     0.007115
Sym=    14a
Ene=   -0.171414E-02
Spin= Alpha
Occup= 0.000862
     1     0.004744
     2     0.075742
     3     0.331405
     4     0.335007
     5     0.058302
     6    -0.073818
     7    -0.016430
     8    -0.001967
     9     0.141145
    10    -0.014896
    11     0.018950
    12     0.044772
    13    -0.099842
    14    -0.337398
    15    -0.061936
    16    -0.005761
    17    -0.036202
    18    -0.151989
    19     0.104674
    20     0.023085
    21    -0.003854
    22     0.289472
    23     0.042760
    24     0.437515
    25     0.068448
    26     0.018912
    27    -0.111463
    28     0.239626
    29    -0.911249
    30    -0.170482
    31     0.004688
    32     0.023161
    33    -0.222663
    34     0.066604
    35     0.010602
    36     0.025933
    37     0.112215
    38     0.025512
    39     0.014416
    40     0.014077
    41     0.046030
    42    -0.082547
    43    -0.100438
    44     0.248363
    45    -0.007759
Sym=    15a
Ene=   -0.189340E-02
Spin= Alpha
Occup= 0.001304
     1     0.070261
     2     0.256548
     3     4.720204
     4     0.018123
     5    -0.014616
     6     0.424121
     7     0.026987
     8    -0.018035
     9     2.422744
    10     0.336993
    11     0.395659
    12    -1.234434
    13     0.072880
    14     0.077584
    15    -0.001406
    16     0.052256
    17     0.740346
    18    -3.491597
    19     0.036853
    20    -0.000270
    21     0.649150
    22     0.009642
    23     0.009961
    24     4.426970
    25    -0.040236
    26    -0.070907
    27     0.639387
    28     0.053871
    29     0.015868
    30     0.014085
    31    -0.009905
    32     0.007686
    33    -2.102448
    34     0.001583
    35     0.001202
    36     0.198631
    37    -0.003640
    38    -0.010207
    39     0.799038
    40     0.026410
    41     0.029566
    42    -0.168647
    43    -0.001939
    44     0.000285
    45    -0.006956
Sym=    16a
Ene=   -0.162980E-01
Spin= Alpha
Occup= 0.012679
     1    -0.234653
     2    -1.016215
     3     0.803036
     4     0.003248
     5    -0.001267
     6     0.849922
     7     0.000729
     8    -0.001764
     9     0.065422
    10     0.055464
    11     0.059874
    12    -0.158607
    13     0.009346
    14    -0.002278
    15    -0.001149
    16     0.214254
    17     0.898984
    18    -0.413339
    19    -0.003900
    20     0.003402
    21     0.892414
    22    -0.002185
    23     0.003159
    24     0.329949
    25    -0.043741
    26    -0.048337
    27     0.040041
    28    -0.007889
    29    -0.004413
    30    -0.002926
    31     0.009957
    32     0.037952
    33    -0.094978
    34    -0.000468
    35     0.000665
    36    -0.037847
    37     0.000918
    38     0.000131
    39     0.086530
    40     0.001174
    41     0.003024
    42    -0.004129
    43     0.002060
    44    -0.001355
    45    -0.000734
Sym=    17a
Ene=   -0.160573E-02
Spin= Alpha
Occup= 0.001047
     1    -0.003257
     2    -0.030384
     3    -0.449825
     4    -0.004588
     5    -0.152262
     6     0.031587
     7    -0.036307
     8    -0.204442
     9    -0.204550
    10    -0.197931
    11     0.184903
    12    -0.005996
    13    -0.042864
    14    -0.029290
    15     0.111871
    16     0.000753
    17    -0.035735
    18     0.480908
    19     0.009931
    20     0.240164
    21    -0.004688
    22     0.046237
    23     0.234584
    24    -0.363276
    25     0.397870
    26    -0.470051
    27     0.011619
    28     0.073163
    29    -0.031045
    30     0.129235
    31    -0.007917
    32     0.004879
    33    -0.001036
    34    -0.000666
    35     0.037425
    36    -0.018031
    37    -0.006724
    38    -0.173586
    39     0.029363
    40    -0.067291
    41     0.022520
    42     0.147405
    43     0.061972
    44     0.016129
    45    -0.752925
Sym=    18a
Ene=   -0.841645E-02
Spin= Alpha
Occup= 0.010277
     1    -0.000849
     2    -0.007818
     3     0.016056
     4    -0.080304
     5     0.039988
     6     0.014516
     7    -0.076843
     8     0.038042
     9     0.014798
    10     0.003040
    11    -0.002815
    12    -0.009552
    13    -0.001207
    14    -0.006347
    15     0.000992
    16     0.012532
    17     0.125186
    18     0.049373
    19     0.187469
    20    -0.093819
    21    -0.033882
    22     0.031431
    23    -0.014378
    24     0.045982
    25    -0.007431
    26     0.023536
    27     0.021574
    28     0.005380
    29     0.048904
    30    -0.023792
    31     0.197613
    32     0.993729
    33    -0.966463
    34    -0.688417
    35     0.345661
    36     0.140297
    37     0.763731
    38    -0.384219
    39    -0.058705
    40     0.018413
    41    -0.067790
    42    -0.101925
    43    -0.074436
    44    -0.013059
    45     0.005873
Sym=    19a
Ene=   -0.978040E-03
Spin= Alpha
Occup= 0.000522
     1    -0.002274
     2    -0.097171
     3    -0.025690
     4     0.033938
     5     0.017648
     6     0.069708
     7    -0.181002
     8    -0.049754
     9     0.020603
    10     0.169998
    11    -0.199820
    12    -0.038230
    13     0.053253
    14    -0.195723
    15    -0.058262
    16     0.016446
    17     0.176536
    18    -0.426076
    19     0.193598
    20     0.098115
    21    -0.157310
    22     0.224701
    23     0.063131
    24    -0.432262
    25    -0.319719
    26     0.349596
    27     0.183146
    28    -0.111726
    29    -0.476431
    30    -0.188083
    31     0.001683
    32    -0.034839
    33     0.450186
    34     0.043265
    35    -0.006893
    36    -0.017427
    37     0.000948
    38     0.035955
    39    -0.023012
    40     0.308759
    41    -0.044909
    42    -0.390828
    43     0.151292
    44    -0.705940
    45    -0.382236
Sym=    20a
Ene=   -0.259296E-02
Spin= Alpha
Occup= 0.000150
     1     0.015311
     2     0.145336
     3    -1.549988
     4    -0.006479
     5    -0.003086
     6    -0.437376
     7     0.004722
     8     0.009783
     9    -0.613090
    10     0.005125
    11     0.004252
    12     0.328113
    13    -0.044730
    14     0.018638
    15     0.015360
    16     0.839809
    17     3.159190
    18     0.858845
    19    -0.003180
    20    -0.004609
    21    -0.213557
    22    -0.003053
    23    -0.013633
    24    -1.561048
    25    -1.484199
    26    -1.483711
    27    -2.192506
    28     0.068589
    29     0.035813
    30     0.024783
    31     0.015120
    32    -0.014165
    33     1.007328
    34     0.003699
    35    -0.002937
    36    -0.376241
    37    -0.012981
    38     0.001104
    39    -0.424796
    40    -0.010363
    41    -0.017839
    42     0.246654
    43    -0.014023
    44     0.022463
    45     0.009980
Sym=    21a
Ene=   -0.761571E-04
Spin= Alpha
Occup= 0.000005
     1     0.001676
     2    -0.021958
     3    -0.155417
     4     0.050408
     5     0.004310
     6     0.052785
     7    -0.010501
     8     0.552208
     9    -0.063122
    10     0.006505
    11    -0.012057
    12    -0.050594
    13     0.054344
    14    -0.234773
    15     0.898890
    16     0.001974
    17    -0.012931
    18     0.166400
    19    -0.059349
    20    -0.030141
    21     0.016674
    22    -0.060869
    23    -0.558842
    24    -0.154381
    25    -0.054817
    26    -0.034498
    27     0.079166
    28    -0.099058
    29    -0.289924
    30     0.920351
    31     0.000419
    32    -0.005724
    33     0.059570
    34    -0.002300
    35    -0.097814
    36     0.026148
    37     0.096566
    38     0.074080
    39    -0.026110
    40     0.009427
    41    -0.037071
    42     0.003091
    43     0.027576
    44    -0.152653
    45     0.288621
Sym=    22a
Ene=   -0.112864E-04
Spin= Alpha
Occup= 0.000001
     1     0.006865
     2    -0.151963
     3    10.644443
     4    -0.002825
     5     0.002279
     6    -0.106648
     7    -0.009823
     8     0.002254
     9     5.958209
    10    -0.448622
    11    -0.430169
    12     0.946953
    13    -0.012864
    14     0.001687
    15     0.003636
    16     0.014440
    17     0.054990
    18    -7.815289
    19     0.008495
    20     0.001742
    21    -0.199948
    22     0.016887
    23     0.001466
    24     7.871906
    25     0.083553
    26     0.047624
    27    -0.678532
    28    -0.031631
    29     0.000322
    30    -0.000004
    31    -0.002806
    32     0.068876
    33    -3.135348
    34     0.001040
    35     0.001080
    36    -0.052018
    37    -0.006719
    38    -0.001353
    39     1.088085
    40    -0.035116
    41    -0.024087
    42     0.197604
    43     0.004059
    44    -0.000615
    45     0.003606
Sym=    23a
Ene=   -0.122185E-02
Spin= Alpha
Occup= 0.000896
     1     0.025425
     2     0.220110
     3     1.225742
     4    -0.010540
     5     0.038391
     6    -0.087469
     7    -0.022229
     8     0.028908
     9     0.444754
    10    -0.451450
    11     0.469101
    12    -0.042411
    13    -0.691875
    14     0.019701
    15     0.044262
    16     0.017202
    17     0.167971
    18    -0.601973
    19     0.019963
    20     0.063028
    21     0.141745
    22     0.027030
    23     0.053483
    24     1.608656
    25    -0.192125
    26     0.200031
    27     0.014463
    28    -0.266286
    29     0.001566
    30    -0.009336
    31    -0.001873
    32     0.046017
    33    -0.990230
    34    -0.003585
    35     0.000394
    36     0.056953
    37    -0.004342
    38    -0.010002
    39     0.321358
    40     0.030634
    41    -0.029119
    42     0.013288
    43     0.045439
    44    -0.010066
    45    -0.022006
Sym=    24a
Ene=   -0.122296E-02
Spin= Alpha
Occup= 0.000892
     1     0.025314
     2     0.220846
     3     1.356373
     4    -0.004427
     5     0.020390
     6    -0.078795
     7    -0.006423
     8     0.026511
     9     0.523502
    10     0.637670
    11    -0.606496
    12    -0.049958
    13    -0.516675
    14     0.004224
    15     0.011001
    16     0.018237
    17     0.185876
    18    -0.709352
    19     0.004892
    20     0.004801
    21     0.144187
    22     0.005038
    23    -0.004571
    24     1.721104
    25     0.253655
    26    -0.232877
    27     0.017615
    28    -0.176069
    29     0.002931
    30    -0.003571
    31     0.000380
    32     0.060074
    33    -1.050829
    34    -0.007429
    35     0.008249
    36     0.052883
    37     0.005875
    38    -0.005013
    39     0.356296
    40    -0.048223
    41     0.044924
    42     0.011105
    43     0.031965
    44    -0.003487
    45     0.009258
Sym=    25a
Ene=   -0.253069E-01
Spin= Alpha
Occup= 0.023744
     1    -0.015026
     2    -0.027904
     3     0.123657
     4     0.001319
     5     0.001705
     6     0.043474
     7    -0.000674
     8     0.002305
     9    -0.001783
    10     0.006840
    11    -0.003781
    12    -0.008579
    13     0.009172
    14    -0.001721
    15    -0.001922
    16     0.223068
    17     0.822462
    18    -0.007120
    19    -0.003517
    20     0.001628
    21    -0.703061
    22    -0.002841
    23    -0.000775
    24     0.133967
    25    -0.040007
    26    -0.010526
    27     0.013246
    28    -0.012999
    29    -0.000940
    30    -0.005383
    31    -0.108909
    32    -0.277890
    33    -0.317358
    34    -0.009830
    35     0.000542
    36     0.832512
    37     0.009767
    38     0.002555
    39     0.225697
    40     0.023212
    41     0.018583
    42    -0.081324
    43     0.000363
    44     0.000324
    45     0.001924
Sym=    26a
Ene=   -0.115122E-01
Spin= Alpha
Occup= 0.016725
     1     0.258569
     2     1.375640
     3    -2.019851
     4     0.003609
     5    -0.000671
     6     0.653966
     7     0.003748
     8    -0.000188
     9     0.139241
    10    -0.141782
    11    -0.134615
    12     0.062098
    13    -0.000727
    14     0.001035
    15    -0.000437
    16     0.037638
    17     0.073126
    18     0.556390
    19     0.000779
    20    -0.000311
    21     0.079577
    22     0.000139
    23    -0.000889
    24    -0.577681
    25     0.005770
    26     0.005688
    27    -0.004689
    28     0.000682
    29     0.000014
    30    -0.000262
    31    -0.002921
    32    -0.021080
    33     0.261563
    34     0.000211
    35    -0.000010
    36     0.007491
    37    -0.000485
    38     0.000559
    39    -0.099565
    40    -0.004130
    41    -0.004137
    42    -0.000746
    43     0.000102
    44    -0.000014
    45    -0.000163
Sym=    27a
Ene=   -0.296599E-02
Spin= Alpha
Occup= 0.001759
     1     0.042474
     2     0.288946
     3     3.837428
     4    -0.001779
     5    -0.036279
     6    -0.081079
     7     0.000209
     8    -0.022249
     9     1.338856
    10    -0.152692
    11    -0.094413
    12     0.126476
    13     0.150819
    14     0.004540
    15    -0.042807
    16     0.131728
    17     0.903854
    18    -2.607650
    19    -0.003035
    20    -0.030945
    21     0.261173
    22    -0.006225
    23    -0.008093
    24     4.279030
    25    -0.287740
    26    -0.289074
    27     0.709660
    28     0.153959
    29    -0.000728
    30     0.064831
    31    -0.030667
    32    -0.085475
    33    -2.218535
    34     0.002528
    35    -0.005149
    36     0.341463
    37    -0.000065
    38    -0.016345
    39     0.773610
    40     0.051776
    41     0.042167
    42    -0.220387
    43    -0.014587
    44     0.002111
    45     0.003339
Sym=    28a
Ene=   -0.845420E-02
Spin= Alpha
Occup= 0.010241
     1     0.000640
     2     0.006290
     3    -0.014408
     4    -0.000552
     5     0.081897
     6    -0.013353
     7     0.000661
     8     0.073293
     9    -0.014781
    10    -0.001002
    11     0.000351
    12     0.009878
    13     0.001402
    14     0.000896
    15     0.005187
    16    -0.011278
    17    -0.112452
    18    -0.055854
    19     0.003314
    20    -0.200431
    21     0.036015
    22    -0.002331
    23    -0.017448
    24    -0.047168
    25    -0.018640
    26     0.001081
    27    -0.021527
    28     0.000375
    29     0.000309
    30    -0.046859
    31    -0.199250
    32    -0.999598
    33     0.968308
    34    -0.017214
    35     0.768522
    36    -0.156956
    37     0.020502
    38    -0.860644
    39     0.078713
    40     0.100551
    41    -0.049533
    42     0.106701
    43    -0.003027
    44     0.001630
    45     0.008377
Sym=    29a
Ene=   -0.177243E-02
Spin= Alpha
Occup= 0.001160
     1     0.002716
     2    -0.034494
     3    -0.223051
     4    -0.012656
     5     0.027457
     6     0.002841
     7    -0.021781
     8     0.015351
     9    -0.109248
    10    -0.122469
    11     0.093222
    12    -0.007306
    13     0.128199
    14    -0.010474
    15    -0.006433
    16     0.007525
    17     0.024753
    18    -0.313504
    19    -0.016102
    20     0.019863
    21    -0.096406
    22     0.020310
    23     0.010924
    24    -0.531315
    25     0.278855
    26    -0.269035
    27     0.061680
    28    -0.338284
    29     0.017538
    30    -0.047178
    31    -0.038803
    32    -0.243977
    33     0.682643
    34     0.058563
    35    -0.035237
    36     0.136688
    37    -0.082085
    38     0.053754
    39    -0.428605
    40     0.609227
    41    -0.170218
    42    -0.383376
    43    -0.576633
    44    -0.004137
    45     0.029869
Sym=    30a
Ene=   -0.861185E-02
Spin= Alpha
Occup= 0.010236
     1    -0.000777
     2    -0.005245
     3     0.025571
     4     0.074316
     5     0.045624
     6     0.013397
     7     0.068656
     8     0.039589
     9     0.018488
    10     0.003057
    11    -0.002186
    12    -0.009732
    13    -0.001497
    14     0.006276
    15     0.003620
    16     0.011915
    17     0.114764
    18     0.061149
    19    -0.166325
    20    -0.103362
    21    -0.035805
    22    -0.019719
    23    -0.006289
    24     0.068102
    25    -0.001613
    26     0.018987
    27     0.022455
    28    -0.014549
    29    -0.045342
    30    -0.027690
    31     0.210507
    32     1.055706
    33    -1.032502
    34     0.628352
    35     0.402702
    36     0.174159
    37    -0.698443
    38    -0.450647
    39    -0.086459
    40     0.005410
    41    -0.068766
    42    -0.106667
    43     0.077575
    44     0.025175
    45     0.011512
Sym=    31a
Ene=   -0.824735E-04
Spin= Alpha
Occup= 0.000005
     1    -0.001022
     2     0.013741
     3    -0.027275
     4    -0.127339
     5    -0.378809
     6    -0.032507
     7    -0.373264
     8    -1.026500
     9    -0.017293
    10     0.037438
    11    -0.021881
    12     0.022890
    13     0.040923
    14    -0.142192
    15     0.043740
    16     0.003825
    17    -0.000673
    18    -0.029010
    19     0.146998
    20     0.585436
    21     0.018148
    22     0.497505
    23     1.591594
    24    -0.016798
    25    -0.029887
    26     0.032889
    27    -0.076975
    28    -0.034477
    29    -0.027217
    30     0.287585
    31    -0.000197
    32    -0.015442
    33     0.073382
    34     0.055047
    35     0.179633
    36     0.002195
    37    -0.232330
    38    -0.821655
    39    -0.074532
    40     0.019585
    41    -0.054378
    42     0.042854
    43     0.040247
    44     0.031706
    45     0.410623
Sym=    32a
Ene=   -0.115509E-03
Spin= Alpha
Occup= 0.000007
     1     0.041884
     2    -0.455160
     3    -3.020909
     4    -0.056608
     5    -0.028907
     6     0.808256
     7    -0.067328
     8    -0.016166
     9    -1.212340
    10    -0.205838
    11    -0.278709
    12    -0.609757
    13    -0.305831
    14     0.067284
    15     0.035917
    16    -0.019474
    17    -0.285514
    18     1.805631
    19     0.030247
    20     0.002793
    21    -0.261378
    22     0.117179
    23     0.018951
    24    -4.147257
    25    -0.457819
    26    -0.371729
    27     1.381044
    28     0.333090
    29     0.161765
    30     0.085515
    31     0.024098
    32    -0.165212
    33     2.593397
    34     0.019039
    35    -0.002077
    36     0.340438
    37    -0.105779
    38    -0.028733
    39    -0.799794
    40     0.098504
    41     0.053517
    42    -0.873255
    43    -0.066582
    44     0.141595
    45     0.043390
Sym=    33a
Ene=   -0.578617E-04
Spin= Alpha
Occup= 0.000003
     1    -0.014412
     2     0.182895
     3     2.700997
     4    -0.061604
     5    -0.015441
     6    -0.227988
     7    -0.078532
     8     0.044899
     9     1.166868
    10     0.059447
    11     0.116729
    12     0.167405
    13    -0.130046
    14     0.054784
    15     0.094358
    16    -0.076554
    17     0.373584
    18    -1.553219
    19     0.025883
    20    -0.007564
    21    -0.364065
    22     0.128937
    23    -0.044750
    24     3.146179
    25     0.663000
    26     0.579824
    27     0.090669
    28     0.241993
    29     0.165167
    30     0.136684
    31    -0.011689
    32     0.424258
    33    -2.889272
    34     0.027511
    35    -0.008730
    36    -0.521965
    37    -0.121813
    38    -0.011061
    39     2.051086
    40     0.403625
    41     0.410909
    42    -0.402546
    43    -0.052513
    44     0.150112
    45     0.060371
Sym=    34a
Ene=   -0.201957E-02
Spin= Alpha
Occup= 0.002331
     1    -0.000568
     2    -0.000676
     3     0.009818
     4     0.673967
     5     0.032289
     6    -0.003673
     7     0.852505
     8     0.054988
     9    -0.001904
    10    -0.000856
    11     0.000565
    12     0.001979
    13     0.000281
    14    -0.279774
    15    -0.042725
    16     0.000057
    17    -0.002178
    18     0.005485
    19     0.348699
    20     0.007731
    21     0.002726
    22     0.319393
    23     0.015588
    24     0.017932
    25    -0.005919
    26     0.003271
    27    -0.001084
    28    -0.019093
    29     0.269378
    30     0.055745
    31    -0.000472
    32    -0.002235
    33    -0.010076
    34     0.047361
    35    -0.000551
    36     0.003695
    37    -0.223638
    38    -0.022821
    39    -0.000531
    40     0.005150
    41    -0.007890
    42     0.002503
    43     0.009611
    44     0.004502
    45     0.005348
Sym=    35a
Ene=   -0.184436E-02
Spin= Alpha
Occup= 0.002247
     1     0.001228
     2     0.014368
     3     0.069441
     4    -0.070317
     5     0.748008
     6    -0.004213
     7    -0.068451
     8     0.888232
     9     0.034352
    10     0.014568
    11    -0.007714
    12    -0.003574
    13     0.027212
    14    -0.009237
    15    -0.188755
    16    -0.001864
    17    -0.013873
    18    -0.003603
    19    -0.053343
    20     0.420461
    21     0.012423
    22    -0.041123
    23     0.347718
    24     0.106005
    25     0.001938
    26    -0.000738
    27    -0.010909
    28     0.060635
    29     0.025118
    30     0.122613
    31     0.000370
    32     0.004954
    33    -0.071860
    34    -0.007459
    35     0.057789
    36     0.007158
    37     0.009675
    38    -0.189739
    39     0.011064
    40    -0.008381
    41     0.006870
    42     0.003229
    43    -0.005641
    44     0.008406
    45    -0.013099
Sym=    36a
Ene=   -0.195315E-02
Spin= Alpha
Occup= 0.001135
     1     0.024069
     2     0.402620
     3     1.517357
     4    -0.082993
     5    -0.092183
     6    -0.362158
     7    -0.010123
     8    -0.015763
     9     0.625332
    10     0.049422
    11    -0.017648
    12     0.215326
    13    -0.113308
    14     0.079380
    15     0.056490
    16    -0.055483
    17    -0.385560
    18    -0.512102
    19    -0.019772
    20    -0.040543
    21     0.094076
    22    -0.042799
    23    -0.077604
    24     2.207327
    25     0.108394
    26     0.303983
    27    -0.560176
    28     0.455674
    29     0.223258
    30     0.198591
    31     0.021577
    32     0.085723
    33    -1.112258
    34    -0.017748
    35    -0.016447
    36     0.224438
    37    -0.034481
    38    -0.020045
    39    -0.126242
    40     0.131644
    41     0.077882
    42    -0.294625
    43     0.021556
    44    -0.020914
    45    -0.068924
Sym=    37a
Ene=   -0.222066E-02
Spin= Alpha
Occup= 0.001597
     1    -0.004457
     2     0.002257
     3    -0.274346
     4     0.207689
     5     0.060435
     6    -0.046306
     7     0.273774
     8     0.072631
     9    -0.162194
    10     0.001919
    11    -0.049029
    12     0.095309
    13     0.055308
    14     0.953498
    15     0.271727
    16    -0.005244
    17    -0.068279
    18     0.272465
    19     0.470755
    20     0.142679
    21    -0.026864
    22     0.179925
    23     0.066260
    24    -0.176607
    25    -0.013510
    26     0.019796
    27    -0.057563
    28    -0.029848
    29     0.168703
    30     0.044536
    31     0.000429
    32     0.001714
    33     0.053822
    34     0.021602
    35     0.006620
    36     0.001973
    37    -0.062799
    38    -0.022096
    39    -0.048324
    40    -0.002036
    41    -0.011170
    42     0.022815
    43    -0.001510
    44     0.010196
    45     0.001923
Sym=    38a
Ene=   -0.208211E-02
Spin= Alpha
Occup= 0.001085
     1    -0.005437
     2    -0.054034
     3    -0.477408
     4     0.063020
     5    -0.240793
     6     0.019862
     7     0.025159
     8    -0.089514
     9    -0.191260
    10    -0.005822
    11    -0.001317
    12     0.002579
    13    -0.016041
    14     0.173407
    15    -0.577969
    16    -0.006015
    17    -0.045770
    18     0.248353
    19     0.094531
    20    -0.337363
    21    -0.047530
    22     0.018995
    23    -0.090619
    24    -0.584232
    25    -0.005416
    26     0.033523
    27    -0.025549
    28    -0.140926
    29    -0.154903
    30     0.581862
    31     0.001307
    32    -0.004453
    33     0.328722
    34     0.007992
    35    -0.042629
    36    -0.041328
    37     0.046703
    38    -0.150009
    39    -0.083818
    40     0.035732
    41    -0.044189
    42     0.016468
    43     0.018200
    44    -0.044100
    45     0.154451
Sym=    39a
Ene=   -0.165991E-02
Spin= Alpha
Occup= 0.001034
     1    -0.000062
     2    -0.075902
     3    -0.324493
     4     0.014696
     5    -0.014305
     6     0.036315
     7     0.026104
     8    -0.048922
     9    -0.142011
    10    -0.028287
    11    -0.003944
    12    -0.023279
    13     0.139511
    14    -0.016028
    15     0.006804
    16     0.014445
    17     0.076549
    18    -0.300830
    19    -0.024059
    20     0.029134
    21    -0.123655
    22    -0.037981
    23     0.089465
    24    -0.713952
    25    -0.032040
    26     0.009495
    27     0.114513
    28    -0.326109
    29    -0.018239
    30     0.014866
    31    -0.040708
    32    -0.248036
    33     0.768902
    34     0.001621
    35     0.092435
    36     0.109475
    37     0.016532
    38    -0.143029
    39    -0.395645
    40    -0.472362
    41     0.933005
    42    -0.399706
    43    -0.152490
    44     0.020762
    45    -0.072720
Sym=    40a
Ene=   -0.119463E-02
Spin= Alpha
Occup= 0.000703
     1    -0.000817
     2    -0.020042
     3     0.242175
     4     0.037438
     5    -0.059171
     6     0.007468
     7     0.224804
     8    -0.065890
     9     0.124274
    10     0.220480
    11    -0.214588
    12    -0.004488
    13     0.139975
    14     0.069082
    15     0.090281
    16     0.006019
    17     0.063489
    18    -0.353019
    19    -0.235816
    20     0.124826
    21    -0.020523
    22    -0.310907
    23     0.084888
    24     0.096609
    25    -0.407588
    26     0.415142
    27     0.042579
    28    -0.288015
    29     0.240511
    30     0.069663
    31     0.007667
    32    -0.004876
    33     0.115515
    34    -0.065468
    35    -0.027891
    36     0.004201
    37     0.120184
    38    -0.020139
    39    -0.024847
    40     0.240753
    41    -0.202839
    42    -0.142438
    43     0.121990
    44     0.647655
    45    -0.328003
Sym=    41a
Ene=   -0.154175E-02
Spin= Alpha
Occup= 0.000940
     1     0.000738
     2     0.085638
     3     0.494435
     4    -0.018818
     5    -0.063726
     6    -0.045174
     7    -0.037622
     8    -0.063170
     9     0.222942
    10     0.164928
    11    -0.125089
    12     0.024645
    13    -0.115345
    14    -0.007481
    15     0.041847
    16    -0.012825
    17    -0.052697
    18     0.146478
    19     0.004537
    20     0.046622
    21     0.132381
    22     0.048478
    23     0.049607
    24     0.864747
    25    -0.293153
    26     0.333396
    27    -0.126092
    28     0.233567
    29     0.017443
    30     0.086432
    31     0.042967
    32     0.258999
    33    -0.832214
    34     0.085282
    35     0.009946
    36    -0.111768
    37    -0.123364
    38    -0.058913
    39     0.410075
    40    -0.309712
    41    -0.139687
    42     0.389880
    43    -0.754389
    44    -0.078705
    45    -0.178924
Sym=    42a
Ene=   -0.682633E-04
Spin= Alpha
Occup= 0.000004
     1    -0.001277
     2     0.021257
     3    -0.040259
     4    -0.410380
     5     0.105968
     6    -0.024365
     7    -1.135339
     8     0.334430
     9    -0.034426
    10     0.031090
    11    -0.001623
    12     0.008382
    13     0.071410
    14    -0.179575
    15     0.022930
    16     0.008209
    17    -0.007137
    18     0.088325
    19     0.536520
    20    -0.184990
    21     0.057320
    22     1.635531
    23    -0.511625
    24     0.063392
    25    -0.063389
    26    -0.000575
    27    -0.071520
    28    -0.104657
    29     0.149001
    30    -0.020358
    31    -0.000359
    32    -0.016363
    33    -0.004391
    34     0.194350
    35    -0.062375
    36     0.025223
    37    -0.829163
    38     0.249151
    39    -0.076492
    40    -0.049626
    41    -0.028374
    42     0.080995
    43     0.041538
    44     0.316274
    45    -0.110757
Sym=    43a
Ene=   -0.243034E-02
Spin= Alpha
Occup= 0.000143
     1     0.821870
     2     3.081514
     3    -0.207303
     4     0.002647
     5     0.001818
     6     0.056302
     7     0.000199
     8    -0.002917
     9    -0.486305
    10    -1.586718
    11    -1.580161
    12    -1.719082
    13     0.047240
    14    -0.006830
    15    -0.005967
    16     0.020567
    17     0.124724
    18     0.238214
    19    -0.000990
    20     0.000822
    21     0.229178
    22    -0.002044
    23     0.003564
    24    -0.825712
    25     0.028436
    26     0.023279
    27     0.039659
    28    -0.034153
    29    -0.011673
    30    -0.011042
    31     0.004458
    32    -0.008792
    33     0.528981
    34    -0.000378
    35     0.000871
    36    -0.059119
    37     0.004157
    38     0.000966
    39    -0.164720
    40    -0.017252
    41    -0.012710
    42     0.037008
    43     0.005633
    44    -0.007328
    45    -0.002023
Sym=    44a
Ene=   -0.151991E-02
Spin= Alpha
Occup= 0.000069
     1    -0.003181
     2     0.078169
     3     0.191137
     4    -0.002459
     5    -0.003766
     6    -0.067430
     7    -0.003082
     8     0.002458
     9     0.103200
    10     0.039556
    11    -0.015080
    12     0.070831
    13    -0.044963
    14     0.004186
    15     0.006240
    16     0.000546
    17     0.049670
    18     0.581428
    19     0.002336
    20    -0.001848
    21     0.134857
    22     0.006829
    23    -0.007855
    24     0.672945
    25    -0.058988
    26     0.041047
    27    -0.288794
    28     0.068151
    29     0.008170
    30     0.011315
    31    -0.711547
    32    -2.145629
    33    -1.982625
    34     0.002049
    35    -0.004100
    36    -0.063848
    37    -0.006701
    38     0.003883
    39     0.324938
    40     1.493238
    41     1.452568
    42     1.584074
    43    -0.002861
    44     0.007255
    45    -0.003157
Sym=    45a
Ene=    0.000000E+00
Spin= Alpha
Occup= 0.000000
     1    -0.023867
     2     0.446408
     3     4.338165
     4     0.011342
     5     0.000652
     6     0.037230
     7     0.006789
     8    -0.029606
     9     1.869705
    10     0.206756
    11     0.218859
    12    -0.017672
    13     0.099447
    14    -0.021358
    15    -0.038239
    16     0.010593
    17     0.241820
    18     2.673175
    19    -0.005061
    20     0.003411
    21     0.007050
    22    -0.016762
    23     0.034154
    24     8.330088
    25    -0.234839
    26    -0.248686
    27     0.566889
    28    -0.129707
    29    -0.043107
    30    -0.045828
    31    -0.026992
    32     1.033546
    33    -9.182627
    34    -0.003853
    35     0.005904
    36    -0.096533
    37     0.021632
    38    -0.006092
    39     4.316696
    40     0.546785
    41     0.558557
    42    -0.291799
    43     0.012572
    44    -0.030795
    45     0.003646
