[Molden Format]
p30-5 set                                                                       
[Atoms] AU
 CL       1    17       -1.0601       -1.8796        0.0000
 O        2     8        0.0000        1.8117        0.0000
 O        3     8        2.2527        2.1824        0.0000
[GTO]
    1 0
s    5 1.00
   10449.827566000000  0.542659537894E-02
    1571.736522100000  0.406263781288E-01
     357.120655230000  0.183597478529E+00
     100.251859350000  0.474389487682E+00
      30.812727554000  0.437351811041E+00
s    3 1.00
      51.923789434000 -0.927541548481E-01
       5.704576097500  0.563808255442E+00
       2.350837680900  0.503670446297E+00
s    1 1.00
       0.446051246720  0.100000000000E+01
s    1 1.00
       0.168488561900  0.100000000000E+01
p    5 1.00
     307.667905690000 -0.887970255889E-02
      72.102015515000 -0.642840717212E-01
      22.532680262000 -0.242887397360E+00
       7.899176544400 -0.483408363699E+00
       2.876726832100 -0.389525638755E+00
p    1 1.00
       0.774593639550  0.100000000000E+01
p    1 1.00
       0.210376996980  0.100000000000E+01
d    1 1.00
       0.650000000000  0.100000000000E+01

    2 0
s    5 1.00
    2266.176778500000 -0.538935039217E-02
     340.870101910000 -0.402347213890E-01
      77.363135167000 -0.180081842055E+00
      21.479644940000 -0.468288576577E+00
       6.658943312400 -0.446926171602E+00
s    1 1.00
       0.809759756680  0.100000000000E+01
s    1 1.00
       0.255307722340  0.100000000000E+01
p    3 1.00
      17.721504317000  0.626302487632E-01
       3.863550544000  0.333311384824E+00
       1.048092088300  0.741486383081E+00
p    1 1.00
       0.276415444110  0.100000000000E+01
d    1 1.00
       1.200000000000  0.100000000000E+01

    3 0
s    5 1.00
    2266.176778500000 -0.538935039217E-02
     340.870101910000 -0.402347213890E-01
      77.363135167000 -0.180081842055E+00
      21.479644940000 -0.468288576577E+00
       6.658943312400 -0.446926171602E+00
s    1 1.00
       0.809759756680  0.100000000000E+01
s    1 1.00
       0.255307722340  0.100000000000E+01
p    3 1.00
      17.721504317000  0.626302487632E-01
       3.863550544000  0.333311384824E+00
       1.048092088300  0.741486383081E+00
p    1 1.00
       0.276415444110  0.100000000000E+01
d    1 1.00
       1.200000000000  0.100000000000E+01

[MO]
Sym=     1a
Ene=   -0.104830E+03
Spin= Alpha
Occup= 2.000000
     1     0.995453
     2     0.022319
     3    -0.024314
     4    -0.001856
     5     0.000656
     6    -0.000137
     7     0.000553
     8     0.000004
     9     0.000068
    10    -0.000012
    11    -0.000028
    12    -0.000156
    13     0.000017
    14     0.008906
    15     0.008875
    16     0.008908
    17    -0.000003
    18    -0.000000
    19     0.000000
    20    -0.000004
    21    -0.000008
    22    -0.000105
    23    -0.000001
    24    -0.000067
    25    -0.000000
    26    -0.000226
    27    -0.000056
    28    -0.000001
    29     0.000001
    30    -0.000003
    31     0.000033
    32    -0.000001
    33     0.000000
    34     0.000000
    35     0.000009
    36    -0.000050
    37     0.000418
    38     0.000014
    39     0.000056
    40    -0.000001
    41    -0.000210
    42    -0.000136
    43    -0.000000
    44    -0.000028
    45    -0.000046
    46    -0.000072
    47     0.000020
    48     0.000000
    49    -0.000000
Sym=     2a
Ene=   -0.863163E+01
Spin= Alpha
Occup= 1.999943
     1     0.146625
     2    -0.492407
     3    -0.013473
     4     0.003952
     5     0.556582
     6    -0.321583
     7    -0.585322
     8    -0.017628
     9     0.012315
    10     0.017702
    11     0.010475
    12    -0.003869
    13    -0.012181
    14    -0.000076
    15    -0.000340
    16    -0.000115
    17    -0.000040
    18    -0.000006
    19    -0.000032
    20     0.000036
    21     0.000012
    22     0.000606
    23     0.000107
    24    -0.000036
    25     0.000054
    26     0.000018
    27    -0.000158
    28     0.000361
    29    -0.000043
    30     0.000039
    31    -0.000048
    32     0.000013
    33     0.000030
    34     0.000000
    35    -0.000017
    36    -0.000050
    37    -0.000594
    38     0.000040
    39     0.000073
    40     0.000473
    41     0.000312
    42     0.000429
    43     0.000312
    44     0.000028
    45     0.000074
    46     0.000090
    47    -0.000024
    48    -0.000011
    49     0.000003
Sym=     3a
Ene=   -0.207151E+02
Spin= Alpha
Occup= 1.999906
     1     0.000002
     2    -0.000079
     3     0.000076
     4     0.000294
     5     0.000106
     6    -0.000043
     7    -0.000005
     8    -0.000042
     9    -0.000122
    10    -0.000007
    11     0.000367
    12     0.000018
    13    -0.000008
    14    -0.000135
    15    -0.000199
    16    -0.000179
    17     0.000015
    18     0.000000
    19    -0.000000
    20     0.000133
    21     0.000642
    22     0.005146
    23    -0.001675
    24    -0.000140
    25    -0.000003
    26     0.001400
    27     0.000322
    28     0.000000
    29    -0.001754
    30    -0.000131
    31    -0.000097
    32    -0.000294
    33     0.000001
    34     0.000000
    35    -0.993937
    36     0.026558
    37    -0.017275
    38    -0.004335
    39    -0.000334
    40     0.000011
    41     0.001109
    42     0.000505
    43    -0.000002
    44    -0.004017
    45    -0.004333
    46    -0.004564
    47     0.000022
    48     0.000001
    49     0.000001
Sym=     4a
Ene=   -0.207511E+02
Spin= Alpha
Occup= 1.999901
     1    -0.000083
     2     0.000489
     3    -0.000022
     4    -0.002251
     5     0.000207
     6     0.000260
     7     0.000019
     8     0.000296
     9     0.000645
    10    -0.000002
    11    -0.000365
    12    -0.000921
    13    -0.000000
    14     0.000097
    15    -0.000078
    16     0.000182
    17    -0.000263
    18     0.000000
    19    -0.000002
    20     0.993791
    21    -0.027272
    22     0.018786
    23    -0.004155
    24     0.000255
    25    -0.000054
    26     0.001131
    27    -0.001221
    28    -0.000035
    29     0.003679
    30     0.004442
    31     0.003917
    32    -0.000004
    33    -0.000001
    34     0.000003
    35    -0.000292
    36    -0.000569
    37    -0.005594
    38    -0.001670
    39    -0.000284
    40    -0.000025
    41     0.001605
    42     0.000579
    43    -0.000016
    44     0.001767
    45     0.000139
    46     0.000099
    47     0.000207
    48     0.000003
    49     0.000001
Sym=     5a
Ene=   -0.871057E+01
Spin= Alpha
Occup= 1.999893
     1    -0.156490
     2     0.529079
     3     0.009401
     4    -0.006758
     5    -0.257141
     6     0.227127
     7    -0.780667
     8     0.007914
     9    -0.009207
    10     0.021475
    11    -0.005169
    12     0.002334
    13    -0.019334
    14    -0.000103
    15     0.000054
    16    -0.000114
    17     0.000016
    18     0.000012
    19    -0.000071
    20     0.000035
    21     0.000187
    22    -0.000319
    23    -0.000106
    24     0.000220
    25     0.000118
    26    -0.000194
    27     0.000289
    28     0.000541
    29     0.000050
    30    -0.000075
    31     0.000081
    32    -0.000033
    33     0.000064
    34     0.000024
    35     0.000022
    36     0.000000
    37     0.000551
    38     0.000019
    39    -0.000183
    40     0.000810
    41    -0.000236
    42    -0.000466
    43     0.000525
    44    -0.000029
    45    -0.000054
    46    -0.000072
    47     0.000037
    48    -0.000027
    49     0.000003
Sym=     6a
Ene=   -0.879687E+01
Spin= Alpha
Occup= 1.999877
     1    -0.167637
     2     0.562492
     3     0.009784
     4    -0.006466
     5     0.775918
     6     0.247227
     7     0.165692
     8    -0.024087
     9    -0.014152
    10    -0.004924
    11     0.016422
    12    -0.001097
    13     0.003622
    14    -0.000179
    15    -0.000044
    16    -0.000267
    17     0.000108
    18    -0.000012
    19     0.000030
    20     0.000065
    21     0.000507
    22     0.000059
    23     0.000043
    24     0.000190
    25    -0.000017
    26    -0.000071
    27     0.000554
    28    -0.000112
    29     0.000006
    30    -0.000113
    31     0.000097
    32    -0.000088
    33    -0.000013
    34    -0.000001
    35    -0.000037
    36    -0.000179
    37    -0.000395
    38     0.000126
    39    -0.000033
    40    -0.000144
    41     0.000308
    42     0.000186
    43    -0.000094
    44     0.000031
    45     0.000063
    46     0.000070
    47     0.000012
    48     0.000005
    49    -0.000001
Sym=     7a
Ene=   -0.861167E+01
Spin= Alpha
Occup= 1.999837
     1    -0.143582
     2     0.482873
     3     0.009862
     4    -0.007937
     5    -0.048371
     6    -0.866766
     7     0.059914
     8     0.005853
     9     0.039023
    10    -0.002331
    11     0.003098
    12    -0.007160
    13     0.000649
    14     0.000146
    15     0.000007
    16     0.000136
    17     0.000083
    18    -0.000002
    19    -0.000034
    20    -0.000111
    21    -0.000233
    22     0.000759
    23     0.000063
    24    -0.000361
    25    -0.000001
    26    -0.001150
    27    -0.000742
    28    -0.000035
    29    -0.000044
    30     0.000125
    31     0.000059
    32     0.000036
    33    -0.000001
    34     0.000001
    35     0.000016
    36    -0.000351
    37     0.001687
    38     0.000097
    39     0.000333
    40    -0.000018
    41    -0.000819
    42    -0.000500
    43    -0.000005
    44    -0.000106
    45    -0.000160
    46    -0.000264
    47     0.000065
    48    -0.000002
    49     0.000001
Sym=     8a
Ene=   -0.981520E+00
Spin= Alpha
Occup= 1.987338
     1     0.074646
     2    -0.480265
     3     0.656278
     4     0.374637
     5     0.086998
     6    -0.028479
     7    -0.053486
     8     0.159830
     9    -0.050386
    10    -0.096149
    11     0.217692
    12    -0.068252
    13    -0.130697
    14     0.015575
    15     0.016804
    16     0.012574
    17     0.003851
    18    -0.001305
    19    -0.000494
    20    -0.003463
    21    -0.012603
    22    -0.014238
    23     0.007958
    24    -0.028513
    25     0.001654
    26     0.017014
    27    -0.011913
    28     0.001125
    29    -0.002375
    30     0.005754
    31    -0.002468
    32     0.000756
    33     0.000594
    34     0.000944
    35    -0.001641
    36    -0.004577
    37    -0.008518
    38    -0.001589
    39     0.018888
    40     0.007017
    41     0.001997
    42     0.017209
    43     0.005103
    44    -0.001204
    45     0.000452
    46    -0.000412
    47    -0.000239
    48    -0.000425
    49     0.000065
Sym=     9a
Ene=   -0.101623E+01
Spin= Alpha
Occup= 1.984412
     1    -0.002797
     2     0.018602
     3    -0.028331
     4    -0.022680
     5    -0.004030
     6     0.004980
     7     0.000421
     8    -0.008683
     9     0.007181
    10     0.000708
    11    -0.013428
    12    -0.007906
    13     0.001298
    14    -0.000767
    15     0.001742
    16    -0.004772
    17     0.004246
    18    -0.000207
    19     0.000034
    20     0.009319
    21     0.005848
    22    -0.011557
    23     0.044146
    24    -0.186270
    25    -0.001499
    26    -0.001502
    27    -0.114487
    28    -0.000939
    29     0.009756
    30    -0.007362
    31    -0.004659
    32    -0.019859
    33    -0.000122
    34    -0.000046
    35     0.201312
    36     0.439009
    37     0.327026
    38     0.187251
    39    -0.377682
    40    -0.002455
    41     0.116662
    42    -0.251047
    43    -0.001371
    44    -0.000243
    45     0.014837
    46     0.008009
    47     0.018553
    48     0.000104
    49     0.000206
Sym=    10a
Ene=   -0.101619E+01
Spin= Alpha
Occup= 1.983685
     1    -0.002280
     2     0.016127
     3    -0.027213
     4    -0.020448
     5     0.003259
     6     0.013714
     7     0.000922
     8     0.004939
     9     0.020016
    10     0.002645
    11     0.003965
    12     0.016340
    13     0.006584
    14    -0.004953
    15     0.011697
    16    -0.005072
    17     0.003474
    18    -0.002061
    19    -0.006820
    20     0.198031
    21     0.431797
    22     0.324573
    23    -0.134663
    24     0.002016
    25    -0.399606
    26    -0.078042
    27     0.000584
    28    -0.264891
    29     0.004219
    30     0.010944
    31     0.008188
    32     0.002716
    33    -0.020545
    34     0.000400
    35    -0.003755
    36    -0.017396
    37    -0.042188
    38    -0.014970
    39     0.016828
    40    -0.206367
    41     0.016698
    42     0.015942
    43    -0.117115
    44     0.003970
    45    -0.003325
    46    -0.003018
    47    -0.000388
    48     0.022006
    49     0.003716
Sym=    11a
Ene=   -0.100769E+01
Spin= Alpha
Occup= 1.983436
     1    -0.002137
     2     0.015174
     3    -0.026330
     4    -0.018777
     5     0.003675
     6     0.013596
     7    -0.000487
     8     0.005640
     9     0.019791
    10    -0.001808
    11     0.005293
    12     0.016061
    13    -0.005389
    14    -0.005184
    15     0.011392
    16    -0.004802
    17     0.003487
    18     0.002309
    19     0.006947
    20     0.194792
    21     0.424254
    22     0.319703
    23    -0.132211
    24    -0.002152
    25     0.406350
    26    -0.076317
    27    -0.002206
    28     0.269518
    29     0.004126
    30     0.010754
    31     0.007913
    32     0.002411
    33     0.020928
    34    -0.000418
    35    -0.003674
    36    -0.017013
    37    -0.041631
    38    -0.013739
    39     0.013582
    40     0.210005
    41     0.017050
    42     0.013955
    43     0.119193
    44     0.003794
    45    -0.003359
    46    -0.002783
    47    -0.000091
    48    -0.022396
    49    -0.003780
Sym=    12a
Ene=   -0.973579E+00
Spin= Alpha
Occup= 1.983390
     1    -0.002771
     2     0.018836
     3    -0.026855
     4    -0.030536
     5    -0.003447
     6     0.004488
     7     0.000157
     8    -0.007175
     9     0.006713
    10     0.000263
    11    -0.016357
    12    -0.014710
    13     0.000561
    14    -0.000059
    15     0.003718
    16    -0.003763
    17     0.005909
    18    -0.000085
    19    -0.000008
    20     0.014411
    21     0.037256
    22     0.084402
    23     0.014243
    24    -0.205003
    25    -0.001621
    26     0.038026
    27    -0.120776
    28    -0.000961
    29     0.000968
    30    -0.000507
    31     0.002089
    32    -0.023563
    33    -0.000120
    34    -0.000041
    35    -0.195713
    36    -0.424631
    37    -0.337264
    38    -0.047053
    39    -0.427537
    40    -0.001943
    41    -0.014331
    42    -0.279876
    43    -0.001426
    44    -0.009997
    45    -0.001963
    46    -0.008163
    47     0.020937
    48     0.000077
    49     0.000213
Sym=    13a
Ene=   -0.566189E+00
Spin= Alpha
Occup= 1.976705
     1     0.026656
     2    -0.175878
     3     0.254263
     4     0.125603
     5    -0.103226
     6     0.027094
     7     0.210151
     8    -0.197587
     9     0.053313
    10     0.410755
    11    -0.269008
    12     0.069331
    13     0.552804
    14     0.007104
    15     0.011045
    16     0.004138
    17    -0.001245
    18     0.000749
    19     0.003851
    20    -0.005046
    21    -0.011301
    22    -0.021241
    23     0.002094
    24    -0.008365
    25    -0.011773
    26    -0.002605
    27    -0.006682
    28    -0.007659
    29     0.000466
    30     0.000855
    31    -0.000868
    32     0.002190
    33    -0.002726
    34    -0.003928
    35     0.002066
    36     0.006627
    37     0.006954
    38    -0.003714
    39     0.000344
    40    -0.033024
    41    -0.007008
    42     0.002070
    43    -0.023366
    44     0.000825
    45     0.000027
    46     0.000695
    47    -0.000240
    48     0.002024
    49    -0.000299
Sym=    14a
Ene=   -0.524551E+00
Spin= Alpha
Occup= 1.974545
     1    -0.016432
     2     0.108232
     3    -0.156885
     4    -0.076128
     5     0.205188
     6    -0.052477
     7     0.126518
     8     0.396284
     9    -0.102291
    10     0.246923
    11     0.534398
    12    -0.134660
    13     0.330935
    14    -0.003419
    15    -0.007101
    16    -0.002837
    17     0.004333
    18     0.003458
    19     0.001751
    20     0.005491
    21     0.010086
    22     0.028179
    23     0.000003
    24     0.001827
    25    -0.007501
    26     0.010652
    27     0.004087
    28    -0.005013
    29    -0.002064
    30     0.001063
    31     0.000192
    32    -0.003089
    33    -0.001656
    34    -0.002347
    35    -0.004554
    36    -0.013768
    37    -0.014570
    38     0.005396
    39     0.010848
    40    -0.020217
    41     0.011681
    42     0.006440
    43    -0.014046
    44    -0.001878
    45     0.000135
    46    -0.001321
    47     0.000100
    48     0.001238
    49    -0.000178
Sym=    15a
Ene=   -0.104694E+01
Spin= Alpha
Occup= 1.951907
     1     0.001141
     2    -0.008049
     3     0.016944
     4     0.007277
     5    -0.010864
     6    -0.013697
     7     0.000387
     8    -0.017469
     9    -0.020671
    10     0.000681
    11    -0.032486
    12    -0.019941
    13     0.000952
    14     0.005442
    15    -0.007896
    16     0.005158
    17    -0.001591
    18    -0.000108
    19     0.000085
    20     0.055654
    21     0.128813
    22    -0.078185
    23     0.484656
    24     0.059497
    25     0.000155
    26     0.224183
    27     0.021730
    28     0.000108
    29     0.044043
    30    -0.011221
    31    -0.010002
    32     0.006037
    33     0.000033
    34    -0.000023
    35     0.041823
    36     0.098388
    37    -0.129273
    38    -0.471251
    39    -0.063787
    40     0.000489
    41    -0.202311
    42    -0.025016
    43     0.000245
    44     0.043575
    45    -0.009245
    46    -0.011484
    47     0.011314
    48    -0.000027
    49    -0.000016
Sym=    16a
Ene=   -0.464926E+00
Spin= Alpha
Occup= 1.544899
     1    -0.003449
     2     0.024311
     3    -0.026106
     4    -0.064603
     5     0.046231
     6     0.191192
     7    -0.001927
     8     0.080825
     9     0.333420
    10    -0.003553
    11     0.090962
    12     0.405945
    13    -0.003886
    14    -0.002445
    15     0.019816
    16    -0.005005
    17     0.014516
    18    -0.000366
    19    -0.001581
    20    -0.029088
    21    -0.073999
    22    -0.062822
    23     0.104766
    24    -0.412312
    25    -0.001909
    26     0.090068
    27    -0.274588
    28    -0.001366
    29    -0.005078
    30     0.010323
    31    -0.009531
    32     0.002784
    33     0.000041
    34    -0.000054
    35     0.002633
    36     0.010367
    37    -0.021117
    38    -0.061767
    39     0.269545
    40     0.000780
    41    -0.036146
    42     0.237269
    43     0.000904
    44    -0.000337
    45     0.002705
    46     0.001564
    47     0.003472
    48     0.000033
    49    -0.000111
Sym=    17a
Ene=   -0.320195E+00
Spin= Alpha
Occup= 1.000000
     1     0.000057
     2    -0.000341
     3     0.001039
     4    -0.000975
     5     0.000096
     6    -0.000002
     7     0.019572
     8     0.000260
     9     0.000043
    10     0.036619
    11    -0.000032
    12    -0.000033
    13     0.049121
    14     0.000439
    15     0.000305
    16    -0.000133
    17    -0.000022
    18    -0.001453
    19    -0.010703
    20    -0.000011
    21    -0.000005
    22     0.000387
    23    -0.000146
    24     0.001034
    25    -0.390630
    26    -0.000112
    27     0.000836
    28    -0.312336
    29     0.000019
    30    -0.000079
    31     0.000066
    32    -0.000026
    33     0.010885
    34     0.005693
    35     0.000104
    36     0.000458
    37    -0.000564
    38     0.000824
    39    -0.002381
    40     0.653620
    41     0.000618
    42    -0.001494
    43     0.427553
    44     0.000068
    45    -0.000578
    46     0.000692
    47     0.000157
    48    -0.004148
    49     0.000361
Sym=    18a
Ene=   -0.158658E+00
Spin= Alpha
Occup= 0.453826
     1    -0.010022
     2     0.066157
     3    -0.100822
     4    -0.077062
     5    -0.060255
     6    -0.214501
     7     0.001301
     8    -0.111347
     9    -0.398063
    10     0.002857
    11    -0.146409
    12    -0.506514
    13     0.001076
    14    -0.015893
    15     0.020776
    16    -0.013688
    17     0.001212
    18     0.000587
    19     0.003721
    20     0.039180
    21     0.078853
    22     0.157157
    23     0.025906
    24    -0.533958
    25    -0.001824
    26    -0.006672
    27    -0.354305
    28    -0.000545
    29     0.001311
    30    -0.005654
    31     0.008036
    32    -0.005016
    33     0.000053
    34    -0.000541
    35    -0.001823
    36    -0.007887
    37     0.011645
    38     0.003862
    39     0.249518
    40     0.000879
    41    -0.009285
    42     0.195041
    43     0.000197
    44    -0.004732
    45     0.001031
    46    -0.000256
    47     0.007765
    48     0.000072
    49    -0.000219
Sym=    19a
Ene=   -0.338574E-02
Spin= Alpha
Occup= 0.002066
     1     0.001599
     2    -0.010960
     3     0.052774
     4    -0.049678
     5    -0.012424
     6     0.002393
     7    -0.003976
     8    -0.013690
     9     0.011243
    10    -0.013477
    11    -0.063287
    12     0.017468
    13     0.012815
    14    -0.008960
    15     0.058653
    16    -0.026458
    17    -0.081118
    18    -0.027697
    19     0.008779
    20     0.008521
    21    -0.085379
    22     0.080095
    23    -0.206156
    24    -0.054158
    25     0.002586
    26     0.445031
    27     0.097808
    28    -0.009404
    29    -0.520569
    30     0.288136
    31     0.125244
    32    -0.099695
    33     0.008403
    34     0.002775
    35     0.011537
    36    -0.070917
    37     0.058923
    38     0.216630
    39     0.045240
    40    -0.006240
    41    -0.431565
    42    -0.108218
    43     0.008353
    44    -0.484065
    45     0.087712
    46     0.277080
    47    -0.151370
    48    -0.011131
    49     0.001807
Sym=    20a
Ene=   -0.759863E-02
Spin= Alpha
Occup= 0.012061
     1     0.001965
     2    -0.010149
     3     0.062137
     4    -0.105856
     5     0.003081
     6    -0.038729
     7     0.002687
     8     0.016519
     9    -0.123439
    10     0.008501
    11    -0.036793
    12     0.091618
    13    -0.005830
    14     0.406857
    15    -0.410626
    16     0.052773
    17     0.704696
    18     0.220166
    19     0.444435
    20    -0.008375
    21    -0.087160
    22     0.252884
    23    -0.062420
    24     0.016489
    25     0.001842
    26     0.171064
    27     0.002836
    28    -0.029673
    29    -0.006855
    30     0.001374
    31    -0.021033
    32    -0.009349
    33    -0.007194
    34    -0.009590
    35     0.000416
    36     0.011086
    37    -0.181062
    38     0.020269
    39    -0.000101
    40     0.031284
    41     0.088462
    42     0.042494
    43    -0.022406
    44    -0.006752
    45    -0.000423
    46    -0.002113
    47    -0.002929
    48     0.008004
    49     0.003186
Sym=    21a
Ene=   -0.731347E-02
Spin= Alpha
Occup= 0.010878
     1    -0.002203
     2     0.011178
     3    -0.068331
     4     0.119232
     5    -0.000598
     6     0.053943
     7     0.020273
     8    -0.005812
     9     0.173649
    10     0.065971
    11     0.019948
    12    -0.131042
    13    -0.053368
    14    -0.181419
    15     0.204250
    16    -0.078343
    17    -0.405233
    18     0.211761
    19     0.840316
    20     0.008197
    21     0.062550
    22    -0.134053
    23     0.030803
    24    -0.039905
    25     0.009227
    26    -0.087504
    27     0.030628
    28    -0.054143
    29     0.007422
    30    -0.004660
    31     0.016471
    32     0.001143
    33    -0.011926
    34    -0.015691
    35    -0.000076
    36    -0.003313
    37     0.085117
    38    -0.011251
    39     0.002164
    40     0.061005
    41    -0.037914
    42    -0.032862
    43    -0.045265
    44     0.003636
    45    -0.001574
    46     0.005105
    47     0.002448
    48     0.013215
    49     0.006972
Sym=    22a
Ene=   -0.282539E-02
Spin= Alpha
Occup= 0.001913
     1    -0.001705
     2     0.018380
     3    -0.069239
     4     0.056627
     5     0.008459
     6     0.011731
     7     0.005811
     8     0.020041
     9     0.032816
    10     0.018658
    11     0.009931
    12     0.010509
    13    -0.013688
    14     0.007192
    15     0.034298
    16     0.008326
    17     0.034457
    18     0.009993
    19    -0.003718
    20     0.002189
    21     0.014406
    22     0.079684
    23     0.021393
    24    -0.133151
    25     0.005772
    26     0.036734
    27     0.140817
    28    -0.034066
    29    -0.019305
    30    -0.015533
    31     0.028669
    32     0.140960
    33     0.007720
    34     0.004464
    35     0.041663
    36     0.212702
    37    -0.243092
    38     0.001015
    39     0.007707
    40    -0.046608
    41     0.099751
    42    -0.068199
    43     0.063579
    44     0.145992
    45    -0.884101
    46     0.671760
    47    -0.170476
    48    -0.003692
    49    -0.233836
Sym=    23a
Ene=   -0.109043E-01
Spin= Alpha
Occup= 0.014548
     1    -0.007344
     2     0.049987
     3    -0.096816
     4    -0.028119
     5    -0.006250
     6    -0.042728
     7    -0.019647
     8    -0.018655
     9    -0.107485
    10    -0.039920
    11    -0.005805
    12    -0.075295
    13    -0.054018
    14    -0.025324
    15    -0.018818
    16     0.028798
    17    -0.012759
    18    -0.002776
    19     0.000928
    20    -0.231173
    21    -1.190623
    22     1.233112
    23     0.269971
    24    -0.070207
    25    -0.653862
    26    -0.169054
    27     0.077116
    28     0.763185
    29     0.100849
    30     0.096931
    31    -0.004871
    32    -0.017370
    33     0.039431
    34     0.007026
    35    -0.008106
    36    -0.007852
    37    -0.245520
    38     0.050776
    39     0.016350
    40    -0.185775
    41     0.081730
    42    -0.029149
    43    -0.003852
    44    -0.011747
    45     0.005549
    46    -0.002267
    47    -0.003325
    48    -0.031547
    49    -0.012717
Sym=    24a
Ene=   -0.284282E-02
Spin= Alpha
Occup= 0.001996
     1    -0.000095
     2     0.004540
     3    -0.043852
     4     0.096697
     5    -0.000600
     6     0.001197
     7     0.013477
     8    -0.003453
     9    -0.001652
    10     0.041602
    11     0.033705
    12     0.094784
    13    -0.031200
    14     0.002804
    15     0.059925
    16    -0.025687
    17     0.033933
    18     0.003564
    19    -0.004641
    20     0.038307
    21     0.223105
    22    -0.331747
    23     0.009564
    24    -0.203965
    25    -0.025980
    26    -0.078668
    27     0.337468
    28     0.082132
    29     0.038779
    30     0.481174
    31    -0.558024
    32     0.081042
    33    -0.442582
    34     0.557507
    35    -0.002421
    36    -0.026354
    37     0.134244
    38     0.005347
    39     0.031722
    40     0.073099
    41    -0.036799
    42    -0.180406
    43    -0.034562
    44     0.015249
    45    -0.014091
    46    -0.019879
    47    -0.045759
    48     0.123603
    49     0.068802
Sym=    25a
Ene=   -0.284892E-02
Spin= Alpha
Occup= 0.001875
     1     0.000718
     2    -0.005375
     3     0.025693
     4    -0.035295
     5     0.002783
     6     0.001073
     7     0.008169
     8     0.008848
     9     0.005060
    10     0.020966
    11    -0.009828
    12    -0.018058
    13     0.002137
    14     0.010409
    15    -0.006549
    16    -0.003121
    17    -0.005839
    18     0.011314
    19     0.019287
    20    -0.000473
    21    -0.011233
    22     0.052541
    23    -0.000488
    24     0.035200
    25     0.036020
    26     0.004604
    27    -0.035820
    28    -0.165052
    29     0.011711
    30    -0.006191
    31    -0.015765
    32    -0.033534
    33     0.042313
    34     0.054697
    35     0.011259
    36     0.057262
    37    -0.062380
    38     0.004393
    39     0.003192
    40    -0.197348
    41     0.012665
    42     0.018243
    43     0.273074
    44    -0.017031
    45    -0.218681
    46     0.219772
    47     0.144289
    48    -0.317272
    49     0.866522
Sym=    26a
Ene=   -0.407894E-02
Spin= Alpha
Occup= 0.005626
     1     0.056692
     2    -0.459543
     3     1.600576
     4    -1.242339
     5     0.055599
     6    -0.073356
     7    -0.083176
     8     0.188090
     9    -0.228134
    10    -0.274111
    11    -0.176932
    12     0.155013
    13     0.236377
    14    -0.690250
    15     0.126121
    16     0.239452
    17     0.147179
    18     0.309428
    19    -0.022767
    20     0.000690
    21    -0.034698
    22     0.174481
    23    -0.000968
    24    -0.040257
    25     0.008893
    26     0.029832
    27     0.021786
    28    -0.038404
    29    -0.003732
    30    -0.005656
    31    -0.003663
    32    -0.009741
    33    -0.006290
    34    -0.006076
    35    -0.003722
    36    -0.030154
    37    -0.010388
    38    -0.011484
    39     0.038184
    40     0.003843
    41     0.055572
    42    -0.094797
    43     0.006230
    44    -0.010821
    45     0.004160
    46     0.000192
    47     0.003771
    48     0.005187
    49     0.004201
Sym=    27a
Ene=   -0.282577E-03
Spin= Alpha
Occup= 0.000030
     1    -0.001195
     2     0.021851
     3    -0.035389
     4    -0.079541
     5    -0.001424
     6    -0.000884
     7    -0.005491
     8    -0.003137
     9    -0.006293
    10    -0.031176
    11    -0.008283
    12    -0.007140
    13     0.066624
    14     0.046419
    15     0.047137
    16     0.028776
    17    -0.015089
    18     0.012988
    19     0.044317
    20     0.000870
    21    -0.002210
    22     0.027740
    23    -0.021832
    24     0.068497
    25     0.027632
    26     0.022271
    27    -0.119073
    28    -0.203548
    29     0.089197
    30    -0.038778
    31    -0.062712
    32    -0.413477
    33     0.098177
    34     0.472746
    35    -0.001520
    36     0.000680
    37    -0.028448
    38    -0.002247
    39    -0.022295
    40    -0.023132
    41    -0.021697
    42     0.152832
    43     0.042685
    44    -0.003107
    45    -0.020926
    46     0.059121
    47     0.098916
    48    -0.625325
    49    -0.360240
Sym=    28a
Ene=   -0.174897E-03
Spin= Alpha
Occup= 0.000018
     1    -0.001573
     2     0.042406
     3     0.109224
     4    -0.581521
     5     0.003900
     6     0.029126
     7     0.004343
     8     0.038948
     9     0.150491
    10     0.015627
    11    -0.146845
    12    -0.390317
    13    -0.011288
    14     0.186242
    15    -0.027305
    16     0.201036
    17    -0.143563
    18    -0.006972
    19     0.007007
    20     0.037047
    21    -0.131866
    22     0.866626
    23    -0.316078
    24     0.183595
    25     0.008787
    26     0.267548
    27    -0.395326
    28    -0.176601
    29    -0.618216
    30     0.106854
    31    -0.234553
    32     0.231152
    33    -0.521148
    34    -0.286569
    35    -0.006840
    36    -0.059299
    37    -0.234271
    38    -0.003413
    39    -0.019189
    40    -0.062322
    41    -0.045781
    42     0.041319
    43     0.249455
    44     0.494358
    45    -0.141266
    46    -0.186837
    47     0.476805
    48    -0.405761
    49    -0.144661
Sym=    29a
Ene=   -0.164732E-03
Spin= Alpha
Occup= 0.000016
     1     0.001939
     2    -0.048632
     3    -0.044273
     4     0.462299
     5     0.003933
     6    -0.027061
     7    -0.001835
     8     0.000073
     9    -0.128202
    10    -0.004022
    11     0.058009
    12     0.282251
    13     0.004104
    14    -0.182076
    15    -0.018987
    16    -0.176927
    17     0.076994
    18     0.001295
    19    -0.001097
    20    -0.018606
    21     0.090475
    22    -0.545200
    23     0.107516
    24    -0.143841
    25     0.009371
    26    -0.084558
    27     0.195845
    28    -0.188488
    29     0.328326
    30    -0.069357
    31     0.114838
    32    -0.405897
    33    -0.582039
    34    -0.359403
    35     0.002564
    36     0.011781
    37     0.158015
    38    -0.019879
    39     0.016025
    40    -0.080645
    41    -0.007526
    42     0.030484
    43     0.291259
    44    -0.058643
    45     0.027564
    46    -0.046593
    47    -0.600255
    48    -0.419686
    49     0.007498
Sym=    30a
Ene=   -0.193960E-03
Spin= Alpha
Occup= 0.000010
     1     0.001442
     2     0.002394
     3     0.265905
     4    -0.728440
     5     0.000036
     6     0.032404
     7    -0.002883
     8     0.002936
     9     0.186564
    10    -0.009150
    11    -0.064143
    12    -0.603142
    13     0.008849
    14     0.197382
    15    -0.241463
    16     0.243744
    17    -0.091159
    18     0.018486
    19     0.006583
    20    -0.028828
    21    -0.105681
    22     0.053796
    23     0.493211
    24     0.513320
    25     0.007932
    26    -0.698170
    27    -0.996647
    28    -0.061727
    29     0.354698
    30     0.228906
    31    -0.150192
    32     0.232642
    33    -0.159659
    34    -0.078468
    35     0.006894
    36     0.087520
    37     0.331367
    38    -0.042282
    39    -0.063610
    40    -0.034571
    41     0.022758
    42     0.263780
    43     0.097207
    44    -0.751395
    45     0.207834
    46     0.423292
    47    -0.053635
    48    -0.087346
    49    -0.079540
Sym=    31a
Ene=   -0.150612E-03
Spin= Alpha
Occup= 0.000007
     1     0.001490
     2    -0.041054
     3    -0.046151
     4     0.417304
     5    -0.001109
     6    -0.015177
     7    -0.005023
     8    -0.029791
     9    -0.077435
    10    -0.016686
    11     0.129137
    12     0.204251
    13     0.014878
    14    -0.120003
    15    -0.065521
    16    -0.143737
    17     0.100524
    18     0.007318
    19    -0.004242
    20    -0.016364
    21     0.189808
    22     0.001542
    23     0.287897
    24    -0.142184
    25    -0.000892
    26    -0.270569
    27     0.387801
    28    -0.006855
    29    -0.666904
    30     0.476404
    31     0.490949
    32    -0.146400
    33    -0.007360
    34    -0.006540
    35    -0.066398
    36     0.085856
    37    -0.816441
    38    -0.685483
    39    -0.097701
    40    -0.002248
    41     0.932029
    42     0.011768
    43     0.006237
    44     0.322000
    45     0.381293
    46     0.326327
    47     0.132719
    48    -0.020874
    49    -0.006090
Sym=    32a
Ene=   -0.259579E-03
Spin= Alpha
Occup= 0.000027
     1     0.009650
     2    -0.151550
     3     0.315510
     4     0.253301
     5     0.036589
     6    -0.013347
     7    -0.035049
     8     0.129582
     9    -0.040284
    10    -0.109836
    11    -0.162075
    12    -0.048338
    13     0.076551
    14    -0.278137
    15    -0.329908
    16    -0.179593
    17    -0.076024
    18    -0.005498
    19    -0.013424
    20     0.008136
    21    -0.022923
    22     0.230659
    23    -0.118375
    24     0.221844
    25    -0.006772
    26     0.174417
    27    -0.381417
    28     0.103857
    29     0.008240
    30     0.105764
    31    -0.270993
    32    -0.713149
    33    -0.027436
    34    -0.157014
    35    -0.008194
    36     0.007708
    37    -0.240049
    38    -0.018027
    39    -0.057476
    40     0.016547
    41     0.003492
    42     0.340543
    43    -0.035694
    44     0.166985
    45    -0.215487
    46     0.235713
    47     0.201589
    48     0.418219
    49     0.018693
Sym=    33a
Ene=   -0.538400E-05
Spin= Alpha
Occup= 0.000000
     1    -0.000648
     2     0.009171
     3     0.022854
     4    -0.121081
     5    -0.000159
     6     0.005869
     7     0.003501
     8     0.031453
     9     0.024130
    10     0.011631
    11    -0.193183
    12    -0.064352
    13    -0.010394
    14     0.015159
    15     0.026757
    16     0.006908
    17    -0.194869
    18    -0.014877
    19    -0.002116
    20     0.020166
    21    -0.605957
    22     4.856566
    23    -0.151911
    24     0.034336
    25    -0.001785
    26     3.138219
    27     0.356240
    28     0.006121
    29     0.428790
    30    -0.403321
    31    -0.498863
    32     0.154014
    33     0.004607
    34     0.001577
    35    -0.011832
    36     0.555144
    37    -4.670266
    38    -0.111120
    39    -0.011127
    40     0.005290
    41     3.072478
    42     0.530966
    43    -0.009277
    44    -0.436692
    45     0.376527
    46     0.373292
    47    -0.216284
    48    -0.002597
    49     0.007749
Sym=    34a
Ene=   -0.135173E-02
Spin= Alpha
Occup= 0.001275
     1     0.001461
     2    -0.009527
     3     0.041793
     4    -0.051413
     5     0.002008
     6    -0.000916
     7     0.014663
     8     0.007823
     9    -0.002381
    10     0.036414
    11    -0.010175
    12     0.001082
    13     0.015639
    14     0.021706
    15     0.016965
    16    -0.023280
    17    -0.006376
    18     0.016999
    19     0.080306
    20    -0.001198
    21    -0.010997
    22     0.026301
    23    -0.011462
    24    -0.006209
    25     0.187009
    26     0.019239
    27     0.006896
    28    -0.550384
    29    -0.012636
    30    -0.012617
    31     0.019095
    32     0.003532
    33     0.026966
    34     0.125023
    35    -0.001852
    36    -0.015664
    37     0.011539
    38    -0.009235
    39     0.006248
    40    -0.837399
    41     0.014780
    42    -0.010837
    43     1.165720
    44     0.011444
    45     0.074748
    46    -0.099134
    47    -0.020008
    48     0.179555
    49    -0.154049
Sym=    35a
Ene=   -0.424436E-01
Spin= Alpha
Occup= 0.046027
     1     0.000972
     2    -0.006897
     3     0.008785
     4     0.014670
     5    -0.005958
     6     0.007286
     7    -0.000217
     8    -0.010538
     9     0.013593
    10    -0.000716
    11    -0.016139
    12     0.025905
    13     0.000607
    14    -0.000145
    15    -0.001305
    16    -0.002552
    17    -0.000109
    18    -0.001456
    19    -0.000339
    20     0.123835
    21     0.357951
    22     0.260105
    23     0.731007
    24     0.117335
    25    -0.000370
    26     0.233598
    27     0.059340
    28     0.000410
    29     0.018265
    30    -0.001843
    31    -0.011415
    32    -0.003789
    33     0.000002
    34    -0.000016
    35    -0.116817
    36    -0.318808
    37    -0.283902
    38     0.731966
    39     0.119284
    40    -0.000735
    41     0.257104
    42     0.044307
    43     0.000559
    44    -0.021829
    45     0.013317
    46    -0.005878
    47    -0.009098
    48    -0.000308
    49    -0.000068
Sym=    36a
Ene=   -0.854258E-02
Spin= Alpha
Occup= 0.013394
     1    -0.000437
     2    -0.001464
     3     0.014022
     4    -0.022297
     5     0.055932
     6     0.012326
     7     0.036648
     8     0.186551
     9     0.045989
    10     0.120904
    11    -0.178725
    12    -0.089556
    13    -0.104111
    14    -0.347734
    15     0.469960
    16    -0.165633
    17     0.382847
    18    -0.680693
    19     0.223546
    20    -0.009090
    21    -0.020085
    22     0.027692
    23    -0.004888
    24     0.196564
    25     0.002906
    26     0.038598
    27    -0.186893
    28     0.006241
    29    -0.012904
    30     0.022744
    31    -0.021145
    32     0.021935
    33    -0.000463
    34     0.003996
    35     0.001805
    36     0.006673
    37    -0.014158
    38    -0.011455
    39    -0.020591
    40     0.007862
    41     0.012512
    42     0.055225
    43    -0.007528
    44     0.002290
    45    -0.002589
    46     0.002784
    47    -0.005954
    48    -0.001082
    49     0.000334
Sym=    37a
Ene=   -0.835653E-02
Spin= Alpha
Occup= 0.012417
     1     0.002409
     2    -0.017596
     3     0.049525
     4    -0.015699
     5    -0.049113
     6    -0.014644
     7     0.092915
     8    -0.162966
     9    -0.051061
    10     0.305541
    11     0.152525
    12     0.080633
    13    -0.260471
    14    -0.239072
    15    -0.559462
    16     0.802352
    17    -0.119300
    18    -0.409107
    19     0.131141
    20     0.007458
    21    -0.001241
    22     0.060572
    23    -0.001866
    24    -0.181719
    25     0.010728
    26     0.003343
    27     0.167152
    28     0.007450
    29     0.011089
    30    -0.025208
    31     0.015896
    32    -0.021491
    33     0.003770
    34     0.006749
    35    -0.001333
    36     0.002622
    37    -0.051295
    38     0.008022
    39     0.017139
    40    -0.007520
    41     0.029364
    42    -0.043467
    43     0.009223
    44    -0.001596
    45     0.005208
    46     0.000856
    47     0.004527
    48    -0.004171
    49     0.000186
Sym=    38a
Ene=   -0.109893E-01
Spin= Alpha
Occup= 0.014697
     1    -0.001183
     2     0.007405
     3    -0.009097
     4    -0.009449
     5    -0.004755
     6    -0.004535
     7    -0.000838
     8    -0.008395
     9    -0.009958
    10    -0.002802
    11    -0.017389
    12    -0.011418
    13     0.002525
    14     0.003771
    15    -0.013472
    16     0.004946
    17    -0.007717
    18    -0.001427
    19     0.001543
    20     0.005960
    21    -0.008341
    22     0.309050
    23     0.035097
    24     0.142227
    25     0.000385
    26     0.074260
    27     0.065184
    28    -0.000554
    29     0.021885
    30    -0.011581
    31    -0.004652
    32    -0.032156
    33    -0.000367
    34     0.000639
    35     0.237092
    36     1.203395
    37    -1.233572
    38     0.134967
    39     0.695615
    40     0.001005
    41     0.034006
    42    -0.786020
    43    -0.001001
    44    -0.105633
    45     0.013359
    46    -0.101766
    47     0.013240
    48     0.001357
    49    -0.008838
Sym=    39a
Ene=   -0.286151E-02
Spin= Alpha
Occup= 0.002016
     1    -0.001677
     2     0.015676
     3    -0.085230
     4     0.136421
     5    -0.005091
     6    -0.004196
     7    -0.008395
     8    -0.017531
     9    -0.018945
    10    -0.026758
    11     0.043244
    12     0.105463
    13     0.023328
    14    -0.007278
    15     0.049619
    16    -0.012106
    17     0.029361
    18    -0.010538
    19     0.009101
    20     0.039847
    21     0.237198
    22    -0.376263
    23     0.006941
    24    -0.182219
    25     0.023740
    26    -0.090937
    27     0.309371
    28    -0.082943
    29     0.068695
    30     0.545944
    31    -0.647142
    32     0.035480
    33     0.460410
    34    -0.423077
    35    -0.003686
    36    -0.035606
    37     0.167650
    38     0.007663
    39     0.027985
    40    -0.080550
    41    -0.053875
    42    -0.159925
    43     0.034885
    44     0.012281
    45     0.014122
    46    -0.050908
    47    -0.035926
    48    -0.150685
    49    -0.031055
Sym=    40a
Ene=   -0.108329E-01
Spin= Alpha
Occup= 0.014319
     1     0.006234
     2    -0.042416
     3     0.065467
     4     0.063504
     5     0.002237
     6     0.042107
     7    -0.019748
     8     0.005570
     9     0.104643
    10    -0.040434
    11     0.016155
    12     0.079189
    13    -0.052883
    14     0.002120
    15     0.006076
    16    -0.001088
    17     0.008650
    18    -0.025506
    19    -0.013908
    20     0.234047
    21     1.204442
    22    -1.248552
    23    -0.277037
    24     0.080961
    25    -0.646592
    26     0.176799
    27    -0.088966
    28     0.757181
    29    -0.102956
    30    -0.102349
    31     0.005864
    32     0.018877
    33     0.042507
    34     0.008696
    35     0.007404
    36     0.003286
    37     0.251939
    38    -0.051518
    39    -0.015704
    40    -0.182159
    41    -0.083899
    42     0.033160
    43    -0.007421
    44     0.011515
    45     0.001927
    46    -0.006285
    47     0.001896
    48    -0.032191
    49    -0.014011
Sym=    41a
Ene=   -0.108967E-01
Spin= Alpha
Occup= 0.013713
     1    -0.001030
     2     0.004331
     3     0.006212
     4    -0.015171
     5    -0.020210
     6    -0.007256
     7    -0.002943
     8    -0.040764
     9    -0.017159
    10    -0.009833
    11    -0.031589
    12     0.002953
    13     0.008764
    14     0.003438
    15    -0.005724
    16    -0.011571
    17    -0.022482
    18    -0.016188
    19     0.006830
    20    -0.009327
    21    -0.018868
    22    -0.270869
    23    -0.064023
    24     0.137142
    25     0.001529
    26    -0.116965
    27     0.014803
    28     0.000696
    29     0.000643
    30    -0.004690
    31    -0.003123
    32    -0.037421
    33    -0.001260
    34     0.000281
    35    -0.243082
    36    -1.227712
    37     1.251488
    38    -0.343826
    39     0.603732
    40     0.009150
    41     0.213687
    42    -0.736566
    43    -0.010695
    44     0.089379
    45    -0.012979
    46     0.134392
    47     0.063998
    48     0.003839
    49    -0.011142
Sym=    42a
Ene=   -0.524948E-02
Spin= Alpha
Occup= 0.007036
     1     0.043368
     2    -0.364628
     3     1.223939
     4    -0.836882
     5     0.157623
     6    -0.087182
     7    -0.085724
     8     0.518165
     9    -0.276381
    10    -0.282550
    11    -0.433743
    12     0.218047
    13     0.243066
    14     0.386934
    15    -0.349670
    16    -0.412912
    17    -0.268426
    18    -0.368257
    19     0.115915
    20     0.004711
    21    -0.009060
    22     0.010559
    23     0.056668
    24    -0.174704
    25    -0.000828
    26    -0.150393
    27     0.104897
    28    -0.017828
    29     0.010006
    30    -0.027398
    31     0.018865
    32    -0.013475
    33    -0.005186
    34    -0.009269
    35    -0.002191
    36    -0.030233
    37     0.136785
    38    -0.004507
    39     0.032762
    40     0.018348
    41    -0.047055
    42    -0.119760
    43    -0.015308
    44    -0.004420
    45    -0.001318
    46     0.001745
    47     0.005073
    48     0.003149
    49     0.004133
Sym=    43a
Ene=   -0.113527E-02
Spin= Alpha
Occup= 0.000134
     1     0.065271
     2    -0.731113
     3     1.927442
     4     0.012166
     5     0.013858
     6     0.319794
     7    -0.019950
     8     0.054145
     9     1.093772
    10    -0.065525
    11    -0.074920
    12    -1.084657
    13     0.055931
    14    -0.715917
    15    -0.881556
    16    -0.765779
    17     0.096376
    18    -0.023442
    19    -0.055121
    20    -0.011374
    21    -0.175774
    22     0.434047
    23     0.047557
    24    -0.248450
    25    -0.003197
    26    -0.180805
    27     0.063292
    28    -0.000366
    29     0.017764
    30    -0.031366
    31    -0.008417
    32    -0.034322
    33     0.000830
    34    -0.012937
    35     0.000132
    36    -0.024289
    37     0.076125
    38     0.010876
    39     0.063936
    40    -0.004514
    41    -0.015558
    42    -0.121685
    43     0.004943
    44    -0.029290
    45     0.018027
    46    -0.039471
    47     0.015003
    48    -0.008172
    49     0.003641
Sym=    44a
Ene=   -0.962169E-03
Spin= Alpha
Occup= 0.000106
     1     0.073525
     2    -0.831429
     3     2.041853
     4     0.364548
     5    -0.302186
     6    -0.090713
     7    -0.056963
     8    -1.005575
     9    -0.319127
    10    -0.188717
    11     0.893409
    12     0.339627
    13     0.165959
    14    -0.838539
    15    -0.854583
    16    -1.107929
    17    -0.011499
    18    -0.135271
    19     0.066568
    20     0.001078
    21     0.041385
    22    -0.096377
    23    -0.006777
    24     0.106242
    25     0.011953
    26     0.031826
    27    -0.012190
    28    -0.034986
    29     0.003536
    30    -0.016859
    31    -0.020120
    32     0.025847
    33    -0.013859
    34     0.008509
    35    -0.000545
    36     0.062190
    37    -0.185799
    38    -0.001617
    39    -0.070241
    40     0.003631
    41     0.043372
    42     0.158832
    43     0.008440
    44     0.060723
    45    -0.016259
    46     0.051913
    47     0.001536
    48    -0.000283
    49    -0.004757
Sym=    45a
Ene=   -0.829433E-03
Spin= Alpha
Occup= 0.000092
     1     0.064981
     2    -0.755321
     3     1.836671
     4     0.414560
     5     0.083466
     6    -0.078107
     7     0.310205
     8     0.275078
     9    -0.263617
    10     1.027196
    11    -0.240717
    12     0.238776
    13    -0.900771
    14    -0.838156
    15    -0.827515
    16    -1.001793
    17    -0.038160
    18     0.149468
    19    -0.086771
    20     0.000700
    21     0.007661
    22    -0.026320
    23    -0.011770
    24     0.083568
    25    -0.056618
    26     0.087126
    27    -0.067751
    28     0.172282
    29    -0.016978
    30     0.020621
    31    -0.018247
    32     0.008976
    33     0.037236
    34    -0.023835
    35    -0.000606
    36     0.002631
    37    -0.052095
    38    -0.000014
    39    -0.007107
    40     0.007179
    41     0.022741
    42     0.037361
    43    -0.062391
    44    -0.002125
    45     0.004073
    46     0.002748
    47    -0.000786
    48    -0.014386
    49    -0.024155
Sym=    46a
Ene=   -0.187591E-02
Spin= Alpha
Occup= 0.000089
     1    -0.001524
     2     0.003606
     3     0.043789
     4    -0.123714
     5     0.000432
     6    -0.014173
     7    -0.000526
     8     0.000371
     9    -0.027728
    10    -0.001639
    11    -0.024760
    12    -0.131671
    13     0.001251
    14    -0.007214
    15    -0.063198
    16     0.008371
    17     0.003369
    18     0.007284
    19    -0.000577
    20     0.713367
    21     2.253300
    22     1.329525
    23     0.100857
    24    -0.025914
    25     0.000728
    26    -0.088796
    27    -0.038157
    28    -0.003073
    29    -1.451420
    30    -1.485612
    31    -1.424821
    32    -0.025853
    33    -0.007639
    34    -0.010802
    35    -0.000018
    36     0.005743
    37    -0.311074
    38    -0.138592
    39    -0.014328
    40    -0.003487
    41     0.116658
    42     0.016057
    43     0.007196
    44     0.087222
    45     0.050050
    46     0.059147
    47     0.014810
    48     0.001296
    49    -0.001278
Sym=    47a
Ene=   -0.183331E-02
Spin= Alpha
Occup= 0.000087
     1     0.000181
     2     0.000869
     3     0.011291
     4    -0.032092
     5    -0.001172
     6    -0.001102
     7    -0.001572
     8     0.002976
     9    -0.000958
    10    -0.005053
    11    -0.015558
    12     0.001571
    13     0.003829
    14     0.006998
    15     0.014261
    16     0.007203
    17    -0.004561
    18    -0.003901
    19     0.001158
    20    -0.000050
    21     0.013527
    22    -0.335693
    23     0.137470
    24     0.021124
    25    -0.001166
    26    -0.141925
    27    -0.017973
    28     0.005863
    29     0.081446
    30     0.073930
    31     0.044942
    32    -0.009270
    33     0.001444
    34    -0.000789
    35     0.707972
    36     2.274259
    37     1.221900
    38    -0.103254
    39    -0.014029
    40     0.006931
    41     0.045705
    42     0.002969
    43    -0.010275
    44    -1.432279
    45    -1.421406
    46    -1.441774
    47     0.023995
    48     0.008210
    49    -0.000615
Sym=    48a
Ene=   -0.271092E-03
Spin= Alpha
Occup= 0.000031
     1     0.037975
     2    -0.605079
     3     1.140889
     4     1.391982
     5     0.130852
     6    -0.057779
     7    -0.151821
     8     0.437593
     9    -0.187761
    10    -0.506386
    11    -0.419127
    12     0.094073
    13     0.453952
    14    -1.160161
    15    -1.211295
    16    -0.809781
    17    -0.073970
    18     0.030449
    19     0.039051
    20     0.010612
    21    -0.006773
    22     0.159490
    23    -0.074733
    24     0.243089
    25     0.039700
    26     0.240003
    27    -0.350343
    28    -0.115550
    29    -0.162939
    30     0.033792
    31    -0.054509
    32     0.156724
    33     0.064309
    34     0.134116
    35    -0.000690
    36     0.011689
    37    -0.184012
    38    -0.005816
    39    -0.037297
    40    -0.004790
    41     0.064595
    42     0.150226
    43     0.017638
    44     0.144755
    45    -0.011904
    46    -0.106512
    47    -0.193959
    48    -0.074385
    49     0.016524
Sym=    49a
Ene=   -0.163480E-04
Spin= Alpha
Occup= 0.000000
     1     0.009265
     2    -0.182584
     3    -0.027806
     4     1.408773
     5     0.036353
     6    -0.058449
     7    -0.039881
     8     0.091463
     9    -0.292407
    10    -0.131387
    11     0.080402
    12     0.804849
    13     0.115138
    14    -0.577880
    15    -0.123137
    16    -0.515973
    17     0.186003
    18     0.005321
    19     0.002920
    20    -0.033849
    21     0.131939
    22    -0.810923
    23     0.063261
    24    -0.361336
    25     0.011315
    26     0.282507
    27     1.160664
    28    -0.080272
    29     0.533612
    30    -0.051635
    31     0.171081
    32     0.263996
    33    -0.186646
    34    -0.114354
    35     0.015577
    36     0.078412
    37    -0.150466
    38     0.153827
    39     0.040455
    40    -0.033419
    41     0.117798
    42    -0.304666
    43     0.107873
    44    -0.597804
    45     0.129175
    46     0.238401
    47     0.565700
    48    -0.090066
    49    -0.102834
