[Molden Format]
p30-5 set                                                                       
[Atoms] AU
 AL       1    13        0.0000        0.0000        0.0000
 F        2     9        0.0000        3.0836        0.0000
 F        3     9        2.6705       -1.5418        0.0000
 F        4     9       -2.6705       -1.5418        0.0000
[GTO]
    1 0
s    5 1.00
    5887.572703000000  0.565197896170E-02
     885.612259960000  0.422182534268E-01
     201.136048990000  0.189187196726E+00
      56.284974674000  0.480435911881E+00
      17.229551243000  0.425872684294E+00
s    3 1.00
      29.340249922000  0.885686032394E-01
       3.043963042000 -0.543157066723E+00
       1.128553951800 -0.529385510294E+00
s    1 1.00
       0.142341751600  0.100000000000E+01
s    1 1.00
       0.054400192313  0.100000000000E+01
p    5 1.00
     145.119188090000  0.107263778593E-01
      33.717894833000  0.741036235460E-01
      10.369863083000  0.261296213060E+00
       3.513561603600  0.480201235327E+00
       1.198005027300  0.384382240624E+00
p    1 1.00
       0.265830059130  0.100000000000E+01
p    1 1.00
       0.071003361994  0.100000000000E+01
d    1 1.00
       0.300000000000  0.100000000000E+01

    2 0
s    5 1.00
    2894.832599000000 -0.534932117607E-02
     435.419391200000 -0.399677343716E-01
      98.843328866000 -0.179412617888E+00
      27.485198001000 -0.468324686869E+00
       8.540549817100 -0.447241605328E+00
s    1 1.00
       1.065457803800  0.100000000000E+01
s    1 1.00
       0.332473467480  0.100000000000E+01
p    3 1.00
      22.696633924000 -0.647821482412E-01
       4.987233925700 -0.340357853553E+00
       1.349161395400 -0.734858153660E+00
p    1 1.00
       0.348298819770  0.100000000000E+01
d    1 1.00
       1.400000000000  0.100000000000E+01

    3 0
s    5 1.00
    2894.832599000000 -0.534932117607E-02
     435.419391200000 -0.399677343716E-01
      98.843328866000 -0.179412617888E+00
      27.485198001000 -0.468324686869E+00
       8.540549817100 -0.447241605328E+00
s    1 1.00
       1.065457803800  0.100000000000E+01
s    1 1.00
       0.332473467480  0.100000000000E+01
p    3 1.00
      22.696633924000 -0.647821482412E-01
       4.987233925700 -0.340357853553E+00
       1.349161395400 -0.734858153660E+00
p    1 1.00
       0.348298819770  0.100000000000E+01
d    1 1.00
       1.400000000000  0.100000000000E+01

    4 0
s    5 1.00
    2894.832599000000 -0.534932117607E-02
     435.419391200000 -0.399677343716E-01
      98.843328866000 -0.179412617888E+00
      27.485198001000 -0.468324686869E+00
       8.540549817100 -0.447241605328E+00
s    1 1.00
       1.065457803800  0.100000000000E+01
s    1 1.00
       0.332473467480  0.100000000000E+01
p    3 1.00
      22.696633924000 -0.647821482412E-01
       4.987233925700 -0.340357853553E+00
       1.349161395400 -0.734858153660E+00
p    1 1.00
       0.348298819770  0.100000000000E+01
d    1 1.00
       1.400000000000  0.100000000000E+01

[MO]
Sym=     1a
Ene=   -0.585407E+02
Spin= Alpha
Occup= 2.000000
     1    -0.996092
     2     0.021108
     3     0.038237
     4    -0.006332
     5     0.000628
     6    -0.000060
     7     0.000918
     8     0.000025
     9    -0.000002
    10     0.000035
    11    -0.000003
    12     0.000000
    13    -0.000007
    14    -0.012230
    15    -0.012230
    16    -0.012366
    17    -0.000002
    18     0.000000
    19    -0.000000
    20    -0.000016
    21     0.000238
    22    -0.000697
    23     0.000001
    24     0.000146
    25     0.000003
    26    -0.000001
    27    -0.000043
    28    -0.000003
    29     0.000136
    30     0.000042
    31     0.000141
    32    -0.000000
    33     0.000000
    34    -0.000000
    35    -0.000014
    36     0.000242
    37    -0.000699
    38     0.000126
    39    -0.000073
    40     0.000001
    41    -0.000032
    42     0.000019
    43    -0.000002
    44     0.000067
    45     0.000113
    46     0.000141
    47     0.000046
    48     0.000000
    49    -0.000000
    50    -0.000015
    51     0.000242
    52    -0.000692
    53    -0.000125
    54    -0.000071
    55     0.000000
    56     0.000038
    57     0.000021
    58    -0.000001
    59     0.000064
    60     0.000112
    61     0.000141
    62    -0.000048
    63     0.000000
    64    -0.000000
Sym=     2a
Ene=   -0.262937E+02
Spin= Alpha
Occup= 1.999961
     1     0.000000
     2     0.000037
     3    -0.001289
     4    -0.000171
     5    -0.000038
     6    -0.000074
     7     0.000034
     8     0.000018
     9    -0.000967
    10    -0.000026
    11     0.000029
    12    -0.000697
    13    -0.000020
    14    -0.000126
    15    -0.000765
    16     0.000282
    17     0.000031
    18    -0.000000
    19    -0.000027
    20     0.992606
    21    -0.029015
    22     0.013864
    23    -0.000321
    24    -0.001730
    25     0.000226
    26     0.000238
    27    -0.001242
    28    -0.000163
    29     0.004995
    30     0.005439
    31     0.005006
    32    -0.000005
    33     0.000001
    34     0.000010
    35     0.000005
    36    -0.000075
    37     0.000347
    38    -0.000047
    39     0.000173
    40    -0.000003
    41    -0.000114
    42     0.000209
    43     0.000004
    44    -0.000048
    45    -0.000037
    46    -0.000073
    47     0.000000
    48     0.000001
    49    -0.000000
    50     0.000006
    51    -0.000071
    52     0.000361
    53     0.000046
    54     0.000161
    55    -0.000003
    56     0.000102
    57     0.000222
    58     0.000004
    59    -0.000051
    60    -0.000039
    61    -0.000075
    62    -0.000001
    63     0.000000
    64    -0.000000
Sym=     3a
Ene=   -0.262935E+02
Spin= Alpha
Occup= 1.999960
     1    -0.000008
     2    -0.000019
     3    -0.001406
     4    -0.000138
     5     0.000018
     6    -0.000005
     7     0.000025
     8     0.000912
     9     0.000522
    10     0.000001
    11     0.000594
    12     0.000335
    13     0.000000
    14    -0.000635
    15    -0.000265
    16     0.000288
    17    -0.000346
    18    -0.000000
    19     0.000000
    20     0.000007
    21    -0.000067
    22     0.000352
    23    -0.000119
    24    -0.000117
    25    -0.000001
    26    -0.000131
    27    -0.000198
    28     0.000001
    29    -0.000040
    30    -0.000050
    31    -0.000073
    32     0.000005
    33    -0.000000
    34     0.000001
    35     0.000007
    36    -0.000070
    37     0.000352
    38    -0.000161
    39    -0.000044
    40     0.000000
    41    -0.000240
    42    -0.000007
    43     0.000000
    44    -0.000042
    45    -0.000045
    46    -0.000073
    47     0.000006
    48    -0.000000
    49    -0.000000
    50     0.992689
    51    -0.028836
    52     0.014032
    53     0.001773
    54     0.001099
    55     0.000002
    56     0.000896
    57     0.000469
    58    -0.000002
    59     0.005325
    60     0.005109
    61     0.005008
    62     0.000207
    63    -0.000000
    64    -0.000000
Sym=     4a
Ene=   -0.262935E+02
Spin= Alpha
Occup= 1.999960
     1    -0.000011
     2    -0.000033
     3    -0.001416
     4    -0.000134
     5     0.000031
     6     0.000013
     7     0.000029
     8    -0.000913
     9     0.000532
    10     0.000001
    11    -0.000588
    12     0.000344
    13    -0.000000
    14    -0.000622
    15    -0.000277
    16     0.000289
    17     0.000358
    18     0.000000
    19    -0.000000
    20     0.000005
    21    -0.000069
    22     0.000351
    23     0.000117
    24    -0.000117
    25    -0.000000
    26     0.000128
    27    -0.000202
    28     0.000001
    29    -0.000039
    30    -0.000048
    31    -0.000073
    32    -0.000005
    33     0.000001
    34     0.000001
    35     0.992691
    36    -0.028832
    37     0.014039
    38    -0.001840
    39     0.001020
    40     0.000002
    41    -0.000855
    42     0.000521
    43    -0.000002
    44     0.005319
    45     0.005114
    46     0.005008
    47    -0.000209
    48     0.000000
    49     0.000000
    50     0.000006
    51    -0.000067
    52     0.000352
    53     0.000162
    54    -0.000045
    55     0.000000
    56     0.000237
    57    -0.000011
    58    -0.000001
    59    -0.000043
    60    -0.000045
    61    -0.000073
    62    -0.000007
    63    -0.000000
    64     0.000000
Sym=     5a
Ene=   -0.367906E+01
Spin= Alpha
Occup= 1.999842
     1     0.135250
     2     0.496736
     3    -0.005553
     4     0.003440
     5    -0.776694
     6    -0.333236
     7    -0.192241
     8    -0.031042
     9    -0.013299
    10    -0.007444
    11     0.003899
    12     0.001653
    13     0.001456
    14    -0.001637
    15    -0.003193
    16    -0.002217
    17     0.002287
    18    -0.000016
    19    -0.000006
    20    -0.000196
    21    -0.000444
    22     0.002756
    23     0.000212
    24    -0.000942
    25    -0.000236
    26     0.000599
    27    -0.001799
    28     0.000430
    29     0.000297
    30    -0.001643
    31     0.000294
    32     0.000302
    33     0.000021
    34     0.000044
    35    -0.000304
    36    -0.000820
    37     0.003860
    38    -0.001023
    39     0.000967
    40    -0.000204
    41    -0.002018
    42     0.001682
    43     0.000406
    44    -0.001322
    45    -0.000491
    46     0.000340
    47     0.001380
    48     0.000037
    49    -0.000024
    50     0.000529
    51     0.001234
    52    -0.005121
    53    -0.001262
    54    -0.000642
    55    -0.000229
    56    -0.003197
    57    -0.001997
    58     0.000415
    59     0.001463
    60     0.000474
    61    -0.000119
    62     0.001061
    63    -0.000043
    64    -0.000018
Sym=     6a
Ene=   -0.370889E+01
Spin= Alpha
Occup= 1.999834
     1     0.140726
     2     0.515402
     3    -0.005744
     4     0.003541
     5     0.020643
     6     0.813200
     7    -0.268455
     8     0.000870
     9     0.032601
    10    -0.010420
    11    -0.000131
    12    -0.004086
    13     0.002041
    14    -0.004520
    15    -0.000390
    16    -0.002285
    17    -0.000128
    18    -0.000009
    19     0.000031
    20     0.000502
    21     0.001156
    22    -0.005053
    23     0.000094
    24     0.001519
    25    -0.000267
    26    -0.000069
    27     0.003583
    28     0.000527
    29    -0.000072
    30     0.001949
    31    -0.000114
    32    -0.000010
    33    -0.000027
    34     0.000062
    35    -0.000262
    36    -0.000625
    37     0.003067
    38    -0.000981
    39     0.000295
    40    -0.000286
    41    -0.002094
    42     0.000596
    43     0.000578
    44    -0.001491
    45    -0.000008
    46     0.000306
    47     0.000913
    48     0.000049
    49    -0.000032
    50    -0.000263
    51    -0.000663
    52     0.003353
    53     0.001295
    54     0.000357
    55    -0.000308
    56     0.002085
    57     0.000678
    58     0.000584
    59    -0.001576
    60    -0.000028
    61     0.000320
    62    -0.000985
    63    -0.000050
    64    -0.000032
Sym=     7a
Ene=   -0.371291E+01
Spin= Alpha
Occup= 1.999824
     1     0.141700
     2     0.517774
     3    -0.005959
     4     0.003636
     5     0.599780
     6    -0.452092
     7    -0.409008
     8     0.024023
     9    -0.018194
    10    -0.015855
    11    -0.003001
    12     0.002298
    13     0.003123
    14    -0.001241
    15    -0.003692
    16    -0.002286
    17    -0.001738
    18     0.000038
    19    -0.000023
    20    -0.000217
    21    -0.000598
    22     0.003722
    23    -0.000284
    24    -0.001391
    25    -0.000510
    26    -0.000399
    27    -0.002335
    28     0.000933
    29     0.000339
    30    -0.002049
    31     0.000345
    32    -0.000237
    33     0.000016
    34     0.000087
    35     0.000487
    36     0.001163
    37    -0.004497
    38     0.001084
    39    -0.000650
    40    -0.000550
    41     0.002918
    42    -0.001594
    43     0.000927
    44     0.001289
    45     0.000370
    46    -0.000074
    47    -0.000842
    48     0.000079
    49    -0.000049
    50    -0.000207
    51    -0.000482
    52     0.002439
    53     0.000658
    54     0.000604
    55    -0.000464
    56     0.001142
    57     0.001270
    58     0.000891
    59    -0.000861
    60    -0.000374
    61     0.000272
    62    -0.001034
    63    -0.000077
    64    -0.000044
Sym=     8a
Ene=   -0.373762E+01
Spin= Alpha
Occup= 1.999789
     1     0.146490
     2     0.532178
     3    -0.006307
     4     0.003770
     5     0.121310
     6    -0.036566
     7     0.837180
     8     0.004860
     9    -0.001550
    10     0.032522
    11    -0.000601
    12     0.000199
    13    -0.006397
    14    -0.002278
    15    -0.002558
    16    -0.002355
    17    -0.000355
    18    -0.000021
    19    -0.000001
    20    -0.000071
    21    -0.000134
    22     0.000716
    23    -0.000100
    24    -0.000600
    25     0.000931
    26    -0.000042
    27    -0.000252
    28    -0.001804
    29     0.000212
    30    -0.000758
    31     0.000195
    32    -0.000046
    33     0.000013
    34    -0.000181
    35     0.000050
    36     0.000186
    37    -0.000363
    38    -0.000050
    39    -0.000003
    40     0.001039
    41     0.000320
    42    -0.000207
    43    -0.001889
    44    -0.000154
    45     0.000065
    46     0.000144
    47     0.000200
    48    -0.000159
    49     0.000093
    50    -0.000069
    51    -0.000114
    52     0.001094
    53     0.000374
    54     0.000203
    55     0.000938
    56     0.000539
    57     0.000416
    58    -0.001822
    59    -0.000591
    60    -0.000084
    61     0.000215
    62    -0.000576
    63     0.000166
    64     0.000088
Sym=     9a
Ene=   -0.907019E+00
Spin= Alpha
Occup= 1.989376
     1    -0.008316
     2    -0.053019
     3    -0.095918
     4     0.032017
     5    -0.018718
     6    -0.034624
     7     0.000981
     8     0.044298
     9     0.052910
    10    -0.001596
    11    -0.032302
    12     0.020574
    13    -0.001224
    14     0.017854
    15    -0.027257
    16     0.001367
    17    -0.041233
    18     0.001333
    19     0.000761
    20    -0.000157
    21     0.001869
    22    -0.005012
    23    -0.003012
    24     0.001509
    25    -0.000212
    26     0.013466
    27    -0.005473
    28     0.000261
    29     0.000993
    30     0.000970
    31     0.000957
    32    -0.000851
    33     0.000007
    34     0.000011
    35     0.002592
    36     0.005114
    37     0.008024
    38     0.012188
    39     0.001432
    40    -0.000204
    41    -0.002177
    42    -0.007870
    43     0.000262
    44    -0.001582
    45    -0.000608
    46    -0.000016
    47     0.000736
    48     0.000012
    49    -0.000005
    50     0.168894
    51     0.357796
    52     0.291627
    53     0.506041
    54    -0.166712
    55     0.015329
    56    -0.348466
    57     0.130804
    58    -0.011221
    59    -0.009975
    60     0.010578
    61     0.005510
    62    -0.001111
    63    -0.000330
    64    -0.000208
Sym=    10a
Ene=   -0.901610E+00
Spin= Alpha
Occup= 1.989310
     1     0.007867
     2     0.050130
     3     0.090846
     4    -0.030519
     5     0.021370
     6    -0.031498
     7     0.002941
     8    -0.024520
     9     0.060761
    10    -0.004712
    11    -0.035282
    12    -0.017076
    13    -0.003717
    14    -0.013370
    15     0.022574
    16    -0.001003
    17    -0.044889
    18    -0.000112
    19    -0.004492
    20    -0.166573
    21    -0.352671
    22    -0.285814
    23     0.412214
    24     0.340158
    25     0.045932
    26    -0.298350
    27    -0.227019
    28    -0.033644
    29    -0.005720
    30     0.004964
    31    -0.005471
    32     0.010195
    33    -0.000161
    34     0.000959
    35     0.000269
    36    -0.001582
    37     0.004923
    38    -0.002590
    39    -0.002718
    40    -0.000433
    41     0.011873
    42     0.009271
    43     0.000674
    44    -0.001654
    45    -0.000365
    46    -0.000933
    47    -0.000371
    48     0.000030
    49    -0.000021
    50    -0.002597
    51    -0.004958
    52    -0.008606
    53     0.004663
    54     0.011257
    55    -0.000513
    56     0.006081
    57    -0.006364
    58     0.000665
    59     0.001485
    60     0.000802
    61     0.000086
    62     0.000804
    63    -0.000034
    64    -0.000025
Sym=    11a
Ene=   -0.902265E+00
Spin= Alpha
Occup= 1.989226
     1    -0.007302
     2    -0.046928
     3    -0.086950
     4     0.029717
     5     0.036101
     6     0.004779
     7     0.000390
     8    -0.063041
     9     0.006915
    10    -0.000666
    11    -0.003744
    12    -0.040011
    13    -0.000504
    14    -0.047796
    15     0.039249
    16     0.000801
    17    -0.006201
    18    -0.000532
    19     0.000299
    20     0.002572
    21     0.004842
    22     0.008616
    23    -0.007172
    24     0.009620
    25    -0.000021
    26     0.008715
    27     0.002322
    28     0.000053
    29    -0.000396
    30    -0.001951
    31    -0.000115
    32     0.000034
    33     0.000002
    34     0.000010
    35     0.165972
    36     0.351236
    37     0.284442
    38    -0.068451
    39     0.532689
    40     0.006141
    41     0.033417
    42    -0.375957
    43    -0.004492
    44     0.005764
    45    -0.004655
    46     0.005184
    47     0.010729
    48     0.000145
    49    -0.000068
    50    -0.000346
    51     0.001427
    52    -0.005238
    53     0.001354
    54    -0.003593
    55    -0.000063
    56    -0.002094
    57     0.015222
    58     0.000095
    59     0.000487
    60     0.001639
    61     0.000929
    62     0.000494
    63    -0.000006
    64    -0.000002
Sym=    12a
Ene=   -0.895136E+00
Spin= Alpha
Occup= 1.988926
     1     0.004936
     2     0.032578
     3     0.065553
     4    -0.024251
     5    -0.002780
     6     0.030385
     7     0.000440
     8     0.021383
     9    -0.045687
    10    -0.000689
    11    -0.033299
    12    -0.028454
    13    -0.000541
    14    -0.030951
    15     0.037610
    16     0.000677
    17    -0.037307
    18    -0.000591
    19     0.000321
    20     0.000777
    21    -0.000341
    22     0.005400
    23    -0.004894
    24     0.001404
    25    -0.000076
    26     0.015113
    27     0.006432
    28     0.000091
    29    -0.000903
    30    -0.001480
    31    -0.000845
    32    -0.000735
    33     0.000006
    34     0.000008
    35    -0.160251
    36    -0.338209
    37    -0.268893
    38     0.462052
    39     0.287785
    40     0.006644
    41    -0.321720
    42    -0.215178
    43    -0.004858
    44     0.009906
    45    -0.012351
    46    -0.004399
    47     0.002070
    48     0.000144
    49    -0.000102
    50    -0.002575
    51    -0.004341
    52    -0.010152
    53     0.011098
    54    -0.002152
    55    -0.000048
    56    -0.002815
    57     0.010915
    58     0.000083
    59     0.001538
    60     0.001115
    61     0.000332
    62     0.000773
    63    -0.000008
    64    -0.000003
Sym=    13a
Ene=   -0.898502E+00
Spin= Alpha
Occup= 1.988869
     1    -0.004212
     2    -0.028090
     3    -0.058399
     4     0.022392
     5     0.025291
     6     0.014255
     7     0.001258
     8    -0.029404
     9    -0.035619
    10    -0.002060
    11    -0.041929
    12     0.013973
    13    -0.001442
    14     0.005333
    15    -0.011656
    16    -0.001109
    17    -0.054149
    18    -0.000050
    19    -0.001994
    20     0.161131
    21     0.338008
    22     0.266851
    23     0.489486
    24    -0.236798
    25     0.019169
    26    -0.353468
    27     0.158640
    28    -0.013993
    29     0.004604
    30    -0.001862
    31     0.004470
    32     0.012852
    33    -0.000107
    34     0.000561
    35     0.002534
    36     0.004086
    37     0.010618
    38     0.003450
    39    -0.010534
    40    -0.000221
    41     0.008234
    42     0.008435
    43     0.000295
    44    -0.001862
    45    -0.000842
    46    -0.000410
    47     0.000520
    48     0.000013
    49    -0.000009
    50    -0.000925
    51    -0.000105
    52    -0.005038
    53    -0.000988
    54     0.005718
    55    -0.000266
    56     0.013478
    57    -0.010017
    58     0.000298
    59     0.001899
    60     0.000499
    61     0.000781
    62     0.000016
    63    -0.000014
    64    -0.000012
Sym=    14a
Ene=   -0.891791E+00
Spin= Alpha
Occup= 1.988756
     1    -0.003683
     2    -0.024944
     3    -0.053931
     4     0.021224
     5    -0.023215
     6     0.016646
     7     0.000350
     8     0.043283
     9    -0.009913
    10    -0.000544
    11     0.009960
    12    -0.044167
    13    -0.000408
    14    -0.048237
    15     0.042596
    16    -0.001424
    17     0.020262
    18     0.000463
    19     0.000292
    20     0.002539
    21     0.004013
    22     0.010805
    23     0.007240
    24     0.008066
    25    -0.000083
    26    -0.011648
    27     0.003199
    28     0.000106
    29    -0.000749
    30    -0.002024
    31    -0.000441
    32     0.000277
    33    -0.000006
    34     0.000011
    35    -0.001015
    36    -0.000271
    37    -0.005464
    38    -0.004941
    39    -0.003753
    40    -0.000057
    41     0.002055
    42     0.016916
    43     0.000074
    44     0.000938
    45     0.001562
    46     0.000782
    47    -0.000730
    48     0.000003
    49    -0.000002
    50     0.157228
    51     0.331296
    52     0.260598
    53    -0.060583
    54     0.544564
    55     0.005526
    56     0.054081
    57    -0.387660
    58    -0.004053
    59     0.009627
    60    -0.006483
    61     0.004010
    62    -0.009663
    63    -0.000138
    64    -0.000071
Sym=    15a
Ene=   -0.920623E+00
Spin= Alpha
Occup= 1.985595
     1     0.015022
     2     0.088448
     3     0.118426
     4    -0.023062
     5    -0.003571
     6    -0.075799
     7     0.030323
     8     0.004464
     9     0.102190
    10    -0.051329
    11     0.006215
    12    -0.003284
    13    -0.038757
    14    -0.037891
    15     0.048859
    16    -0.011499
    17     0.007976
    18    -0.000172
    19    -0.049096
    20     0.127120
    21     0.260582
    22     0.157514
    23    -0.069555
    24     0.307104
    25     0.457623
    26     0.050233
    27    -0.198491
    28    -0.334261
    29    -0.002422
    30     0.017024
    31    -0.001525
    32    -0.001810
    33     0.000146
    34     0.012892
    35    -0.001835
    36    -0.005942
    37     0.005648
    38    -0.005482
    39     0.010658
    40    -0.005128
    41    -0.002545
    42    -0.000006
    43     0.007213
    44    -0.000032
    45     0.000191
    46    -0.000977
    47    -0.001495
    48     0.000355
    49    -0.000262
    50    -0.001272
    51    -0.005258
    52     0.008199
    53     0.005246
    54     0.008119
    55    -0.005620
    56    -0.000700
    57     0.002862
    58     0.007570
    59    -0.000591
    60    -0.000015
    61    -0.001159
    62     0.001432
    63    -0.000340
    64    -0.000259
Sym=    16a
Ene=   -0.920425E+00
Spin= Alpha
Occup= 1.985431
     1     0.015135
     2     0.089173
     3     0.119674
     4    -0.023395
     5     0.067414
     6     0.035983
     7    -0.030127
     8    -0.091033
     9    -0.048875
    10     0.051109
    11     0.000730
    12     0.005543
    13     0.038577
    14     0.031778
    15    -0.020613
    16    -0.011496
    17     0.040919
    18    -0.042310
    19    -0.024232
    20    -0.001814
    21    -0.005972
    22     0.005971
    23    -0.006261
    24    -0.010128
    25     0.005021
    26     0.000691
    27    -0.001856
    28    -0.007163
    29    -0.001034
    30     0.001092
    31    -0.001020
    32     0.000884
    33    -0.000045
    34    -0.000438
    35    -0.001405
    36    -0.005471
    37     0.007779
    38    -0.010167
    39     0.000262
    40     0.005616
    41    -0.001932
    42    -0.001394
    43    -0.007556
    44     0.000965
    45    -0.001468
    46    -0.001135
    47    -0.000460
    48    -0.000390
    49     0.000163
    50     0.127026
    51     0.259118
    52     0.156554
    53    -0.244611
    54    -0.198967
    55    -0.457880
    56     0.156112
    57     0.131750
    58     0.334438
    59     0.011357
    60     0.003633
    61    -0.001908
    62     0.010315
    63     0.010763
    64     0.006187
Sym=    17a
Ene=   -0.920104E+00
Spin= Alpha
Occup= 1.985290
     1     0.015648
     2     0.092368
     3     0.124859
     4    -0.024753
     5    -0.067851
     6     0.040148
     7     0.029468
     8     0.092297
     9    -0.054601
    10    -0.050404
    11    -0.004196
    12     0.000564
    13    -0.037972
    14     0.026826
    15    -0.015238
    16    -0.011742
    17    -0.046268
    18    -0.041582
    19     0.024154
    20    -0.001566
    21    -0.005759
    22     0.007341
    23     0.005286
    24    -0.009765
    25    -0.005608
    26     0.001476
    27    -0.001152
    28     0.007509
    29    -0.001183
    30     0.000862
    31    -0.001132
    32    -0.000990
    33    -0.000063
    34     0.000399
    35     0.125433
    36     0.255532
    37     0.152405
    38     0.291945
    39    -0.147918
    40     0.450270
    41    -0.189308
    42     0.094449
    43    -0.328838
    44     0.012997
    45     0.002299
    46    -0.002095
    47    -0.009754
    48     0.010538
    49    -0.006089
    50    -0.001748
    51    -0.006026
    52     0.006682
    53     0.011803
    54    -0.000199
    55    -0.004984
    56     0.001484
    57     0.000574
    58     0.007058
    59     0.001167
    60    -0.001297
    61    -0.001091
    62     0.000574
    63    -0.000395
    64    -0.000173
Sym=    18a
Ene=   -0.919891E+00
Spin= Alpha
Occup= 1.985277
     1    -0.015653
     2    -0.092366
     3    -0.124807
     4     0.024715
     5     0.067529
     6    -0.040808
     7     0.029438
     8    -0.091747
     9     0.055270
    10    -0.050436
    11     0.004714
    12     0.000442
    13    -0.037979
    14    -0.025661
    15     0.014108
    16     0.011724
    17     0.046936
    18    -0.041522
    19     0.024123
    20     0.001542
    21     0.005749
    22    -0.007507
    23    -0.005143
    24     0.009551
    25    -0.005397
    26    -0.001831
    27     0.001051
    28     0.007357
    29     0.001211
    30    -0.000821
    31     0.001147
    32     0.000997
    33    -0.000044
    34     0.000419
    35    -0.125411
    36    -0.255481
    37    -0.152408
    38    -0.297977
    39     0.136522
    40     0.449980
    41     0.193700
    42    -0.086248
    43    -0.328639
    44    -0.013233
    45    -0.002047
    46     0.002090
    47     0.009575
    48     0.010530
    49    -0.006089
    50     0.001782
    51     0.006057
    52    -0.006468
    53    -0.011929
    54     0.000302
    55    -0.005082
    56    -0.001457
    57    -0.000981
    58     0.007135
    59    -0.001197
    60     0.001258
    61     0.001070
    62    -0.000594
    63    -0.000386
    64    -0.000171
Sym=    19a
Ene=   -0.917998E+00
Spin= Alpha
Occup= 1.985145
     1     0.016033
     2     0.094648
     3     0.128323
     4    -0.025635
     5     0.070811
     6     0.038253
     7     0.028972
     8    -0.096612
     9    -0.052435
    10    -0.049617
    11     0.001728
    12     0.005569
    13    -0.037362
    14     0.032919
    15    -0.020921
    16    -0.011886
    17     0.043581
    18     0.041025
    19     0.023497
    20    -0.001859
    21    -0.006215
    22     0.006288
    23    -0.006462
    24    -0.010642
    25    -0.005101
    26     0.000382
    27    -0.001790
    28     0.007094
    29    -0.001088
    30     0.001113
    31    -0.001082
    32     0.000938
    33     0.000040
    34     0.000399
    35    -0.001559
    36    -0.005888
    37     0.007790
    38    -0.011002
    39     0.000285
    40    -0.005365
    41    -0.001859
    42    -0.001385
    43     0.007261
    44     0.001039
    45    -0.001518
    46    -0.001184
    47    -0.000491
    48     0.000378
    49    -0.000160
    50     0.123733
    51     0.251847
    52     0.148585
    53    -0.270018
    54    -0.207043
    55     0.442031
    56     0.172915
    57     0.136657
    58    -0.322816
    59     0.011959
    60     0.003487
    61    -0.002212
    62     0.010800
    63    -0.010329
    64    -0.005947
Sym=    20a
Ene=   -0.916047E+00
Spin= Alpha
Occup= 1.985031
     1     0.016260
     2     0.096039
     3     0.130208
     4    -0.026088
     5    -0.000329
     6    -0.081500
     7    -0.028763
     8     0.000556
     9     0.111273
    10     0.049565
    11     0.000634
    12    -0.004483
    13     0.037211
    14    -0.040645
    15     0.052608
    16    -0.011908
    17     0.000929
    18     0.000064
    19     0.047118
    20     0.122427
    21     0.248843
    22     0.146193
    23    -0.008343
    24     0.344817
    25    -0.439591
    26     0.005965
    27    -0.223402
    28     0.321008
    29    -0.002497
    30     0.017806
    31    -0.002133
    32    -0.000203
    33    -0.000102
    34    -0.011773
    35    -0.001806
    36    -0.006260
    37     0.006918
    38    -0.005974
    39     0.010486
    40     0.004949
    41    -0.000906
    42     0.001260
    43    -0.006966
    44    -0.000305
    45     0.000112
    46    -0.001139
    47    -0.001560
    48    -0.000336
    49     0.000248
    50    -0.001748
    51    -0.006184
    52     0.007146
    53     0.006002
    54     0.010006
    55     0.005318
    56     0.000518
    57     0.001691
    58    -0.007248
    59    -0.000371
    60     0.000091
    61    -0.001151
    62     0.001564
    63     0.000322
    64     0.000246
Sym=    21a
Ene=   -0.207717E-02
Spin= Alpha
Occup= 0.000997
     1     0.002195
     2     0.022278
     3     0.172474
     4    -0.006242
     5     0.001440
     6    -0.004557
     7     0.025202
     8     0.004125
     9     0.038232
    10    -0.077462
    11     0.013731
    12     0.005973
    13     0.057896
    14     0.093944
    15     0.031231
    16    -0.089188
    17    -0.043221
    18    -0.006941
    19    -0.151636
    20     0.023957
    21     0.078315
    22    -0.007462
    23     0.022736
    24     0.082315
    25    -0.021775
    26     0.041017
    27     0.153328
    28     0.073571
    29     0.356049
    30    -0.135821
    31    -0.408069
    32     0.117373
    33    -0.059521
    34     0.835311
    35     0.000745
    36     0.035775
    37    -0.144606
    38     0.002576
    39    -0.008175
    40    -0.010100
    41     0.056979
    42    -0.056224
    43    -0.032174
    44     0.003287
    45     0.003737
    46     0.018779
    47     0.010840
    48     0.008244
    49    -0.002103
    50     0.000764
    51     0.025107
    52    -0.087511
    53    -0.003072
    54    -0.015727
    55    -0.012279
    56    -0.029318
    57    -0.063702
    58    -0.039600
    59     0.006874
    60    -0.006495
    61     0.018732
    62    -0.010587
    63    -0.006249
    64    -0.003026
Sym=    22a
Ene=   -0.202532E-02
Spin= Alpha
Occup= 0.000961
     1     0.002912
     2     0.030139
     3     0.238166
     4    -0.026660
     5     0.005787
     6     0.005076
     7    -0.016153
     8    -0.063563
     9    -0.027600
    10     0.049346
    11    -0.007856
    12     0.012690
    13    -0.057646
    14     0.028630
    15     0.115845
    16    -0.123804
    17     0.006979
    18    -0.090837
    19    -0.034733
    20     0.000331
    21     0.037338
    22    -0.158348
    23     0.004246
    24     0.006868
    25     0.007723
    26     0.014751
    27     0.083977
    28     0.023064
    29     0.012058
    30     0.000567
    31     0.017945
    32    -0.006061
    33     0.000442
    34    -0.006795
    35     0.000360
    36     0.024756
    37    -0.092247
    38     0.014748
    39     0.004730
    40     0.014489
    41     0.070118
    42     0.003386
    43     0.041554
    44    -0.009782
    45     0.010404
    46     0.021279
    47    -0.002358
    48    -0.005264
    49     0.003862
    50     0.023428
    51     0.087257
    52    -0.053130
    53    -0.105091
    54    -0.055490
    55     0.028936
    56    -0.211143
    57    -0.095516
    58    -0.031312
    59     0.228241
    60     0.237434
    61    -0.645498
    62    -0.272036
    63     0.547865
    64     0.461450
Sym=    23a
Ene=   -0.153012E-01
Spin= Alpha
Occup= 0.013773
     1    -0.020612
     2    -0.122339
     3    -0.142369
     4     0.006276
     5     0.109477
     6    -0.066632
     7     0.061361
     8    -0.191704
     9     0.115666
    10    -0.124078
    11    -0.010135
    12     0.012721
    13    -0.072487
    14    -0.055311
    15     0.023802
    16    -0.010191
    17     0.101001
    18    -0.135269
    19     0.080500
    20    -0.001257
    21    -0.011339
    22    -0.001635
    23     0.000452
    24    -0.004315
    25     0.008627
    26     0.026561
    27    -0.028514
    28     0.044495
    29     0.004443
    30    -0.002084
    31    -0.002316
    32    -0.001232
    33     0.000163
    34     0.004166
    35     0.166303
    36     0.725632
    37    -0.443578
    38     0.450801
    39    -0.210277
    40    -0.630433
    41     0.292060
    42    -0.123309
    43    -0.550158
    44    -0.025505
    45    -0.067633
    46     0.003745
    47    -0.029383
    48    -0.063707
    49     0.028676
    50    -0.001111
    51    -0.013275
    52     0.002350
    53     0.001921
    54     0.001217
    55     0.007685
    56     0.040260
    57    -0.017368
    58     0.044680
    59     0.001816
    60    -0.000567
    61    -0.002388
    62    -0.002265
    63    -0.003204
    64    -0.002118
Sym=    24a
Ene=   -0.152953E-01
Spin= Alpha
Occup= 0.013762
     1    -0.020577
     2    -0.121870
     3    -0.140651
     4     0.006313
     5     0.110271
     6    -0.065445
     7    -0.061088
     8    -0.193668
     9     0.113653
    10     0.123283
    11    -0.010568
    12     0.010892
    13     0.072215
    14    -0.060250
    15     0.026282
    16    -0.010406
    17     0.100303
    18     0.136790
    19    -0.080121
    20    -0.001274
    21    -0.012057
    22    -0.000250
    23     0.001718
    24    -0.003593
    25    -0.008570
    26     0.029472
    27    -0.028021
    28    -0.044286
    29     0.003989
    30    -0.001791
    31    -0.002529
    32    -0.000656
    33     0.001886
    34    -0.003246
    35     0.166353
    36     0.725699
    37    -0.442661
    38     0.442430
    39    -0.226222
    40     0.630913
    41     0.283709
    42    -0.137579
    43     0.550567
    44    -0.026902
    45    -0.066405
    46     0.003695
    47    -0.030642
    48     0.062629
    49    -0.031136
    50    -0.001192
    51    -0.013108
    52     0.001547
    53     0.002494
    54     0.001673
    55    -0.008509
    56     0.039323
    57    -0.014998
    58    -0.044797
    59     0.001290
    60    -0.000418
    61    -0.001816
    62    -0.002255
    63     0.003982
    64     0.002220
Sym=    25a
Ene=   -0.151965E-01
Spin= Alpha
Occup= 0.013631
     1     0.019716
     2     0.116175
     3     0.126952
     4    -0.001292
     5     0.109194
     6     0.058511
     7    -0.061153
     8    -0.186626
     9    -0.101409
    10     0.122282
    11    -0.018980
    12    -0.000042
    13     0.072888
    14     0.073941
    15    -0.041253
    16     0.010515
    17     0.084954
    18    -0.137302
    19    -0.076816
    20     0.001230
    21     0.014373
    22    -0.004663
    23     0.000569
    24     0.004067
    25    -0.009518
    26     0.037154
    27     0.027346
    28    -0.046809
    29    -0.002510
    30     0.003029
    31     0.001308
    32    -0.002295
    33     0.000212
    34    -0.004750
    35     0.001249
    36     0.010016
    37     0.004189
    38     0.003978
    39    -0.000598
    40    -0.008700
    41     0.035198
    42     0.008095
    43    -0.044427
    44    -0.000927
    45    -0.002242
    46     0.002269
    47    -0.002218
    48    -0.004034
    49     0.001366
    50    -0.167816
    51    -0.734947
    52     0.458366
    53     0.374982
    54     0.298559
    55     0.643098
    56     0.227497
    57     0.207784
    58     0.564126
    59     0.042535
    60     0.057021
    61    -0.007673
    62    -0.035719
    63    -0.055293
    64    -0.045662
Sym=    26a
Ene=   -0.151887E-01
Spin= Alpha
Occup= 0.013597
     1    -0.019705
     2    -0.116387
     3    -0.134510
     4     0.004560
     5     0.005464
     6     0.124445
     7    -0.060050
     8    -0.007942
     9    -0.221151
    10     0.118508
    11    -0.012492
    12    -0.014415
    13     0.074914
    14     0.077065
    15    -0.114316
    16    -0.007366
    17    -0.019061
    18     0.004587
    19     0.151731
    20     0.168515
    21     0.735775
    22    -0.451110
    23    -0.098443
    24     0.465465
    25     0.642634
    26    -0.092697
    27     0.284708
    28     0.566628
    29    -0.085147
    30    -0.028633
    31     0.019237
    32    -0.016713
    33    -0.010644
    34     0.085052
    35    -0.001203
    36    -0.015005
    37     0.006513
    38    -0.002879
    39     0.002180
    40    -0.008891
    41    -0.003984
    42     0.047027
    43    -0.047460
    44    -0.002046
    45     0.002831
    46    -0.002935
    47     0.000502
    48    -0.003299
    49     0.002338
    50    -0.001282
    51    -0.009351
    52    -0.005925
    53     0.002709
    54     0.003730
    55    -0.008848
    56     0.011236
    57     0.032451
    58    -0.044448
    59     0.000393
    60     0.002842
    61    -0.002112
    62    -0.002307
    63     0.003137
    64     0.003027
Sym=    27a
Ene=   -0.122089E-01
Spin= Alpha
Occup= 0.010239
     1     0.003768
     2     0.026198
     3     0.071696
     4    -0.070811
     5     0.026496
     6    -0.017096
     7    -0.000203
     8    -0.047794
     9    -0.004748
    10    -0.000041
    11     0.012909
    12     0.101665
    13     0.000113
    14     0.083343
    15    -0.075879
    16     0.019248
    17    -0.059025
    18    -0.000320
    19    -0.000953
    20     0.001227
    21     0.025718
    22    -0.049367
    23     0.001281
    24     0.005337
    25    -0.000747
    26     0.049766
    27     0.013533
    28    -0.000699
    29     0.001695
    30     0.003510
    31     0.003139
    32    -0.005187
    33     0.000412
    34    -0.000803
    35    -0.001611
    36    -0.021094
    37     0.028017
    38    -0.011726
    39    -0.004843
    40     0.000199
    41    -0.038478
    42    -0.064689
    43    -0.000002
    44     0.000592
    45    -0.004960
    46    -0.004690
    47     0.004581
    48     0.000135
    49     0.000028
    50     0.193410
    51     0.890525
    52    -0.710735
    53    -0.077640
    54     0.778616
    55     0.007382
    56    -0.048632
    57     0.768390
    58     0.007429
    59    -0.141325
    60     0.093464
    61    -0.135362
    62    -0.039120
    63    -0.000545
    64     0.002387
Sym=    28a
Ene=   -0.211497E-02
Spin= Alpha
Occup= 0.001055
     1    -0.001784
     2    -0.020694
     3    -0.161322
     4     0.064711
     5     0.014818
     6     0.001385
     7     0.005033
     8    -0.010584
     9    -0.047839
    10    -0.014751
    11    -0.032892
    12     0.046006
    13    -0.002281
    14    -0.022283
    15     0.008427
    16     0.031743
    17    -0.263489
    18    -0.003209
    19    -0.033480
    20     0.050728
    21     0.141392
    22     0.108738
    23     0.188416
    24    -0.045645
    25     0.007471
    26     0.341215
    27    -0.089715
    28     0.030407
    29    -0.563418
    30    -0.034489
    31     0.292210
    32     0.764914
    33    -0.099067
    34     0.118153
    35    -0.001362
    36    -0.015093
    37    -0.011343
    38    -0.002520
    39     0.030071
    40     0.000691
    41     0.059636
    42     0.066571
    43     0.000206
    44    -0.032624
    45     0.023479
    46    -0.011339
    47    -0.000732
    48     0.001958
    49     0.000034
    50     0.000927
    51    -0.011305
    52     0.111239
    53     0.004110
    54    -0.025825
    55    -0.001331
    56     0.103158
    57    -0.033487
    58    -0.004680
    59     0.022231
    60    -0.022331
    61    -0.001769
    62     0.005023
    63    -0.001473
    64    -0.001885
Sym=    29a
Ene=   -0.120937E-01
Spin= Alpha
Occup= 0.010087
     1     0.005280
     2     0.035202
     3     0.083356
     4    -0.076274
     5    -0.006439
     6     0.034800
     7     0.000651
     8     0.037192
     9    -0.044077
    10    -0.000956
    11    -0.094509
    12    -0.033708
    13    -0.000974
    14    -0.073297
    15     0.084045
    16     0.019965
    17    -0.048916
    18    -0.001431
    19     0.000137
    20    -0.001567
    21    -0.019051
    22     0.023651
    23     0.009588
    24    -0.006885
    25    -0.000498
    26     0.070215
    27     0.002787
    28     0.000096
    29     0.000104
    30    -0.003781
    31    -0.004554
    32    -0.005596
    33     0.000687
    34     0.000254
    35     0.195891
    36     0.903436
    37    -0.725174
    38    -0.667291
    39    -0.402831
    40    -0.009381
    41    -0.668153
    42    -0.376676
    43    -0.008780
    44     0.024379
    45    -0.074899
    46    -0.139200
    47     0.130499
    48     0.002960
    49     0.001813
    50     0.001338
    51     0.026404
    52    -0.050813
    53    -0.005500
    54    -0.001208
    55     0.000560
    56    -0.039776
    57     0.034076
    58     0.000925
    59    -0.000982
    60     0.005623
    61     0.003533
    62     0.003098
    63    -0.000323
    64     0.000000
Sym=    30a
Ene=   -0.118627E-01
Spin= Alpha
Occup= 0.009791
     1     0.007893
     2     0.050805
     3     0.095775
     4    -0.080466
     5    -0.046123
     6    -0.000964
     7    -0.000623
     8     0.072911
     9    -0.020396
    10     0.001000
    11    -0.030583
    12     0.091621
    13     0.000761
    14     0.072679
    15    -0.063190
    16     0.020340
    17     0.039052
    18     0.001326
    19    -0.000686
    20     0.001712
    21     0.026768
    22    -0.048390
    23    -0.002231
    24     0.007001
    25     0.000074
    26    -0.044790
    27     0.022744
    28    -0.000330
    29    -0.001347
    30     0.003269
    31     0.004518
    32     0.003812
    33    -0.000762
    34    -0.000308
    35     0.200724
    36     0.926471
    37    -0.746577
    38    -0.113500
    39     0.767084
    40     0.008688
    41    -0.127197
    42     0.753724
    43     0.008021
    44    -0.150907
    45     0.092782
    46    -0.147101
    47    -0.032979
    48    -0.000436
    49     0.003420
    50    -0.001170
    51    -0.014543
    52     0.018775
    53     0.008568
    54    -0.006217
    55    -0.000281
    56     0.025406
    57    -0.056857
    58    -0.000668
    59     0.000785
    60    -0.006047
    61    -0.002239
    62    -0.002493
    63     0.000203
    64    -0.000005
Sym=    31a
Ene=   -0.186707E-02
Spin= Alpha
Occup= 0.000922
     1     0.003233
     2     0.012922
     3     0.044283
     4    -0.035271
     5    -0.011476
     6    -0.032002
     7     0.013799
     8     0.007809
     9     0.141465
    10    -0.032125
    11     0.055814
    12     0.002783
    13    -0.029700
    14    -0.068935
    15     0.133546
    16     0.016608
    17     0.179447
    18     0.021133
    19    -0.089716
    20     0.030355
    21     0.156153
    22    -0.208339
    23    -0.035692
    24    -0.059134
    25    -0.014807
    26    -0.135635
    27     0.077639
    28     0.052629
    29    -0.725930
    30     0.386374
    31     0.249234
    32    -0.336687
    33     0.395541
    34     0.383272
    35     0.001661
    36     0.005096
    37     0.052722
    38     0.004116
    39    -0.017789
    40    -0.004035
    41    -0.057856
    42    -0.016028
    43    -0.011942
    44     0.016332
    45    -0.012278
    46     0.002740
    47    -0.011354
    48     0.009050
    49    -0.004701
    50    -0.002031
    51    -0.021043
    52     0.026519
    53    -0.005245
    54     0.024954
    55     0.009824
    56    -0.053672
    57     0.069413
    58     0.019466
    59    -0.023624
    60     0.017482
    61    -0.008215
    62     0.011436
    63    -0.002280
    64    -0.000545
Sym=    32a
Ene=   -0.117669E-01
Spin= Alpha
Occup= 0.009662
     1    -0.009079
     2    -0.057830
     3    -0.103509
     4     0.084366
     5    -0.028832
     6    -0.042243
     7     0.001474
     8     0.060069
     9     0.055006
    10    -0.002308
    11    -0.093748
    12     0.013588
    13    -0.001903
    14     0.052316
    15    -0.062284
    16    -0.021389
    17    -0.045435
    18     0.002348
    19     0.000977
    20     0.000990
    21     0.011897
    22    -0.014260
    23     0.008842
    24     0.003817
    25     0.000053
    26     0.056105
    27    -0.009013
    28     0.001175
    29     0.002321
    30     0.002544
    31     0.001660
    32    -0.004902
    33     0.001094
    34    -0.000419
    35    -0.001657
    36    -0.026077
    37     0.047580
    38    -0.007429
    39     0.001593
    40     0.000559
    41    -0.043559
    42    -0.024266
    43     0.001638
    44     0.000734
    45    -0.002272
    46    -0.004385
    47     0.003603
    48     0.000220
    49    -0.000034
    50    -0.203248
    51    -0.938673
    52     0.757432
    53    -0.738486
    54     0.227023
    55    -0.021041
    56    -0.731759
    57     0.211482
    58    -0.019812
    59    -0.069324
    60     0.130336
    61     0.150414
    62     0.087345
    63    -0.007560
    64     0.002491
Sym=    33a
Ene=   -0.719866E-04
Spin= Alpha
Occup= 0.000013
     1     0.001667
     2     0.027535
     3     0.103018
     4    -0.003784
     5     0.007027
     6    -0.022063
     7     0.001084
     8    -0.078056
     9     0.192599
    10    -0.007024
    11     0.007402
    12    -0.008305
    13     0.006864
    14    -0.110022
    15    -0.010604
    16    -0.015772
    17     0.098213
    18     0.178944
    19    -0.095523
    20    -0.001092
    21     0.025631
    22    -0.122856
    23    -0.012810
    24     0.016814
    25     0.025170
    26    -0.037154
    27     0.082250
    28     0.064910
    29     0.196037
    30    -0.480821
    31     0.312781
    32     0.059404
    33     0.410275
    34    -0.004041
    35     0.000404
    36    -0.031930
    37     0.157673
    38    -0.013860
    39    -0.005105
    40    -0.055842
    41    -0.118734
    42     0.027849
    43    -0.143507
    44     0.025389
    45    -0.031304
    46    -0.018525
    47    -0.022048
    48     0.206479
    49     0.341058
    50     0.000085
    51    -0.003153
    52     0.006422
    53     0.002635
    54    -0.003827
    55     0.031732
    56     0.006916
    57    -0.001120
    58     0.072803
    59    -0.028062
    60     0.011136
    61     0.011815
    62    -0.007098
    63     0.437185
    64    -0.446532
Sym=    34a
Ene=   -0.532170E-04
Spin= Alpha
Occup= 0.000011
     1     0.000271
     2     0.007620
     3     0.048174
     4     0.005011
     5    -0.023253
     6     0.042674
     7     0.006094
     8     0.365551
     9    -0.671971
    10    -0.025847
    11    -0.018306
    12     0.026650
    13     0.027560
    14     1.095368
    15    -1.031563
    16    -0.089894
    17    -0.707466
    18    -0.608036
    19     0.065547
    20     0.000152
    21    -0.169257
    22     0.909197
    23     0.066542
    24    -0.022723
    25    -0.010163
    26     0.279344
    27    -0.626899
    28    -0.036815
    29    -0.133005
    30     0.090719
    31    -0.048753
    32    -0.150385
    33     0.167381
    34     0.003942
    35     0.000315
    36     0.174591
    37    -0.947062
    38    -0.027349
    39    -0.061533
    40     0.132251
    41     0.408049
    42    -0.553538
    43     0.357810
    44     0.008078
    45    -0.001487
    46     0.073645
    47     0.217996
    48    -0.207265
    49    -0.154332
    50    -0.000247
    51     0.007669
    52    -0.044101
    53     0.063450
    54    -0.123545
    55    -0.120930
    56     0.254774
    57    -0.500350
    58    -0.325028
    59     0.152710
    60    -0.184332
    61     0.035595
    62    -0.167526
    63     0.062699
    64    -0.243733
Sym=    35a
Ene=   -0.701477E-04
Spin= Alpha
Occup= 0.000012
     1     0.000361
     2     0.004238
     3     0.029382
     4    -0.013109
     5    -0.012502
     6     0.009796
     7    -0.001646
     8     0.205690
     9    -0.185129
    10     0.005926
    11    -0.010254
    12     0.006801
    13     0.007235
    14     0.342935
    15    -0.376507
    16     0.039000
    17    -0.401568
    18    -0.034562
    19     0.230569
    20    -0.000471
    21    -0.053236
    22     0.293464
    23     0.038125
    24     0.005278
    25    -0.066144
    26     0.159803
    27    -0.191250
    28    -0.166836
    29     0.023817
    30    -0.126411
    31     0.082824
    32    -0.064206
    33     0.219333
    34     0.072880
    35     0.000020
    36     0.074975
    37    -0.403679
    38     0.000127
    39    -0.020045
    40     0.034718
    41     0.205941
    42    -0.199342
    43     0.089284
    44    -0.014707
    45     0.008202
    46     0.045461
    47     0.080677
    48     0.227221
    49     0.579023
    50    -0.000305
    51    -0.018230
    52     0.103992
    53     0.019386
    54    -0.055633
    55     0.021905
    56     0.166605
    57    -0.171017
    58     0.060441
    59     0.117539
    60    -0.090190
    61    -0.029250
    62    -0.055199
    63    -0.394704
    64     0.464440
Sym=    36a
Ene=   -0.699501E-04
Spin= Alpha
Occup= 0.000013
     1     0.001805
     2     0.041131
     3     0.140941
     4     0.014035
     5     0.027441
     6    -0.013879
     7    -0.002767
     8    -0.414813
     9     0.060525
    10     0.022024
    11     0.027196
    12    -0.022982
    13    -0.071862
    14     0.153700
    15    -0.216544
    16    -0.224541
    17     0.732921
    18     0.133689
    19     0.009729
    20    -0.000037
    21    -0.022314
    22     0.106543
    23    -0.068393
    24    -0.002898
    25     0.014174
    26    -0.282855
    27    -0.072634
    28     0.027509
    29     0.145799
    30    -0.463072
    31     0.290560
    32     0.200292
    33     0.381368
    34     0.019683
    35     0.001098
    36    -0.093558
    37     0.468728
    38    -0.068686
    39    -0.035689
    40    -0.015121
    41    -0.439018
    42    -0.038005
    43    -0.042616
    44     0.127622
    45    -0.138076
    46    -0.065445
    47    -0.035888
    48    -0.193910
    49    -0.490231
    50     0.001304
    51     0.085109
    52    -0.494018
    53     0.012349
    54     0.012959
    55     0.039012
    56    -0.286206
    57    -0.125335
    58     0.105936
    59    -0.040375
    60     0.030810
    61     0.019552
    62    -0.080394
    63    -0.216094
    64     0.282429
Sym=    37a
Ene=   -0.852596E-05
Spin= Alpha
Occup= 0.000000
     1     0.000295
     2     0.030083
     3    -0.088272
     4     0.056523
     5     0.022730
     6     0.037805
     7     0.003524
     8    -0.258701
     9    -0.633646
    10    -0.056803
    11     0.059159
    12     0.142444
    13     0.281481
    14     0.746854
    15    -1.290076
    16    -0.022206
    17     0.310101
    18     0.629242
    19    -0.324726
    20     0.001616
    21    -0.197315
    22     1.055047
    23    -0.025298
    24    -0.053128
    25     0.029254
    26    -0.113891
    27    -0.789493
    28     0.091140
    29    -0.229692
    30     0.313282
    31    -0.206193
    32     0.028982
    33    -0.210932
    34    -0.096162
    35     0.003945
    36    -0.036715
    37     0.125428
    38    -0.103385
    39    -0.085152
    40    -0.215981
    41    -0.319072
    42    -0.389461
    43    -0.572260
    44     0.137386
    45    -0.170061
    46    -0.069705
    47     0.092944
    48     0.161468
    49    -0.002195
    50     0.003321
    51     0.043013
    52    -0.306900
    53     0.055229
    54    -0.081470
    55     0.044545
    56    -0.060010
    57    -0.474157
    58     0.130027
    59     0.043704
    60    -0.098046
    61    -0.006636
    62    -0.211899
    63     0.088329
    64     0.065162
Sym=    38a
Ene=   -0.794337E-05
Spin= Alpha
Occup= 0.000000
     1    -0.001891
     2    -0.122440
     3     0.159316
     4    -0.177003
     5    -0.029517
     6     0.000499
     7    -0.005747
     8     0.503848
     9     0.004737
    10     0.034358
    11    -0.095222
    12     0.032666
    13    -0.087595
    14     0.769227
    15     0.852219
    16     0.339109
    17    -0.988884
    18     0.587552
    19     0.214721
    20    -0.010428
    21     0.213102
    22    -0.955721
    23     0.096881
    24     0.129949
    25    -0.044754
    26     0.411723
    27     0.638101
    28    -0.114719
    29     0.156347
    30    -0.033510
    31     0.213540
    32    -0.215316
    33     0.048965
    34     0.048807
    35    -0.009131
    36     0.296112
    37    -1.437255
    38     0.157580
    39    -0.022573
    40    -0.084616
    41     1.019416
    42    -0.326908
    43    -0.229853
    44    -0.136094
    45     0.236982
    46     0.242289
    47     0.162665
    48    -0.043634
    49    -0.307671
    50    -0.011738
    51     0.096142
    52    -0.315630
    53    -0.091648
    54    -0.114908
    55     0.158662
    56    -0.078145
    57    -0.280910
    58     0.425971
    59     0.141637
    60    -0.004424
    61     0.162756
    62    -0.028458
    63     0.108802
    64     0.066659
Sym=    39a
Ene=   -0.105562E-02
Spin= Alpha
Occup= 0.000039
     1     0.001422
     2    -0.017588
     3    -0.321190
     4     0.019837
     5    -0.001024
     6    -0.012922
     7    -0.001597
     8     0.000121
     9    -0.240229
    10     0.003953
    11    -0.001469
    12    -0.067596
    13     0.001180
    14     0.058647
    15    -0.087708
    16     0.103612
    17     0.019671
    18    -0.003207
    19     0.013147
    20     0.625534
    21     1.600954
    22     1.830558
    23    -0.019126
    24    -0.014155
    25    -0.000058
    26    -0.030232
    27    -0.198908
    28    -0.009249
    29    -1.380867
    30    -1.380125
    31    -1.388946
    32    -0.068220
    33    -0.027948
    34    -0.063485
    35     0.001638
    36     0.008418
    37    -0.004841
    38     0.005339
    39    -0.006123
    40     0.001264
    41     0.012665
    42    -0.010915
    43     0.003558
    44    -0.005348
    45     0.000185
    46     0.005544
    47     0.007186
    48    -0.001886
    49     0.000170
    50     0.001699
    51     0.010835
    52    -0.020915
    53    -0.005490
    54    -0.003413
    55    -0.000351
    56    -0.024937
    57    -0.006524
    58    -0.000456
    59    -0.009633
    60     0.002557
    61     0.007072
    62    -0.009986
    63    -0.000732
    64     0.000291
Sym=    40a
Ene=   -0.239457E-05
Spin= Alpha
Occup= 0.000000
     1    -0.000736
     2     0.015940
     3    -0.288364
     4     0.135327
     5    -0.018348
     6    -0.022050
     7     0.016482
     8     0.251875
     9     0.305494
    10    -0.191435
    11    -0.015930
    12     0.185511
    13     0.871847
    14    -0.971868
    15    -0.151258
    16     0.485205
    17    -0.396885
    18    -0.120970
    19    -0.322213
    20    -0.002615
    21     0.026287
    22    -0.139651
    23     0.031060
    24    -0.000605
    25    -0.071793
    26     0.143624
    27    -0.016289
    28    -0.149780
    29     0.103715
    30    -0.081396
    31     0.043927
    32    -0.065881
    33     0.172363
    34    -0.066324
    35     0.002070
    36    -0.099161
    37     0.466010
    38     0.018399
    39     0.028485
    40    -0.160454
    41    -0.107768
    42     0.250822
    43    -0.392971
    44    -0.058517
    45     0.087665
    46    -0.129311
    47    -0.042643
    48    -0.065686
    49    -0.108174
    50     0.002726
    51    -0.203217
    52     1.023248
    53     0.019671
    54     0.008289
    55    -0.208728
    56     0.523030
    57     0.317737
    58    -0.525828
    59     0.044049
    60    -0.032823
    61    -0.173619
    62     0.115348
    63    -0.100700
    64     0.083548
Sym=    41a
Ene=   -0.154178E-01
Spin= Alpha
Occup= 0.013973
     1     0.021807
     2     0.130505
     3     0.172755
     4    -0.020046
     5    -0.001043
     6    -0.136677
     7    -0.061095
     8     0.002636
     9     0.263406
    10     0.124953
    11     0.002017
    12     0.007479
    13     0.070671
    14    -0.094208
    15     0.133980
    16     0.006573
    17     0.001818
    18     0.001322
    19     0.157113
    20    -0.163296
    21    -0.702159
    22     0.392407
    23     0.012546
    24    -0.518282
    25     0.615584
    26     0.011721
    27    -0.308033
    28     0.534435
    29     0.065862
    30     0.030004
    31    -0.003457
    32     0.003917
    33     0.002696
    34     0.066827
    35     0.001184
    36     0.012372
    37     0.002238
    38     0.002986
    39    -0.000917
    40    -0.007917
    41     0.007546
    42    -0.038023
    43    -0.044217
    44     0.001066
    45    -0.003053
    46     0.002272
    47    -0.001248
    48    -0.003354
    49     0.002062
    50     0.001235
    51     0.011146
    52     0.006470
    53    -0.002469
    54    -0.002885
    55    -0.007621
    56    -0.006630
    57    -0.037487
    58    -0.042989
    59    -0.000110
    60    -0.003245
    61     0.002781
    62     0.003109
    63     0.002605
    64     0.002638
Sym=    42a
Ene=   -0.153781E-01
Spin= Alpha
Occup= 0.013893
     1     0.021123
     2     0.125142
     3     0.148653
     4    -0.009233
     5     0.115950
     6     0.062544
     7     0.060889
     8    -0.207495
     9    -0.113400
    10    -0.123665
    11    -0.015541
    12     0.001249
    13    -0.072016
    14     0.079818
    15    -0.040377
    16     0.010393
    17     0.093073
    18     0.137741
    19     0.075925
    20     0.000956
    21     0.013618
    22    -0.004440
    23    -0.000907
    24     0.002377
    25     0.006932
    26     0.035986
    27     0.027587
    28     0.043739
    29    -0.002007
    30     0.001698
    31     0.002108
    32    -0.002915
    33    -0.000627
    34     0.002688
    35     0.001164
    36     0.010414
    37     0.003536
    38     0.003372
    39    -0.000964
    40     0.007918
    41     0.037096
    42     0.008359
    43     0.042872
    44    -0.000907
    45    -0.002260
    46     0.002472
    47    -0.002531
    48     0.003795
    49    -0.001417
    50    -0.164721
    51    -0.715536
    52     0.425973
    53     0.410681
    54     0.309835
    55    -0.618201
    56     0.248344
    57     0.210614
    58    -0.537392
    59     0.035843
    60     0.053012
    61    -0.000824
    62    -0.038052
    63     0.053750
    64     0.042397
Sym=    43a
Ene=   -0.201289E-02
Spin= Alpha
Occup= 0.000950
     1     0.002703
     2     0.027620
     3     0.230911
     4    -0.024116
     5    -0.007338
     6     0.002956
     7     0.015066
     8     0.060752
     9    -0.035719
    10    -0.045796
    11    -0.005394
    12    -0.006679
    13     0.057376
    14     0.088094
    15     0.073483
    16    -0.126962
    17     0.027632
    18    -0.070580
    19     0.052296
    20     0.000644
    21     0.030394
    22    -0.116043
    23    -0.008833
    24     0.010518
    25    -0.012170
    26    -0.031033
    27     0.070642
    28    -0.036295
    29     0.005080
    30     0.001805
    31     0.016845
    32     0.012729
    33    -0.000225
    34     0.003444
    35     0.024308
    36     0.091971
    37    -0.059924
    38     0.103953
    39    -0.059329
    40    -0.034419
    41     0.199678
    42    -0.124524
    43     0.020312
    44     0.093271
    45     0.414036
    46    -0.688254
    47     0.176972
    48     0.634189
    49    -0.267120
    50     0.000231
    51     0.034182
    52    -0.144170
    53    -0.008339
    54     0.002640
    55    -0.008643
    56    -0.076330
    57    -0.019527
    58    -0.025162
    59    -0.005972
    60     0.011564
    61     0.023315
    62    -0.002828
    63    -0.003409
    64    -0.004190
Sym=    44a
Ene=   -0.201131E-02
Spin= Alpha
Occup= 0.000948
     1    -0.002931
     2    -0.030424
     3    -0.240334
     4     0.026089
     5     0.006650
     6    -0.003013
     7     0.015075
     8    -0.056582
     9     0.035259
    10    -0.045583
    11     0.004796
    12     0.005340
    13     0.057245
    14    -0.078568
    15    -0.069050
    16     0.127709
    17    -0.027701
    18    -0.071868
    19     0.045292
    20    -0.000237
    21    -0.028934
    22     0.115796
    23     0.008891
    24    -0.009109
    25    -0.011128
    26     0.030413
    27    -0.068179
    28    -0.032129
    29    -0.007533
    30     0.003900
    31    -0.021923
    32    -0.010364
    33     0.009694
    34     0.008437
    35    -0.024245
    36    -0.090280
    37     0.053386
    38    -0.103363
    39     0.060272
    40    -0.034923
    41    -0.196706
    42     0.122318
    43     0.018905
    44    -0.108664
    45    -0.401607
    46     0.692221
    47    -0.188346
    48     0.616740
    49    -0.302981
    50    -0.000283
    51    -0.034176
    52     0.142277
    53     0.009338
    54    -0.002291
    55    -0.010121
    56     0.077207
    57     0.019217
    58    -0.028653
    59     0.006097
    60    -0.011937
    61    -0.022925
    62     0.002964
    63    -0.002656
    64    -0.005058
Sym=    45a
Ene=   -0.199560E-02
Spin= Alpha
Occup= 0.000937
     1     0.003030
     2     0.029867
     3     0.244603
     4    -0.032532
     5     0.009902
     6     0.007307
     7     0.011916
     8    -0.090917
     9    -0.043332
    10    -0.034991
    11    -0.005888
    12     0.016370
    13     0.056261
    14     0.048567
    15     0.113189
    16    -0.129612
    17     0.024406
    18     0.068075
    19     0.021593
    20     0.000168
    21     0.034689
    22    -0.149527
    23     0.003937
    24     0.005459
    25    -0.007278
    26     0.011832
    27     0.076489
    28    -0.020713
    29     0.011132
    30    -0.001959
    31     0.019835
    32    -0.004542
    33    -0.006633
    34     0.000598
    35     0.000015
    36     0.021075
    37    -0.082796
    38     0.012726
    39     0.004403
    40    -0.014503
    41     0.061845
    42     0.001856
    43    -0.039714
    44    -0.008365
    45     0.007838
    46     0.021396
    47    -0.003184
    48     0.003862
    49    -0.003912
    50     0.025111
    51     0.104337
    52    -0.098473
    53    -0.109955
    54    -0.058028
    55    -0.044589
    56    -0.239888
    57    -0.113303
    58    -0.001646
    59     0.302401
    60     0.251506
    61    -0.727176
    62    -0.228688
    63    -0.472199
    64    -0.457200
Sym=    46a
Ene=   -0.171479E-02
Spin= Alpha
Occup= 0.000808
     1     0.003003
     2     0.028032
     3     0.219949
     4    -0.049769
     5    -0.000731
     6    -0.021432
     7     0.004301
     8     0.014084
     9     0.172304
    10    -0.014694
    11     0.062187
    12    -0.003448
    13    -0.043862
    14    -0.039404
    15     0.140018
    16    -0.109197
    17    -0.034985
    18     0.056610
    19    -0.031007
    20     0.019378
    21     0.110141
    22    -0.200728
    23     0.054419
    24     0.122632
    25     0.056139
    26     0.065505
    27     0.314096
    28     0.079233
    29     0.109699
    30     0.445517
    31    -0.655792
    32     0.325625
    33     0.585271
    34    -0.229096
    35     0.000496
    36     0.024226
    37    -0.089910
    38     0.000983
    39     0.001478
    40    -0.006962
    41     0.023721
    42    -0.001466
    43    -0.019425
    44    -0.002623
    45     0.007473
    46     0.015703
    47    -0.003914
    48     0.007699
    49    -0.005254
    50    -0.002044
    51    -0.019214
    52     0.050764
    53    -0.002496
    54     0.001019
    55     0.022682
    56     0.000696
    57     0.015588
    58     0.054107
    59    -0.002888
    60    -0.005583
    61     0.006204
    62     0.007339
    63     0.004776
    64     0.003388
Sym=    47a
Ene=   -0.197144E-02
Spin= Alpha
Occup= 0.001004
     1     0.005901
     2     0.043107
     3     0.274570
     4    -0.124336
     5     0.040841
     6     0.011385
     7    -0.001312
     8    -0.222849
     9    -0.132147
    10     0.003892
    11     0.054691
    12     0.032747
    13    -0.000071
    14     0.261911
    15    -0.177681
    16    -0.025192
    17     0.004251
    18    -0.003125
    19    -0.001206
    20     0.001230
    21     0.000151
    22     0.070661
    23     0.013056
    24     0.019355
    25    -0.000662
    26     0.041917
    27    -0.032856
    28    -0.001554
    29    -0.015032
    30     0.017973
    31     0.003413
    32    -0.020046
    33     0.007173
    34    -0.004125
    35     0.000510
    36     0.016659
    37    -0.087231
    38    -0.014788
    39    -0.021732
    40    -0.000053
    41     0.000883
    42    -0.103734
    43    -0.000242
    44     0.014470
    45    -0.014793
    46     0.003291
    47     0.020342
    48     0.000033
    49     0.000115
    50    -0.032100
    51    -0.005634
    52    -0.396327
    53     0.077293
    54    -0.150216
    55     0.001176
    56    -0.060102
    57    -0.375675
    58    -0.001762
    59    -0.327905
    60     0.779935
    61    -0.159247
    62     0.609718
    63     0.005727
    64     0.027116
Sym=    48a
Ene=   -0.120938E-01
Spin= Alpha
Occup= 0.010076
     1    -0.004463
     2    -0.030425
     3    -0.078729
     4     0.074482
     5     0.026406
     6     0.018530
     7     0.002474
     8    -0.018157
     9    -0.051512
    10    -0.004757
    11    -0.077007
    12     0.063401
    13    -0.002653
    14    -0.006024
    15    -0.002840
    16    -0.019459
    17    -0.095784
    18     0.000576
    19    -0.006960
    20    -0.197138
    21    -0.907950
    22     0.726419
    23    -0.700844
    24     0.346906
    25    -0.027452
    26    -0.683672
    27     0.362006
    28    -0.024085
    29    -0.048114
    30     0.102688
    31     0.137239
    32     0.091556
    33    -0.000500
    34     0.007634
    35    -0.001350
    36    -0.025951
    37     0.050656
    38    -0.004002
    39     0.003939
    40     0.000340
    41     0.008977
    42     0.048492
    43     0.001400
    44    -0.005572
    45     0.001438
    46    -0.003653
    47    -0.000914
    48     0.000196
    49    -0.000013
    50     0.001572
    51     0.020310
    52    -0.029183
    53    -0.001546
    54    -0.012473
    55     0.000879
    56     0.033552
    57    -0.062676
    58     0.002405
    59     0.006147
    60    -0.002416
    61     0.004951
    62    -0.000152
    63    -0.000124
    64    -0.000268
Sym=    49a
Ene=   -0.194492E-02
Spin= Alpha
Occup= 0.000987
     1    -0.007121
     2    -0.050058
     3    -0.324931
     4     0.150698
     5     0.041072
     6    -0.031749
     7     0.000234
     8    -0.279245
     9     0.154574
    10    -0.000951
    11     0.052992
    12    -0.037994
    13     0.000597
    14    -0.005644
    15    -0.103544
    16     0.025944
    17     0.223487
    18     0.002442
    19    -0.002439
    20    -0.000538
    21    -0.015822
    22     0.068712
    23    -0.020037
    24    -0.003096
    25     0.001413
    26    -0.072914
    27    -0.043890
    28     0.002584
    29    -0.003409
    30    -0.002659
    31    -0.000354
    32     0.029554
    33    -0.002096
    34    -0.000075
    35     0.028246
    36    -0.028461
    37     0.478673
    38    -0.094206
    39    -0.122377
    40    -0.002483
    41    -0.396242
    42    -0.061151
    43    -0.004290
    44    -0.983411
    45     0.561157
    46     0.130105
    47    -0.020312
    48    -0.008720
    49     0.006496
    50    -0.000577
    51     0.002972
    52    -0.064976
    53     0.019839
    54     0.001846
    55     0.000103
    56    -0.010059
    57    -0.030347
    58     0.000475
    59     0.000989
    60    -0.000796
    61    -0.006249
    62    -0.021615
    63     0.001131
    64     0.000543
Sym=    50a
Ene=   -0.192960E-02
Spin= Alpha
Occup= 0.000984
     1     0.007592
     2     0.049403
     3     0.342475
     4    -0.164918
     5    -0.054718
     6     0.028500
     7    -0.000687
     8     0.332456
     9    -0.185238
    10     0.002594
    11    -0.070447
    12     0.017950
    13    -0.001579
    14     0.204436
    15    -0.052870
    16    -0.025650
    17    -0.159807
    18    -0.001554
    19     0.001675
    20     0.000212
    21    -0.003495
    22     0.041582
    23     0.005071
    24     0.013702
    25    -0.000070
    26     0.025242
    27    -0.004717
    28    -0.001027
    29    -0.012870
    30     0.012345
    31     0.002267
    32    -0.004378
    33     0.002172
    34    -0.002465
    35    -0.024092
    36     0.062344
    37    -0.560310
    38    -0.030062
    39    -0.129807
    40    -0.001416
    41     0.259190
    42    -0.345321
    43    -0.001153
    44     0.110272
    45     0.271804
    46    -0.096723
    47    -0.892260
    48    -0.010082
    49    -0.000845
    50     0.001404
    51     0.012457
    52    -0.019712
    53    -0.000394
    54    -0.017662
    55    -0.000412
    56     0.014504
    57    -0.051825
    58    -0.000820
    59     0.011782
    60    -0.015080
    61     0.005911
    62    -0.007287
    63    -0.000658
    64    -0.000556
Sym=    51a
Ene=   -0.118321E-01
Spin= Alpha
Occup= 0.009768
     1    -0.008676
     2    -0.055545
     3    -0.107661
     4     0.086349
     5    -0.022402
     6     0.044483
     7    -0.004241
     8     0.016903
     9    -0.087107
    10     0.006159
    11     0.061156
    12     0.075472
    13     0.006175
    14     0.003147
    15    -0.017794
    16    -0.019415
    17     0.078072
    18    -0.000612
    19     0.009553
    20    -0.201052
    21    -0.931632
    22     0.762212
    23     0.587952
    24     0.502941
    25     0.064211
    26     0.573506
    27     0.496840
    28     0.059836
    29     0.011088
    30     0.043797
    31     0.149069
    32    -0.131020
    33    -0.024987
    34    -0.016238
    35     0.001033
    36     0.013149
    37    -0.018407
    38    -0.001156
    39    -0.009889
    40    -0.000690
    41    -0.034898
    42    -0.047302
    43    -0.003348
    44     0.005667
    45    -0.000950
    46     0.002406
    47     0.001882
    48    -0.000342
    49     0.000147
    50    -0.001656
    51    -0.026297
    52     0.048619
    53     0.005101
    54     0.005467
    55    -0.001567
    56     0.000605
    57     0.048376
    58    -0.004895
    59    -0.003718
    60     0.002178
    61    -0.004587
    62    -0.001107
    63     0.000298
    64     0.000389
Sym=    52a
Ene=   -0.190055E-02
Spin= Alpha
Occup= 0.000962
     1     0.007017
     2     0.040340
     3     0.305318
     4    -0.159047
     5     0.056014
     6     0.030071
     7    -0.002570
     8    -0.332116
     9    -0.195814
    10     0.007235
    11     0.043168
    12     0.059027
    13     0.001983
    14     0.206169
    15    -0.016808
    16    -0.015708
    17     0.177778
    18    -0.008416
    19    -0.004520
    20     0.001670
    21     0.012735
    22    -0.003564
    23    -0.007050
    24     0.011554
    25    -0.000071
    26    -0.027612
    27     0.001164
    28    -0.000939
    29    -0.008431
    30     0.008638
    31     0.004655
    32     0.013929
    33    -0.002119
    34    -0.003818
    35    -0.000706
    36    -0.006821
    37     0.026238
    38     0.001275
    39    -0.015176
    40    -0.001010
    41    -0.019848
    42    -0.046923
    43    -0.001746
    44     0.010814
    45    -0.014513
    46     0.004850
    47    -0.002151
    48    -0.000368
    49     0.000086
    50    -0.018231
    51     0.084458
    52    -0.569788
    53    -0.085852
    54     0.071652
    55    -0.000870
    56    -0.406671
    57    -0.111011
    58    -0.009384
    59     0.769743
    60    -0.439396
    61    -0.073577
    62     0.572012
    63     0.060461
    64     0.008536
Sym=    53a
Ene=   -0.861004E-03
Spin= Alpha
Occup= 0.000198
     1    -0.073700
     2    -0.861177
     3    -3.555777
     4     0.606341
     5    -0.045661
     6     0.014819
     7    -0.293725
     8     0.320250
     9    -0.099214
    10     1.071920
    11    -0.033931
    12     0.019014
    13    -0.391771
    14     1.263476
    15     1.188173
    16     1.128717
    17    -0.104698
    18    -0.006863
    19    -0.011441
    20    -0.002773
    21    -0.073918
    22     0.159939
    23    -0.001453
    24    -0.070953
    25    -0.145424
    26    -0.010980
    27    -0.133757
    28    -0.307394
    29    -0.026543
    30     0.017288
    31    -0.060981
    32     0.022581
    33     0.038866
    34     0.106321
    35    -0.002378
    36     0.006011
    37    -0.163110
    38    -0.034263
    39     0.015904
    40    -0.150739
    41     0.098271
    42    -0.069849
    43    -0.318416
    44     0.000646
    45     0.001033
    46    -0.004948
    47     0.013919
    48     0.076546
    49    -0.037764
    50    -0.007305
    51    -0.113495
    52     0.254936
    53     0.080342
    54     0.052370
    55    -0.153025
    56     0.187135
    57     0.117348
    58    -0.325496
    59     0.014911
    60    -0.014861
    61    -0.068741
    62     0.056858
    63    -0.061037
    64    -0.054214
Sym=    54a
Ene=   -0.738495E-03
Spin= Alpha
Occup= 0.000166
     1     0.071419
     2     0.831910
     3     3.476988
     4    -0.595853
     5     0.230008
     6    -0.177256
     7    -0.145425
     8    -1.585068
     9     1.237895
    10     0.530430
    11     0.191548
    12    -0.162054
    13    -0.189864
    14    -1.494483
    15    -0.760496
    16    -1.144716
    17     0.456834
    18    -0.040107
    19     0.025128
    20     0.011191
    21     0.321282
    22    -1.060218
    23     0.042966
    24     0.194568
    25    -0.085944
    26     0.114733
    27     0.873281
    28    -0.181088
    29     0.120247
    30    -0.044349
    31     0.142703
    32    -0.074306
    33    -0.046061
    34     0.037134
    35    -0.011386
    36    -0.340160
    37     1.316383
    38    -0.112665
    39     0.064550
    40    -0.064066
    41    -0.935901
    42     0.555472
    43    -0.128713
    44     0.111564
    45    -0.093467
    46    -0.199560
    47    -0.201248
    48     0.028555
    49    -0.017576
    50     0.011431
    51     0.229751
    52    -0.669274
    53    -0.103144
    54    -0.113740
    55    -0.079362
    56    -0.423732
    57    -0.366926
    58    -0.172279
    59    -0.021726
    60    -0.005160
    61     0.164815
    62    -0.154700
    63    -0.041326
    64    -0.029826
Sym=    55a
Ene=   -0.699050E-03
Spin= Alpha
Occup= 0.000154
     1    -0.069584
     2    -0.821963
     3    -3.370179
     4     0.532594
     5    -0.007516
     6    -0.317949
     7     0.095982
     8     0.059895
     9     2.188316
    10    -0.350924
    11    -0.020062
    12    -0.274517
    13     0.132737
    14     0.596044
    15     1.725032
    16     1.153857
    17    -0.060217
    18    -0.008305
    19     0.040969
    20     0.008872
    21     0.386379
    22    -1.524475
    23     0.001099
    24     0.163839
    25     0.035285
    26     0.017758
    27     1.259260
    28     0.071169
    29     0.181224
    30    -0.110830
    31     0.183734
    32    -0.015836
    33    -0.085216
    34    -0.041294
    35    -0.012929
    36    -0.273977
    37     0.831302
    38    -0.167902
    39     0.038709
    40     0.056220
    41    -0.646325
    42     0.235884
    43     0.121377
    44     0.135580
    45    -0.112691
    46    -0.185791
    47    -0.113947
    48    -0.030696
    49     0.016855
    50    -0.011205
    51    -0.284848
    52     0.917455
    53     0.165754
    54     0.037906
    55     0.048213
    56     0.713819
    57     0.255864
    58     0.106519
    59     0.126926
    60    -0.110698
    61    -0.195803
    62     0.112611
    63     0.031108
    64     0.014380
Sym=    56a
Ene=   -0.657518E-03
Spin= Alpha
Occup= 0.000145
     1    -0.066898
     2    -0.782382
     3    -3.260484
     4     0.543482
     5     0.301834
     6     0.129656
     7     0.068904
     8    -2.096946
     9    -0.877074
    10    -0.250456
    11     0.263567
    12     0.106254
    13     0.085755
    14     1.237050
    15     0.882178
    16     1.100627
    17     0.655825
    18    -0.015353
    19    -0.009884
    20    -0.009276
    21    -0.243875
    22     0.755586
    23     0.047216
    24    -0.159239
    25     0.038526
    26     0.118992
    27    -0.620104
    28     0.083918
    29    -0.087635
    30     0.045219
    31    -0.130130
    32    -0.095873
    33     0.069987
    34    -0.006809
    35    -0.013735
    36    -0.346008
    37     1.139372
    38    -0.141735
    39     0.140602
    40     0.037570
    41    -0.734732
    42     0.583724
    43     0.081600
    44     0.061697
    45    -0.036510
    46    -0.236416
    47    -0.219665
    48    -0.019014
    49     0.010017
    50     0.012449
    51     0.395823
    52    -1.513973
    53    -0.140388
    54    -0.086651
    55     0.034880
    56    -1.092748
    57    -0.620459
    58     0.068962
    59    -0.115790
    60     0.103194
    61     0.240560
    62    -0.237292
    63     0.005319
    64     0.013627
Sym=    57a
Ene=   -0.106701E-02
Spin= Alpha
Occup= 0.000040
     1     0.001699
     2    -0.019004
     3    -0.324351
     4     0.012087
     5    -0.013490
     6     0.007860
     7    -0.000442
     8    -0.199052
     9     0.120058
    10     0.001509
    11    -0.056732
    12     0.032067
    13    -0.000253
    14    -0.043703
    15     0.035259
    16     0.115469
    17     0.052162
    18    -0.002787
    19     0.002367
    20     0.001637
    21     0.010998
    22    -0.019186
    23     0.001493
    24     0.008832
    25    -0.000692
    26     0.011468
    27     0.029106
    28    -0.002082
    29     0.003549
    30    -0.006582
    31     0.004635
    32    -0.001518
    33    -0.004498
    34    -0.002685
    35     0.627167
    36     1.615582
    37     1.796722
    38    -0.019142
    39     0.014671
    40     0.000570
    41    -0.161293
    42     0.103427
    43     0.001719
    44    -1.326732
    45    -1.474978
    46    -1.341987
    47    -0.097782
    48    -0.002141
    49    -0.003239
    50     0.001710
    51     0.008848
    52    -0.004911
    53    -0.007722
    54    -0.004117
    55    -0.000483
    56    -0.014345
    57    -0.013651
    58    -0.001285
    59    -0.002901
    60    -0.001347
    61     0.004551
    62    -0.007838
    63    -0.001141
    64    -0.000536
Sym=    58a
Ene=   -0.106720E-02
Spin= Alpha
Occup= 0.000040
     1    -0.001371
     2     0.022276
     3     0.338625
     4    -0.017020
     5    -0.013462
     6    -0.007719
     7     0.000329
     8    -0.204617
     9    -0.108727
    10    -0.001212
    11    -0.057017
    12    -0.032765
    13     0.001106
    14     0.011900
    15    -0.014271
    16    -0.115821
    17     0.069181
    18    -0.003067
    19    -0.000907
    20    -0.001692
    21    -0.007775
    22     0.000014
    23    -0.000731
    24    -0.008475
    25     0.000423
    26     0.003088
    27    -0.015837
    28     0.000950
    29     0.000224
    30    -0.000729
    31     0.000812
    32     0.000350
    33    -0.002888
    34     0.001992
    35    -0.001714
    36    -0.012018
    37     0.024476
    38    -0.006111
    39     0.005383
    40     0.000584
    41    -0.020299
    42     0.026577
    43     0.001500
    44     0.005455
    45     0.001552
    46    -0.008066
    47    -0.013161
    48    -0.000234
    49     0.000625
    50    -0.627174
    51    -1.615165
    52    -1.797117
    53    -0.024956
    54    -0.006148
    55    -0.001755
    56    -0.175128
    57    -0.081952
    58    -0.003181
    59     1.396665
    60     1.405717
    61     1.342357
    62    -0.123252
    63     0.001815
    64    -0.001538
Sym=    59a
Ene=   -0.596613E-05
Spin= Alpha
Occup= 0.000000
     1    -0.000203
     2     0.026106
     3    -0.138832
     4     0.054366
     5     0.011433
     6     0.017593
     7     0.008518
     8    -0.204338
     9    -0.152881
    10    -0.095559
    11     0.023652
    12     0.025426
    13     0.427134
    14    -0.235322
    15    -0.480594
    16     0.104982
    17     0.395995
    18     0.098682
    19     0.959458
    20     0.003117
    21    -0.105690
    22     0.502358
    23    -0.025077
    24    -0.028786
    25    -0.298455
    26    -0.145519
    27    -0.325298
    28    -0.788240
    29    -0.087595
    30     0.112532
    31    -0.144790
    32     0.109616
    33    -0.003007
    34     0.250296
    35     0.002356
    36    -0.106688
    37     0.528675
    38    -0.041639
    39    -0.010609
    40     0.024492
    41    -0.359496
    42     0.068899
    43     0.081915
    44     0.063147
    45    -0.072817
    46    -0.094803
    47    -0.037268
    48    -0.132313
    49    -0.018048
    50     0.002750
    51    -0.021449
    52     0.052327
    53     0.012361
    54     0.021202
    55     0.060807
    56    -0.020854
    57     0.040934
    58     0.186740
    59    -0.038736
    60     0.023045
    61    -0.058959
    62    -0.022048
    63     0.233183
    64    -0.079175
Sym=    60a
Ene=   -0.336443E-05
Spin= Alpha
Occup= 0.000000
     1    -0.003906
     2    -0.199766
     3     0.150048
     4    -0.280217
     5     0.025121
     6     0.012143
     7     0.001955
     8    -0.431452
     9    -0.155041
    10    -0.039152
    11     0.054317
    12     0.068583
    13     0.200581
    14     1.415591
    15     0.980080
    16     0.582801
    17     0.839281
    18    -0.271425
    19    -0.058971
    20    -0.016538
    21     0.268387
    22    -1.168775
    23    -0.080884
    24     0.205928
    25    -0.017169
    26    -0.341651
    27     0.798046
    28    -0.044366
    29     0.147979
    30     0.118115
    31     0.224119
    32     0.200637
    33    -0.062943
    34    -0.054883
    35    -0.015209
    36     0.213596
    37    -0.868556
    38     0.135888
    39    -0.155770
    40     0.015078
    41     0.405689
    42    -0.547653
    43     0.048686
    44     0.142477
    45     0.030145
    46     0.268560
    47     0.098251
    48     0.001633
    49     0.125509
    50    -0.014182
    51     0.393721
    52    -1.872791
    53    -0.184804
    54    -0.095455
    55    -0.095917
    56    -1.196975
    57    -0.614511
    58    -0.252678
    59    -0.051453
    60     0.210510
    61     0.344041
    62    -0.230111
    63    -0.048948
    64    -0.033218
Sym=    61a
Ene=    0.000000E+00
Spin= Alpha
Occup= 0.000000
     1    -0.000946
     2    -0.098272
     3     0.320832
     4    -1.625575
     5     0.004929
     6    -0.000095
     7     0.013983
     8    -0.089399
     9     0.002721
    10    -0.104104
    11    -0.535378
    12    -0.181258
    13     0.360401
    14     0.565314
    15     0.631966
    16     0.008174
    17     0.119017
    18     0.005226
    19    -0.033014
    20     0.015256
    21    -0.151293
    22     0.594797
    23     0.059572
    24    -0.000862
    25    -0.049972
    26     0.158336
    27     0.206548
    28    -0.116490
    29    -0.140311
    30    -0.192733
    31    -0.085401
    32    -0.010468
    33     0.015284
    34    -0.007583
    35     0.018069
    36    -0.219731
    37     0.915807
    38     0.024923
    39     0.047304
    40    -0.059715
    41     0.179045
    42     0.073581
    43    -0.148530
    44    -0.256051
    45    -0.164433
    46    -0.099537
    47     0.046451
    48    -0.000439
    49     0.024900
    50     0.004328
    51     0.029810
    52    -0.209006
    53     0.000574
    54    -0.005360
    55    -0.056411
    56    -0.235488
    57    -0.140077
    58    -0.141235
    59    -0.104040
    60    -0.030527
    61     0.051390
    62    -0.047149
    63     0.004163
    64     0.014307
Sym=    62a
Ene=    0.000000E+00
Spin= Alpha
Occup= 0.000000
     1    -0.001792
     2    -0.028203
     3    -0.290020
     4    -0.288955
     5     0.002141
     6     0.018950
     7    -0.014829
     8    -0.064098
     9    -0.366720
    10     0.091052
    11    -0.198755
    12    -1.297835
    13    -0.252178
    14     0.057300
    15    -0.962620
    16     0.688030
    17     0.137246
    18     0.019613
    19    -0.045403
    20     0.022138
    21    -0.512595
    22     2.376425
    23     0.016851
    24    -0.004413
    25     0.044371
    26     0.023887
    27    -0.598111
    28     0.115087
    29    -0.285736
    30    -0.136903
    31    -0.338137
    32     0.048541
    33     0.022063
    34     0.024631
    35    -0.004087
    36     0.016055
    37    -0.054506
    38     0.067717
    39     0.080500
    40     0.024438
    41     0.030245
    42     0.255027
    43     0.059706
    44     0.092640
    45     0.053161
    46    -0.049227
    47     0.024528
    48     0.005156
    49    -0.039755
    50    -0.008825
    51     0.126049
    52    -0.570849
    53    -0.060012
    54     0.068003
    55     0.032543
    56    -0.126030
    57     0.175653
    58     0.081491
    59     0.147450
    60     0.119319
    61    -0.005959
    62    -0.032118
    63    -0.008445
    64    -0.006210
Sym=    63a
Ene=    0.000000E+00
Spin= Alpha
Occup= 0.000000
     1    -0.000066
     2    -0.026617
     3     0.136596
     4    -0.383935
     5    -0.018999
     6     0.002267
     7     0.007574
     8     0.387529
     9    -0.051136
    10    -0.056413
    11     1.486802
    12    -0.444930
    13     0.193708
    14     0.327468
    15     0.209085
    16    -0.100181
    17    -0.634863
    18     0.022620
    19    -0.008208
    20     0.008388
    21    -0.115331
    22     0.485168
    23    -0.126042
    24     0.001018
    25    -0.027308
    26    -0.305168
    27     0.058484
    28    -0.066921
    29    -0.090881
    30    -0.139109
    31    -0.023218
    32    -0.008603
    33    -0.026443
    34    -0.012247
    35    -0.019861
    36     0.436518
    37    -2.025844
    38     0.002645
    39    -0.024769
    40    -0.034850
    41     0.406428
    42    -0.271864
    43    -0.087386
    44     0.156914
    45     0.234816
    46     0.277390
    47     0.038610
    48    -0.004483
    49    -0.002649
    50     0.018164
    51    -0.323214
    52     1.470645
    53    -0.049613
    54     0.099952
    55    -0.025592
    56     0.033223
    57     0.342259
    58    -0.062354
    59    -0.172902
    60    -0.217678
    61    -0.180390
    62     0.012989
    63     0.004820
    64     0.011306
Sym=    64a
Ene=    0.000000E+00
Spin= Alpha
Occup= 0.000000
     1     0.002292
     2     0.061890
     3     0.225918
     4     1.009227
     5     0.005247
     6     0.005691
     7     0.019992
     8    -0.063246
     9    -0.132027
    10    -0.142879
    11    -0.355878
    12    -0.841826
    13     0.472424
    14     0.558743
    15     0.226719
    16    -0.834381
    17     0.055304
    18     0.022704
    19    -0.032296
    20     0.002889
    21    -0.007538
    22     0.038536
    23     0.042997
    24    -0.007752
    25    -0.063207
    26     0.118656
    27     0.111806
    28    -0.153908
    29    -0.073935
    30    -0.025901
    31     0.037856
    32    -0.030398
    33     0.008007
    34    -0.030595
    35    -0.011203
    36     0.246185
    37    -1.114820
    38     0.043816
    39     0.088063
    40    -0.078907
    41     0.366396
    42     0.097368
    43    -0.197124
    44     0.081919
    45     0.072301
    46     0.226693
    47    -0.012684
    48     0.003171
    49     0.039000
    50    -0.020482
    51     0.411796
    52    -1.852941
    53    -0.027296
    54     0.050215
    55    -0.068347
    56    -0.391480
    57    -0.052549
    58    -0.170155
    59     0.158936
    60     0.197549
    61     0.319424
    62     0.028885
    63     0.010293
    64     0.021660
