[Molden Format]
p30-5 set                                                                       
[Atoms] AU
 F        1     9       -1.9109       -1.3347        0.0000
 O        2     8        0.0000        1.0870        0.0000
 O        3     8        2.1497        0.4145        0.0000
[GTO]
    1 0
s    5 1.00
    2894.832599000000 -0.534932117607E-02
     435.419391200000 -0.399677343716E-01
      98.843328866000 -0.179412617888E+00
      27.485198001000 -0.468324686869E+00
       8.540549817100 -0.447241605328E+00
s    1 1.00
       1.065457803800  0.100000000000E+01
s    1 1.00
       0.332473467480  0.100000000000E+01
p    3 1.00
      22.696633924000 -0.647821482412E-01
       4.987233925700 -0.340357853553E+00
       1.349161395400 -0.734858153660E+00
p    1 1.00
       0.348298819770  0.100000000000E+01
d    1 1.00
       1.400000000000  0.100000000000E+01

    2 0
s    5 1.00
    2266.176778500000 -0.538935039217E-02
     340.870101910000 -0.402347213890E-01
      77.363135167000 -0.180081842055E+00
      21.479644940000 -0.468288576577E+00
       6.658943312400 -0.446926171602E+00
s    1 1.00
       0.809759756680  0.100000000000E+01
s    1 1.00
       0.255307722340  0.100000000000E+01
p    3 1.00
      17.721504317000  0.626302487632E-01
       3.863550544000  0.333311384824E+00
       1.048092088300  0.741486383081E+00
p    1 1.00
       0.276415444110  0.100000000000E+01
d    1 1.00
       1.200000000000  0.100000000000E+01

    3 0
s    5 1.00
    2266.176778500000 -0.538935039217E-02
     340.870101910000 -0.402347213890E-01
      77.363135167000 -0.180081842055E+00
      21.479644940000 -0.468288576577E+00
       6.658943312400 -0.446926171602E+00
s    1 1.00
       0.809759756680  0.100000000000E+01
s    1 1.00
       0.255307722340  0.100000000000E+01
p    3 1.00
      17.721504317000  0.626302487632E-01
       3.863550544000  0.333311384824E+00
       1.048092088300  0.741486383081E+00
p    1 1.00
       0.276415444110  0.100000000000E+01
d    1 1.00
       1.200000000000  0.100000000000E+01

[MO]
Sym=     1a
Ene=   -0.263715E+02
Spin= Alpha
Occup= 1.999953
     1     0.994029
     2    -0.025246
     3     0.013658
     4     0.000601
     5     0.000609
     6    -0.000009
     7     0.000512
     8     0.000703
     9     0.000007
    10     0.005447
    11     0.005610
    12     0.005191
    13     0.000369
    14    -0.000000
    15    -0.000001
    16    -0.000185
    17    -0.000174
    18    -0.001810
    19     0.000044
    20    -0.000337
    21    -0.000003
    22     0.000780
    23     0.000764
    24     0.000001
    25     0.000073
    26     0.000019
    27     0.000144
    28    -0.000063
    29    -0.000001
    30    -0.000003
    31    -0.000021
    32     0.000037
    33    -0.000110
    34     0.000049
    35     0.000391
    36    -0.000001
    37     0.000100
    38     0.000213
    39     0.000003
    40     0.000036
    41     0.000045
    42     0.000092
    43     0.000046
    44    -0.000000
    45    -0.000002
Sym=     2a
Ene=   -0.207130E+02
Spin= Alpha
Occup= 1.999907
     1    -0.000022
     2     0.000025
     3    -0.000175
     4     0.000090
     5    -0.000078
     6    -0.000001
     7    -0.000390
     8     0.000125
     9     0.000003
    10     0.000063
    11     0.000125
    12     0.000121
    13     0.000006
    14    -0.000002
    15     0.000000
    16    -0.000146
    17    -0.000595
    18    -0.005162
    19     0.001605
    20    -0.000696
    21    -0.000006
    22    -0.001344
    23     0.000289
    24    -0.000007
    25     0.001675
    26     0.000266
    27     0.000079
    28    -0.000604
    29    -0.000002
    30     0.000000
    31     0.993957
    32    -0.026542
    33     0.017368
    34     0.004186
    35    -0.001832
    36    -0.000020
    37    -0.001163
    38    -0.000051
    39    -0.000000
    40     0.003998
    41     0.004292
    42     0.004582
    43     0.000170
    44     0.000001
    45    -0.000002
Sym=     3a
Ene=   -0.207648E+02
Spin= Alpha
Occup= 1.999899
     1    -0.000218
     2    -0.000110
     3    -0.002707
     4    -0.000734
     5    -0.000680
     6     0.000001
     7    -0.000503
     8    -0.000382
     9     0.000002
    10     0.000097
    11     0.000291
    12     0.000149
    13    -0.000006
    14     0.000003
    15     0.000001
    16     0.993590
    17    -0.027748
    18     0.018969
    19    -0.003665
    20     0.002202
    21    -0.000030
    22     0.001037
    23    -0.001847
    24    -0.000017
    25     0.003807
    26     0.004391
    27     0.003869
    28     0.000429
    29     0.000001
    30     0.000003
    31    -0.000241
    32    -0.000441
    33    -0.006317
    34    -0.001694
    35     0.000441
    36    -0.000011
    37     0.002021
    38    -0.000316
    39    -0.000011
    40     0.001598
    41     0.000355
    42     0.000135
    43    -0.000631
    44    -0.000000
    45    -0.000002
Sym=     4a
Ene=   -0.100400E+01
Spin= Alpha
Occup= 1.988499
     1    -0.172452
     2    -0.372617
     3    -0.264360
     4    -0.413568
     5     0.285341
     6     0.236536
     7     0.283493
     8    -0.194097
     9    -0.162003
    10     0.000342
    11    -0.006766
    12    -0.003012
    13     0.000307
    14    -0.001262
    15    -0.001438
    16     0.008106
    17     0.017593
    18     0.034325
    19    -0.000735
    20     0.004211
    21     0.004002
    22     0.010689
    23    -0.001515
    24     0.001371
    25    -0.004044
    26     0.002196
    27     0.001323
    28    -0.003470
    29     0.001935
    30     0.001561
    31    -0.002560
    32    -0.009943
    33    -0.011167
    34     0.006845
    35    -0.000826
    36     0.010987
    37     0.009201
    38    -0.006642
    39     0.007940
    40    -0.000927
    41    -0.000847
    42    -0.001531
    43     0.001511
    44    -0.000675
    45     0.000523
Sym=     5a
Ene=   -0.999996E+00
Spin= Alpha
Occup= 1.988487
     1     0.169982
     2     0.365504
     3     0.264614
     4    -0.031244
     5     0.038394
     6     0.556961
     7     0.022857
     8    -0.025118
     9    -0.381490
    10     0.003550
    11     0.002750
    12     0.002292
    13     0.001056
    14    -0.003127
    15    -0.003294
    16    -0.004720
    17    -0.013097
    18    -0.015132
    19     0.001810
    20    -0.007129
    21     0.009186
    22     0.006295
    23    -0.001256
    24     0.003087
    25     0.000052
    26     0.001916
    27    -0.001827
    28     0.003148
    29     0.004539
    30     0.003676
    31    -0.000491
    32    -0.001302
    33     0.000096
    34     0.003249
    35     0.010089
    36     0.025757
    37     0.001573
    38     0.007040
    39     0.018566
    40    -0.000483
    41     0.000392
    42    -0.000166
    43    -0.000181
    44    -0.001570
    45     0.001229
Sym=     6a
Ene=   -0.100535E+01
Spin= Alpha
Occup= 1.988463
     1     0.169959
     2     0.364188
     3     0.267645
     4    -0.363081
     5     0.280956
     6    -0.316959
     7     0.251481
     8    -0.189277
     9     0.217103
    10     0.006597
    11    -0.000197
    12     0.001656
    13     0.001991
    14     0.001830
    15     0.001849
    16    -0.002127
    17    -0.009577
    18    -0.001110
    19     0.002677
    20    -0.009496
    21    -0.005033
    22     0.018883
    23    -0.003267
    24    -0.001639
    25    -0.002937
    26     0.005039
    27    -0.002202
    28     0.002897
    29    -0.002574
    30    -0.002097
    31    -0.002730
    32    -0.009661
    33    -0.007817
    34     0.010523
    35     0.016482
    36    -0.014515
    37     0.009259
    38     0.006888
    39    -0.010451
    40    -0.001515
    41     0.000026
    42    -0.001451
    43     0.000838
    44     0.000873
    45    -0.000719
Sym=     7a
Ene=   -0.101117E+01
Spin= Alpha
Occup= 1.985295
     1    -0.007152
     2    -0.016169
     3    -0.035119
     4     0.007587
     5    -0.015371
     6     0.000268
     7    -0.015774
     8    -0.003497
     9    -0.000177
    10     0.001680
    11     0.000718
    12    -0.000978
    13     0.001767
    14     0.000031
    15    -0.000023
    16     0.008802
    17     0.004380
    18    -0.010353
    19    -0.047324
    20    -0.178209
    21    -0.000691
    22    -0.054415
    23    -0.093796
    24    -0.000453
    25    -0.008147
    26     0.010522
    27    -0.004519
    28    -0.020273
    29    -0.000034
    30     0.000022
    31     0.200562
    32     0.438153
    33     0.328469
    34     0.004632
    35    -0.429084
    36    -0.001090
    37    -0.004084
    38    -0.280318
    39    -0.000441
    40     0.015599
    41    -0.001252
    42     0.008631
    43     0.018762
    44     0.000134
    45     0.000158
Sym=     8a
Ene=   -0.101803E+01
Spin= Alpha
Occup= 1.984193
     1     0.006790
     2     0.018306
     3     0.028468
     4     0.028387
     5     0.034176
     6     0.008995
     7    -0.016182
     8    -0.016119
     9    -0.013415
    10    -0.000389
    11    -0.004087
    12     0.002304
    13    -0.005052
    14     0.001732
    15     0.001930
    16    -0.196395
    17    -0.429695
    18    -0.316430
    19     0.128352
    20    -0.065074
    21     0.403181
    22     0.068608
    23    -0.040642
    24     0.259510
    25    -0.006897
    26    -0.008770
    27    -0.008985
    28    -0.005023
    29     0.019606
    30    -0.009725
    31     0.004451
    32     0.019412
    33     0.041520
    34     0.002487
    35    -0.015954
    36     0.213342
    37    -0.022812
    38    -0.001443
    39     0.120142
    40    -0.001845
    41     0.001784
    42     0.002901
    43     0.003083
    44    -0.022329
    45     0.006941
Sym=     9a
Ene=   -0.972912E+00
Spin= Alpha
Occup= 1.984153
     1     0.007851
     2     0.016820
     3     0.043433
     4    -0.001163
     5     0.015140
     6    -0.000195
     7     0.015427
     8     0.005996
     9     0.000140
    10    -0.002526
    11    -0.001711
    12     0.000677
    13    -0.002967
    14    -0.000014
    15     0.000010
    16    -0.013937
    17    -0.037792
    18    -0.084171
    19     0.075934
    20     0.186259
    21    -0.000108
    22     0.016637
    23     0.119899
    24    -0.000089
    25     0.015701
    26    -0.017277
    27    -0.002370
    28     0.015504
    29    -0.000012
    30    -0.000001
    31     0.194421
    32     0.420289
    33     0.341630
    34     0.241073
    35     0.364819
    36    -0.000082
    37     0.139495
    38     0.246029
    39     0.000092
    40    -0.007212
    41     0.018630
    42     0.007904
    43    -0.016623
    44    -0.000028
    45    -0.000195
Sym=    10a
Ene=   -0.101588E+01
Spin= Alpha
Occup= 1.984124
     1    -0.006834
     2    -0.018378
     3    -0.028603
     4    -0.028091
     5    -0.034492
     6     0.009087
     7     0.015976
     8     0.016330
     9    -0.013513
    10     0.000443
    11     0.004096
    12    -0.002374
    13     0.005008
    14     0.001731
    15     0.001935
    16     0.195501
    17     0.427506
    18     0.314998
    19    -0.128309
    20     0.064167
    21     0.405060
    22    -0.068677
    23     0.039990
    24     0.260760
    25     0.006829
    26     0.008777
    27     0.008891
    28     0.004978
    29     0.019701
    30    -0.009761
    31    -0.003878
    32    -0.018118
    33    -0.040475
    34    -0.002114
    35     0.015041
    36     0.214277
    37     0.022883
    38     0.000970
    39     0.120682
    40     0.001882
    41    -0.001942
    42    -0.002692
    43    -0.003055
    44    -0.022431
    45     0.006975
Sym=    11a
Ene=   -0.108827E+01
Spin= Alpha
Occup= 1.957076
     1     0.002578
     2     0.009596
     3     0.008775
     4     0.041328
     5     0.016640
     6     0.000077
     7    -0.036575
     8    -0.004581
     9    -0.000062
    10     0.001132
    11    -0.001915
    12     0.002055
    13    -0.002275
    14     0.000032
    15    -0.000023
    16     0.062829
    17     0.143149
    18    -0.067091
    19     0.458791
    20    -0.172074
    21    -0.000000
    22     0.199001
    23    -0.088466
    24    -0.000024
    25     0.037165
    26    -0.004879
    27    -0.010767
    28    -0.022336
    29     0.000031
    30    -0.000034
    31     0.047056
    32     0.109976
    33    -0.128884
    34    -0.447312
    35     0.154360
    36     0.000588
    37    -0.184785
    38     0.069810
    39     0.000332
    40     0.040935
    41    -0.006475
    42    -0.011613
    43    -0.017953
    44    -0.000029
    45    -0.000023
Sym=    12a
Ene=   -0.585425E+00
Spin= Alpha
Occup= 1.616523
     1    -0.007080
     2    -0.016607
     3    -0.046752
     4    -0.282758
     5    -0.404537
     6    -0.000350
     7     0.177656
     8     0.260581
     9     0.000215
    10     0.003897
    11     0.007133
    12    -0.004245
    13     0.011805
    14    -0.000026
    15    -0.000012
    16    -0.032966
    17    -0.078852
    18    -0.080395
    19    -0.084600
    20    -0.402302
    21    -0.000454
    22    -0.036132
    23    -0.256150
    24    -0.000293
    25     0.001330
    26     0.009641
    27    -0.009168
    28     0.011667
    29    -0.000007
    30    -0.000050
    31     0.004176
    32     0.013429
    33    -0.009265
    34     0.066006
    35     0.246560
    36     0.000034
    37     0.067015
    38     0.210522
    39     0.000061
    40     0.002946
    41    -0.000318
    42     0.001542
    43     0.003514
    44    -0.000020
    45    -0.000074
Sym=    13a
Ene=   -0.316636E+00
Spin= Alpha
Occup= 1.000000
     1    -0.000017
     2    -0.000008
     3    -0.000141
     4     0.000124
     5     0.000116
     6    -0.047067
     7    -0.000144
     8    -0.000184
     9     0.037183
    10    -0.000034
    11    -0.000015
    12     0.000076
    13     0.000028
    14    -0.001432
    15    -0.002590
    16     0.000053
    17     0.000150
    18     0.000630
    19    -0.000087
    20     0.000009
    21    -0.403356
    22     0.000061
    23    -0.000178
    24    -0.316187
    25    -0.000042
    26     0.000014
    27     0.000040
    28    -0.000042
    29     0.012158
    30    -0.000215
    31     0.000127
    32     0.000522
    33    -0.000723
    34     0.000525
    35    -0.000599
    36     0.650194
    37     0.000498
    38    -0.000332
    39     0.429206
    40     0.000051
    41    -0.000534
    42     0.000688
    43    -0.000142
    44    -0.002985
    45     0.002168
Sym=    14a
Ene=   -0.170944E+00
Spin= Alpha
Occup= 0.382545
     1    -0.039003
     2    -0.085834
     3    -0.134714
     4     0.334741
     5     0.450981
     6     0.000236
     7    -0.192797
     8    -0.247205
     9     0.000023
    10     0.001721
    11     0.007728
    12    -0.003224
    13     0.009284
    14    -0.000030
    15     0.000105
    16     0.042552
    17     0.081303
    18     0.165528
    19    -0.234954
    20    -0.509728
    21    -0.000128
    22    -0.163117
    23    -0.346745
    24     0.000114
    25    -0.002489
    26    -0.000733
    27     0.007903
    28    -0.005878
    29    -0.000036
    30    -0.000183
    31    -0.003689
    32    -0.011246
    33    -0.006985
    34     0.115440
    35     0.226002
    36    -0.000153
    37     0.094272
    38     0.196429
    39    -0.000098
    40     0.001123
    41    -0.005077
    42    -0.000074
    43     0.008972
    44    -0.000077
    45    -0.000159
Sym=    15a
Ene=   -0.398094E-01
Spin= Alpha
Occup= 0.040969
     1     0.002313
     2     0.003876
     3     0.013157
     4     0.009069
     5    -0.013510
     6     0.000043
     7    -0.016201
     8     0.020124
     9     0.000080
    10    -0.000234
    11    -0.002970
    12    -0.000302
    13    -0.000883
    14     0.000727
    15    -0.000507
    16     0.129462
    17     0.383548
    18     0.245378
    19     0.717358
    20    -0.229538
    21     0.000198
    22     0.212952
    23    -0.046322
    24    -0.000347
    25     0.015394
    26    -0.001135
    27    -0.012926
    28    -0.017546
    29     0.000124
    30     0.000101
    31    -0.120947
    32    -0.337970
    33    -0.264091
    34     0.717487
    35    -0.224728
    36    -0.000859
    37     0.236586
    38    -0.073460
    39     0.000772
    40    -0.028351
    41     0.015338
    42    -0.003733
    43     0.014373
    44    -0.000592
    45     0.000429
Sym=    16a
Ene=   -0.103510E-01
Spin= Alpha
Occup= 0.013765
     1     0.011792
     2    -0.014948
     3     0.203950
     4    -0.064390
     5    -0.090332
     6    -0.006790
     7     0.001557
     8     0.043713
     9     0.104431
    10    -0.010753
    11    -0.014255
    12     0.001162
    13    -0.001012
    14    -0.003928
    15    -0.005877
    16     0.233264
    17     1.208962
    18    -1.276974
    19    -0.223210
    20     0.178076
    21     0.648783
    22     0.137535
    23    -0.112632
    24    -0.779470
    25    -0.093019
    26    -0.114133
    27    -0.000704
    28     0.015250
    29    -0.043172
    30     0.004122
    31     0.008060
    32     0.005623
    33     0.264131
    34    -0.051048
    35     0.008983
    36     0.185745
    37    -0.075668
    38     0.056624
    39     0.013622
    40     0.013494
    41    -0.004211
    42    -0.000209
    43    -0.007284
    44     0.036049
    45    -0.003048
Sym=    17a
Ene=   -0.276148E-02
Spin= Alpha
Occup= 0.001837
     1    -0.006908
     2    -0.042051
     3     0.073122
     4     0.007385
     5    -0.021074
     6     0.000492
     7     0.051749
     8    -0.004740
     9     0.004117
    10     0.008545
    11    -0.002009
    12     0.009155
    13    -0.004537
    14    -0.011309
    15     0.006122
    16     0.000989
    17     0.008110
    18     0.085995
    19    -0.044394
    20    -0.134623
    21     0.007277
    22     0.102232
    23     0.118760
    24    -0.035783
    25     0.081281
    26    -0.106475
    27     0.019762
    28     0.078789
    29     0.004929
    30     0.004993
    31     0.042784
    32     0.219000
    33    -0.254830
    34     0.009125
    35    -0.002225
    36    -0.045534
    37     0.059025
    38    -0.096935
    39     0.064387
    40    -0.185631
    41    -0.562123
    42     0.678715
    43    -0.584090
    44    -0.087830
    45    -0.184483
Sym=    18a
Ene=   -0.103403E-01
Spin= Alpha
Occup= 0.013729
     1    -0.011864
     2     0.014773
     3    -0.204413
     4     0.064828
     5     0.090802
     6    -0.006685
     7    -0.001048
     8    -0.043802
     9     0.104314
    10     0.002703
    11     0.010725
    12     0.010664
    13     0.007604
    14    -0.007699
    15    -0.003275
    16    -0.233926
    17    -1.212286
    18     1.284060
    19     0.224623
    20    -0.178822
    21     0.647181
    22    -0.136685
    23     0.112588
    24    -0.778391
    25     0.092738
    26     0.116781
    27    -0.000281
    28    -0.015598
    29    -0.043439
    30     0.003407
    31    -0.007298
    32    -0.000234
    33    -0.274481
    34     0.051194
    35    -0.009641
    36     0.183500
    37     0.078846
    38    -0.056635
    39     0.016185
    40    -0.012874
    41    -0.002827
    42     0.008664
    43     0.005675
    44     0.036294
    45    -0.002977
Sym=    19a
Ene=   -0.105810E-01
Spin= Alpha
Occup= 0.012859
     1     0.000203
     2     0.019628
     3    -0.035662
     4     0.001110
     5     0.002291
     6    -0.000052
     7    -0.068556
     8     0.036679
     9    -0.000404
    10     0.003771
    11    -0.006890
    12     0.001657
    13    -0.004693
    14     0.006327
    15    -0.003442
    16    -0.007467
    17    -0.009097
    18    -0.277655
    19     0.009869
    20     0.138701
    21     0.000228
    22    -0.102469
    23     0.079520
    24     0.002285
    25    -0.027849
    26     0.019112
    27     0.001044
    28    -0.026141
    29    -0.001162
    30    -0.000457
    31    -0.245217
    32    -1.230979
    33     1.248198
    34    -0.050362
    35     0.700598
    36     0.005465
    37    -0.129171
    38    -0.770787
    39    -0.006899
    40     0.123461
    41    -0.035313
    42     0.144271
    43    -0.008465
    44    -0.001015
    45    -0.010473
Sym=    20a
Ene=   -0.298250E-02
Spin= Alpha
Occup= 0.001535
     1    -0.039098
     2    -0.196000
     3     0.194854
     4     0.212520
     5     0.220893
     6     0.029197
     7     0.319333
     8     0.329416
     9     0.033202
    10    -0.338399
    11     0.314596
    12     0.112997
    13    -0.625684
    14     0.093615
    15    -0.549073
    16     0.008012
    17     0.112073
    18    -0.421273
    19     0.050952
    20     0.049387
    21    -0.010309
    22    -0.080215
    23     0.087202
    24     0.022718
    25     0.009836
    26    -0.021481
    27     0.036190
    28     0.020503
    29     0.017314
    30     0.014673
    31    -0.000333
    32    -0.008237
    33     0.184376
    34    -0.011306
    35    -0.012466
    36    -0.011569
    37    -0.109559
    38     0.042406
    39     0.001179
    40    -0.003601
    41     0.001275
    42     0.010720
    43     0.009024
    44    -0.016551
    45    -0.001365
Sym=    21a
Ene=   -0.297847E-02
Spin= Alpha
Occup= 0.001531
     1     0.038056
     2     0.184942
     3    -0.166093
     4    -0.185964
     5    -0.251599
     6     0.045159
     7    -0.267190
     8    -0.361258
     9     0.051187
    10     0.261328
    11     0.268847
    12    -0.622655
    13     0.185143
    14    -0.334503
    15    -0.599203
    16    -0.003295
    17    -0.055327
    18     0.188393
    19    -0.025762
    20    -0.081336
    21    -0.019819
    22    -0.051885
    23    -0.011359
    24     0.044741
    25    -0.004946
    26     0.010920
    27    -0.007538
    28    -0.005894
    29     0.033175
    30     0.021141
    31    -0.001640
    32    -0.016342
    33     0.011319
    34     0.011974
    35     0.016057
    36    -0.017036
    37    -0.008497
    38    -0.022235
    39    -0.002391
    40    -0.006184
    41     0.007550
    42    -0.011325
    43     0.002056
    44    -0.030730
    45    -0.001170
Sym=    22a
Ene=   -0.300170E-02
Spin= Alpha
Occup= 0.001546
     1     0.039024
     2     0.182774
     3    -0.143071
     4    -0.158886
     5    -0.288563
     6    -0.018191
     7    -0.215139
     8    -0.402059
     9    -0.020425
    10    -0.704929
    11     0.630791
    12    -0.026661
    13     0.251131
    14     0.417400
    15     0.079063
    16     0.004551
    17     0.010270
    18    -0.001774
    19     0.004731
    20    -0.121460
    21     0.010274
    22    -0.161273
    23     0.062565
    24    -0.023615
    25    -0.004811
    26     0.002398
    27     0.016362
    28     0.013908
    29    -0.012685
    30    -0.011650
    31    -0.005845
    32    -0.042015
    33     0.162153
    34     0.004237
    35     0.035469
    36     0.005059
    37    -0.095086
    38    -0.039507
    39     0.003587
    40    -0.019471
    41     0.013618
    42     0.013499
    43     0.016512
    44     0.015254
    45     0.005712
Sym=    23a
Ene=   -0.182996E-02
Spin= Alpha
Occup= 0.000086
     1     0.007620
     2    -0.007254
     3     0.181732
     4    -0.028661
     5    -0.018928
     6     0.000462
     7     0.018651
     8     0.084093
     9     0.000718
    10    -0.023799
    11     0.006004
    12    -0.007631
    13     0.002529
    14     0.013651
    15    -0.008121
    16    -0.710546
    17    -2.241873
    18    -1.376215
    19    -0.071592
    20     0.075672
    21    -0.000431
    22     0.066873
    23     0.005532
    24     0.000784
    25     1.473722
    26     1.445197
    27     1.427056
    28     0.027306
    29     0.001560
    30     0.003957
    31    -0.000977
    32    -0.024038
    33     0.384192
    34     0.146886
    35    -0.051606
    36     0.002839
    37    -0.155025
    38     0.041485
    39    -0.003843
    40    -0.079407
    41    -0.063832
    42    -0.069655
    43     0.010973
    44    -0.002977
    45     0.001310
Sym=    24a
Ene=   -0.178679E-02
Spin= Alpha
Occup= 0.000085
     1    -0.000655
     2    -0.013350
     3     0.020223
     4     0.009200
     5    -0.006545
     6     0.000067
     7     0.023653
     8    -0.017235
     9     0.000962
    10     0.000371
    11    -0.013588
    12    -0.002783
    13    -0.005815
    14    -0.006398
    15     0.002939
    16    -0.001160
    17    -0.024662
    18     0.367602
    19    -0.143703
    20     0.043797
    21     0.001563
    22     0.143764
    23    -0.049673
    24    -0.006671
    25    -0.073809
    26    -0.084848
    27    -0.050448
    28     0.010475
    29     0.000590
    30     0.001973
    31    -0.706933
    32    -2.267894
    33    -1.247549
    34     0.093216
    35    -0.033138
    36    -0.008202
    37    -0.032663
    38     0.016231
    39     0.011849
    40     1.419311
    41     1.442882
    42     1.439203
    43    -0.023597
    44    -0.003139
    45     0.005953
Sym=    25a
Ene=   -0.210294E-03
Spin= Alpha
Occup= 0.000009
     1    -0.014279
     2     0.186024
     3    -0.801558
     4    -0.378525
     5    -0.515817
     6    -0.003358
     7    -0.722769
     8    -0.976963
     9    -0.007720
    10     0.110568
    11    -0.222338
    12     0.409989
    13    -0.504793
    14    -0.008376
    15    -0.007985
    16    -0.011353
    17    -0.287181
    18     0.867974
    19     0.103570
    20    -0.079396
    21    -0.002567
    22    -0.448102
    23    -0.516036
    24     0.021479
    25     0.055102
    26     0.326525
    27    -0.315600
    28    -0.062248
    29     0.011932
    30    -0.024271
    31     0.006158
    32     0.024578
    33    -0.048733
    34     0.066081
    35    -0.007433
    36     0.003523
    37     0.091898
    38     0.165755
    39    -0.014692
    40    -0.168395
    41    -0.121119
    42     0.183277
    43     0.176480
    44     0.031221
    45    -0.079132
Sym=    26a
Ene=   -0.117994E-02
Spin= Alpha
Occup= 0.000933
     1     0.000567
     2     0.002340
     3    -0.000792
     4    -0.005084
     5    -0.001873
     6     0.025369
     7    -0.010062
     8    -0.000342
     9     0.089700
    10    -0.025290
    11    -0.017324
    12     0.040070
    13     0.019351
    14    -0.006256
    15     0.008207
    16    -0.001229
    17    -0.012619
    18     0.045239
    19    -0.015005
    20    -0.000047
    21     0.181824
    22     0.033079
    23    -0.008246
    24    -0.538357
    25    -0.016582
    26    -0.007703
    27     0.015260
    28     0.002321
    29     0.032633
    30     0.155974
    31    -0.001401
    32    -0.009904
    33    -0.013388
    34    -0.012169
    35     0.006984
    36    -0.817138
    37     0.027961
    38    -0.013910
    39     1.155514
    40     0.015228
    41     0.073027
    42    -0.097378
    43     0.013041
    44     0.137334
    45    -0.255993
Sym=    27a
Ene=   -0.332238E-02
Spin= Alpha
Occup= 0.001955
     1    -0.002107
     2    -0.036577
     3     0.053210
     4     0.019712
     5    -0.058672
     6    -0.000501
     7     0.128005
     8    -0.110977
     9    -0.001403
    10     0.012444
    11    -0.030701
    12    -0.003744
    13    -0.013718
    14    -0.025874
    15     0.015821
    16    -0.004919
    17     0.097213
    18    -0.080790
    19     0.181617
    20    -0.051262
    21    -0.002252
    22    -0.431937
    23     0.130362
    24     0.006944
    25     0.427497
    26    -0.193911
    27    -0.146105
    28    -0.319132
    29    -0.004898
    30     0.002045
    31    -0.006381
    32     0.090361
    33    -0.067102
    34    -0.201475
    35     0.042424
    36     0.008870
    37     0.431291
    38    -0.078365
    39    -0.011528
    40     0.472035
    41    -0.086248
    42    -0.285195
    43    -0.181607
    44    -0.000090
    45    -0.003798
Sym=    28a
Ene=   -0.290691E-02
Spin= Alpha
Occup= 0.002110
     1    -0.000269
     2    -0.024835
     3     0.151867
     4     0.043659
     5     0.074576
     6     0.000434
     7     0.100629
     8     0.149015
     9     0.003359
    10    -0.000948
    11     0.026298
    12    -0.039944
    13     0.044677
    14     0.014406
    15     0.009221
    16     0.033943
    17     0.228392
    18    -0.444836
    19    -0.064590
    20    -0.149915
    21     0.031625
    22     0.051369
    23     0.354607
    24    -0.113286
    25     0.174998
    26     0.410812
    27    -0.603370
    28     0.235349
    29     0.318940
    30    -0.540073
    31    -0.003416
    32    -0.039371
    33     0.212258
    34     0.015477
    35     0.021851
    36    -0.135981
    37    -0.146790
    38    -0.126224
    39     0.088663
    40    -0.004130
    41     0.032244
    42    -0.052999
    43    -0.013353
    44    -0.168744
    45     0.027221
Sym=    29a
Ene=   -0.108185E-01
Spin= Alpha
Occup= 0.014010
     1    -0.000774
     2     0.014064
     3    -0.050322
     4     0.001543
     5    -0.001645
     6    -0.000011
     7    -0.036997
     8    -0.008059
     9     0.000018
    10     0.004616
    11    -0.001835
    12     0.003346
    13    -0.002712
    14     0.001543
    15    -0.000897
    16     0.006894
    17    -0.006391
    18     0.328647
    19     0.094242
    20     0.105432
    21    -0.000162
    22     0.095138
    23     0.020644
    24    -0.000953
    25    -0.005983
    26     0.014992
    27    -0.004214
    28    -0.037385
    29     0.000343
    30     0.000187
    31     0.237830
    32     1.204161
    33    -1.237994
    34     0.438538
    35     0.561694
    36    -0.002631
    37    -0.320812
    38    -0.722740
    39     0.003262
    40    -0.077434
    41    -0.024125
    42    -0.102605
    43     0.065052
    44    -0.003497
    45    -0.009010
Sym=    30a
Ene=   -0.287857E-02
Spin= Alpha
Occup= 0.002078
     1     0.000538
     2     0.026030
     3    -0.152481
     4    -0.035073
     5    -0.060926
     6    -0.002621
     7    -0.091664
     8    -0.132407
     9    -0.003966
    10     0.011667
    11    -0.020656
    12     0.022445
    13    -0.044353
    14     0.008241
    15     0.008027
    16    -0.033434
    17    -0.220494
    18     0.411106
    19     0.066190
    20     0.161794
    21     0.029005
    22    -0.063014
    23    -0.359554
    24    -0.104728
    25    -0.172630
    26    -0.381949
    27     0.574078
    28    -0.236880
    29     0.302189
    30    -0.588339
    31     0.001720
    32     0.026371
    33    -0.177576
    34    -0.018584
    35    -0.022380
    36    -0.126389
    37     0.139798
    38     0.135247
    39     0.074816
    40     0.013002
    41     0.003069
    42     0.002588
    43     0.029574
    44    -0.181207
    45    -0.014030
Sym=    31a
Ene=   -0.282428E-02
Spin= Alpha
Occup= 0.001846
     1    -0.000126
     2     0.007051
     3    -0.034769
     4     0.001778
     5    -0.000642
     6     0.014278
     7    -0.009263
     8    -0.017042
     9     0.045049
    10    -0.002915
    11    -0.001082
    12     0.010619
    13     0.004337
    14    -0.001293
    15     0.001860
    16    -0.000010
    17    -0.010866
    18     0.059362
    19     0.023572
    20     0.050087
    21     0.042164
    22    -0.019966
    23    -0.062125
    24    -0.188570
    25    -0.013963
    26     0.029167
    27    -0.024822
    28    -0.026514
    29     0.046955
    30     0.041727
    31     0.012099
    32     0.061152
    33    -0.067267
    34     0.004687
    35    -0.004721
    36    -0.222552
    37     0.027526
    38     0.026626
    39     0.315404
    40     0.044839
    41    -0.275021
    42     0.209043
    43     0.016852
    44     0.126675
    45     0.908587
Sym=    32a
Ene=   -0.119264E-01
Spin= Alpha
Occup= 0.010003
     1    -0.223662
     2    -1.050198
     3     0.879430
     4     0.464985
     5    -0.410485
     6     0.425150
     7     0.565299
     8    -0.423483
     9     0.493331
    10     0.059090
    11     0.098457
    12     0.094530
    13     0.059304
    14    -0.085831
    15     0.057505
    16    -0.013452
    17    -0.014533
    18    -0.108191
    19     0.006092
    20     0.103851
    21    -0.003316
    22     0.034727
    23     0.021362
    24    -0.064302
    25    -0.000236
    26     0.012631
    27    -0.004523
    28     0.012898
    29    -0.011810
    30    -0.006366
    31     0.001111
    32     0.020255
    33    -0.023380
    34     0.003779
    35    -0.022306
    36     0.017430
    37     0.011257
    38     0.079946
    39    -0.001017
    40     0.002790
    41     0.000843
    42    -0.005949
    43    -0.003387
    44     0.005697
    45    -0.001852
Sym=    33a
Ene=   -0.118596E-01
Spin= Alpha
Occup= 0.009981
     1    -0.223524
     2    -1.046672
     3     0.869126
     4     0.016988
     5    -0.087383
     6    -0.746286
     7     0.050431
     8    -0.055826
     9    -0.865695
    10     0.148143
    11     0.141075
    12    -0.033186
    13    -0.012013
    14     0.020333
    15    -0.004583
    16    -0.009916
    17     0.008210
    18    -0.133673
    19     0.035767
    20     0.090248
    21     0.006024
    22     0.036458
    23    -0.000091
    24     0.111697
    25     0.006857
    26     0.001858
    27    -0.001467
    28     0.013805
    29     0.020485
    30     0.011542
    31     0.001501
    32     0.011077
    33    -0.001258
    34    -0.006243
    35    -0.014520
    36    -0.032198
    37     0.002301
    38     0.038810
    39     0.004721
    40    -0.000543
    41     0.003574
    42    -0.003646
    43    -0.002905
    44    -0.011444
    45     0.000739
Sym=    34a
Ene=   -0.118884E-01
Spin= Alpha
Occup= 0.009955
     1    -0.224972
     2    -1.050716
     3     0.866148
     4    -0.586065
     5     0.341131
     6     0.317383
     7    -0.640925
     8     0.432800
     9     0.368108
    10     0.049787
    11     0.087287
    12     0.123933
    13     0.076722
    14     0.068740
    15    -0.052127
    16    -0.005101
    17     0.043364
    18    -0.197538
    19     0.075908
    20     0.071503
    21    -0.002496
    22     0.025082
    23    -0.020073
    24    -0.047432
    25     0.016341
    26    -0.009480
    27     0.002622
    28     0.015682
    29    -0.008962
    30    -0.004721
    31     0.002121
    32    -0.005119
    33     0.056733
    34    -0.017502
    35    -0.001713
    36     0.014571
    37    -0.028936
    38    -0.017453
    39    -0.003305
    40    -0.004935
    41    -0.000094
    42     0.003261
    43    -0.003382
    44     0.004920
    45     0.000129
Sym=    35a
Ene=   -0.305018E-03
Spin= Alpha
Occup= 0.000015
     1    -0.004014
     2     0.253070
     3    -1.019329
     4     0.117152
     5     0.139558
     6    -0.001959
     7    -0.183578
     8    -0.256639
     9    -0.005549
    10     0.068947
    11     0.202806
    12     0.025765
    13     0.108039
    14     0.006362
    15    -0.006578
    16     0.014433
    17    -0.126470
    18     0.751671
    19     0.444115
    20     0.667077
    21    -0.001898
    22    -0.642524
    23    -1.273207
    24     0.018517
    25     0.046558
    26     0.163755
    27    -0.387280
    28     0.010370
    29     0.002568
    30    -0.001893
    31     0.000421
    32     0.064486
    33    -0.225124
    34    -0.030311
    35    -0.104743
    36     0.001438
    37     0.334393
    38     0.462868
    39    -0.007645
    40    -0.135375
    41    -0.157121
    42     0.313214
    43     0.164524
    44     0.013441
    45    -0.145498
Sym=    36a
Ene=   -0.160636E-03
Spin= Alpha
Occup= 0.000008
     1    -0.001856
     2     0.023682
     3    -0.088162
     4    -0.008575
     5    -0.018526
     6    -0.041746
     7    -0.034545
     8    -0.045715
     9    -0.112700
    10     0.056429
    11     0.025935
    12    -0.032258
    13    -0.034643
    14    -0.023643
    15    -0.038517
    16    -0.002356
    17    -0.058839
    18    -0.070934
    19     0.002901
    20     0.006364
    21    -0.032690
    22    -0.003000
    23    -0.042895
    24     0.257172
    25     0.413282
    26    -0.277445
    27    -0.097306
    28     0.037661
    29    -0.170519
    30    -0.495265
    31     0.023105
    32    -0.010671
    33     0.278877
    34     0.211736
    35    -0.060311
    36     0.037689
    37    -0.259257
    38     0.019873
    39    -0.112778
    40    -0.259633
    41    -0.047422
    42    -0.063757
    43     0.024536
    44     0.748194
    45    -0.011377
Sym=    37a
Ene=   -0.100632E-02
Spin= Alpha
Occup= 0.000039
     1     0.599385
     2     1.517361
     3     1.734789
     4     0.021152
     5     0.022011
     6    -0.000268
     7     0.109338
     8     0.131661
     9    -0.000114
    10    -1.355392
    11    -1.374772
    12    -1.346074
    13    -0.015318
    14     0.001062
    15    -0.002750
    16    -0.002735
    17     0.064611
    18    -0.270542
    19     0.033438
    20     0.079193
    21     0.000035
    22     0.107280
    23     0.084808
    24    -0.000793
    25     0.011786
    26    -0.019598
    27     0.006118
    28     0.009367
    29    -0.000357
    30     0.001820
    31    -0.001015
    32     0.020714
    33    -0.048460
    34    -0.016678
    35    -0.027966
    36     0.000067
    37     0.020749
    38     0.037042
    39     0.000325
    40     0.017766
    41     0.002783
    42     0.022019
    43    -0.006504
    44    -0.003796
    45    -0.001367
Sym=    38a
Ene=    0.000000E+00
Spin= Alpha
Occup= 0.000000
     1     0.009323
     2    -0.169115
     3     0.711630
     4     0.071193
     5     0.087177
     6     0.077293
     7     0.348787
     8     0.384584
     9     0.109838
    10     0.177097
    11     0.107068
    12    -0.530224
    13    -0.104743
    14     0.167470
    15     0.248416
    16    -0.043495
    17     0.092681
    18    -0.741220
    19     0.210188
    20    -0.275697
    21     0.027455
    22     0.281646
    23     0.664994
    24    -0.046679
    25     0.757456
    26    -0.109504
    27     0.146831
    28    -0.333662
    29     0.262920
    30     0.157763
    31     0.020764
    32     0.101767
    33     0.062588
    34     0.151512
    35    -0.046138
    36    -0.003185
    37     0.037736
    38    -0.214813
    39    -0.028967
    40    -0.603426
    41    -0.059822
    42     0.297616
    43     0.540219
    44     0.016661
    45    -0.069226
Sym=    39a
Ene=    0.000000E+00
Spin= Alpha
Occup= 0.000000
     1     0.008539
     2    -0.083287
     3     0.359533
     4     0.050563
     5     0.072744
     6    -0.007908
     7     0.137124
     8     0.225972
     9    -0.028968
    10     0.028056
    11     0.032686
    12    -0.244031
    13    -0.035191
    14     0.077307
    15     0.026176
    16    -0.016701
    17    -0.059647
    18     1.061438
    19     0.083044
    20    -0.120393
    21     0.002732
    22     0.881613
    23     0.008523
    24    -0.169386
    25    -0.046267
    26     0.252106
    27     0.040051
    28    -0.301351
    29    -0.759602
    30    -0.258260
    31    -0.020206
    32     0.211967
    33    -1.571889
    34    -0.209207
    35     0.066803
    36    -0.086988
    37     1.143554
    38    -0.349968
    39     0.306137
    40    -0.195248
    41     0.221477
    42     0.324241
    43     0.128926
    44    -0.308303
    45     0.091086
Sym=    40a
Ene=    0.000000E+00
Spin= Alpha
Occup= 0.000000
     1    -0.003395
     2     0.114981
     3    -0.480219
     4    -0.083369
     5    -0.002678
     6     0.075068
     7    -0.376206
     8    -0.161216
     9     0.088565
    10     0.167645
    11     0.332809
    12    -0.387827
    13    -0.420015
    14     0.116040
    15     0.300722
    16     0.038666
    17    -0.350106
    18     2.857183
    19    -0.231466
    20     0.222289
    21     0.014069
    22     1.314465
    23    -0.981166
    24     0.039874
    25    -0.411839
    26    -0.020857
    27    -0.328792
    28    -0.003786
    29     0.226536
    30     0.024438
    31    -0.019047
    32     0.182283
    33    -2.340834
    34    -0.123537
    35     0.043515
    36     0.034529
    37     1.392532
    38    -0.265360
    39    -0.099733
    40     0.217272
    41     0.197219
    42    -0.030593
    43    -0.295559
    44     0.240776
    45    -0.024735
Sym=    41a
Ene=    0.000000E+00
Spin= Alpha
Occup= 0.000000
     1     0.002097
     2     0.024210
     3    -0.105293
     4     0.080117
     5    -0.046673
     6     0.008612
     7     0.051298
     8    -0.118524
     9     0.011196
    10     0.196887
    11    -0.319775
    12     0.111077
    13     0.171316
    14     0.475606
    15    -0.311941
    16    -0.014814
    17    -0.073364
    18     0.662334
    19     0.200223
    20    -0.031535
    21    -0.000241
    22     0.107637
    23    -0.299214
    24     0.074154
    25    -0.009259
    26     0.209338
    27     0.013313
    28    -0.294178
    29     0.245555
    30     0.042699
    31    -0.009484
    32     0.131319
    33    -0.738665
    34    -0.145599
    35     0.040175
    36     0.032750
    37     0.699345
    38    -0.051923
    39    -0.114178
    40    -0.514926
    41     0.536360
    42     0.119174
    43    -0.264323
    44     0.206960
    45     0.035749
Sym=    42a
Ene=    0.000000E+00
Spin= Alpha
Occup= 0.000000
     1    -0.014242
     2     0.182191
     3    -0.791435
     4    -0.076578
     5    -0.154105
     6     0.036746
     7    -0.285276
     8    -0.543208
     9     0.062112
    10     0.249056
    11     0.076921
    12    -0.005685
    13    -0.254085
    14     0.057442
    15     0.149024
    16    -0.001623
    17    -0.063545
    18    -0.170517
    19     0.255601
    20     0.090947
    21     0.024946
    22    -1.011500
    23    -0.416513
    24    -0.201565
    25     0.249987
    26    -0.255057
    27     0.012408
    28     0.482418
    29    -0.254239
    30     0.071879
    31     0.006300
    32    -0.060331
    33     0.799305
    34    -0.016492
    35     0.002930
    36    -0.066450
    37    -0.356337
    38     0.177073
    39     0.200195
    40    -0.296934
    41     0.351257
    42    -0.202995
    43    -0.182594
    44    -0.367747
    45     0.193434
Sym=    43a
Ene=    0.000000E+00
Spin= Alpha
Occup= 0.000000
     1    -0.003167
     2     0.045891
     3    -0.201495
     4    -0.019259
     5    -0.043059
     6    -0.028590
     7    -0.189307
     8    -0.105699
     9    -0.031682
    10    -0.143606
    11    -0.070268
    12     0.266393
    13     0.045063
    14    -0.079986
    15    -0.134331
    16     0.008243
    17    -0.457276
    18     3.900611
    19     0.019245
    20    -0.015085
    21    -0.010244
    22     2.176938
    23    -0.680800
    24     0.041026
    25     0.470827
    26    -0.489770
    27    -0.239991
    28     0.284516
    29     0.092750
    30     0.033433
    31    -0.018289
    32     0.450176
    33    -3.783477
    34    -0.192153
    35     0.073593
    36     0.017941
    37     2.431724
    38    -0.924840
    39    -0.053137
    40    -0.145620
    41     0.173109
    42     0.365489
    43     0.510215
    44    -0.001834
    45    -0.009644
Sym=    44a
Ene=    0.000000E+00
Spin= Alpha
Occup= 0.000000
     1     0.001360
     2     0.026107
     3    -0.116941
     4    -0.053535
     5     0.057311
     6    -0.033376
     7    -0.196751
     8     0.075618
     9    -0.030136
    10    -0.343808
    11     0.166189
    12     0.175294
    13     0.002541
    14    -0.422906
    15     0.077552
    16     0.004472
    17    -0.297439
    18     1.580942
    19    -0.072944
    20     0.099799
    21    -0.005440
    22     1.098729
    23    -0.675026
    24    -0.021289
    25     0.408012
    26    -0.105059
    27    -0.396188
    28    -0.641263
    29     0.002064
    30     0.067044
    31     0.033583
    32     0.143387
    33    -1.196419
    34     0.331971
    35    -0.084001
    36    -0.011220
    37     0.672415
    38    -0.071523
    39     0.023511
    40    -0.759223
    41     0.286764
    42    -0.070228
    43    -0.176443
    44    -0.134884
    45     0.076355
Sym=    45a
Ene=    0.000000E+00
Spin= Alpha
Occup= 0.000000
     1    -0.003805
     2     0.039567
     3    -0.172468
     4    -0.006590
     5    -0.035076
     6     0.027080
     7    -0.149793
     8    -0.029779
     9     0.042796
    10     0.207258
    11    -0.108839
    12    -0.014783
    13     0.033891
    14     0.480394
    15    -0.181641
    16     0.036621
    17    -0.225144
    18     1.096077
    19    -0.358061
    20     0.192285
    21     0.016517
    22     0.886240
    23    -0.420683
    24    -0.139360
    25     0.257155
    26    -0.405288
    27    -0.454666
    28    -0.156597
    29    -0.206402
    30     0.051101
    31     0.034798
    32    -0.011479
    33    -0.471245
    34     0.424132
    35    -0.136630
    36    -0.036114
    37    -0.063934
    38     0.038037
    39     0.131916
    40     0.083565
    41    -0.360566
    42    -0.249263
    43     0.038774
    44    -0.294900
    45     0.014522
