p30-5 set                                                                       
ENERGY    PNOF7    /beegfs_agamede/gscratch/povmieci/SCRATCH/64809/def2-svp.bas                    
Number of atoms                            I                4
Charge                                     I                0
Multiplicity                               I                1
Number of electrons                        I               40
Number of alpha electrons                  I               20
Number of beta electrons                   I               20
Number of basis functions                  I               64
Number of independent functions            I               60
Number of contracted shells                I               26
Highest angular momentum                   I                2
Largest degree of contraction              I                5
Number of primitive shells                 I               54
Virial Ratio                               R      0.000000000000000E+00
Atomic numbers                             I   N=           4
          13           9           9           9
Nuclear charges                            R   N=           4
  1.30000000E+01  9.00000000E+00  9.00000000E+00  9.00000000E+00
Current cartesian coordinates              R   N=          12
  0.00000000E+00  0.00000000E+00  0.00000000E+00  0.00000000E+00  3.08359062E+00
  0.00000000E+00  2.67046628E+00 -1.54179531E+00  0.00000000E+00 -2.67046628E+00
 -1.54179531E+00  0.00000000E+00
Total Energy                               R     -5.403756513494764E+02
Shell types                                I   N=          26
           0           0           0           0           1           1
           1           2           0           0           0           1
           1           2           0           0           0           1
           1           2           0           0           0           1
           1           2
Number of primitives per shell             I   N=          26
           5           3           1           1           5           1
           1           1           5           1           1           3
           1           1           5           1           1           3
           1           1           5           1           1           3
           1           1
Shell to atom map                          I   N=          26
           1           1           1           1           1           1
           1           1           2           2           2           2
           2           2           3           3           3           3
           3           3           4           4           4           4
           4           4
Coordinates of each shell                  R   N=          78
  0.00000000E+00  0.00000000E+00  0.00000000E+00  0.00000000E+00  0.00000000E+00
  0.00000000E+00  0.00000000E+00  0.00000000E+00  0.00000000E+00  0.00000000E+00
  0.00000000E+00  0.00000000E+00  0.00000000E+00  0.00000000E+00  0.00000000E+00
  0.00000000E+00  0.00000000E+00  0.00000000E+00  0.00000000E+00  0.00000000E+00
  0.00000000E+00  0.00000000E+00  0.00000000E+00  0.00000000E+00  0.00000000E+00
  3.08359062E+00  0.00000000E+00  0.00000000E+00  3.08359062E+00  0.00000000E+00
  0.00000000E+00  3.08359062E+00  0.00000000E+00  0.00000000E+00  3.08359062E+00
  0.00000000E+00  0.00000000E+00  3.08359062E+00  0.00000000E+00  0.00000000E+00
  3.08359062E+00  0.00000000E+00  2.67046628E+00 -1.54179531E+00  0.00000000E+00
  2.67046628E+00 -1.54179531E+00  0.00000000E+00  2.67046628E+00 -1.54179531E+00
  0.00000000E+00  2.67046628E+00 -1.54179531E+00  0.00000000E+00  2.67046628E+00
 -1.54179531E+00  0.00000000E+00  2.67046628E+00 -1.54179531E+00  0.00000000E+00
 -2.67046628E+00 -1.54179531E+00  0.00000000E+00 -2.67046628E+00 -1.54179531E+00
  0.00000000E+00 -2.67046628E+00 -1.54179531E+00  0.00000000E+00 -2.67046628E+00
 -1.54179531E+00  0.00000000E+00 -2.67046628E+00 -1.54179531E+00  0.00000000E+00
 -2.67046628E+00 -1.54179531E+00  0.00000000E+00
Primitive exponents                        R   N=          54
  5.88757270E+03  8.85612260E+02  2.01136049E+02  5.62849747E+01  1.72295512E+01
  2.93402499E+01  3.04396304E+00  1.12855395E+00  1.42341752E-01  5.44001923E-02
  1.45119188E+02  3.37178948E+01  1.03698631E+01  3.51356160E+00  1.19800503E+00
  2.65830059E-01  7.10033620E-02  3.00000000E-01  2.89483260E+03  4.35419391E+02
  9.88433289E+01  2.74851980E+01  8.54054982E+00  1.06545780E+00  3.32473467E-01
  2.26966339E+01  4.98723393E+00  1.34916140E+00  3.48298820E-01  1.40000000E+00
  2.89483260E+03  4.35419391E+02  9.88433289E+01  2.74851980E+01  8.54054982E+00
  1.06545780E+00  3.32473467E-01  2.26966339E+01  4.98723393E+00  1.34916140E+00
  3.48298820E-01  1.40000000E+00  2.89483260E+03  4.35419391E+02  9.88433289E+01
  2.74851980E+01  8.54054982E+00  1.06545780E+00  3.32473467E-01  2.26966339E+01
  4.98723393E+00  1.34916140E+00  3.48298820E-01  1.40000000E+00
Contraction coefficients                   R   N=          54
  5.65197896E-03  4.22182534E-02  1.89187197E-01  4.80435912E-01  4.25872684E-01
  8.85686032E-02 -5.43157067E-01 -5.29385510E-01  1.00000000E+00  1.00000000E+00
  1.07263779E-02  7.41036235E-02  2.61296213E-01  4.80201235E-01  3.84382241E-01
  1.00000000E+00  1.00000000E+00  1.00000000E+00 -5.34932118E-03 -3.99677344E-02
 -1.79412618E-01 -4.68324687E-01 -4.47241605E-01  1.00000000E+00  1.00000000E+00
 -6.47821482E-02 -3.40357854E-01 -7.34858154E-01  1.00000000E+00  1.00000000E+00
 -5.34932118E-03 -3.99677344E-02 -1.79412618E-01 -4.68324687E-01 -4.47241605E-01
  1.00000000E+00  1.00000000E+00 -6.47821482E-02 -3.40357854E-01 -7.34858154E-01
  1.00000000E+00  1.00000000E+00 -5.34932118E-03 -3.99677344E-02 -1.79412618E-01
 -4.68324687E-01 -4.47241605E-01  1.00000000E+00  1.00000000E+00 -6.47821482E-02
 -3.40357854E-01 -7.34858154E-01  1.00000000E+00  1.00000000E+00
Alpha Orbital Energies                     R   N=          60
 -5.85407136E+01 -2.62937180E+01 -2.62935104E+01 -2.62935427E+01 -3.67905964E+00
 -3.70888785E+00 -3.71291302E+00 -3.73761553E+00 -9.07019384E-01 -9.01609546E-01
 -9.02264769E-01 -8.95135746E-01 -8.98501768E-01 -8.91790743E-01 -9.20623126E-01
 -9.20424794E-01 -9.20103501E-01 -9.19890663E-01 -9.17997937E-01 -9.16046711E-01
 -2.07716727E-03 -2.02532132E-03 -1.53011751E-02 -1.52952707E-02 -1.51964663E-02
 -1.51887085E-02 -1.22089070E-02 -2.11496948E-03 -1.20936734E-02 -1.18626782E-02
 -1.86707050E-03 -1.17669481E-02 -7.19866040E-05 -5.32169961E-05 -7.01476919E-05
 -6.99501392E-05 -8.52596148E-06 -7.94336693E-06 -1.05561647E-03 -2.39456641E-06
 -1.54178036E-02 -1.53781362E-02 -2.01288867E-03 -2.01131135E-03 -1.99560273E-03
 -1.71478651E-03 -1.97143799E-03 -1.20938343E-02 -1.94491950E-03 -1.92959626E-03
 -1.18320783E-02 -1.90055136E-03 -8.61004125E-04 -7.38494567E-04 -6.99049619E-04
 -6.57518002E-04 -1.06701478E-03 -1.06719636E-03 -5.96612931E-06 -3.36443123E-06
Alpha MO coefficients                      R   N=        3840
 -9.96092136E-01  2.11083855E-02  3.82367176E-02 -6.33153770E-03  6.27765780E-04
 -5.98778044E-05  9.18232060E-04  2.47645565E-05 -2.31806225E-06  3.53903900E-05
 -3.29807108E-06  8.77861323E-08 -7.41500910E-06 -1.22303316E-02 -1.22302902E-02
 -1.23659381E-02 -1.98182264E-06  4.31631289E-07 -3.32551670E-07 -1.58634220E-05
  2.38346604E-04 -6.96768071E-04  1.03821281E-06  1.45666396E-04  2.67911825E-06
 -5.19119790E-07 -4.25115412E-05 -2.69628693E-06  1.35751120E-04  4.17790505E-05
  1.40633137E-04 -3.26817250E-07  3.58835736E-08 -3.14955333E-07 -1.44988882E-05
  2.42284585E-04 -6.99209936E-04  1.25999156E-04 -7.32096742E-05  9.49071329E-07
 -3.22884453E-05  1.92163538E-05 -2.04381919E-06  6.70840296E-05  1.13459402E-04
  1.41242387E-04  4.64305042E-05  1.18655892E-07 -2.88605441E-07 -1.48089324E-05
  2.41566394E-04 -6.91826439E-04 -1.24777483E-04 -7.13533273E-05  3.49150176E-07
  3.80775559E-05  2.12270310E-05 -1.46203648E-06  6.43909703E-05  1.12158352E-04
  1.40884741E-04 -4.78635328E-05  1.56986210E-07 -9.23679448E-08  2.81801631E-07
  3.74662357E-05 -1.28909931E-03 -1.71480166E-04 -3.83317390E-05 -7.43780971E-05
  3.37976896E-05  1.77717597E-05 -9.66660871E-04 -2.57599450E-05  2.88420062E-05
 -6.97041870E-04 -2.00230861E-05 -1.25940345E-04 -7.64796180E-04  2.82098116E-04
  3.06464124E-05 -1.05382277E-07 -2.65253472E-05  9.92605590E-01 -2.90146118E-02
  1.38637104E-02 -3.20545050E-04 -1.72997132E-03  2.26311685E-04  2.37731171E-04
 -1.24164019E-03 -1.63463205E-04  4.99490014E-03  5.43874407E-03  5.00566980E-03
 -4.57386820E-06  5.56466246E-07  9.82545381E-06  4.50480915E-06 -7.45571385E-05
  3.46860335E-04 -4.70165780E-05  1.73383421E-04 -2.54368232E-06 -1.14101870E-04
  2.08667115E-04  3.53182103E-06 -4.80101025E-05 -3.72821847E-05 -7.33744414E-05
  3.26903004E-07  5.17404699E-07 -3.12510893E-07  6.45898520E-06 -7.12940631E-05
  3.60993913E-04  4.62058731E-05  1.60757456E-04 -3.08176130E-06  1.01940728E-04
  2.21834850E-04  4.27755420E-06 -5.09186596E-05 -3.92723598E-05 -7.49440431E-05
 -5.13343439E-07  4.28524172E-07 -3.04985840E-07 -7.83585687E-06 -1.93474928E-05
 -1.40563329E-03 -1.38064546E-04  1.81340372E-05 -5.21583260E-06  2.49489230E-05
  9.11913909E-04  5.21886908E-04  9.54330046E-07  5.94370896E-04  3.35357172E-04
  1.27111865E-08 -6.34770186E-04 -2.64745417E-04  2.87567675E-04 -3.45859685E-04
 -2.08502979E-07  3.37686464E-07  6.61605573E-06 -6.68053259E-05  3.52035674E-04
 -1.18715985E-04 -1.17141028E-04 -1.49009851E-06 -1.30729585E-04 -1.98477804E-04
  9.26767822E-07 -4.02174267E-05 -4.97889544E-05 -7.32980073E-05  5.18259510E-06
 -1.57562707E-07  6.01886515E-07  6.52178504E-06 -7.01760234E-05  3.52309987E-04
 -1.61377388E-04 -4.41615852E-05  1.97896099E-07 -2.39637874E-04 -7.33700856E-06
  3.04354107E-08 -4.19401072E-05 -4.49006612E-05 -7.31011607E-05  5.82288870E-06
 -1.03301293E-07 -1.32254958E-07  9.92689193E-01 -2.88363660E-02  1.40321884E-02
  1.77333231E-03  1.09931592E-03  1.58936786E-06  8.95670169E-04  4.68576452E-04
 -1.75291994E-06  5.32521874E-03  5.10879291E-03  5.00795497E-03  2.06815011E-04
 -4.92390262E-08 -5.66667875E-09 -1.11261278E-05 -3.31278772E-05 -1.41606042E-03
 -1.34335602E-04  3.05498863E-05  1.31787287E-05  2.87010036E-05 -9.13340499E-04
  5.31670204E-04  1.00154830E-06 -5.88148273E-04  3.43502434E-04 -3.99531581E-07
 -6.22301595E-04 -2.76518997E-04  2.88961907E-04  3.57517430E-04  4.61373264E-08
 -3.65896068E-07  5.24935388E-06 -6.88291411E-05  3.51455465E-04  1.17117602E-04
 -1.16752183E-04 -3.01454914E-07  1.28390089E-04 -2.02334451E-04  7.30080121E-07
 -3.94412440E-05 -4.80352908E-05 -7.31106129E-05 -4.65265984E-06  9.12021387E-07
  5.90864959E-07  9.92691116E-01 -2.88324019E-02  1.40385157E-02 -1.84034100E-03
  1.02031245E-03  1.85211383E-06 -8.54534449E-04  5.20890121E-04 -1.72858780E-06
  5.31904816E-03  5.11445562E-03  5.00831937E-03 -2.09042931E-04  4.86508309E-07
  7.92747334E-08  5.87224780E-06 -6.72870574E-05  3.51877111E-04  1.61582503E-04
 -4.47989574E-05  8.63897554E-09  2.37225266E-04 -1.12521147E-05 -5.32448383E-07
 -4.28050249E-05 -4.53607680E-05 -7.29370279E-05 -6.55471678E-06 -2.69494745E-07
  3.87919792E-07  1.35249517E-01  4.96736010E-01 -5.55273256E-03  3.44007472E-03
 -7.76693837E-01 -3.33236319E-01 -1.92240823E-01 -3.10416753E-02 -1.32990882E-02
 -7.44400823E-03  3.89853860E-03  1.65289920E-03  1.45584579E-03 -1.63724419E-03
 -3.19323914E-03 -2.21743542E-03  2.28737796E-03 -1.60231913E-05 -5.53125721E-06
 -1.96324244E-04 -4.44475128E-04  2.75590473E-03  2.12066965E-04 -9.41607770E-04
 -2.36084611E-04  5.99274835E-04 -1.79895052E-03  4.29935283E-04  2.97181958E-04
 -1.64337994E-03  2.93699367E-04  3.02285136E-04  2.08495606E-05  4.36367755E-05
 -3.04070321E-04 -8.19829276E-04  3.86008865E-03 -1.02347208E-03  9.66528514E-04
 -2.04039545E-04 -2.01779025E-03  1.68206294E-03  4.06400332E-04 -1.32178342E-03
 -4.90512259E-04  3.39941907E-04  1.38048607E-03  3.67544022E-05 -2.39897965E-05
  5.29037568E-04  1.23404553E-03 -5.12059408E-03 -1.26207020E-03 -6.42247537E-04
 -2.29339512E-04 -3.19650677E-03 -1.99704560E-03  4.15270155E-04  1.46282161E-03
  4.74219731E-04 -1.18822688E-04  1.06092127E-03 -4.31927667E-05 -1.82463010E-05
  1.40726429E-01  5.15401734E-01 -5.74427998E-03  3.54085885E-03  2.06426594E-02
  8.13200282E-01 -2.68455031E-01  8.70456380E-04  3.26012896E-02 -1.04196265E-02
 -1.31179443E-04 -4.08629185E-03  2.04075253E-03 -4.51957606E-03 -3.89901808E-04
 -2.28485589E-03 -1.27874978E-04 -8.99044889E-06  3.12363853E-05  5.02265391E-04
  1.15645206E-03 -5.05347366E-03  9.37326409E-05  1.51915750E-03 -2.67023486E-04
 -6.89127059E-05  3.58281635E-03  5.27465143E-04 -7.19647122E-05  1.94899849E-03
 -1.13870767E-04 -1.01321124E-05 -2.68267350E-05  6.22761384E-05 -2.62466675E-04
 -6.24550616E-04  3.06702067E-03 -9.81012205E-04  2.94976013E-04 -2.86277116E-04
 -2.09388530E-03  5.95888205E-04  5.78225659E-04 -1.49125675E-03 -8.31610967E-06
  3.06042490E-04  9.13390763E-04  4.86309054E-05 -3.22916904E-05 -2.63478703E-04
 -6.63304756E-04  3.35274324E-03  1.29462594E-03  3.56806630E-04 -3.08481867E-04
  2.08511484E-03  6.77886532E-04  5.83792107E-04 -1.57589452E-03 -2.80164374E-05
  3.20347244E-04 -9.85207135E-04 -4.97116917E-05 -3.19009795E-05  1.41699722E-01
  5.17774477E-01 -5.95913181E-03  3.63550498E-03  5.99779841E-01 -4.52092210E-01
 -4.09008312E-01  2.40233656E-02 -1.81940181E-02 -1.58546979E-02 -3.00105560E-03
  2.29778046E-03  3.12312882E-03 -1.24080347E-03 -3.69166188E-03 -2.28614006E-03
 -1.73818538E-03  3.84652264E-05 -2.30689238E-05 -2.17014041E-04 -5.97724311E-04
  3.72159544E-03 -2.84423196E-04 -1.39050111E-03 -5.09795762E-04 -3.98911538E-04
 -2.33485905E-03  9.33240047E-04  3.39236291E-04 -2.04913414E-03  3.44959901E-04
 -2.36894865E-04  1.62134645E-05  8.68092011E-05  4.87292316E-04  1.16318667E-03
 -4.49677158E-03  1.08384593E-03 -6.50424306E-04 -5.50470700E-04  2.91813723E-03
 -1.59381219E-03  9.26974886E-04  1.28910274E-03  3.69913245E-04 -7.42811518E-05
 -8.42147790E-04  7.93491567E-05 -4.92652859E-05 -2.06886723E-04 -4.82022057E-04
  2.43904071E-03  6.57712646E-04  6.04311577E-04 -4.64207423E-04  1.14194545E-03
  1.27023823E-03  8.90844424E-04 -8.60822058E-04 -3.73942576E-04  2.71801369E-04
 -1.03424211E-03 -7.74669004E-05 -4.44688491E-05  1.46490295E-01  5.32178153E-01
 -6.30717540E-03  3.77015572E-03  1.21309608E-01 -3.65660192E-02  8.37179706E-01
  4.86000393E-03 -1.54976265E-03  3.25220161E-02 -6.01310545E-04  1.99496235E-04
 -6.39709594E-03 -2.27752507E-03 -2.55801144E-03 -2.35506152E-03 -3.54930040E-04
 -2.09042886E-05 -1.18383983E-06 -7.10672679E-05 -1.34171919E-04  7.16398841E-04
 -9.95489067E-05 -6.00274306E-04  9.31499728E-04 -4.21476930E-05 -2.51806471E-04
 -1.80416900E-03  2.11934986E-04 -7.57757732E-04  1.94657146E-04 -4.61365967E-05
  1.32649946E-05 -1.80671054E-04  4.99589522E-05  1.85691010E-04 -3.63105459E-04
 -4.95700272E-05 -2.54939218E-06  1.03947339E-03  3.19791375E-04 -2.07338112E-04
 -1.88914401E-03 -1.54210952E-04  6.51705743E-05  1.44110258E-04  2.00396207E-04
 -1.58892198E-04  9.34374436E-05 -6.92160976E-05 -1.13551235E-04  1.09443115E-03
  3.73588130E-04  2.02882494E-04  9.37984379E-04  5.38585442E-04  4.15830928E-04
 -1.82172856E-03 -5.90792654E-04 -8.37484705E-05  2.14680280E-04 -5.75781422E-04
  1.65519496E-04  8.83113028E-05 -8.31552390E-03 -5.30191894E-02 -9.59179714E-02
  3.20168670E-02 -1.87181381E-02 -3.46235210E-02  9.81484989E-04  4.42975142E-02
  5.29104700E-02 -1.59599165E-03 -3.23019649E-02  2.05742318E-02 -1.22425387E-03
  1.78541298E-02 -2.72571271E-02  1.36730607E-03 -4.12334668E-02  1.33320240E-03
  7.61217814E-04 -1.56618769E-04  1.86916401E-03 -5.01220818E-03 -3.01165351E-03
  1.50925187E-03 -2.11708690E-04  1.34661104E-02 -5.47318402E-03  2.60559503E-04
  9.93333475E-04  9.70331994E-04  9.56800305E-04 -8.51462352E-04  6.61614216E-06
  1.11616583E-05  2.59194608E-03  5.11389387E-03  8.02389262E-03  1.21880312E-02
  1.43156694E-03 -2.04320343E-04 -2.17736470E-03 -7.86970423E-03  2.62262975E-04
 -1.58192473E-03 -6.08077678E-04 -1.60179210E-05  7.36474658E-04  1.18897160E-05
 -5.40825415E-06  1.68893704E-01  3.57796274E-01  2.91626839E-01  5.06040838E-01
 -1.66711523E-01  1.53293124E-02 -3.48466353E-01  1.30803701E-01 -1.12209567E-02
 -9.97454749E-03  1.05782738E-02  5.51037773E-03 -1.11056007E-03 -3.29503372E-04
 -2.08441009E-04  7.86718601E-03  5.01304130E-02  9.08462740E-02 -3.05187825E-02
  2.13695408E-02 -3.14983591E-02  2.94133608E-03 -2.45199204E-02  6.07608716E-02
 -4.71244120E-03 -3.52824038E-02 -1.70761053E-02 -3.71657328E-03 -1.33696658E-02
  2.25737381E-02 -1.00347378E-03 -4.48894421E-02 -1.11662714E-04 -4.49224410E-03
 -1.66572594E-01 -3.52671312E-01 -2.85814046E-01  4.12213644E-01  3.40158046E-01
  4.59322056E-02 -2.98349745E-01 -2.27018736E-01 -3.36441894E-02 -5.72013835E-03
  4.96423718E-03 -5.47067014E-03  1.01954411E-02 -1.61379417E-04  9.59313989E-04
  2.69025259E-04 -1.58178230E-03  4.92339311E-03 -2.59032958E-03 -2.71783838E-03
 -4.32625891E-04  1.18725391E-02  9.27121048E-03  6.74489432E-04 -1.65447931E-03
 -3.64622410E-04 -9.32920567E-04 -3.70706013E-04  2.96380066E-05 -2.12857036E-05
 -2.59675315E-03 -4.95775533E-03 -8.60640855E-03  4.66265391E-03  1.12566366E-02
 -5.13197799E-04  6.08075024E-03 -6.36422362E-03  6.64983431E-04  1.48487009E-03
  8.01988138E-04  8.64539427E-05  8.04162930E-04 -3.43705517E-05 -2.46538833E-05
 -7.30246365E-03 -4.69277501E-02 -8.69502117E-02  2.97167112E-02  3.61011008E-02
  4.77871441E-03  3.90264951E-04 -6.30413083E-02  6.91489007E-03 -6.65633008E-04
 -3.74408284E-03 -4.00111073E-02 -5.03699814E-04 -4.77963726E-02  3.92493669E-02
  8.00572903E-04 -6.20056124E-03 -5.31740820E-04  2.99412632E-04  2.57216359E-03
  4.84177238E-03  8.61620161E-03 -7.17204200E-03  9.62013563E-03 -2.07480818E-05
  8.71491747E-03  2.32180900E-03  5.25610114E-05 -3.96240645E-04 -1.95079133E-03
 -1.15369202E-04  3.38947409E-05  2.08300170E-06  1.01204395E-05  1.65972364E-01
  3.51235559E-01  2.84441603E-01 -6.84507773E-02  5.32688721E-01  6.14149579E-03
  3.34165515E-02 -3.75956761E-01 -4.49211876E-03  5.76360780E-03 -4.65484794E-03
  5.18368252E-03  1.07286616E-02  1.44844476E-04 -6.82181773E-05 -3.45601604E-04
  1.42652771E-03 -5.23813385E-03  1.35367723E-03 -3.59336533E-03 -6.26438898E-05
 -2.09385395E-03  1.52215518E-02  9.54438304E-05  4.87022307E-04  1.63886193E-03
  9.28640154E-04  4.93549250E-04 -5.54384609E-06 -2.05961885E-06  4.93649313E-03
  3.25784336E-02  6.55530576E-02 -2.42513518E-02 -2.78025420E-03  3.03849552E-02
  4.39957277E-04  2.13829776E-02 -4.56865601E-02 -6.88942462E-04 -3.32992967E-02
 -2.84537559E-02 -5.41248107E-04 -3.09508608E-02  3.76104943E-02  6.77127473E-04
 -3.73068353E-02 -5.91010519E-04  3.20783342E-04  7.77100806E-04 -3.40703776E-04
  5.40027594E-03 -4.89436661E-03  1.40428153E-03 -7.55098244E-05  1.51131838E-02
  6.43181094E-03  9.05268449E-05 -9.02568790E-04 -1.47996988E-03 -8.44534989E-04
 -7.34688088E-04  6.02339541E-06  8.00243711E-06 -1.60251416E-01 -3.38209370E-01
 -2.68893068E-01  4.62052123E-01  2.87784562E-01  6.64377834E-03 -3.21719525E-01
 -2.15177747E-01 -4.85831999E-03  9.90559322E-03 -1.23507208E-02 -4.39893364E-03
  2.07045773E-03  1.44149892E-04 -1.02443214E-04 -2.57491706E-03 -4.34050203E-03
 -1.01518640E-02  1.10976680E-02 -2.15166010E-03 -4.76343891E-05 -2.81483632E-03
  1.09151882E-02  8.27533392E-05  1.53816706E-03  1.11545890E-03  3.31927316E-04
  7.72876584E-04 -8.22297740E-06 -3.30401130E-06 -4.21161578E-03 -2.80898945E-02
 -5.83993989E-02  2.23916062E-02  2.52907223E-02  1.42553835E-02  1.25784769E-03
 -2.94038616E-02 -3.56189149E-02 -2.05996198E-03 -4.19294290E-02  1.39734347E-02
 -1.44172614E-03  5.33255707E-03 -1.16564003E-02 -1.10886191E-03 -5.41486275E-02
 -5.00569798E-05 -1.99370252E-03  1.61130942E-01  3.38007890E-01  2.66850867E-01
  4.89486372E-01 -2.36797980E-01  1.91694638E-02 -3.53468497E-01  1.58640369E-01
 -1.39926019E-02  4.60364112E-03 -1.86167256E-03  4.47009492E-03  1.28518387E-02
 -1.06557510E-04  5.60917053E-04  2.53431488E-03  4.08638145E-03  1.06184402E-02
  3.45021494E-03 -1.05339847E-02 -2.21045178E-04  8.23442869E-03  8.43477490E-03
  2.95298764E-04 -1.86167042E-03 -8.42481951E-04 -4.09916073E-04  5.19797462E-04
  1.29289247E-05 -8.73178589E-06 -9.25177154E-04 -1.05402004E-04 -5.03812816E-03
 -9.88073941E-04  5.71783261E-03 -2.65615891E-04  1.34778546E-02 -1.00165147E-02
  2.97921557E-04  1.89896427E-03  4.99405931E-04  7.80753627E-04  1.56035956E-05
 -1.44613567E-05 -1.20993639E-05 -3.68285834E-03 -2.49443746E-02 -5.39308744E-02
  2.12242265E-02 -2.32146856E-02  1.66460319E-02  3.49563749E-04  4.32831383E-02
 -9.91257484E-03 -5.43810348E-04  9.95984354E-03 -4.41673110E-02 -4.08244024E-04
 -4.82365623E-02  4.25960178E-02 -1.42413840E-03  2.02622553E-02  4.62815921E-04
  2.91900846E-04  2.53874063E-03  4.01278213E-03  1.08048401E-02  7.23983170E-03
  8.06558463E-03 -8.29956191E-05 -1.16482095E-02  3.19856057E-03  1.05644470E-04
 -7.49312961E-04 -2.02447846E-03 -4.40869529E-04  2.76522369E-04 -6.43382698E-06
  1.05558385E-05 -1.01531980E-03 -2.71005297E-04 -5.46408449E-03 -4.94067947E-03
 -3.75327506E-03 -5.69865569E-05  2.05482757E-03  1.69163431E-02  7.44037881E-05
  9.37501517E-04  1.56172607E-03  7.81534464E-04 -7.30269685E-04  2.79732329E-06
 -1.94256544E-06  1.57227916E-01  3.31295809E-01  2.60598371E-01 -6.05834529E-02
  5.44564170E-01  5.52633046E-03  5.40807560E-02 -3.87660143E-01 -4.05300688E-03
  9.62656420E-03 -6.48288302E-03  4.00986458E-03 -9.66313709E-03 -1.38419330E-04
 -7.09440187E-05  1.50224399E-02  8.84482008E-02  1.18425827E-01 -2.30622127E-02
 -3.57104461E-03 -7.57989809E-02  3.03227078E-02  4.46449966E-03  1.02190340E-01
 -5.13290360E-02  6.21506697E-03 -3.28356879E-03 -3.87569038E-02 -3.78907617E-02
  4.88586168E-02 -1.14992448E-02  7.97585731E-03 -1.71980070E-04 -4.90958832E-02
  1.27120125E-01  2.60582012E-01  1.57513792E-01 -6.95551754E-02  3.07103995E-01
  4.57622883E-01  5.02328288E-02 -1.98491195E-01 -3.34260971E-01 -2.42248768E-03
  1.70241464E-02 -1.52485796E-03 -1.80958132E-03  1.46296970E-04  1.28924105E-02
 -1.83514123E-03 -5.94239184E-03  5.64779247E-03 -5.48201996E-03  1.06580378E-02
 -5.12784822E-03 -2.54538819E-03 -5.60197357E-06  7.21341975E-03 -3.20003807E-05
  1.90679540E-04 -9.76553822E-04 -1.49507736E-03  3.54890934E-04 -2.62294992E-04
 -1.27187708E-03 -5.25775088E-03  8.19914407E-03  5.24574061E-03  8.11932025E-03
 -5.61965875E-03 -7.00458754E-04  2.86184224E-03  7.57037230E-03 -5.91402543E-04
 -1.50395002E-05 -1.15912912E-03  1.43204082E-03 -3.39972710E-04 -2.59492365E-04
  1.51351247E-02  8.91733008E-02  1.19674213E-01 -2.33947834E-02  6.74141290E-02
  3.59830702E-02 -3.01265706E-02 -9.10332080E-02 -4.88745217E-02  5.11094843E-02
  7.29702825E-04  5.54319923E-03  3.85770991E-02  3.17784128E-02 -2.06134292E-02
 -1.14962356E-02  4.09185478E-02 -4.23098801E-02 -2.42316499E-02 -1.81374086E-03
 -5.97202251E-03  5.97115457E-03 -6.26068822E-03 -1.01282076E-02  5.02095072E-03
  6.90780555E-04 -1.85619699E-03 -7.16306314E-03 -1.03352880E-03  1.09164071E-03
 -1.02043151E-03  8.83655009E-04 -4.53276059E-05 -4.37873383E-04 -1.40535359E-03
 -5.47061828E-03  7.77918168E-03 -1.01669980E-02  2.62413656E-04  5.61552416E-03
 -1.93182965E-03 -1.39396124E-03 -7.55630360E-03  9.64795303E-04 -1.46770127E-03
 -1.13536627E-03 -4.59695823E-04 -3.89967624E-04  1.63485075E-04  1.27026271E-01
  2.59118116E-01  1.56554477E-01 -2.44610862E-01 -1.98966854E-01 -4.57879965E-01
  1.56112308E-01  1.31750329E-01  3.34437672E-01  1.13571195E-02  3.63256907E-03
 -1.90778884E-03  1.03145871E-02  1.07631185E-02  6.18723089E-03  1.56483361E-02
  9.23684220E-02  1.24858659E-01 -2.47528271E-02 -6.78511974E-02  4.01478431E-02
  2.94684810E-02  9.22971848E-02 -5.46006398E-02 -5.04038015E-02 -4.19583051E-03
  5.63827789E-04 -3.79718144E-02  2.68258534E-02 -1.52377973E-02 -1.17419932E-02
 -4.62682443E-02 -4.15818224E-02  2.41540051E-02 -1.56631515E-03 -5.75932588E-03
  7.34116397E-03  5.28597194E-03 -9.76505225E-03 -5.60770372E-03  1.47580249E-03
 -1.15184566E-03  7.50912801E-03 -1.18327880E-03  8.62063165E-04 -1.13180371E-03
 -9.90403056E-04 -6.34209951E-05  3.99109359E-04  1.25433151E-01  2.55532310E-01
  1.52405225E-01  2.91945035E-01 -1.47917784E-01  4.50270388E-01 -1.89308213E-01
  9.44491356E-02 -3.28838357E-01  1.29967795E-02  2.29881368E-03 -2.09542010E-03
 -9.75355152E-03  1.05377733E-02 -6.08915924E-03 -1.74774606E-03 -6.02614467E-03
  6.68221784E-03  1.18034327E-02 -1.98889517E-04 -4.98442573E-03  1.48373717E-03
  5.74495434E-04  7.05840430E-03  1.16671934E-03 -1.29674030E-03 -1.09052777E-03
  5.73760077E-04 -3.95103193E-04 -1.73400635E-04 -1.56527928E-02 -9.23657128E-02
 -1.24806884E-01  2.47150138E-02  6.75286114E-02 -4.08082108E-02  2.94381230E-02
 -9.17465648E-02  5.52704527E-02 -5.04363864E-02  4.71401759E-03  4.41784505E-04
 -3.79787108E-02 -2.56611684E-02  1.41082726E-02  1.17241158E-02  4.69357982E-02
 -4.15220099E-02  2.41234773E-02  1.54194387E-03  5.74932882E-03 -7.50739871E-03
 -5.14254179E-03  9.55125259E-03 -5.39660465E-03 -1.83135074E-03  1.05058559E-03
  7.35698443E-03  1.21064259E-03 -8.20741979E-04  1.14680641E-03  9.97190470E-04
 -4.37214246E-05  4.18824779E-04 -1.25410846E-01 -2.55481353E-01 -1.52407810E-01
 -2.97976858E-01  1.36522299E-01  4.49979654E-01  1.93699833E-01 -8.62479625E-02
 -3.28638542E-01 -1.32332007E-02 -2.04654633E-03  2.09006859E-03  9.57534423E-03
  1.05304036E-02 -6.08923073E-03  1.78211934E-03  6.05734391E-03 -6.46809964E-03
 -1.19288426E-02  3.01978366E-04 -5.08189924E-03 -1.45688542E-03 -9.81044517E-04
  7.13519007E-03 -1.19704641E-03  1.25840067E-03  1.07046117E-03 -5.94054884E-04
 -3.86040870E-04 -1.71046703E-04  1.60325933E-02  9.46477132E-02  1.28322787E-01
 -2.56349530E-02  7.08112694E-02  3.82525240E-02  2.89721742E-02 -9.66118350E-02
 -5.24348616E-02 -4.96168330E-02  1.72785694E-03  5.56856538E-03 -3.73624267E-02
  3.29187785E-02 -2.09212648E-02 -1.18861079E-02  4.35809970E-02  4.10247123E-02
  2.34967798E-02 -1.85889118E-03 -6.21531933E-03  6.28786157E-03 -6.46199734E-03
 -1.06424351E-02 -5.10097101E-03  3.81515315E-04 -1.78966456E-03  7.09416681E-03
 -1.08802795E-03  1.11315321E-03 -1.08212924E-03  9.38063228E-04  4.00675935E-05
  3.99316948E-04 -1.55882097E-03 -5.88806968E-03  7.78979056E-03 -1.10015408E-02
  2.85048820E-04 -5.36533268E-03 -1.85865468E-03 -1.38473129E-03  7.26142658E-03
  1.03867253E-03 -1.51763182E-03 -1.18436048E-03 -4.90993029E-04  3.78067943E-04
 -1.60102477E-04  1.23733437E-01  2.51846518E-01  1.48585153E-01 -2.70017791E-01
 -2.07043090E-01  4.42031480E-01  1.72915379E-01  1.36657117E-01 -3.22816028E-01
  1.19594516E-02  3.48721515E-03 -2.21197458E-03  1.07995001E-02 -1.03292540E-02
 -5.94683965E-03  1.62601800E-02  9.60387426E-02  1.30207501E-01 -2.60882331E-02
 -3.29044989E-04 -8.14998679E-02 -2.87626458E-02  5.56215379E-04  1.11273143E-01
  4.95654041E-02  6.33590555E-04 -4.48256672E-03  3.72105832E-02 -4.06451286E-02
  5.26080373E-02 -1.19081071E-02  9.29323114E-04  6.42777731E-05  4.71176419E-02
  1.22427042E-01  2.48842743E-01  1.46192568E-01 -8.34330955E-03  3.44816538E-01
 -4.39591416E-01  5.96535415E-03 -2.23402438E-01  3.21007848E-01 -2.49698811E-03
  1.78060333E-02 -2.13254500E-03 -2.02621171E-04 -1.02457767E-04 -1.17731826E-02
 -1.80595146E-03 -6.26002175E-03  6.91780111E-03 -5.97397739E-03  1.04855773E-02
  4.94867275E-03 -9.06181582E-04  1.25952865E-03 -6.96562892E-03 -3.05118420E-04
  1.11688729E-04 -1.13911711E-03 -1.56045584E-03 -3.35983613E-04  2.47835774E-04
 -1.74777229E-03 -6.18422048E-03  7.14583193E-03  6.00236054E-03  1.00060085E-02
  5.31811381E-03  5.17591685E-04  1.69076449E-03 -7.24824092E-03 -3.71372633E-04
  9.12170346E-05 -1.15060792E-03  1.56421052E-03  3.21658437E-04  2.46182308E-04
  2.19525888E-03  2.22781448E-02  1.72474011E-01 -6.24190451E-03  1.44009285E-03
 -4.55690993E-03  2.52016922E-02  4.12510577E-03  3.82320978E-02 -7.74619917E-02
  1.37307211E-02  5.97323932E-03  5.78959286E-02  9.39443799E-02  3.12309377E-02
 -8.91880481E-02 -4.32208602E-02 -6.94066903E-03 -1.51635800E-01  2.39567852E-02
  7.83147744E-02 -7.46238303E-03  2.27356231E-02  8.23153918E-02 -2.17752556E-02
  4.10172096E-02  1.53328303E-01  7.35710944E-02  3.56048764E-01 -1.35821079E-01
 -4.08068718E-01  1.17373159E-01 -5.95206149E-02  8.35310988E-01  7.44818001E-04
  3.57754787E-02 -1.44606415E-01  2.57571587E-03 -8.17454812E-03 -1.01004564E-02
  5.69791111E-02 -5.62240723E-02 -3.21744184E-02  3.28733515E-03  3.73749593E-03
  1.87789230E-02  1.08399607E-02  8.24353916E-03 -2.10264701E-03  7.64256290E-04
  2.51072859E-02 -8.75107223E-02 -3.07242175E-03 -1.57274354E-02 -1.22785488E-02
 -2.93178385E-02 -6.37018937E-02 -3.95997364E-02  6.87436475E-03 -6.49476149E-03
  1.87315446E-02 -1.05870462E-02 -6.24883642E-03 -3.02608430E-03  2.91151030E-03
  3.01389392E-02  2.38166387E-01 -2.66598548E-02  5.78719779E-03  5.07557696E-03
 -1.61529944E-02 -6.35633203E-02 -2.75999737E-02  4.93456333E-02 -7.85571733E-03
  1.26899860E-02 -5.76459668E-02  2.86297358E-02  1.15844623E-01 -1.23804334E-01
  6.97863236E-03 -9.08370655E-02 -3.47327286E-02  3.31338023E-04  3.73378036E-02
 -1.58348426E-01  4.24595906E-03  6.86798967E-03  7.72317411E-03  1.47506029E-02
  8.39766957E-02  2.30637829E-02  1.20583881E-02  5.66637714E-04  1.79445781E-02
 -6.06057590E-03  4.42369506E-04 -6.79541722E-03  3.59630583E-04  2.47557907E-02
 -9.22466314E-02  1.47482837E-02  4.72966842E-03  1.44891507E-02  7.01177715E-02
  3.38570881E-03  4.15536159E-02 -9.78242785E-03  1.04044889E-02  2.12793698E-02
 -2.35827723E-03 -5.26409582E-03  3.86163805E-03  2.34282855E-02  8.72574631E-02
 -5.31299594E-02 -1.05090971E-01 -5.54900583E-02  2.89360010E-02 -2.11142936E-01
 -9.55155108E-02 -3.13122381E-02  2.28241112E-01  2.37434327E-01 -6.45497898E-01
 -2.72036196E-01  5.47864863E-01  4.61449943E-01 -2.06117216E-02 -1.22338644E-01
 -1.42369296E-01  6.27639664E-03  1.09476653E-01 -6.66322512E-02  6.13611027E-02
 -1.91704136E-01  1.15665833E-01 -1.24078095E-01 -1.01354481E-02  1.27208641E-02
 -7.24865635E-02 -5.53113178E-02  2.38015990E-02 -1.01913525E-02  1.01000986E-01
 -1.35268628E-01  8.04997386E-02 -1.25749691E-03 -1.13386804E-02 -1.63524320E-03
  4.52173651E-04 -4.31466193E-03  8.62659226E-03  2.65608080E-02 -2.85143676E-02
  4.44949375E-02  4.44343804E-03 -2.08360063E-03 -2.31618157E-03 -1.23193388E-03
  1.63302856E-04  4.16596545E-03  1.66302729E-01  7.25631665E-01 -4.43577527E-01
  4.50801446E-01 -2.10277105E-01 -6.30432789E-01  2.92060161E-01 -1.23309436E-01
 -5.50157658E-01 -2.55054796E-02 -6.76327556E-02  3.74472268E-03 -2.93826322E-02
 -6.37069456E-02  2.86764380E-02 -1.11126255E-03 -1.32750102E-02  2.35010725E-03
  1.92076925E-03  1.21677428E-03  7.68490938E-03  4.02598478E-02 -1.73678350E-02
  4.46798807E-02  1.81607336E-03 -5.67129704E-04 -2.38849925E-03 -2.26532306E-03
 -3.20391038E-03 -2.11786311E-03 -2.05773754E-02 -1.21870443E-01 -1.40650922E-01
  6.31338049E-03  1.10270721E-01 -6.54448605E-02 -6.10875790E-02 -1.93667977E-01
  1.13653438E-01  1.23282756E-01 -1.05682210E-02  1.08917996E-02  7.22146113E-02
 -6.02504949E-02  2.62820136E-02 -1.04062903E-02  1.00302558E-01  1.36790196E-01
 -8.01213594E-02 -1.27421919E-03 -1.20566246E-02 -2.49825645E-04  1.71817420E-03
 -3.59268109E-03 -8.56984088E-03  2.94715616E-02 -2.80213263E-02 -4.42862562E-02
  3.98851705E-03 -1.79083949E-03 -2.52941943E-03 -6.56126522E-04  1.88556170E-03
 -3.24584626E-03  1.66352998E-01  7.25698949E-01 -4.42660998E-01  4.42430409E-01
 -2.26222036E-01  6.30913171E-01  2.83709207E-01 -1.37579276E-01  5.50566559E-01
 -2.69015144E-02 -6.64052658E-02  3.69495929E-03 -3.06418634E-02  6.26285690E-02
 -3.11355905E-02 -1.19218690E-03 -1.31079024E-02  1.54713718E-03  2.49399661E-03
  1.67313864E-03 -8.50904225E-03  3.93233787E-02 -1.49981068E-02 -4.47966672E-02
  1.28962397E-03 -4.17865308E-04 -1.81612899E-03 -2.25495488E-03  3.98248040E-03
  2.21953488E-03  1.97160508E-02  1.16175214E-01  1.26952058E-01 -1.29229805E-03
  1.09194413E-01  5.85106377E-02 -6.11533436E-02 -1.86626434E-01 -1.01409417E-01
  1.22281587E-01 -1.89799205E-02 -4.15579591E-05  7.28881704E-02  7.39405889E-02
 -4.12533976E-02  1.05145350E-02  8.49538094E-02 -1.37301576E-01 -7.68157325E-02
  1.22993214E-03  1.43732200E-02 -4.66338133E-03  5.68697061E-04  4.06665306E-03
 -9.51793838E-03  3.71542773E-02  2.73460062E-02 -4.68092559E-02 -2.51047660E-03
  3.02888341E-03  1.30759665E-03 -2.29515291E-03  2.12188315E-04 -4.74982886E-03
  1.24949559E-03  1.00157837E-02  4.18946295E-03  3.97779662E-03 -5.98098864E-04
 -8.70008427E-03  3.51983593E-02  8.09505768E-03 -4.44269319E-02 -9.27009380E-04
 -2.24159509E-03  2.26883387E-03 -2.21752150E-03 -4.03401645E-03  1.36609820E-03
 -1.67815787E-01 -7.34947441E-01  4.58366414E-01  3.74981551E-01  2.98558511E-01
  6.43097947E-01  2.27496766E-01  2.07784110E-01  5.64126113E-01  4.25347016E-02
  5.70214335E-02 -7.67264678E-03 -3.57191138E-02 -5.52926206E-02 -4.56622343E-02
 -1.97049807E-02 -1.16387317E-01 -1.34510369E-01  4.55997636E-03  5.46423825E-03
  1.24444754E-01 -6.00499784E-02 -7.94216933E-03 -2.21151436E-01  1.18508396E-01
 -1.24920075E-02 -1.44146083E-02  7.49142061E-02  7.70647320E-02 -1.14315701E-01
 -7.36601841E-03 -1.90614956E-02  4.58678859E-03  1.51730714E-01  1.68514782E-01
  7.35775170E-01 -4.51110063E-01 -9.84434676E-02  4.65465466E-01  6.42633591E-01
 -9.26966204E-02  2.84707654E-01  5.66627806E-01 -8.51473432E-02 -2.86333584E-02
  1.92374748E-02 -1.67134693E-02 -1.06444935E-02  8.50515832E-02 -1.20304823E-03
 -1.50051584E-02  6.51321095E-03 -2.87941072E-03  2.17954397E-03 -8.89126693E-03
 -3.98444323E-03  4.70273429E-02 -4.74599884E-02 -2.04581554E-03  2.83146960E-03
 -2.93508971E-03  5.01738073E-04 -3.29854072E-03  2.33778746E-03 -1.28185109E-03
 -9.35082848E-03 -5.92470625E-03  2.70899281E-03  3.72984551E-03 -8.84804416E-03
  1.12358622E-02  3.24510119E-02 -4.44475632E-02  3.93390653E-04  2.84209372E-03
 -2.11197291E-03 -2.30695832E-03  3.13671356E-03  3.02675502E-03  3.76811754E-03
  2.61975399E-02  7.16956929E-02 -7.08106927E-02  2.64956567E-02 -1.70964447E-02
 -2.02707866E-04 -4.77942171E-02 -4.74808907E-03 -4.09450686E-05  1.29090056E-02
  1.01665250E-01  1.12717868E-04  8.33430276E-02 -7.58790959E-02  1.92480083E-02
 -5.90246158E-02 -3.20206924E-04 -9.53287161E-04  1.22711839E-03  2.57178202E-02
 -4.93667341E-02  1.28146719E-03  5.33707317E-03 -7.46796445E-04  4.97659822E-02
  1.35325181E-02 -6.99434757E-04  1.69504317E-03  3.50971530E-03  3.13922506E-03
 -5.18660786E-03  4.12037345E-04 -8.03038792E-04 -1.61120572E-03 -2.10939009E-02
  2.80169852E-02 -1.17263339E-02 -4.84276877E-03  1.99021720E-04 -3.84784319E-02
 -6.46892947E-02 -1.66368782E-06  5.91952864E-04 -4.96046327E-03 -4.68958109E-03
  4.58066632E-03  1.34891193E-04  2.79689676E-05  1.93410352E-01  8.90524572E-01
 -7.10734562E-01 -7.76397641E-02  7.78616010E-01  7.38222613E-03 -4.86324085E-02
  7.68390006E-01  7.42876820E-03 -1.41325006E-01  9.34635521E-02 -1.35362428E-01
 -3.91203253E-02 -5.45256223E-04  2.38726479E-03 -1.78413424E-03 -2.06943608E-02
 -1.61321589E-01  6.47111267E-02  1.48177751E-02  1.38461080E-03  5.03284408E-03
 -1.05841243E-02 -4.78390520E-02 -1.47508435E-02 -3.28916773E-02  4.60057510E-02
 -2.28084743E-03 -2.22829813E-02  8.42745623E-03  3.17434567E-02 -2.63488993E-01
 -3.20942528E-03 -3.34797674E-02  5.07282953E-02  1.41392112E-01  1.08738259E-01
  1.88415649E-01 -4.56448148E-02  7.47050646E-03  3.41214518E-01 -8.97147169E-02
  3.04070601E-02 -5.63417883E-01 -3.44891569E-02  2.92210081E-01  7.64914153E-01
 -9.90672483E-02  1.18152725E-01 -1.36158618E-03 -1.50931799E-02 -1.13434166E-02
 -2.51979414E-03  3.00709857E-02  6.90568761E-04  5.96364172E-02  6.65714744E-02
  2.05759081E-04 -3.26240088E-02  2.34789243E-02 -1.13393205E-02 -7.31513289E-04
  1.95793520E-03  3.39505669E-05  9.26715107E-04 -1.13052376E-02  1.11238759E-01
  4.10952781E-03 -2.58251651E-02 -1.33147188E-03  1.03158174E-01 -3.34872252E-02
 -4.67958726E-03  2.22310139E-02 -2.23311912E-02 -1.76932564E-03  5.02252240E-03
 -1.47295858E-03 -1.88527471E-03  5.28017107E-03  3.52019457E-02  8.33564696E-02
 -7.62739313E-02 -6.43852876E-03  3.48004175E-02  6.50803071E-04  3.71921889E-02
 -4.40771701E-02 -9.56160097E-04 -9.45088268E-02 -3.37076792E-02 -9.74110324E-04
 -7.32971112E-02  8.40452795E-02  1.99653479E-02 -4.89157507E-02 -1.43073840E-03
  1.36985001E-04 -1.56742790E-03 -1.90510117E-02  2.36505566E-02  9.58849676E-03
 -6.88476585E-03 -4.97903449E-04  7.02145119E-02  2.78651213E-03  9.56451755E-05
  1.04064034E-04 -3.78110161E-03 -4.55392008E-03 -5.59597907E-03  6.87439507E-04
  2.54384224E-04  1.95891445E-01  9.03435728E-01 -7.25173826E-01 -6.67291130E-01
 -4.02831031E-01 -9.38100334E-03 -6.68153436E-01 -3.76676450E-01 -8.78042475E-03
  2.43793614E-02 -7.48993370E-02 -1.39200244E-01  1.30499092E-01  2.96040910E-03
  1.81274800E-03  1.33753369E-03  2.64039020E-02 -5.08134547E-02 -5.50029143E-03
 -1.20799827E-03  5.60487062E-04 -3.97755766E-02  3.40760850E-02  9.24977102E-04
 -9.81704446E-04  5.62334831E-03  3.53299942E-03  3.09817231E-03 -3.23030902E-04
  3.39954634E-07  7.89324363E-03  5.08045460E-02  9.57752814E-02 -8.04658510E-02
 -4.61230233E-02 -9.64335431E-04 -6.22855110E-04  7.29105442E-02 -2.03961073E-02
  9.99871072E-04 -3.05826269E-02  9.16213394E-02  7.61192867E-04  7.26786721E-02
 -6.31897289E-02  2.03403427E-02  3.90523356E-02  1.32570900E-03 -6.86256113E-04
  1.71169779E-03  2.67679397E-02 -4.83895799E-02 -2.23103209E-03  7.00119341E-03
  7.42438634E-05 -4.47903312E-02  2.27442161E-02 -3.30470929E-04 -1.34717031E-03
  3.26932552E-03  4.51813709E-03  3.81212851E-03 -7.62285392E-04 -3.07658898E-04
  2.00723906E-01  9.26470537E-01 -7.46576887E-01 -1.13500094E-01  7.67084131E-01
  8.68834328E-03 -1.27197224E-01  7.53724117E-01  8.02139697E-03 -1.50907172E-01
  9.27818276E-02 -1.47100556E-01 -3.29788622E-02 -4.35709008E-04  3.42015243E-03
 -1.16985861E-03 -1.45431818E-02  1.87747318E-02  8.56828468E-03 -6.21716955E-03
 -2.81120398E-04  2.54055064E-02 -5.68569699E-02 -6.67775914E-04  7.84973839E-04
 -6.04699611E-03 -2.23944467E-03 -2.49295819E-03  2.02884165E-04 -4.84669562E-06
  3.23297020E-03  1.29216974E-02  4.42830605E-02 -3.52707574E-02 -1.14762660E-02
 -3.20017928E-02  1.37993655E-02  7.80864510E-03  1.41464994E-01 -3.21245152E-02
  5.58142268E-02  2.78301623E-03 -2.96999322E-02 -6.89348944E-02  1.33545556E-01
  1.66076295E-02  1.79446906E-01  2.11325994E-02 -8.97164479E-02  3.03554979E-02
  1.56152664E-01 -2.08338921E-01 -3.56917112E-02 -5.91338479E-02 -1.48069623E-02
 -1.35634853E-01  7.76387328E-02  5.26290028E-02 -7.25929869E-01  3.86373514E-01
  2.49234430E-01 -3.36686830E-01  3.95540770E-01  3.83272366E-01  1.66076094E-03
  5.09577437E-03  5.27220900E-02  4.11628062E-03 -1.77888268E-02 -4.03541866E-03
 -5.78558830E-02 -1.60278969E-02 -1.19421658E-02  1.63324617E-02 -1.22781918E-02
  2.74001999E-03 -1.13540085E-02  9.04957408E-03 -4.70080810E-03 -2.03072410E-03
 -2.10434959E-02  2.65189057E-02 -5.24503538E-03  2.49543846E-02  9.82380407E-03
 -5.36723144E-02  6.94129734E-02  1.94656938E-02 -2.36241255E-02  1.74819872E-02
 -8.21536796E-03  1.14356259E-02 -2.27997057E-03 -5.44697415E-04 -9.07880506E-03
 -5.78302166E-02 -1.03509467E-01  8.43659070E-02 -2.88318283E-02 -4.22433043E-02
  1.47406409E-03  6.00688515E-02  5.50055289E-02 -2.30821428E-03 -9.37483207E-02
  1.35879723E-02 -1.90250953E-03  5.23158935E-02 -6.22835928E-02 -2.13886380E-02
 -4.54347283E-02  2.34797161E-03  9.77388719E-04  9.90343349E-04  1.18968301E-02
 -1.42601822E-02  8.84204145E-03  3.81664523E-03  5.32408450E-05  5.61052243E-02
 -9.01311326E-03  1.17477536E-03  2.32066627E-03  2.54354833E-03  1.65989825E-03
 -4.90224936E-03  1.09409464E-03 -4.18542351E-04 -1.65718847E-03 -2.60767073E-02
  4.75798145E-02 -7.42895197E-03  1.59285057E-03  5.59491149E-04 -4.35588021E-02
 -2.42655552E-02  1.63770189E-03  7.34488750E-04 -2.27207968E-03 -4.38464967E-03
  3.60346358E-03  2.19677454E-04 -3.39792483E-05 -2.03247692E-01 -9.38672937E-01
  7.57431556E-01 -7.38485606E-01  2.27023203E-01 -2.10413763E-02 -7.31758779E-01
  2.11481829E-01 -1.98117441E-02 -6.93244375E-02  1.30335598E-01  1.50413620E-01
  8.73452348E-02 -7.55991790E-03  2.49086950E-03  1.66710019E-03  2.75350866E-02
  1.03017622E-01 -3.78353547E-03  7.02738318E-03 -2.20634214E-02  1.08415010E-03
 -7.80564463E-02  1.92599155E-01 -7.02394854E-03  7.40212257E-03 -8.30524884E-03
  6.86357892E-03 -1.10021923E-01 -1.06044822E-02 -1.57719571E-02  9.82127205E-02
  1.78944222E-01 -9.55232837E-02 -1.09198426E-03  2.56308785E-02 -1.22856065E-01
 -1.28099445E-02  1.68141907E-02  2.51698440E-02 -3.71538361E-02  8.22499505E-02
  6.49104936E-02  1.96037136E-01 -4.80820603E-01  3.12781359E-01  5.94038818E-02
  4.10274784E-01 -4.04062602E-03  4.04306396E-04 -3.19299862E-02  1.57673306E-01
 -1.38600939E-02 -5.10456548E-03 -5.58418631E-02 -1.18733842E-01  2.78486514E-02
 -1.43507379E-01  2.53887569E-02 -3.13040971E-02 -1.85246049E-02 -2.20482705E-02
  2.06479254E-01  3.41057893E-01  8.50143256E-05 -3.15325073E-03  6.42235925E-03
  2.63461209E-03 -3.82701915E-03  3.17323744E-02  6.91595342E-03 -1.12011663E-03
  7.28026736E-02 -2.80615515E-02  1.11359369E-02  1.18153448E-02 -7.09820043E-03
  4.37185107E-01 -4.46531781E-01  2.70514542E-04  7.61971378E-03  4.81744703E-02
  5.01133347E-03 -2.32532178E-02  4.26741669E-02  6.09351748E-03  3.65550834E-01
 -6.71971040E-01 -2.58471867E-02 -1.83055964E-02  2.66496852E-02  2.75597618E-02
  1.09536773E+00 -1.03156267E+00 -8.98941902E-02 -7.07465963E-01 -6.08036013E-01
  6.55465910E-02  1.52038534E-04 -1.69256902E-01  9.09197425E-01  6.65421636E-02
 -2.27233454E-02 -1.01633154E-02  2.79344348E-01 -6.26898979E-01 -3.68148095E-02
 -1.33005055E-01  9.07192584E-02 -4.87527447E-02 -1.50385415E-01  1.67380579E-01
  3.94170549E-03  3.14806711E-04  1.74591113E-01 -9.47062112E-01 -2.73488446E-02
 -6.15332589E-02  1.32251458E-01  4.08049153E-01 -5.53537512E-01  3.57809947E-01
  8.07767118E-03 -1.48678911E-03  7.36446953E-02  2.17996355E-01 -2.07264697E-01
 -1.54332314E-01 -2.46947348E-04  7.66929000E-03 -4.41014082E-02  6.34496824E-02
 -1.23545388E-01 -1.20929861E-01  2.54773769E-01 -5.00350364E-01 -3.25028202E-01
  1.52709908E-01 -1.84332320E-01  3.55945476E-02 -1.67526139E-01  6.26988268E-02
 -2.43733025E-01  3.61078524E-04  4.23803263E-03  2.93823170E-02 -1.31088235E-02
 -1.25019114E-02  9.79597188E-03 -1.64588534E-03  2.05689788E-01 -1.85129166E-01
  5.92605488E-03 -1.02541172E-02  6.80060420E-03  7.23477210E-03  3.42934992E-01
 -3.76506732E-01  3.90002829E-02 -4.01568133E-01 -3.45620073E-02  2.30569298E-01
 -4.71009351E-04 -5.32358035E-02  2.93464489E-01  3.81253677E-02  5.27766362E-03
 -6.61443675E-02  1.59802591E-01 -1.91250438E-01 -1.66836314E-01  2.38171287E-02
 -1.26411389E-01  8.28244437E-02 -6.42063550E-02  2.19332526E-01  7.28802646E-02
  1.96601888E-05  7.49745739E-02 -4.03678826E-01  1.27281323E-04 -2.00451649E-02
  3.47175707E-02  2.05941229E-01 -1.99342490E-01  8.92836135E-02 -1.47073873E-02
  8.20235096E-03  4.54609884E-02  8.06766399E-02  2.27221148E-01  5.79023237E-01
 -3.05244914E-04 -1.82301744E-02  1.03991917E-01  1.93863075E-02 -5.56333413E-02
  2.19048675E-02  1.66605314E-01 -1.71017158E-01  6.04413724E-02  1.17538805E-01
 -9.01900332E-02 -2.92500666E-02 -5.51994239E-02 -3.94704212E-01  4.64440055E-01
  1.80540136E-03  4.11308237E-02  1.40941171E-01  1.40351113E-02  2.74407776E-02
 -1.38792603E-02 -2.76716918E-03 -4.14813353E-01  6.05247574E-02  2.20238617E-02
  2.71964489E-02 -2.29817029E-02 -7.18618785E-02  1.53699564E-01 -2.16543863E-01
 -2.24541129E-01  7.32921020E-01  1.33689446E-01  9.72922277E-03 -3.69316273E-05
 -2.23140176E-02  1.06543382E-01 -6.83931315E-02 -2.89846296E-03  1.41737054E-02
 -2.82855249E-01 -7.26336402E-02  2.75085086E-02  1.45798677E-01 -4.63072426E-01
  2.90560056E-01  2.00291650E-01  3.81368439E-01  1.96829075E-02  1.09772478E-03
 -9.35580407E-02  4.68728195E-01 -6.86857842E-02 -3.56893003E-02 -1.51205130E-02
 -4.39018181E-01 -3.80051844E-02 -4.26161643E-02  1.27622121E-01 -1.38075572E-01
 -6.54447214E-02 -3.58882905E-02 -1.93909703E-01 -4.90231435E-01  1.30436783E-03
  8.51087532E-02 -4.94018141E-01  1.23488894E-02  1.29589215E-02  3.90120789E-02
 -2.86205595E-01 -1.25335302E-01  1.05936008E-01 -4.03749167E-02  3.08101794E-02
  1.95523565E-02 -8.03943428E-02 -2.16093888E-01  2.82429374E-01  2.94580626E-04
  3.00828701E-02 -8.82723513E-02  5.65229463E-02  2.27300441E-02  3.78053280E-02
  3.52387244E-03 -2.58701257E-01 -6.33645965E-01 -5.68029769E-02  5.91589281E-02
  1.42444397E-01  2.81480825E-01  7.46853621E-01 -1.29007561E+00 -2.22056836E-02
  3.10100531E-01  6.29242225E-01 -3.24725591E-01  1.61550968E-03 -1.97315222E-01
  1.05504724E+00 -2.52975445E-02 -5.31281084E-02  2.92536296E-02 -1.13891057E-01
 -7.89493358E-01  9.11403166E-02 -2.29691921E-01  3.13282373E-01 -2.06192819E-01
  2.89816825E-02 -2.10932441E-01 -9.61618277E-02  3.94547197E-03 -3.67148422E-02
  1.25428274E-01 -1.03384996E-01 -8.51522872E-02 -2.15980534E-01 -3.19071922E-01
 -3.89460735E-01 -5.72259660E-01  1.37385900E-01 -1.70061025E-01 -6.97047188E-02
  9.29441525E-02  1.61468166E-01 -2.19477460E-03  3.32120000E-03  4.30126350E-02
 -3.06900258E-01  5.52290164E-02 -8.14697456E-02  4.45454969E-02 -6.00096154E-02
 -4.74156641E-01  1.30026895E-01  4.37042849E-02 -9.80455644E-02 -6.63644692E-03
 -2.11898567E-01  8.83286830E-02  6.51622190E-02 -1.89140315E-03 -1.22440364E-01
  1.59315716E-01 -1.77003195E-01 -2.95174646E-02  4.99220187E-04 -5.74665759E-03
  5.03847617E-01  4.73703185E-03  3.43575924E-02 -9.52217414E-02  3.26657194E-02
 -8.75947417E-02  7.69226681E-01  8.52218867E-01  3.39109381E-01 -9.88883542E-01
  5.87551842E-01  2.14720788E-01 -1.04281139E-02  2.13101685E-01 -9.55720757E-01
  9.68808157E-02  1.29948564E-01 -4.47540833E-02  4.11723185E-01  6.38101099E-01
 -1.14718546E-01  1.56347329E-01 -3.35100111E-02  2.13539613E-01 -2.15316254E-01
  4.89649653E-02  4.88071988E-02 -9.13105588E-03  2.96111618E-01 -1.43725548E+00
  1.57579529E-01 -2.25729409E-02 -8.46164584E-02  1.01941566E+00 -3.26908314E-01
 -2.29853390E-01 -1.36094198E-01  2.36981516E-01  2.42289032E-01  1.62665229E-01
 -4.36340339E-02 -3.07671145E-01 -1.17383334E-02  9.61417255E-02 -3.15629703E-01
 -9.16478730E-02 -1.14907557E-01  1.58661951E-01 -7.81450816E-02 -2.80910365E-01
  4.25971021E-01  1.41637370E-01 -4.42421979E-03  1.62756253E-01 -2.84583827E-02
  1.08802241E-01  6.66589095E-02  1.42157559E-03 -1.75880182E-02 -3.21190294E-01
  1.98370107E-02 -1.02416851E-03 -1.29216652E-02 -1.59672935E-03  1.20685614E-04
 -2.40229492E-01  3.95251284E-03 -1.46898612E-03 -6.75963512E-02  1.17984179E-03
  5.86466217E-02 -8.77079636E-02  1.03612252E-01  1.96706134E-02 -3.20693528E-03
  1.31471247E-02  6.25534084E-01  1.60095432E+00  1.83055822E+00 -1.91259610E-02
 -1.41545026E-02 -5.83932877E-05 -3.02323912E-02 -1.98908192E-01 -9.24851269E-03
 -1.38086728E+00 -1.38012499E+00 -1.38894560E+00 -6.82203160E-02 -2.79478999E-02
 -6.34854358E-02  1.63799890E-03  8.41833363E-03 -4.84077432E-03  5.33861839E-03
 -6.12346367E-03  1.26423795E-03  1.26645268E-02 -1.09146806E-02  3.55815361E-03
 -5.34792440E-03  1.85406848E-04  5.54413100E-03  7.18629547E-03 -1.88631920E-03
  1.70037012E-04  1.69943017E-03  1.08348100E-02 -2.09148232E-02 -5.48978329E-03
 -3.41297919E-03 -3.50552457E-04 -2.49369079E-02 -6.52360380E-03 -4.56495184E-04
 -9.63298678E-03  2.55695200E-03  7.07236342E-03 -9.98611436E-03 -7.32233526E-04
  2.90610980E-04 -7.35962356E-04  1.59396695E-02 -2.88364260E-01  1.35326785E-01
 -1.83475722E-02 -2.20498033E-02  1.64823060E-02  2.51874510E-01  3.05494160E-01
 -1.91435473E-01 -1.59295339E-02  1.85510635E-01  8.71846756E-01 -9.71867505E-01
 -1.51258385E-01  4.85205021E-01 -3.96884533E-01 -1.20970320E-01 -3.22212885E-01
 -2.61492433E-03  2.62866233E-02 -1.39650867E-01  3.10602944E-02 -6.04528996E-04
 -7.17930864E-02  1.43624027E-01 -1.62892623E-02 -1.49779667E-01  1.03715127E-01
 -8.13963281E-02  4.39273907E-02 -6.58810739E-02  1.72363450E-01 -6.63241078E-02
  2.06992345E-03 -9.91609951E-02  4.66010126E-01  1.83987178E-02  2.84849887E-02
 -1.60454471E-01 -1.07768484E-01  2.50822109E-01 -3.92971244E-01 -5.85167718E-02
  8.76648798E-02 -1.29311255E-01 -4.26431974E-02 -6.56857257E-02 -1.08174045E-01
  2.72571598E-03 -2.03216569E-01  1.02324819E+00  1.96708279E-02  8.28867222E-03
 -2.08727877E-01  5.23030081E-01  3.17736585E-01 -5.25828487E-01  4.40487561E-02
 -3.28234190E-02 -1.73619112E-01  1.15348345E-01 -1.00699837E-01  8.35477362E-02
  2.18070251E-02  1.30504510E-01  1.72754722E-01 -2.00463380E-02 -1.04303510E-03
 -1.36676826E-01 -6.10946583E-02  2.63582633E-03  2.63405968E-01  1.24952517E-01
  2.01715985E-03  7.47873909E-03  7.06705029E-02 -9.42080575E-02  1.33979524E-01
  6.57336644E-03  1.81818921E-03  1.32230503E-03  1.57112680E-01 -1.63296200E-01
 -7.02159122E-01  3.92407083E-01  1.25463172E-02 -5.18282269E-01  6.15584404E-01
  1.17211467E-02 -3.08032620E-01  5.34435322E-01  6.58616629E-02  3.00043770E-02
 -3.45654421E-03  3.91698592E-03  2.69638807E-03  6.68269611E-02  1.18406782E-03
  1.23716578E-02  2.23780621E-03  2.98624430E-03 -9.17123429E-04 -7.91699089E-03
  7.54641979E-03 -3.80227792E-02 -4.42166293E-02  1.06635803E-03 -3.05300939E-03
  2.27240438E-03 -1.24750560E-03 -3.35378334E-03  2.06210955E-03  1.23494134E-03
  1.11464178E-02  6.47040346E-03 -2.46853541E-03 -2.88477769E-03 -7.62051431E-03
 -6.63043543E-03 -3.74868390E-02 -4.29891348E-02 -1.09548926E-04 -3.24516235E-03
  2.78128694E-03  3.10933376E-03  2.60458541E-03  2.63814158E-03  2.11231650E-02
  1.25142186E-01  1.48653071E-01 -9.23258408E-03  1.15949770E-01  6.25443957E-02
  6.08890275E-02 -2.07494722E-01 -1.13400485E-01 -1.23664698E-01 -1.55412502E-02
  1.24894641E-03 -7.20162884E-02  7.98177633E-02 -4.03774237E-02  1.03925248E-02
  9.30725856E-02  1.37741451E-01  7.59246936E-02  9.55732191E-04  1.36177364E-02
 -4.43975366E-03 -9.07177209E-04  2.37657201E-03  6.93241815E-03  3.59857881E-02
  2.75873469E-02  4.37393681E-02 -2.00700852E-03  1.69750232E-03  2.10834616E-03
 -2.91451119E-03 -6.26673656E-04  2.68845496E-03  1.16443802E-03  1.04138255E-02
  3.53585784E-03  3.37242108E-03 -9.64199735E-04  7.91829321E-03  3.70959116E-02
  8.35939734E-03  4.28715815E-02 -9.07021156E-04 -2.26015970E-03  2.47235293E-03
 -2.53064176E-03  3.79472282E-03 -1.41682014E-03 -1.64720785E-01 -7.15535689E-01
  4.25972742E-01  4.10681273E-01  3.09834658E-01 -6.18201041E-01  2.48343995E-01
  2.10614221E-01 -5.37392266E-01  3.58434466E-02  5.30122783E-02 -8.24090690E-04
 -3.80521402E-02  5.37503907E-02  4.23967223E-02  2.70306873E-03  2.76203220E-02
  2.30910800E-01 -2.41155481E-02 -7.33837641E-03  2.95591890E-03  1.50655886E-02
  6.07524779E-02 -3.57189119E-02 -4.57957139E-02 -5.39425271E-03 -6.67937637E-03
  5.73760207E-02  8.80944408E-02  7.34830544E-02 -1.26962337E-01  2.76322918E-02
 -7.05801675E-02  5.22961351E-02  6.43655740E-04  3.03939622E-02 -1.16042514E-01
 -8.83251257E-03  1.05180417E-02 -1.21700226E-02 -3.10325611E-02  7.06420922E-02
 -3.62951195E-02  5.08034041E-03  1.80526042E-03  1.68446858E-02  1.27291199E-02
 -2.25233899E-04  3.44426442E-03  2.43077261E-02  9.19709272E-02 -5.99244937E-02
  1.03953165E-01 -5.93293098E-02 -3.44185353E-02  1.99677601E-01 -1.24523946E-01
  2.03119519E-02  9.32706422E-02  4.14035918E-01 -6.88254293E-01  1.76971558E-01
  6.34188861E-01 -2.67119836E-01  2.30516397E-04  3.41817267E-02 -1.44170297E-01
 -8.33896117E-03  2.63999600E-03 -8.64319748E-03 -7.63297409E-02 -1.95267216E-02
 -2.51624843E-02 -5.97155048E-03  1.15641741E-02  2.33150799E-02 -2.82831452E-03
 -3.40902573E-03 -4.18990869E-03 -2.93092492E-03 -3.04240725E-02 -2.40333809E-01
  2.60888515E-02  6.65040382E-03 -3.01346747E-03  1.50754599E-02 -5.65815338E-02
  3.52593564E-02 -4.55832188E-02  4.79636737E-03  5.34033670E-03  5.72451068E-02
 -7.85678357E-02 -6.90500122E-02  1.27709057E-01 -2.77007048E-02 -7.18680788E-02
  4.52918364E-02 -2.36979773E-04 -2.89341861E-02  1.15796330E-01  8.89078223E-03
 -9.10921206E-03 -1.11280670E-02  3.04132636E-02 -6.81787141E-02 -3.21293666E-02
 -7.53321226E-03  3.89961208E-03 -2.19233043E-02 -1.03636240E-02  9.69386188E-03
  8.43668433E-03 -2.42449085E-02 -9.02802274E-02  5.33864798E-02 -1.03363102E-01
  6.02719659E-02 -3.49230720E-02 -1.96706352E-01  1.22317714E-01  1.89048944E-02
 -1.08664025E-01 -4.01607467E-01  6.92221211E-01 -1.88346181E-01  6.16739835E-01
 -3.02981270E-01 -2.82946827E-04 -3.41762172E-02  1.42277079E-01  9.33807940E-03
 -2.29061187E-03 -1.01210581E-02  7.72065628E-02  1.92165000E-02 -2.86528292E-02
  6.09748252E-03 -1.19365111E-02 -2.29253394E-02  2.96432393E-03 -2.65562177E-03
 -5.05823449E-03  3.02992159E-03  2.98672761E-02  2.44602772E-01 -3.25319772E-02
  9.90238689E-03  7.30734209E-03  1.19155471E-02 -9.09169481E-02 -4.33317927E-02
 -3.49908857E-02 -5.88849297E-03  1.63696629E-02  5.62614260E-02  4.85671770E-02
  1.13188947E-01 -1.29612356E-01  2.44056046E-02  6.80748551E-02  2.15933152E-02
  1.67810042E-04  3.46886235E-02 -1.49526772E-01  3.93732139E-03  5.45908637E-03
 -7.27837828E-03  1.18323199E-02  7.64888060E-02 -2.07132583E-02  1.11320655E-02
 -1.95858444E-03  1.98352598E-02 -4.54197852E-03 -6.63333396E-03  5.97574221E-04
  1.48014713E-05  2.10749579E-02 -8.27963449E-02  1.27261003E-02  4.40329744E-03
 -1.45027033E-02  6.18450103E-02  1.85582444E-03 -3.97140802E-02 -8.36496919E-03
  7.83822997E-03  2.13962155E-02 -3.18363956E-03  3.86201141E-03 -3.91211112E-03
  2.51111348E-02  1.04337479E-01 -9.84729464E-02 -1.09955246E-01 -5.80277888E-02
 -4.45888724E-02 -2.39888225E-01 -1.13303334E-01 -1.64638639E-03  3.02400865E-01
  2.51506199E-01 -7.27175571E-01 -2.28687622E-01 -4.72198974E-01 -4.57199714E-01
  3.00334451E-03  2.80324787E-02  2.19948866E-01 -4.97687111E-02 -7.30724576E-04
 -2.14323354E-02  4.30056132E-03  1.40835324E-02  1.72303696E-01 -1.46942612E-02
  6.21872355E-02 -3.44810419E-03 -4.38624718E-02 -3.94041170E-02  1.40018076E-01
 -1.09196657E-01 -3.49852212E-02  5.66102515E-02 -3.10065388E-02  1.93776848E-02
  1.10141305E-01 -2.00728246E-01  5.44190880E-02  1.22631639E-01  5.61393863E-02
  6.55051227E-02  3.14096304E-01  7.92328147E-02  1.09699295E-01  4.45516729E-01
 -6.55792074E-01  3.25625251E-01  5.85271315E-01 -2.29096045E-01  4.95766066E-04
  2.42255824E-02 -8.99104202E-02  9.82888107E-04  1.47834278E-03 -6.96240021E-03
  2.37207959E-02 -1.46575534E-03 -1.94248383E-02 -2.62273581E-03  7.47313861E-03
  1.57028743E-02 -3.91415578E-03  7.69866636E-03 -5.25422779E-03 -2.04388433E-03
 -1.92136709E-02  5.07643254E-02 -2.49638250E-03  1.01914308E-03  2.26818265E-02
  6.95515793E-04  1.55879330E-02  5.41067022E-02 -2.88843415E-03 -5.58294880E-03
  6.20387142E-03  7.33941308E-03  4.77617298E-03  3.38764531E-03  5.90129583E-03
  4.31072733E-02  2.74569926E-01 -1.24336073E-01  4.08406430E-02  1.13849719E-02
 -1.31197593E-03 -2.22848605E-01 -1.32147019E-01  3.89232761E-03  5.46913295E-02
  3.27474401E-02 -7.09854949E-05  2.61910625E-01 -1.77680867E-01 -2.51922011E-02
  4.25122282E-03 -3.12467232E-03 -1.20646794E-03  1.22966808E-03  1.50840349E-04
  7.06605783E-02  1.30558744E-02  1.93554832E-02 -6.62419355E-04  4.19169972E-02
 -3.28563546E-02 -1.55442398E-03 -1.50322572E-02  1.79730856E-02  3.41322325E-03
 -2.00463668E-02  7.17292283E-03 -4.12527873E-03  5.09558416E-04  1.66586355E-02
 -8.72307985E-02 -1.47881390E-02 -2.17317933E-02 -5.28587907E-05  8.82752628E-04
 -1.03734068E-01 -2.41680595E-04  1.44700459E-02 -1.47925369E-02  3.29085208E-03
  2.03417773E-02  3.31096232E-05  1.15225125E-04 -3.21002338E-02 -5.63418062E-03
 -3.96326990E-01  7.72934393E-02 -1.50215688E-01  1.17580414E-03 -6.01017845E-02
 -3.75675124E-01 -1.76153569E-03 -3.27905363E-01  7.79935350E-01 -1.59246875E-01
  6.09718122E-01  5.72664568E-03  2.71161766E-02 -4.46304738E-03 -3.04247120E-02
 -7.87292987E-02  7.44823063E-02  2.64064514E-02  1.85299172E-02  2.47352991E-03
 -1.81574654E-02 -5.15124221E-02 -4.75675140E-03 -7.70067726E-02  6.34005764E-02
 -2.65279885E-03 -6.02413055E-03 -2.84046318E-03 -1.94588082E-02 -9.57841378E-02
  5.76390855E-04 -6.95955092E-03 -1.97137802E-01 -9.07949645E-01  7.26419297E-01
 -7.00844158E-01  3.46906353E-01 -2.74516437E-02 -6.83671701E-01  3.62005569E-01
 -2.40850538E-02 -4.81142025E-02  1.02688277E-01  1.37238788E-01  9.15557015E-02
 -4.99681281E-04  7.63399437E-03 -1.35049461E-03 -2.59509492E-02  5.06560037E-02
 -4.00152812E-03  3.93942593E-03  3.39945747E-04  8.97720079E-03  4.84917754E-02
  1.40015544E-03 -5.57199910E-03  1.43781118E-03 -3.65251698E-03 -9.13669755E-04
  1.95914607E-04 -1.25866404E-05  1.57207587E-03  2.03100638E-02 -2.91829806E-02
 -1.54631392E-03 -1.24730513E-02  8.78546225E-04  3.35521474E-02 -6.26760935E-02
  2.40490775E-03  6.14673360E-03 -2.41616390E-03  4.95100955E-03 -1.52303591E-04
 -1.23789623E-04 -2.67676404E-04 -7.12147765E-03 -5.00577806E-02 -3.24930943E-01
  1.50698321E-01  4.10719017E-02 -3.17487138E-02  2.33546661E-04 -2.79244857E-01
  1.54574151E-01 -9.50532635E-04  5.29923424E-02 -3.79944069E-02  5.96630274E-04
 -5.64446124E-03 -1.03543699E-01  2.59439793E-02  2.23486839E-01  2.44229255E-03
 -2.43874264E-03 -5.38193691E-04 -1.58221397E-02  6.87115810E-02 -2.00370033E-02
 -3.09589700E-03  1.41286578E-03 -7.29142954E-02 -4.38901872E-02  2.58449379E-03
 -3.40938022E-03 -2.65863639E-03 -3.54422502E-04  2.95535856E-02 -2.09574269E-03
 -7.52489445E-05  2.82456935E-02 -2.84606857E-02  4.78673072E-01 -9.42059952E-02
 -1.22377353E-01 -2.48293704E-03 -3.96242431E-01 -6.11509223E-02 -4.29045029E-03
 -9.83411158E-01  5.61156973E-01  1.30105365E-01 -2.03124067E-02 -8.71957229E-03
  6.49617371E-03 -5.77308535E-04  2.97222432E-03 -6.49763503E-02  1.98388033E-02
  1.84556593E-03  1.03421079E-04 -1.00586803E-02 -3.03473421E-02  4.75373304E-04
  9.89318585E-04 -7.95816322E-04 -6.24946814E-03 -2.16146166E-02  1.13132649E-03
  5.43053801E-04  7.59205550E-03  4.94031373E-02  3.42474889E-01 -1.64918111E-01
 -5.47177821E-02  2.85001221E-02 -6.87461628E-04  3.32455872E-01 -1.85238487E-01
  2.59363528E-03 -7.04465794E-02  1.79498025E-02 -1.57861191E-03  2.04436254E-01
 -5.28695589E-02 -2.56502524E-02 -1.59806792E-01 -1.55416400E-03  1.67547730E-03
  2.11622503E-04 -3.49473877E-03  4.15815752E-02  5.07118198E-03  1.37024758E-02
 -7.01876101E-05  2.52419776E-02 -4.71655141E-03 -1.02715386E-03 -1.28703470E-02
  1.23449773E-02  2.26733817E-03 -4.37775540E-03  2.17212243E-03 -2.46543989E-03
 -2.40915249E-02  6.23444633E-02 -5.60309692E-01 -3.00624855E-02 -1.29807051E-01
 -1.41577868E-03  2.59190290E-01 -3.45320676E-01 -1.15276872E-03  1.10272146E-01
  2.71804159E-01 -9.67229522E-02 -8.92259996E-01 -1.00816116E-02 -8.44806143E-04
  1.40433782E-03  1.24572970E-02 -1.97122688E-02 -3.94227998E-04 -1.76618156E-02
 -4.12488147E-04  1.45036098E-02 -5.18254128E-02 -8.20311681E-04  1.17815423E-02
 -1.50802492E-02  5.91149456E-03 -7.28650103E-03 -6.57625712E-04 -5.55842288E-04
 -8.67608876E-03 -5.55453108E-02 -1.07661148E-01  8.63487691E-02 -2.24021789E-02
  4.44833514E-02 -4.24074251E-03  1.69032351E-02 -8.71073432E-02  6.15948398E-03
  6.11556213E-02  7.54721064E-02  6.17534712E-03  3.14719982E-03 -1.77944716E-02
 -1.94146421E-02  7.80724969E-02 -6.12473772E-04  9.55294794E-03 -2.01051997E-01
 -9.31632207E-01  7.62212070E-01  5.87952250E-01  5.02940968E-01  6.42110393E-02
  5.73506373E-01  4.96839947E-01  5.98358823E-02  1.10876568E-02  4.37965090E-02
  1.49068581E-01 -1.31019990E-01 -2.49871305E-02 -1.62382982E-02  1.03323944E-03
  1.31487519E-02 -1.84072035E-02 -1.15646757E-03 -9.88914557E-03 -6.89822995E-04
 -3.48981195E-02 -4.73015423E-02 -3.34763112E-03  5.66725071E-03 -9.49613446E-04
  2.40642994E-03  1.88185696E-03 -3.41978045E-04  1.46766833E-04 -1.65649580E-03
 -2.62974036E-02  4.86192210E-02  5.10131854E-03  5.46677493E-03 -1.56665315E-03
  6.05430471E-04  4.83757039E-02 -4.89464850E-03 -3.71760347E-03  2.17757193E-03
 -4.58737828E-03 -1.10673249E-03  2.98203450E-04  3.89063003E-04  7.01713189E-03
  4.03395221E-02  3.05318441E-01 -1.59046937E-01  5.60141221E-02  3.00714687E-02
 -2.57025499E-03 -3.32116146E-01 -1.95813763E-01  7.23515062E-03  4.31675135E-02
  5.90273384E-02  1.98290507E-03  2.06168970E-01 -1.68075277E-02 -1.57079616E-02
  1.77778166E-01 -8.41627053E-03 -4.52032556E-03  1.67015812E-03  1.27353645E-02
 -3.56370934E-03 -7.05005320E-03  1.15539560E-02 -7.07868871E-05 -2.76123470E-02
  1.16380477E-03 -9.39199777E-04 -8.43120751E-03  8.63800708E-03  4.65472342E-03
  1.39294809E-02 -2.11876212E-03 -3.81790534E-03 -7.05510031E-04 -6.82073384E-03
  2.62380949E-02  1.27478615E-03 -1.51763110E-02 -1.01015656E-03 -1.98475285E-02
 -4.69225657E-02 -1.74566711E-03  1.08143116E-02 -1.45125921E-02  4.85025313E-03
 -2.15105783E-03 -3.67810115E-04  8.64016738E-05 -1.82305423E-02  8.44575438E-02
 -5.69787782E-01 -8.58515077E-02  7.16524498E-02 -8.70277516E-04 -4.06671238E-01
 -1.11011261E-01 -9.38378549E-03  7.69743419E-01 -4.39395687E-01 -7.35765081E-02
  5.72011882E-01  6.04606519E-02  8.53603848E-03 -7.36998105E-02 -8.61176743E-01
 -3.55577695E+00  6.06340692E-01 -4.56608669E-02  1.48193573E-02 -2.93724550E-01
  3.20249699E-01 -9.92141538E-02  1.07191952E+00 -3.39314293E-02  1.90142844E-02
 -3.91770560E-01  1.26347642E+00  1.18817293E+00  1.12871725E+00 -1.04697966E-01
 -6.86310075E-03 -1.14409462E-02 -2.77349720E-03 -7.39177996E-02  1.59939370E-01
 -1.45296965E-03 -7.09532459E-02 -1.45423585E-01 -1.09799715E-02 -1.33756753E-01
 -3.07393985E-01 -2.65425044E-02  1.72880016E-02 -6.09814669E-02  2.25812839E-02
  3.88660705E-02  1.06321304E-01 -2.37844655E-03  6.01069096E-03 -1.63110480E-01
 -3.42629769E-02  1.59044425E-02 -1.50739153E-01  9.82712441E-02 -6.98485671E-02
 -3.18416413E-01  6.46122088E-04  1.03252679E-03 -4.94836412E-03  1.39185291E-02
  7.65460639E-02 -3.77644475E-02 -7.30549998E-03 -1.13494743E-01  2.54936242E-01
  8.03421772E-02  5.23695731E-02 -1.53025027E-01  1.87134846E-01  1.17348391E-01
 -3.25495754E-01  1.49113120E-02 -1.48605353E-02 -6.87409540E-02  5.68575459E-02
 -6.10365066E-02 -5.42143616E-02  7.14193878E-02  8.31909828E-01  3.47698810E+00
 -5.95852723E-01  2.30007824E-01 -1.77256423E-01 -1.45424831E-01 -1.58506759E+00
  1.23789528E+00  5.30430113E-01  1.91547510E-01 -1.62054152E-01 -1.89863709E-01
 -1.49448288E+00 -7.60496493E-01 -1.14471615E+00  4.56833519E-01 -4.01074238E-02
  2.51284282E-02  1.11905838E-02  3.21281533E-01 -1.06021786E+00  4.29664247E-02
  1.94567565E-01 -8.59435028E-02  1.14733123E-01  8.73281071E-01 -1.81088142E-01
  1.20247464E-01 -4.43489441E-02  1.42703309E-01 -7.43062739E-02 -4.60605643E-02
  3.71336693E-02 -1.13863870E-02 -3.40160097E-01  1.31638291E+00 -1.12664665E-01
  6.45504947E-02 -6.40656081E-02 -9.35900654E-01  5.55472083E-01 -1.28713458E-01
  1.11563531E-01 -9.34673022E-02 -1.99560225E-01 -2.01247835E-01  2.85552546E-02
 -1.75762331E-02  1.14305570E-02  2.29750926E-01 -6.69274288E-01 -1.03144116E-01
 -1.13739929E-01 -7.93616740E-02 -4.23731571E-01 -3.66925813E-01 -1.72279273E-01
 -2.17256687E-02 -5.16035603E-03  1.64814931E-01 -1.54700435E-01 -4.13262827E-02
 -2.98260099E-02 -6.95836490E-02 -8.21962639E-01 -3.37017860E+00  5.32594149E-01
 -7.51598584E-03 -3.17948673E-01  9.59821000E-02  5.98950256E-02  2.18831586E+00
 -3.50923693E-01 -2.00615964E-02 -2.74516704E-01  1.32737277E-01  5.96043726E-01
  1.72503200E+00  1.15385699E+00 -6.02169445E-02 -8.30529518E-03  4.09692999E-02
  8.87215597E-03  3.86379008E-01 -1.52447530E+00  1.09938205E-03  1.63838619E-01
  3.52847577E-02  1.77580461E-02  1.25926035E+00  7.11688583E-02  1.81224177E-01
 -1.10830424E-01  1.83734124E-01 -1.58358310E-02 -8.52158097E-02 -4.12942468E-02
 -1.29286771E-02 -2.73977466E-01  8.31301642E-01 -1.67901512E-01  3.87090608E-02
  5.62200514E-02 -6.46325387E-01  2.35884138E-01  1.21377070E-01  1.35579981E-01
 -1.12690904E-01 -1.85791070E-01 -1.13947100E-01 -3.06959841E-02  1.68553251E-02
 -1.12052760E-02 -2.84848006E-01  9.17454703E-01  1.65754098E-01  3.79064282E-02
  4.82130861E-02  7.13818791E-01  2.55864387E-01  1.06518922E-01  1.26925810E-01
 -1.10698452E-01 -1.95802714E-01  1.12610803E-01  3.11076552E-02  1.43795111E-02
 -6.68981357E-02 -7.82381690E-01 -3.26048372E+00  5.43482392E-01  3.01834016E-01
  1.29655853E-01  6.89041941E-02 -2.09694623E+00 -8.77074161E-01 -2.50455567E-01
  2.63566683E-01  1.06254433E-01  8.57551015E-02  1.23704997E+00  8.82177850E-01
  1.10062673E+00  6.55825230E-01 -1.53531462E-02 -9.88359351E-03 -9.27554310E-03
 -2.43875371E-01  7.55586344E-01  4.72164417E-02 -1.59238596E-01  3.85258471E-02
  1.18992144E-01 -6.20103760E-01  8.39175532E-02 -8.76351354E-02  4.52191311E-02
 -1.30130200E-01 -9.58733081E-02  6.99866319E-02 -6.80942319E-03 -1.37351393E-02
 -3.46008180E-01  1.13937220E+00 -1.41734709E-01  1.40602361E-01  3.75702457E-02
 -7.34732269E-01  5.83724113E-01  8.15997950E-02  6.16970301E-02 -3.65100848E-02
 -2.36415705E-01 -2.19665200E-01 -1.90141747E-02  1.00170845E-02  1.24489054E-02
  3.95822946E-01 -1.51397342E+00 -1.40388285E-01 -8.66505069E-02  3.48798200E-02
 -1.09274796E+00 -6.20459269E-01  6.89624858E-02 -1.15790255E-01  1.03194274E-01
  2.40559512E-01 -2.37292123E-01  5.31891674E-03  1.36273095E-02  1.69875126E-03
 -1.90040843E-02 -3.24351042E-01  1.20865995E-02 -1.34897225E-02  7.85976075E-03
 -4.41660099E-04 -1.99052208E-01  1.20057523E-01  1.50914280E-03 -5.67315461E-02
  3.20674318E-02 -2.53353926E-04 -4.37029992E-02  3.52594028E-02  1.15469190E-01
  5.21622461E-02 -2.78650394E-03  2.36675986E-03  1.63696193E-03  1.09976535E-02
 -1.91855085E-02  1.49304993E-03  8.83157099E-03 -6.92019938E-04  1.14680424E-02
  2.91061575E-02 -2.08165985E-03  3.54921510E-03 -6.58181991E-03  4.63479883E-03
 -1.51775587E-03 -4.49800475E-03 -2.68484293E-03  6.27166973E-01  1.61558191E+00
  1.79672217E+00 -1.91424164E-02  1.46705072E-02  5.70231305E-04 -1.61293327E-01
  1.03427020E-01  1.71924544E-03 -1.32673225E+00 -1.47497849E+00 -1.34198746E+00
 -9.77818465E-02 -2.14091701E-03 -3.23914363E-03  1.70957961E-03  8.84836306E-03
 -4.91092422E-03 -7.72241870E-03 -4.11659475E-03 -4.82923022E-04 -1.43452380E-02
 -1.36514157E-02 -1.28499498E-03 -2.90095026E-03 -1.34736793E-03  4.55089458E-03
 -7.83836102E-03 -1.14072832E-03 -5.35530924E-04 -1.37108426E-03  2.22762531E-02
  3.38625320E-01 -1.70201729E-02 -1.34616576E-02 -7.71869669E-03  3.29200910E-04
 -2.04616735E-01 -1.08727266E-01 -1.21192390E-03 -5.70172662E-02 -3.27647608E-02
  1.10604753E-03  1.18996254E-02 -1.42711660E-02 -1.15820682E-01  6.91809664E-02
 -3.06665019E-03 -9.06697246E-04 -1.69206864E-03 -7.77519160E-03  1.39560425E-05
 -7.30957947E-04 -8.47497139E-03  4.22718142E-04  3.08777709E-03 -1.58367344E-02
  9.49824091E-04  2.24136177E-04 -7.29460669E-04  8.12495709E-04  3.49503749E-04
 -2.88752034E-03  1.99161000E-03 -1.71412711E-03 -1.20176918E-02  2.44756226E-02
 -6.11056432E-03  5.38329081E-03  5.83519143E-04 -2.02986962E-02  2.65772991E-02
  1.49992153E-03  5.45458377E-03  1.55198068E-03 -8.06603977E-03 -1.31609244E-02
 -2.34480967E-04  6.24853156E-04 -6.27174341E-01 -1.61516541E+00 -1.79711739E+00
 -2.49555020E-02 -6.14777491E-03 -1.75518272E-03 -1.75128374E-01 -8.19522327E-02
 -3.18088669E-03  1.39666529E+00  1.40571713E+00  1.34235678E+00 -1.23251985E-01
  1.81523537E-03 -1.53764529E-03 -2.02938623E-04  2.61059311E-02 -1.38832447E-01
  5.43655835E-02  1.14332301E-02  1.75926784E-02  8.51820044E-03 -2.04338248E-01
 -1.52880723E-01 -9.55588947E-02  2.36519631E-02  2.54262190E-02  4.27134010E-01
 -2.35322467E-01 -4.80593768E-01  1.04982383E-01  3.95994764E-01  9.86815784E-02
  9.59458016E-01  3.11695460E-03 -1.05689819E-01  5.02358070E-01 -2.50771298E-02
 -2.87858060E-02 -2.98455120E-01 -1.45519358E-01 -3.25298185E-01 -7.88239960E-01
 -8.75952091E-02  1.12531716E-01 -1.44789846E-01  1.09615734E-01 -3.00680520E-03
  2.50295973E-01  2.35595914E-03 -1.06688127E-01  5.28675455E-01 -4.16386345E-02
 -1.06089142E-02  2.44919033E-02 -3.59495901E-01  6.88988426E-02  8.19148961E-02
  6.31470439E-02 -7.28166217E-02 -9.48032202E-02 -3.72677186E-02 -1.32312997E-01
 -1.80482438E-02  2.75029490E-03 -2.14487480E-02  5.23274968E-02  1.23607675E-02
  2.12017066E-02  6.08066804E-02 -2.08539947E-02  4.09342647E-02  1.86740072E-01
 -3.87362248E-02  2.30450480E-02 -5.89591741E-02 -2.20476824E-02  2.33183252E-01
 -7.91746821E-02 -3.90594785E-03 -1.99766150E-01  1.50048168E-01 -2.80217321E-01
  2.51210618E-02  1.21426858E-02  1.95507695E-03 -4.31451936E-01 -1.55040726E-01
 -3.91516354E-02  5.43172323E-02  6.85828502E-02  2.00581195E-01  1.41559118E+00
  9.80080290E-01  5.82800889E-01  8.39280605E-01 -2.71424867E-01 -5.89712115E-02
 -1.65382685E-02  2.68387033E-01 -1.16877512E+00 -8.08839718E-02  2.05928114E-01
 -1.71687755E-02 -3.41650765E-01  7.98046262E-01 -4.43658970E-02  1.47979263E-01
  1.18115443E-01  2.24119015E-01  2.00637407E-01 -6.29433413E-02 -5.48830657E-02
 -1.52092154E-02  2.13595993E-01 -8.68556131E-01  1.35887948E-01 -1.55770078E-01
  1.50779179E-02  4.05689138E-01 -5.47653075E-01  4.86861718E-02  1.42476718E-01
  3.01451588E-02  2.68559958E-01  9.82514943E-02  1.63296529E-03  1.25508512E-01
 -1.41820769E-02  3.93721253E-01 -1.87279051E+00 -1.84803950E-01 -9.54551075E-02
 -9.59168923E-02 -1.19697498E+00 -6.14511056E-01 -2.52678263E-01 -5.14528762E-02
  2.10510203E-01  3.44040838E-01 -2.30110970E-01 -4.89484206E-02 -3.32177154E-02
Total SCF Density                          R   N=        2080
  2.14708334E+00  5.60496740E-01  2.25107776E+00 -5.34009916E-02  1.55154357E-01
  2.69328943E-01  9.99263756E-03 -2.61804214E-02 -6.40353964E-02  1.68196049E-02
 -1.30059975E-05 -8.90122322E-05 -2.71944970E-04  8.83949105E-05  2.00061718E+00
  8.62060228E-06  5.16401172E-05  2.27572419E-04 -1.17762906E-04  1.79471924E-05
  2.00051314E+00 -1.94685985E-05 -1.25986043E-04 -2.92978845E-04  8.08996922E-05
  1.45173998E-05  4.41588503E-05  1.96490670E+00  2.65248204E-05  9.85969550E-05
  1.13791743E-05 -4.06675540E-05  1.54184574E-02  5.60746487E-06 -2.84692785E-05
  9.48075490E-02 -2.92748908E-05 -1.59097285E-04 -3.90178854E-04  1.75074938E-04
 -1.13769463E-04  1.57385745E-02 -7.84342802E-05 -8.82451332E-05  9.42706390E-02
  2.16438967E-05  6.89039047E-05 -1.02314136E-04  1.73357346E-05 -4.48578763E-05
 -1.29195838E-04  5.74002973E-02  7.97179525E-05  2.46401007E-04  3.48457939E-02
 -8.37804698E-06 -4.48864769E-05 -5.44886999E-05  2.03508853E-05 -1.13050932E-02
 -1.20433388E-04  4.97969712E-05 -1.32608940E-03  2.77837510E-04 -8.74381939E-05
  1.10255841E-02  1.13618600E-05  6.40949299E-05  1.63088492E-04 -6.49398527E-05
  1.59700831E-04 -1.13307143E-02  1.28659920E-05 -3.00559615E-04 -1.31966272E-03
 -2.81053172E-05 -1.21337025E-06  1.10524498E-02 -1.04021928E-05 -4.14084149E-05
  1.17121150E-05  7.38104028E-06 -7.57852806E-07 -7.06523733E-06 -2.86353281E-02
  2.83326825E-05  5.85045231E-05  2.28890153E-02 -6.11953800E-05 -6.97286250E-06
  1.78265713E-02  2.29949444E-02 -2.58196916E-03  9.46489348E-03 -2.65305669E-03
  4.67221799E-04  1.26757308E-02  2.19767876E-04 -4.50883436E-04 -2.74826073E-02
 -5.99455935E-05 -5.23340089E-05  1.26824564E-02 -6.03691766E-05  2.73302178E-02
  2.29290486E-02 -2.93704141E-03  8.76371329E-03 -2.37090534E-03 -2.75684163E-04
 -1.26245664E-02  1.59304362E-04  5.45726729E-04  2.74254574E-02  1.62527776E-04
  3.47168116E-05 -1.26532955E-02 -1.17426472E-05 -2.34980320E-02  2.71878209E-02
  1.98187910E-02 -2.34585232E-02 -2.09523913E-02  3.94206725E-03  1.80897504E-05
 -1.44932688E-06 -4.35053808E-05  4.33377014E-05  1.79980749E-05  5.51381134E-05
 -1.96903741E-05  2.71040480E-06 -2.53407470E-06  3.74367083E-04  3.49450535E-04
  2.96165603E-03 -1.34033867E-05 -6.21486338E-05 -5.39070212E-05  2.52039045E-05
  1.46584577E-02 -3.20910168E-04  5.36257657E-05 -3.17586812E-02  6.01235358E-04
 -1.56607352E-04  1.46035994E-02  2.39270576E-05 -9.99376232E-05 -3.40492738E-05
  1.28055140E-05 -3.78747680E-05  3.38238723E-02  4.04572113E-06  3.33043435E-05
  8.57933597E-05 -1.83872883E-05  1.10163078E-04  2.25950459E-05 -3.90722334E-05
 -1.08937261E-04 -9.50017096E-05  6.49302380E-06  1.78706538E-05 -2.21408916E-06
  5.80675122E-07  1.35904713E-05 -9.72184901E-07  3.53572971E-06  5.79147793E-05
  1.48166163E-02  1.58171687E-05  1.01458661E-04  1.95132411E-04 -5.46996363E-05
  3.87589443E-05  3.36180023E-05 -4.66566113E-05 -1.04817245E-04  1.37138340E-04
  7.49695578E-05 -7.59928994E-05 -1.19580534E-05  5.84913716E-05 -4.27082490E-05
  3.13635413E-05  3.11404639E-05 -7.05083867E-05 -1.23613500E-05  1.48554468E-02
  3.50155446E-03  1.82226602E-02  7.57184998E-03  5.06872598E-03  3.12275590E-06
 -2.28122554E-02  3.40576181E-05  1.22753124E-05  1.91848838E-02 -9.00420160E-05
  4.30489656E-05  5.98889166E-03 -9.62008838E-06 -1.40925461E-02  1.25819748E-02
 -5.06014514E-03 -1.94917190E-04  2.41711031E-06 -1.66050023E-04  2.14078130E+00
  5.83540386E-03  3.24145021E-02  1.41266776E-02  1.21226171E-02 -1.05923096E-05
 -4.48572350E-02  1.04287589E-04 -3.81493673E-05  4.07628505E-02 -2.34519755E-04
  1.22376087E-04  1.52562846E-02 -1.91282784E-05 -2.71373764E-02  2.67728170E-02
 -1.11825959E-02 -3.67171598E-04  2.47000338E-05 -3.86043798E-04  3.00937028E-01
  7.65727691E-01  5.58669840E-03  1.94079794E-02 -2.38308032E-03  1.47177127E-02
  1.51347926E-04 -3.30497592E-02 -3.68680153E-05  7.46609572E-05  7.14446310E-03
 -1.30660302E-04 -8.98712357E-05  1.39910089E-02 -1.37920661E-05 -1.47741177E-02
  1.39131851E-02 -7.75050522E-03 -5.20413601E-04 -2.15908455E-05 -2.23048747E-04
  2.78209043E-01  5.10535835E-01  4.14065073E-01 -2.70860530E-05 -1.69725175E-04
 -8.84347307E-04  3.90892324E-04  3.77790837E-02  5.75776737E-05 -1.13459713E-04
 -4.38442523E-02 -5.62364016E-04  3.34979747E-04 -6.91337898E-02  9.07954747E-05
  2.56666883E-04 -2.40275226E-05 -2.81211670E-04 -7.60302559E-05 -9.06003228E-02
 -1.32442608E-04  2.92144357E-04  5.23385736E-05 -2.33488855E-04  1.17359312E-03
  8.33341314E-01  2.51238175E-02  1.54685508E-01  2.35146867E-01 -5.94147176E-02
 -1.21140113E-04 -1.26326826E-01 -7.23176654E-05  3.20139588E-04  1.96938896E-01
  2.65154752E-04  5.96593164E-05 -2.45047430E-02 -2.23030830E-07 -6.54187307E-02
  8.76367396E-02 -1.47170518E-02  5.56358369E-04 -9.08806369E-05  4.14783218E-05
 -2.99204704E-02 -6.58413205E-02 -1.22777860E-01  2.91784077E-05  7.76547870E-01
  5.20829321E-07  2.39544627E-05  2.27960880E-04 -2.06219087E-04 -5.90639852E-05
 -7.48169139E-05  5.29259463E-02  1.83716231E-04  2.95117535E-04 -8.61805593E-02
  2.45623564E-04 -1.39361209E-04 -6.52610894E-02 -1.57763458E-04  2.69753648E-04
 -2.03036454E-04  1.87800007E-04 -1.01027181E-04 -8.44972057E-02  4.77366938E-05
  3.47704113E-04 -6.73914972E-04  2.19863074E-04  5.84523925E-05  8.15533361E-01
  3.33046418E-05  2.21828154E-04  8.68405305E-04 -3.38879711E-04 -3.20546988E-02
 -2.29928176E-05  1.38360597E-04  3.55988522E-02  5.55474632E-04 -3.41222713E-04
  4.96169143E-02 -3.03031933E-06 -2.29420903E-04 -2.65692330E-05  3.17906599E-04
  1.30138059E-04  6.35496394E-02  7.19093705E-05 -3.50521254E-04  1.86525601E-04
  6.30972509E-04 -5.81173302E-04 -5.87955076E-01 -9.70833166E-04 -4.55505537E-04
  4.40280217E-01 -1.84133924E-02 -1.11291759E-01 -1.65568227E-01  4.20684884E-02
 -4.39434453E-05  9.56890619E-02  1.52804804E-04 -1.96685754E-04 -1.30553294E-01
 -3.41125630E-04 -6.91368734E-05  1.47083255E-02 -2.48829287E-06  3.97701353E-02
 -5.59572466E-02  9.69738269E-03 -4.36108281E-04  9.48442839E-05 -2.36584602E-04
  1.89408316E-02  5.12873060E-02  8.86495474E-02 -7.39355889E-04 -4.94173356E-01
 -5.84268121E-05  6.39119295E-04  3.36903253E-01  5.83132853E-06  6.27151604E-05
  2.74182392E-04 -8.47370581E-06  7.86578314E-05 -7.42487909E-05 -4.19565502E-02
 -1.77964618E-04  1.93595987E-04  6.43991145E-02 -2.12940411E-04  6.26005624E-05
  4.85151656E-02 -9.53040707E-05  4.78590677E-07  1.00089435E-04 -2.52363470E-04
  1.74808945E-04  6.68733148E-02 -4.32516340E-06 -5.89303376E-05  3.36242570E-05
 -5.06917863E-04 -3.58069732E-04 -5.78129742E-01  1.46346896E-04  2.78236474E-04
  4.38024320E-01 -4.46455855E-04 -1.57731931E-03 -3.55669397E-03  9.93691019E-04
 -1.12052243E-05 -1.64553511E-04 -1.17944676E-05 -1.12363928E-05 -8.11377351E-04
  1.36838407E-05  3.56434167E-05  4.88062403E-04  4.74388963E-05  3.77653254E-04
 -7.17976515E-04  1.47805940E-04  7.78612282E-05 -1.22992291E-05  3.40841986E-05
  1.17301831E-02  3.00180019E-03  4.73983821E-03  6.18506789E-04 -1.01858124E-02
 -5.21193478E-04  3.14847486E-04  5.48587353E-03  1.03690932E-04  1.42322475E-03
  5.40035934E-04  5.30239597E-03  1.09914434E-02 -2.29895211E-03 -1.10499690E-05
  3.48896111E-04  2.39706678E-05  2.44447321E-05  8.35686622E-03 -1.73466731E-05
  3.49035105E-05  7.59816740E-05 -5.88483838E-05 -2.22907336E-03  3.32640529E-03
 -9.38251308E-04  6.54558936E-05  1.90808369E-05 -5.23650973E-05  1.67020146E-02
  1.05539778E-02  7.94241497E-03 -8.24858680E-04  2.68389632E-02  3.39859681E-04
 -1.83742333E-04 -1.70301818E-02 -1.96082848E-04 -3.55878644E-04  1.92284978E-03
 -4.93271879E-04 -1.79658517E-03 -4.12409778E-03  1.25252208E-03  7.31491725E-06
 -9.00893387E-06 -1.90451267E-05 -2.26624197E-05 -1.40175541E-03  2.59851646E-05
 -6.39258752E-05  6.53339387E-04  1.84707314E-06  3.03857233E-04 -8.68213478E-04
  1.93709370E-04 -4.53321685E-05 -1.93519961E-05  6.54171201E-05  1.17454043E-02
  2.30775881E-03  6.31551112E-03 -1.82113497E-05 -6.88896295E-03  3.21051785E-04
 -1.86023406E-04  6.56487537E-03  1.97472562E-05 -3.46912461E-04  1.29123796E-05
  1.34164521E-03 -4.76941243E-07 -9.84343802E-06 -1.21255762E-04  6.35312882E-05
  9.19132527E-04 -4.35447419E-05  1.95895677E-05 -2.06836884E-03  1.38427915E-05
 -2.60754049E-05 -1.84292783E-03  2.45857046E-05 -8.19257748E-06 -1.45483564E-05
  2.55466959E-05 -1.33018688E-05 -2.31700587E-03  4.94389919E-06 -5.61384466E-05
  2.91200216E-04  6.97730040E-04  3.17020995E-04  1.98980988E-02 -8.30070639E-04
 -2.42892624E-04 -1.63501015E-02 -1.31284060E-04 -1.29778950E-04 -1.79659969E-04
 -1.30571113E-05 -1.16482321E-04  1.63586943E-03  1.20020175E-05  5.53800984E-05
  1.16906657E-04 -5.29354296E-05 -1.96110399E-05 -1.24820785E-04  3.62075543E-05
  6.98166929E-06  1.49734980E-04 -3.62680343E-05  6.07670159E-05 -1.29671860E-05
 -6.03259516E-05 -3.56562937E-05  1.33171491E-04 -2.40552632E-05  9.58258795E-05
  5.17822237E-05 -7.93861587E-05  6.44526624E-05  2.41678712E-04 -2.00246683E-04
 -3.88143614E-04 -2.20614636E-04  1.39269148E-04  7.70459777E-06 -6.24939879E-06
 -1.79099817E-04 -1.63256391E-04  3.56088747E-04 -2.65616256E-04 -2.76119159E-05
  4.50429034E-04  1.44418355E-05  7.78528801E-05  1.62511227E-04 -2.64020077E-05
 -1.13053235E-05 -7.72886894E-05  1.03385381E-03  1.55910549E-05  1.38594972E-04
 -2.48609557E-03  1.86175791E-05 -2.32392568E-06 -1.81921539E-03  2.13585277E-05
  1.08675906E-04 -5.41359652E-05 -3.20927260E-06 -7.15235558E-06 -2.10938653E-03
  3.65545884E-04  9.43061616E-04  1.21913401E-04 -4.82210378E-04  2.07980734E-04
  2.33497962E-02 -4.13761826E-05 -4.63510876E-05 -1.49014024E-02 -9.94547734E-05
 -3.68235068E-05 -8.06567404E-05  1.86860439E-05 -2.93929763E-05  1.66494958E-03
  3.48866055E-03  1.81130128E-02  7.20153865E-03  5.22262040E-03 -1.96855920E-02
  1.13639568E-02 -2.64330365E-06  1.62584556E-02 -9.40432195E-03  3.69207305E-06
  5.24581748E-03 -3.00773843E-03  6.04731802E-06  5.95038523E-03 -7.24433725E-03
 -5.03490261E-03 -1.30299728E-02 -3.60173471E-06  2.24849083E-07 -3.37880910E-04
 -1.64434035E-03  5.49158865E-03  5.03445786E-03 -5.66243039E-03 -5.87501492E-06
 -2.72746724E-03 -1.46009211E-04  6.94726531E-06 -4.46390989E-04  9.57518172E-06
 -4.48389367E-04 -2.01651201E-04  4.25034153E-08 -2.10034986E-06  2.14077790E+00
  5.81365962E-03  3.22060863E-02  1.34705617E-02  1.23726182E-02 -3.87388005E-02
  2.23447328E-02  8.10082296E-06  3.47251048E-02 -2.00192602E-02 -6.56896934E-06
  1.32820229E-02 -7.64471031E-03  6.53671177E-06  1.34292131E-02 -1.32790705E-02
 -1.11615397E-02 -2.63883936E-02  8.10468512E-07 -9.28547809E-06 -1.66117932E-03
 -4.70913873E-03  8.99944726E-03  7.63910890E-03 -1.49666784E-02 -5.86160180E-06
 -3.84126930E-03  2.77897189E-03 -4.87126991E-06 -6.07986151E-04 -2.59064345E-05
 -6.39839413E-04 -4.88607202E-04  2.00657056E-05  1.09047022E-05  3.00860387E-01
  7.65495536E-01  5.52827625E-03  1.90672209E-02 -3.37025297E-03  1.52112158E-02
 -2.83967963E-02  1.63519816E-02 -8.03157427E-05  5.14567460E-03 -3.04795265E-03
  3.76191837E-05  1.23837869E-02 -6.99673109E-03  2.67070834E-05  6.67054635E-03
 -7.44612996E-03 -7.68736518E-03 -1.35822507E-02 -1.65275188E-05  5.51293115E-05
  5.54123367E-03  9.15187600E-03  1.31632272E-02  1.43364790E-02  5.15039645E-03
 -3.91836457E-05 -1.24974016E-02 -6.65681323E-03  8.91154365E-05 -6.12213741E-04
  7.82456374E-04 -9.85933599E-05  1.84688465E-04 -4.56181045E-05 -7.65846767E-05
  2.78522719E-01  5.10834224E-01  4.15872219E-01  2.18121169E-02  1.34359466E-01
  2.05395703E-01 -5.21908707E-02 -8.54932701E-02  7.12454902E-02 -2.72289562E-05
  1.37965895E-01 -1.05161903E-01  6.21154812E-05 -3.59025400E-02 -1.93905434E-02
  2.87989311E-05  9.02469868E-03  1.02884061E-02 -1.27753989E-02 -8.97291572E-02
 -2.01413782E-05 -2.96572148E-05 -2.38364968E-03 -9.15962289E-03  1.17565334E-02
  4.77114609E-03 -2.18205171E-02  1.37451680E-05  1.34855916E-02  1.08312454E-02
 -1.15246910E-05 -1.92759521E-03 -5.53000212E-04 -1.93676552E-03 -1.82712343E-03
  5.74004543E-06 -5.51761250E-06 -2.59303498E-02 -5.68842363E-02 -1.07455129E-01
  7.90547652E-01 -1.25635038E-02 -7.73840250E-02 -1.17792755E-01  2.98414976E-02
  7.11167230E-02 -3.33463933E-03 -6.48421246E-06 -1.04574969E-01  1.66313112E-02
  3.47924379E-05 -1.92464765E-02 -5.79542868E-02  1.18208804E-05 -8.32786941E-02
  7.23209883E-02  7.56994276E-03 -3.95680833E-04  3.62398940E-05 -3.23325479E-05
  7.18060528E-03  1.40964942E-02  9.75900160E-03 -2.76847619E-02  3.32701360E-02
  1.19517280E-05  2.64359197E-02 -3.91713357E-03 -1.25751089E-05 -4.68843354E-04
 -2.58239587E-03 -3.29059260E-05 -9.76915737E-05 -4.11290598E-06  1.21485957E-05
  1.49354499E-02  3.28253238E-02  6.16325681E-02  2.43712475E-02  8.19093157E-01
 -3.46726464E-06 -1.55497755E-05 -1.13565017E-05 -1.56756385E-05 -1.18160431E-05
 -1.03781783E-05  5.28089517E-02  2.25510786E-05  4.39914861E-05 -8.58683549E-02
 -2.86351263E-05  2.60509275E-05 -6.50776991E-02  2.26099430E-05 -4.01157861E-05
 -1.09804755E-05 -2.60074719E-07 -7.27900513E-02  4.21822329E-02 -7.89706580E-06
 -2.45976601E-05  7.47000972E-06  4.82961804E-05  1.51758331E-05 -1.90345607E-02
 -3.25466009E-05 -2.36588631E-05  1.88425018E-02  6.94521587E-06 -7.38178826E-06
  1.87323872E-06  4.73672207E-06 -8.84857573E-05  3.79529608E-04  5.13779411E-06
  7.12216915E-06  2.85716324E-05  2.88036828E-05  1.10040522E-05  8.15840219E-01
 -1.59518789E-02 -9.64942294E-02 -1.44210273E-01  3.67506067E-02  6.36726226E-02
 -5.53093033E-02  3.74852872E-05 -8.93604720E-02  7.22413710E-02 -5.08325926E-05
  2.35164538E-02  1.52730643E-02 -1.14978411E-05 -3.66843994E-03 -1.01725171E-02
  8.31763659E-03  5.77144933E-02  1.12933144E-05  4.87361069E-05 -1.48160209E-03
  4.97917019E-04 -1.19555044E-02  1.65936090E-02  8.93243947E-03 -3.18653044E-05
 -2.39893946E-02 -5.02649557E-03  5.87812922E-05  1.45064661E-03  1.13363992E-04
  1.27194713E-03  1.85675200E-03 -2.71180731E-06  3.50370752E-05  1.63131798E-02
  4.43387451E-02  7.66138160E-02 -5.16146562E-01 -4.09879279E-02 -5.06712465E-05
  3.61852604E-01  9.15962533E-03  5.54127037E-02  8.22685778E-02 -2.08307696E-02
 -5.53051142E-02 -1.59518815E-04 -1.07579494E-06  7.18006519E-02 -5.84280107E-03
 -2.32490452E-05  1.51158634E-02  4.08460466E-02 -7.59438218E-06  5.69690378E-02
 -4.92714174E-02 -5.01279349E-03  3.46042263E-03 -5.23043174E-05  6.42781463E-05
 -2.15024720E-03 -4.47722709E-03 -7.10754612E-03  2.47285110E-02 -7.20105778E-03
  3.17774972E-05 -2.57728227E-02 -6.15201993E-03  6.14706897E-05  8.27738263E-06
  2.44308508E-03  1.00249809E-04  5.39704547E-04 -3.72850208E-05 -2.58792969E-05
 -9.40098751E-03 -2.56685249E-02 -4.36938865E-02 -4.10386244E-02 -5.64919553E-01
 -7.68293397E-05  4.48220593E-02  4.14654721E-01 -9.79569547E-07  1.39306367E-05
  8.66721686E-05  3.91822853E-06 -1.41758242E-05  6.07685271E-05 -4.18884972E-02
 -5.42839909E-05 -8.12367510E-05  6.42323665E-02  3.08810313E-05 -2.35415904E-05
  4.83645135E-02 -7.37485000E-05 -1.46361748E-06 -7.03620242E-06  1.45680324E-05
  5.76822949E-02 -3.34859869E-02 -1.22680608E-05 -4.19052319E-05  2.50323702E-05
  9.33022849E-06  4.72863754E-06  1.88286648E-02  7.41916332E-05  1.10899354E-05
 -2.00588559E-02 -4.81559708E-06  2.20474189E-06  1.16928805E-05  1.21050700E-05
  7.92723343E-05 -3.54610934E-04 -3.79050380E-06 -1.30474278E-05  1.26024937E-05
 -4.59006739E-05 -7.31386147E-05 -5.78374131E-01  1.12053648E-07  3.29718547E-05
  4.38096535E-01  3.10193479E-04  3.67377374E-03  7.70099705E-03 -1.63702236E-03
  4.04545071E-04  5.32690999E-04 -4.89975901E-07  4.70123344E-03 -4.48764071E-03
 -3.51276364E-06 -5.70046498E-04 -1.23939986E-03 -5.76191458E-06  2.09320813E-04
  6.73301230E-04 -6.80710214E-04 -2.89530150E-03 -6.07028025E-06  5.21936340E-07
 -2.75273499E-04 -5.72133156E-04  4.92142319E-04 -2.97728726E-03 -8.82660501E-04
  3.65582521E-06  2.89700545E-03  4.80097694E-04 -1.27845402E-05 -6.72352175E-05
 -3.88218110E-05 -8.56396355E-05 -2.20371926E-04  8.49455048E-06  2.24928184E-06
  1.53877670E-02  8.60849733E-03  6.61817062E-03  2.33617135E-02  3.42823671E-03
 -2.71195545E-05 -1.57550855E-02 -4.97485124E-03 -1.77416343E-05  2.34747322E-03
 -2.00353989E-04  1.39749269E-04 -2.52855922E-05  2.44882572E-04 -3.96032803E-04
 -5.39166842E-04  1.18175146E-07  2.03722597E-03  6.14006549E-04 -4.65568851E-07
  1.02936545E-03  9.30418919E-04  1.78214020E-06  1.37907392E-03 -1.30316076E-03
 -1.52714879E-04  5.20383227E-04  2.29506514E-06 -3.11579364E-06 -1.67000618E-04
 -7.79738663E-05 -3.78564510E-04 -8.94532015E-04  2.82352396E-04  8.62362701E-06
  1.15586455E-04 -3.00493949E-04 -8.24429247E-06 -1.22357754E-05  6.57698621E-05
  3.21499768E-05  3.81152107E-05 -1.02155466E-05 -1.88870186E-06  1.33524458E-02
  5.79282618E-03  5.93997648E-03 -8.56081895E-03 -1.19577280E-02  2.98012399E-05
  5.84031563E-03  1.05786664E-02  1.66328210E-05 -5.97395516E-04  1.49048998E-03
 -5.06183997E-04 -1.86010796E-03 -4.31383237E-03  1.28335743E-03  7.88986729E-05
 -4.81741129E-05  8.38393343E-06 -1.28040268E-03  7.44345105E-04 -4.28152694E-06
  5.76433067E-04 -2.99302753E-04 -4.80422629E-07 -6.39807017E-04 -5.98944171E-05
  2.66714867E-04  6.13946742E-04  1.87893695E-06 -1.10057322E-05 -4.56469371E-04
 -6.55006635E-04 -9.31285997E-05 -1.00485290E-03 -1.64022552E-03  6.35672754E-06
  6.82493600E-04  9.80499496E-04 -1.53175831E-06  4.21559485E-05 -9.67986054E-05
 -2.00868408E-05 -2.59810547E-05  1.65008520E-05  1.36414009E-05  1.14197469E-02
  1.51399045E-03  6.09680027E-03 -6.13462520E-03  3.63370795E-03 -2.23504093E-06
  5.63733792E-03 -3.17000875E-03 -1.95722027E-06 -1.10306508E-04 -3.34417948E-04
  1.60491047E-03 -5.04868392E-04 -3.50099948E-03 -7.55759249E-03  1.79953612E-03
  1.22454994E-04  4.39486630E-04  3.84313549E-06 -4.70883278E-03  1.52242684E-03
 -6.22283558E-06 -1.93146961E-04 -9.33607010E-04  4.81544354E-07 -2.08475250E-03
  1.29002506E-03  5.48512900E-04  1.22856366E-03 -1.47965094E-06 -2.76888796E-06
 -3.48201469E-04 -6.14444546E-04 -5.44200116E-04  7.91618891E-05 -1.88249503E-03
 -1.06003786E-05 -2.49317760E-05  1.75279347E-03  2.05270250E-06  7.82126526E-05
 -2.07613118E-04  5.29289229E-05  4.92560830E-05 -8.63474069E-06  4.61700805E-06
 -2.24325218E-03 -3.34617743E-03 -8.84421680E-04 -1.19329551E-02  1.74410001E-02
 -3.07282957E-05  5.56529578E-03 -1.28258467E-02 -1.85433262E-05 -2.97517468E-04
 -4.09488674E-04 -9.32606293E-05  1.70063858E-03 -9.68703564E-07 -3.42183168E-06
 -9.29464411E-06  1.24270134E-06  1.55635402E-06 -5.28961130E-06  8.65123634E-04
  8.71982750E-06 -5.40937734E-06 -2.11399808E-03 -1.36842217E-06 -1.33952116E-06
 -1.52389718E-03  6.28135023E-06  1.47034375E-05  1.32063068E-06 -3.15887849E-06
 -1.50598008E-03  8.90188749E-04  4.93301505E-06  1.05559917E-05  1.99067450E-06
 -4.41187474E-06  3.08796208E-06  2.91661653E-04  9.11974397E-06  7.35751785E-06
 -2.98002838E-04 -4.56252822E-06  8.29253702E-06 -8.73836210E-06  4.48394020E-06
  1.25322850E-05  4.00008397E-05  8.00880932E-06  2.39346163E-05 -1.18727157E-05
 -3.91900660E-05 -2.83056714E-05  1.98685951E-02 -1.62393320E-05 -2.27291317E-05
 -1.27493477E-02  3.22700876E-08  7.63091346E-06 -1.26521755E-05  8.89749784E-06
  1.29922937E-03 -5.93684942E-07 -2.17165979E-06  1.48418870E-05 -3.72649792E-06
 -6.50879598E-06  4.78943004E-06 -4.99078351E-04  9.60420380E-06 -3.19800527E-06
  1.23638990E-03 -2.44793558E-06  1.46786825E-06  9.00576317E-04  1.11803538E-06
 -3.00665483E-06 -7.81080876E-07 -7.83998293E-06  8.99430663E-04 -5.02059349E-04
 -2.47082044E-06 -1.90065930E-06 -9.93138488E-06  4.09426941E-06  7.27640182E-07
 -2.68031042E-04 -7.29662319E-06  3.02296864E-06  2.37195042E-04  2.53439266E-06
 -5.40185140E-06  5.84110642E-06 -2.11454731E-06 -6.38924965E-06 -2.16862246E-05
  1.56480537E-05  4.61691973E-05 -6.08695673E-06 -3.63233430E-05  3.62744694E-05
 -1.13758864E-02 -9.10546600E-06  2.14722181E-05  7.47246814E-03 -2.61817124E-06
  1.81831608E-05 -3.02505990E-05  1.31722678E-05 -6.42603723E-04  3.37001611E-04
  3.48981223E-03  1.81286935E-02  7.28123475E-03  5.18626640E-03  1.96935352E-02
  1.13813577E-02  1.01601917E-06 -1.63462382E-02 -9.40934690E-03 -8.70938084E-06
 -5.21383375E-03 -3.03410421E-03  6.12491912E-06  5.75524156E-03 -7.04989333E-03
 -5.05043033E-03  1.32082469E-02 -6.87447145E-06 -7.03379432E-06 -3.34026635E-04
 -1.62651844E-03  5.40189839E-03 -5.01404275E-03 -5.64440804E-03  1.31826487E-05
  2.64450750E-03 -1.03058293E-04 -1.06796204E-05 -4.46466820E-04  7.96511362E-06
 -4.45665885E-04  2.19893642E-04 -2.36914499E-06  2.63370110E-06 -3.37558703E-04
 -1.65429819E-03  5.55531911E-03 -7.42863226E-03 -1.53161600E-03  2.42408940E-06
  1.21975366E-03  2.47847284E-03 -2.68582416E-06  4.84435972E-05 -4.88696857E-04
 -4.49498631E-04 -1.30939142E-04 -6.06528522E-07 -4.00142356E-07  2.14077591E+00
  5.81021156E-03  3.22312575E-02  1.36890586E-02  1.22944244E-02  3.87551370E-02
  2.24095226E-02 -1.95214715E-06 -3.48129907E-02 -2.00975949E-02 -3.92176301E-06
 -1.32510858E-02 -7.66442141E-03  1.87942665E-05  1.30048837E-02 -1.29425802E-02
 -1.12032845E-02  2.67280664E-02 -2.19157433E-05 -1.16179203E-05 -1.68329731E-03
 -4.73009366E-03  8.76965046E-03 -7.60099346E-03 -1.48879421E-02  2.59075589E-06
  3.70248865E-03  2.85566244E-03  6.78034891E-06 -6.45314499E-04 -1.87274252E-05
 -5.88872328E-04  5.39804867E-04 -7.79158683E-06  2.73078362E-05 -1.63715657E-03
 -4.67877673E-03  9.16518108E-03 -1.68387219E-02  8.80504502E-04  8.53052739E-06
  4.32164996E-03  1.99786698E-03 -4.06226343E-06  2.01479475E-04 -8.33975875E-04
 -6.54606885E-04 -6.18020996E-05  1.29636514E-06  9.70519001E-07  3.00868971E-01
  7.65522262E-01  5.55524309E-03  1.91522399E-02 -3.39915550E-03  1.51597264E-02
  2.82690558E-02  1.64351556E-02 -5.21918646E-05 -5.41565116E-03 -3.13776009E-03
  3.25602499E-05 -1.21741491E-02 -7.24274091E-03  3.22368839E-05  6.23467995E-03
 -6.76381075E-03 -7.64916280E-03  1.40857957E-02 -4.86394445E-05 -3.59232788E-05
  5.74641979E-03  9.54285419E-03  1.33975295E-02 -1.42055619E-02  4.92691327E-03
  1.57497244E-04  1.22327385E-02 -6.44729031E-03 -7.93556953E-05 -5.48445556E-04
  7.65891016E-04 -2.14262442E-04 -1.56714045E-04 -8.74707673E-07 -6.52097149E-05
  5.43393168E-03  8.90864156E-03  1.30855366E-02 -2.55050473E-03 -1.51805409E-02
  3.29295083E-06  3.45581769E-04  1.43715297E-02 -2.15381828E-05  2.75116933E-04
 -1.55098240E-04 -3.99542711E-05 -7.94035436E-04 -6.09233656E-06 -1.47256149E-06
  2.78456268E-01  5.10774939E-01  4.15476604E-01 -2.17698221E-02 -1.34083608E-01
 -2.04203047E-01  5.17204088E-02 -8.55028666E-02 -7.10411702E-02 -5.02001216E-05
  1.37577577E-01  1.04341533E-01  1.80971127E-04 -3.56676712E-02  1.91694852E-02
  8.90306673E-05 -9.45512504E-03 -9.66927265E-03  1.30193402E-02 -8.91328083E-02
 -9.15426143E-05 -4.30178253E-05  2.38752014E-03  9.17380042E-03 -1.18384496E-02
  4.72383864E-03  2.17638564E-02  9.42456044E-07  1.33584926E-02 -1.06799150E-02
 -6.21905746E-06  1.93563717E-03  5.39963299E-04  1.93176389E-03 -1.83007677E-03
 -9.65934889E-06  2.00623030E-06  7.38961397E-03  1.67317421E-02  2.57852753E-03
  4.76017770E-02  2.98105931E-03  1.19728850E-05 -1.57120324E-02 -9.59831374E-03
 -1.72417589E-06 -1.94114587E-03  5.54053828E-04  9.33578915E-04  8.32202572E-04
 -3.61874824E-07 -1.16425671E-06  2.58802544E-02  5.68790268E-02  1.06800569E-01
  7.90898378E-01 -1.26150135E-02 -7.77016414E-02 -1.19197921E-01  3.03505181E-02
 -7.12762612E-02 -3.28187130E-03 -4.12246653E-05  1.05555991E-01  1.67940580E-02
  1.29686029E-04  1.92725951E-02 -5.82627569E-02  7.76757693E-05 -8.40383883E-02
  7.26441320E-02  7.21324268E-03  5.14927206E-04 -5.42513555E-05  1.34111984E-05
  7.21343451E-03  1.41640596E-02  9.85800493E-03  2.76760802E-02  3.33673937E-02
 -1.45488162E-05 -2.65005447E-02 -3.89013128E-03  2.43603054E-05 -4.46936588E-04
 -2.61348034E-03 -4.28584579E-05  7.56103163E-05  1.56597042E-06 -3.57469945E-06
 -1.52094502E-03  8.96529073E-04 -1.50433402E-02 -2.90272248E-03 -9.55510760E-03
  1.99513182E-05  6.03922598E-03  2.53427992E-02 -1.57469233E-05  5.75036656E-04
  3.09716480E-03  1.69204614E-03 -7.44522031E-04  7.56968661E-07 -5.62601783E-07
  1.50061252E-02  3.28360725E-02  6.25049039E-02 -2.45414926E-02  8.18734802E-01
  5.11591487E-06  4.31154055E-05  1.92606805E-04  2.00174224E-05 -5.92991834E-06
 -1.27925609E-05  5.27926262E-02 -4.18418451E-05 -2.20267621E-05 -8.58210692E-02
 -4.18839985E-05 -2.05437756E-05 -6.50911413E-02 -3.49333078E-05 -2.35281540E-06
  5.43902285E-05 -5.63590757E-05  7.29219934E-02  4.18968760E-02 -5.89355736E-06
 -2.18098080E-05 -6.70075118E-06  2.43452972E-05  3.27051978E-06 -1.90167862E-02
 -1.34212504E-05 -6.69303052E-06  1.88662333E-02  3.22925874E-07  1.02918126E-05
 -1.42942411E-05  7.77249840E-06  9.80467111E-05  3.74467858E-04 -4.13210680E-06
 -6.88300124E-06 -2.92251120E-05 -1.31659735E-05  8.50448531E-06 -1.89797986E-02
  1.84814391E-05 -1.70950501E-06  1.88051375E-02  2.94781015E-07  9.39199022E-07
 -1.77845282E-06  3.89778652E-06  3.72839929E-04 -1.24399809E-04 -2.30402967E-05
 -5.78091645E-05 -2.99117081E-05  1.07386756E-04  6.94458869E-05  8.15851477E-01
  1.59201379E-02  9.62294648E-02  1.42902383E-01 -3.62780126E-02  6.36018876E-02
  5.51953372E-02  4.46938888E-05 -8.88499390E-02 -7.17110715E-02 -1.52381695E-04
  2.33203014E-02 -1.50444550E-02 -5.98196247E-05  4.08252851E-03  9.65349887E-03
 -8.51267329E-03  5.71099183E-02  1.35591938E-04  1.03968125E-04  1.59125100E-03
 -3.17117128E-04  1.23384704E-02  1.66852200E-02 -9.12951716E-03 -4.80390706E-05
 -2.39130046E-02  4.98536535E-03  8.03499207E-05 -1.48433879E-03 -1.41130486E-04
 -1.25104915E-03  1.84201596E-03 -6.38728573E-05 -3.05098948E-05 -1.22361147E-03
 -4.34638961E-03 -3.79544106E-04 -1.56223134E-02 -6.10586973E-03 -8.15639468E-06
  2.61674810E-03  1.04107081E-02 -8.35796123E-07  1.68609440E-03 -3.75232670E-04
 -5.05951939E-04 -1.14687667E-03 -3.81291698E-06 -9.53864969E-07 -1.63556216E-02
 -4.45449586E-02 -7.60242547E-02 -5.17799744E-01  4.17503224E-02 -2.10355857E-04
  3.63046830E-01  9.24015374E-03  5.58657691E-02  8.37272312E-02 -2.13850429E-02
  5.53370770E-02 -1.77724782E-04  4.38473685E-05 -7.28082637E-02 -6.26411448E-03
 -1.26641754E-04 -1.51614883E-02  4.11498593E-02 -7.69252032E-05  5.78723445E-02
 -4.95468787E-02 -4.59414301E-03 -3.41377971E-03  9.04187130E-05 -2.22603452E-05
 -2.20853391E-03 -4.57262954E-03 -7.27079938E-03 -2.47781012E-02 -7.20579181E-03
  9.91122915E-05  2.58411835E-02 -6.22242252E-03 -7.89137231E-05  1.28300432E-04
  2.44795117E-03  2.39919368E-05 -5.95914813E-04  2.77658970E-05 -5.75327378E-05
  2.38303010E-03  1.82603588E-03  1.40438951E-02  9.68985275E-03  2.51813559E-02
 -1.85522025E-05 -1.04748587E-02 -3.29226001E-02  4.18567849E-05  1.33390464E-05
 -2.67388781E-03 -1.11315449E-03  9.81893516E-04  7.43054685E-06 -2.54362283E-06
 -9.42305194E-03 -2.54869386E-02 -4.48272250E-02  4.16608164E-02 -5.63319274E-01
 -9.84373323E-05 -4.53748096E-02  4.13572714E-01 -1.82450474E-05 -1.04404616E-04
 -3.16701296E-04  5.00170325E-05 -1.97113794E-05  1.69272244E-06 -4.18945781E-02
  2.34239735E-04  1.01857352E-04  6.41698463E-02  2.49922919E-05  7.66573886E-06
  4.83764346E-02 -5.51654902E-05 -4.63285031E-05 -3.47720898E-05 -4.81744004E-06
 -5.78346603E-02 -3.31529093E-02  7.06891585E-06  2.64908579E-05  9.48440287E-06
 -8.35454816E-05 -9.70826416E-06  1.88640428E-02  7.99315730E-05  4.66023830E-05
 -2.00559602E-02 -2.26775773E-05  5.00655775E-05 -2.49451943E-05  1.98866576E-05
 -9.07447740E-06 -3.57676678E-04  3.35634115E-06  7.15429442E-06  2.44832325E-05
  8.60374199E-06  1.08915517E-06  1.88245106E-02 -2.53819762E-05 -4.98719431E-06
 -1.99839650E-02  3.02577220E-06 -1.52009362E-06 -3.27498060E-06  4.96500997E-06
 -3.63975797E-04  1.05066744E-04  6.92610188E-06 -5.67003126E-05  2.85719380E-04
 -2.41446164E-04 -1.05050319E-04 -5.78398229E-01  2.27687652E-04  1.68802258E-04
  4.38150822E-01  3.07887660E-04  3.64621569E-03  7.48442507E-03 -1.54412583E-03
 -3.78498801E-04  5.36479734E-04 -1.27305097E-05 -4.64994155E-03 -4.45961244E-03
  1.13937769E-05  5.34016777E-04 -1.21509103E-03  1.47442070E-05  2.81968966E-04
  6.31009451E-04 -6.88216893E-04  2.80585232E-03 -1.86827391E-05 -4.76471261E-06
 -2.64943428E-04 -5.33400326E-04  4.98857711E-04  2.98401792E-03 -8.88182449E-04
 -1.36947637E-05 -2.83222063E-03  5.12527923E-04 -1.23827696E-07 -8.39048210E-05
 -5.49994167E-05 -6.43585092E-05  1.98922449E-04 -2.27084026E-05 -2.85277837E-06
  5.74926421E-05  2.43817958E-04  2.25385131E-04  1.97821907E-03  5.79268096E-04
 -4.87412880E-06 -1.62488031E-03  1.33969342E-06 -1.31325224E-05  1.72400085E-04
 -6.42593339E-05 -2.69645030E-05 -1.07380533E-04 -2.11506324E-06  7.14342854E-07
  1.56621967E-02  9.28930710E-03  6.92900440E-03 -2.21367597E-02  3.48814805E-03
  3.25790632E-05  1.60866523E-02 -4.85543815E-03  6.91116960E-05  2.20497914E-03
 -1.97719905E-04  1.53083698E-04  1.28797298E-04  1.73891767E-04  3.64990940E-04
 -5.65588078E-04 -3.25510473E-06 -2.06815522E-03  5.98829494E-04  1.82484858E-06
 -1.04828945E-03  9.93864197E-04 -1.68323442E-07  1.46521015E-03 -1.41142267E-03
 -1.37582117E-04 -5.42065683E-04 -3.68806217E-06 -6.31551643E-06 -1.91801265E-04
 -1.21262269E-04 -4.14208651E-04  8.84163524E-04  2.88875805E-04 -7.13482396E-06
 -8.89735082E-05 -3.43786070E-04 -2.11646036E-06  9.84385251E-07  7.96630146E-05
  2.43307200E-05 -4.70765852E-05  1.36265183E-05 -7.65805565E-06 -4.95189860E-04
 -8.94518100E-04 -6.91916382E-05 -5.82728421E-04  3.09062310E-03  1.16017599E-07
  2.51196166E-04 -2.73390330E-03 -1.00485665E-07 -4.97063944E-05 -1.26200114E-04
 -2.19741212E-05  1.53857077E-04  5.05072567E-07 -1.30229499E-07  1.30765996E-02
  5.09263589E-03  5.67300774E-03  7.41854165E-03 -1.20601635E-02  3.19403235E-05
 -6.33659005E-03  1.07177633E-02  1.45926108E-05 -6.59719203E-04  1.75723902E-03
 -5.05693773E-04 -1.85566682E-03 -4.26370308E-03  1.27320760E-03 -7.27166027E-05
 -3.21486880E-05  1.94199220E-05  1.29202888E-03  7.39236908E-04 -1.61620489E-05
 -5.30057032E-04 -3.74258693E-04 -8.72817556E-06 -6.90653570E-04 -2.76576832E-05
  2.54486851E-04 -5.95599450E-04  2.59899280E-05  1.52491649E-05 -4.66626477E-04
 -6.92555185E-04 -5.66415353E-05  9.96319326E-04 -1.63268806E-03 -7.27773286E-06
 -7.22539064E-04  9.82866193E-04  1.66238661E-05  3.37980856E-05 -1.04845047E-04
 -1.35491766E-05  3.57350035E-05  7.52874490E-06  1.71959649E-05 -4.44274240E-04
 -6.13019348E-04 -1.19871704E-04 -9.31180709E-04  1.69406362E-03  3.41642907E-06
  5.46421624E-04 -1.08189025E-03  1.33838782E-05 -3.41124765E-05 -9.16719752E-07
 -3.67858816E-05  7.57767809E-05  2.23256459E-06  8.79231524E-08  1.14322038E-02
  1.54581907E-03  6.11164099E-03  6.23584915E-03  3.45110484E-03 -8.36111230E-05
 -5.49660866E-03 -3.37496519E-03 -7.75035462E-05 -2.68225056E-04 -1.81361539E-04
  1.60047406E-03  5.06042507E-04  3.50334835E-03  7.56641383E-03 -1.81536792E-03
  9.48872993E-05 -4.71844760E-04 -2.90018361E-06 -4.70877100E-03 -1.52895988E-03
  5.54429964E-06 -1.77920818E-04  9.18578702E-04  3.34808756E-06  2.16235967E-03
 -1.32504937E-03 -5.26710039E-04  1.20372722E-03  2.23528709E-06  1.48095538E-06
  3.44163764E-04  5.53150117E-04  6.75921394E-04  5.64676186E-05  1.84589577E-03
  1.23844956E-05 -8.36888823E-05 -1.84214339E-03 -2.34212335E-06 -8.15103664E-05
  2.12752400E-04 -6.20585669E-05  4.96510738E-05  1.08251087E-05 -6.49757875E-06
  1.23029096E-04  7.89348323E-05  6.77590570E-04  8.50752684E-04  7.38245977E-04
 -1.68681184E-06 -1.10861717E-03 -9.74651111E-04 -5.29531742E-06  1.16420016E-04
 -1.45053659E-04 -7.65917809E-05  1.57415542E-05  1.56291453E-06  4.97751433E-08
  2.13134411E-03  3.04942429E-03  8.01056160E-04 -1.16018814E-02 -1.89959427E-02
 -4.48359969E-05  5.69311945E-03  1.22738769E-02  2.40098947E-05  3.98170646E-04
  3.81147264E-04  1.65796210E-04  1.60356461E-03  3.14406911E-06  1.92073010E-05
  5.75972428E-05 -2.18671113E-05  2.95688257E-05  1.48511509E-05 -8.68111547E-04
 -3.60668504E-05 -1.51201176E-05  2.13214984E-03  8.73183724E-06  5.23110610E-06
  1.55301030E-03  7.83208544E-06  1.02802812E-05 -8.78142591E-06  1.50373219E-05
 -1.53898725E-03 -8.84023588E-04 -7.30114824E-07  2.45264924E-06 -2.51604144E-05
 -5.13901598E-06 -2.04022789E-06 -3.00059810E-04 -4.31352446E-06  1.70578665E-05
  2.57047801E-04  1.43452888E-06  1.26254999E-06  2.22169636E-06 -1.27380427E-06
  1.79744250E-06 -3.66714620E-05  2.50308940E-07  9.99181522E-06 -1.74684169E-05
  2.96775817E-06 -6.13637031E-07 -3.70282316E-04  2.07563745E-05 -3.63998767E-07
  3.49266990E-04 -3.07832432E-06  1.21764233E-06  3.54585859E-06 -4.68001984E-07
 -3.01360566E-05  1.81407634E-05  4.02979379E-05  1.33165493E-04 -5.65107540E-05
  6.19280190E-05 -6.12423634E-05 -1.97532954E-02  4.70760221E-05  9.29607899E-06
  1.29094926E-02  3.11011814E-05 -1.96795228E-05 -2.92400611E-05 -9.50901530E-06
  1.03344620E-03  3.58931360E-07  3.89747153E-06  2.78712035E-05 -9.51419630E-06
 -9.58072755E-07 -4.23678095E-06 -4.97004409E-04 -7.99850565E-06 -4.69121301E-06
  1.19824391E-03  2.25920032E-06  3.40002410E-06  8.55329913E-04  3.30171221E-06
 -7.93280757E-06 -3.96221141E-06 -1.48003884E-06 -8.68840104E-04 -4.66399840E-04
 -2.12813431E-06 -5.46428432E-07 -9.74923692E-06 -7.57840180E-07  2.63125613E-07
 -2.59845521E-04  2.53890687E-06  3.74526797E-06  2.71930961E-04  2.67812511E-07
  1.93576549E-06 -4.17314050E-07 -3.31621764E-06  2.70817751E-06 -2.06825495E-05
  1.01478194E-06  1.88709412E-06 -4.77120940E-06 -1.18480612E-06 -1.54259361E-06
 -1.07829327E-04  2.26258813E-06 -5.65174772E-06  1.60772334E-04 -5.10423941E-07
  7.47477049E-07 -1.57022381E-07  1.55698876E-06 -1.91813581E-05  1.14742314E-05
  1.33569981E-05  4.48512988E-05 -2.04273112E-05 -2.80841985E-05  1.04537436E-05
 -1.15721354E-02  2.03372082E-06  1.95515352E-05  7.23074321E-03 -4.02554028E-05
  1.64320992E-05  2.44977185E-05  5.07019788E-07  7.62643537E-04  6.09688551E-04
Natural orbital occupancies                R   N=          60
  9.99999938E-01  9.99980349E-01  9.99980107E-01  9.99980099E-01  9.99921035E-01
  9.99916932E-01  9.99911755E-01  9.99894677E-01  9.94688071E-01  9.94655015E-01
  9.94612799E-01  9.94462812E-01  9.94434295E-01  9.94378244E-01  9.92797379E-01
  9.92715582E-01  9.92644856E-01  9.92638502E-01  9.92572738E-01  9.92515251E-01
  4.98378992E-04  4.80567818E-04  6.88653233E-03  6.88110422E-03  6.81568428E-03
  6.79868303E-03  5.11957164E-03  5.27584552E-04  5.04348820E-03  4.89541827E-03
  4.60815124E-04  4.83088372E-03  6.25585627E-06  5.29317239E-06  6.15711864E-06
  6.60552312E-06  1.34295928E-07  1.19189049E-07  1.95848928E-05  3.14127054E-08
  6.98636981E-03  6.94669428E-03  4.74965866E-04  4.74040002E-04  4.68733720E-04
  4.03938424E-04  5.02184848E-04  5.03812090E-03  4.93700048E-04  4.91782350E-04
  4.88416952E-03  4.81045386E-04  9.90669683E-05  8.29520805E-05  7.69108308E-05
  7.23591374E-05  1.97664501E-05  1.97738482E-05  6.62420617E-08  3.01408807E-08
Dipole Moment                              R   N=           3
  3.46100072E-04 -7.10364402E-04 -4.57928303E-04
