[Molden Format]
p30-5 set                                                                       
[Atoms] AU
 O        1     8        2.1617        0.1424        0.0000
 O        2     8        0.0000        1.0903        0.0000
 O        3     8       -2.0449       -0.9333        0.0000
 H        4     1       -0.9347       -2.3951        0.0000
[GTO]
    1 0
s    5 1.00
    2266.176778500000 -0.538935039217E-02
     340.870101910000 -0.402347213890E-01
      77.363135167000 -0.180081842055E+00
      21.479644940000 -0.468288576577E+00
       6.658943312400 -0.446926171602E+00
s    1 1.00
       0.809759756680  0.100000000000E+01
s    1 1.00
       0.255307722340  0.100000000000E+01
p    3 1.00
      17.721504317000  0.626302487632E-01
       3.863550544000  0.333311384824E+00
       1.048092088300  0.741486383081E+00
p    1 1.00
       0.276415444110  0.100000000000E+01
d    1 1.00
       1.200000000000  0.100000000000E+01

    2 0
s    5 1.00
    2266.176778500000 -0.538935039217E-02
     340.870101910000 -0.402347213890E-01
      77.363135167000 -0.180081842055E+00
      21.479644940000 -0.468288576577E+00
       6.658943312400 -0.446926171602E+00
s    1 1.00
       0.809759756680  0.100000000000E+01
s    1 1.00
       0.255307722340  0.100000000000E+01
p    3 1.00
      17.721504317000  0.626302487632E-01
       3.863550544000  0.333311384824E+00
       1.048092088300  0.741486383081E+00
p    1 1.00
       0.276415444110  0.100000000000E+01
d    1 1.00
       1.200000000000  0.100000000000E+01

    3 0
s    5 1.00
    2266.176778500000 -0.538935039217E-02
     340.870101910000 -0.402347213890E-01
      77.363135167000 -0.180081842055E+00
      21.479644940000 -0.468288576577E+00
       6.658943312400 -0.446926171602E+00
s    1 1.00
       0.809759756680  0.100000000000E+01
s    1 1.00
       0.255307722340  0.100000000000E+01
p    3 1.00
      17.721504317000  0.626302487632E-01
       3.863550544000  0.333311384824E+00
       1.048092088300  0.741486383081E+00
p    1 1.00
       0.276415444110  0.100000000000E+01
d    1 1.00
       1.200000000000  0.100000000000E+01

    4 0
s    3 1.00
      13.010701000000  0.334854848130E-01
       1.962257200000  0.234721870881E+00
       0.444537960000  0.813770285260E+00
s    1 1.00
       0.121949620000  0.100000000000E+01
p    1 1.00
       0.800000000000  0.100000000000E+01

[MO]
Sym=     1a
Ene=   -0.206409E+02
Spin= Alpha
Occup= 1.999919
     1     0.000012
     2     0.000159
     3     0.000012
     4     0.000005
     5     0.000417
     6     0.000008
     7     0.000242
     8     0.000183
     9     0.000005
    10     0.000027
    11     0.000029
    12     0.000137
    13     0.000023
    14    -0.000000
    15     0.000002
    16    -0.000190
    17    -0.000381
    18    -0.003054
    19    -0.000403
    20    -0.000825
    21     0.000023
    22     0.000971
    23     0.000603
    24     0.000016
    25     0.000369
    26     0.000260
    27     0.000108
    28     0.000271
    29     0.000001
    30     0.000001
    31     0.994132
    32    -0.026813
    33     0.017500
    34    -0.003882
    35     0.001962
    36    -0.000001
    37     0.000067
    38     0.001735
    39     0.000002
    40     0.004115
    41     0.003982
    42     0.003906
    43     0.000821
    44    -0.000000
    45    -0.000002
    46     0.001755
    47    -0.002138
    48    -0.001292
    49     0.001325
    50    -0.000000
Sym=     2a
Ene=   -0.206836E+02
Spin= Alpha
Occup= 1.999917
     1     0.994761
     2    -0.024865
     3     0.018771
     4     0.004012
     5    -0.001197
     6     0.000019
     7    -0.001093
     8     0.000382
     9     0.000011
    10     0.004232
    11     0.004215
    12     0.004519
    13     0.000006
    14    -0.000006
    15     0.000001
    16    -0.000229
    17    -0.000781
    18    -0.005090
    19     0.001504
    20    -0.000650
    21     0.000037
    22    -0.001358
    23     0.000505
    24     0.000023
    25     0.001386
    26     0.000316
    27     0.000061
    28    -0.000673
    29     0.000003
    30     0.000001
    31     0.000007
    32     0.000054
    33     0.000523
    34    -0.000047
    35     0.000153
    36    -0.000003
    37    -0.000228
    38     0.000014
    39    -0.000000
    40     0.000041
    41     0.000004
    42     0.000093
    43    -0.000037
    44    -0.000000
    45     0.000001
    46    -0.000027
    47    -0.000730
    48    -0.000140
    49    -0.000253
    50     0.000003
Sym=     3a
Ene=   -0.207375E+02
Spin= Alpha
Occup= 1.999909
     1    -0.000218
     2    -0.000577
     3    -0.005756
     4    -0.001381
     5     0.000290
     6     0.000099
     7     0.001850
     8    -0.000746
     9     0.000059
    10     0.001208
    11     0.000471
    12     0.000086
    13    -0.000694
    14    -0.000011
    15     0.000002
    16     0.993710
    17    -0.027728
    18     0.020129
    19    -0.002375
    20     0.003662
    21     0.000209
    22     0.000490
    23    -0.002179
    24     0.000124
    25     0.004119
    26     0.004232
    27     0.003708
    28     0.000400
    29     0.000008
    30    -0.000010
    31    -0.000221
    32    -0.000119
    33    -0.004126
    34     0.000788
    35     0.000441
    36    -0.000006
    37    -0.001297
    38    -0.000755
    39    -0.000005
    40     0.000228
    41     0.000369
    42     0.000198
    43     0.000206
    44     0.000003
    45     0.000001
    46     0.000496
    47    -0.000012
    48    -0.000092
    49    -0.000163
    50    -0.000002
Sym=     4a
Ene=   -0.864612E+00
Spin= Alpha
Occup= 1.985492
     1     0.001722
     2     0.006755
     3     0.003472
     4    -0.001074
     5     0.007065
     6    -0.038584
     7    -0.000120
     8     0.009582
     9    -0.027877
    10     0.000074
    11     0.000838
    12     0.001157
    13    -0.000210
    14     0.001732
    15    -0.001532
    16    -0.006356
    17    -0.018771
    18    -0.032676
    19    -0.016806
    20    -0.031647
    21    -0.009341
    22    -0.002513
    23    -0.016431
    24    -0.014938
    25     0.004711
    26     0.000616
    27    -0.003471
    28     0.006270
    29    -0.007179
    30    -0.004980
    31     0.188344
    32     0.408981
    33     0.311180
    34    -0.139883
    35     0.101880
    36     0.462396
    37    -0.104088
    38     0.066839
    39     0.343222
    40     0.004870
    41     0.009518
    42     0.008752
    43     0.005919
    44     0.011874
    45    -0.004030
    46    -0.024819
    47    -0.023145
    48    -0.005437
    49     0.002301
    50     0.021020
Sym=     5a
Ene=   -0.861997E+00
Spin= Alpha
Occup= 1.985416
     1     0.001625
     2     0.006560
     3     0.003647
     4    -0.000644
     5     0.007062
     6     0.040293
     7    -0.000047
     8     0.009667
     9     0.028868
    10     0.000022
    11     0.000841
    12     0.001170
    13    -0.000189
    14    -0.001918
    15     0.001608
    16    -0.007174
    17    -0.020540
    18    -0.033766
    19    -0.016636
    20    -0.031423
    21     0.012960
    22    -0.002428
    23    -0.016262
    24     0.017362
    25     0.004634
    26     0.000540
    27    -0.003485
    28     0.006257
    29     0.007336
    30     0.004890
    31     0.187869
    32     0.407987
    33     0.310577
    34    -0.140173
    35     0.101537
    36    -0.463575
    37    -0.104221
    38     0.066661
    39    -0.344232
    40     0.004805
    41     0.009471
    42     0.008739
    43     0.005872
    44    -0.011871
    45     0.004073
    46    -0.024944
    47    -0.023019
    48    -0.005421
    49     0.002272
    50    -0.021080
Sym=     6a
Ene=   -0.104933E+01
Spin= Alpha
Occup= 1.985208
     1    -0.002411
     2    -0.013335
     3    -0.044232
     4    -0.011537
     5     0.014762
     6    -0.169601
     7     0.016839
     8    -0.007004
     9    -0.102040
    10     0.001657
    11    -0.000470
    12    -0.002884
    13    -0.005240
    14     0.017562
    15    -0.006883
    16     0.215525
    17     0.471794
    18     0.342220
    19    -0.085265
    20     0.120934
    21    -0.375399
    22    -0.045399
    23     0.078750
    24    -0.250164
    25     0.012267
    26     0.007861
    27     0.009914
    28     0.004841
    29    -0.013496
    30     0.011964
    31    -0.004644
    32    -0.014041
    33    -0.040514
    34     0.032772
    35     0.018926
    36     0.007502
    37     0.013581
    38    -0.002766
    39     0.018671
    40     0.002603
    41     0.004013
    42    -0.002898
    43     0.006704
    44    -0.003400
    45    -0.003299
    46    -0.000604
    47     0.009621
    48     0.000073
    49    -0.000613
    50     0.000220
Sym=     7a
Ene=   -0.100579E+01
Spin= Alpha
Occup= 1.984004
     1     0.199578
     2     0.432731
     3     0.333749
     4    -0.092829
     5    -0.442689
     6     0.002516
     7    -0.075570
     8    -0.305499
     9     0.001577
    10     0.017715
    11    -0.001840
    12     0.005980
    13     0.013097
    14    -0.000262
    15     0.000101
    16     0.012645
    17     0.014670
    18    -0.011767
    19    -0.018894
    20    -0.104049
    21     0.003608
    22    -0.040499
    23    -0.041644
    24     0.002335
    25    -0.008034
    26     0.012005
    27    -0.004602
    28    -0.016173
    29     0.000185
    30    -0.000121
    31    -0.006884
    32    -0.013981
    33    -0.050952
    34    -0.011492
    35     0.003424
    36    -0.000338
    37    -0.023267
    38    -0.002207
    39    -0.000367
    40     0.001770
    41    -0.000502
    42    -0.000384
    43     0.001414
    44     0.000026
    45     0.000032
    46     0.001081
    47     0.032453
    48     0.003336
    49     0.001680
    50    -0.000005
Sym=     8a
Ene=   -0.943719E+00
Spin= Alpha
Occup= 1.983349
     1    -0.196720
     2    -0.435522
     3    -0.328360
     4    -0.271666
     5    -0.380006
     6    -0.000633
     7    -0.179284
     8    -0.267463
     9    -0.000368
    10     0.004548
    11    -0.018420
    12    -0.009132
    13     0.011518
    14     0.000074
    15    -0.000014
    16     0.018140
    17     0.043428
    18     0.094775
    19    -0.070404
    20    -0.082051
    21    -0.002768
    22    -0.019037
    23    -0.055944
    24    -0.001833
    25    -0.016816
    26     0.016801
    27     0.002233
    28    -0.007266
    29    -0.000103
    30     0.000136
    31    -0.008196
    32    -0.017981
    33    -0.051920
    34    -0.004871
    35     0.001219
    36     0.000001
    37    -0.022905
    38    -0.014043
    39     0.000094
    40     0.002538
    41    -0.000202
    42    -0.001058
    43     0.002426
    44    -0.000024
    45    -0.000024
    46    -0.001106
    47     0.016517
    48     0.002479
    49    -0.000162
    50     0.000004
Sym=     9a
Ene=   -0.940732E+00
Spin= Alpha
Occup= 1.982703
     1    -0.005100
     2    -0.017683
     3    -0.040125
     4    -0.006679
     5     0.011531
     6     0.205805
     7     0.015121
     8    -0.006024
     9     0.124138
    10     0.000864
    11    -0.000454
    12    -0.002428
    13    -0.004181
    14    -0.021247
    15     0.008336
    16     0.177475
    17     0.389674
    18     0.284981
    19    -0.073859
    20     0.104151
    21     0.453459
    22    -0.038661
    23     0.067548
    24     0.302304
    25     0.009305
    26     0.006164
    27     0.008247
    28     0.004366
    29     0.016448
    30    -0.014702
    31    -0.005438
    32    -0.014936
    33    -0.035975
    34     0.027565
    35     0.014813
    36    -0.011049
    37     0.011837
    38    -0.002925
    39    -0.024060
    40     0.002021
    41     0.003247
    42    -0.002453
    43     0.005493
    44     0.004061
    45     0.004012
    46    -0.000606
    47     0.008386
    48     0.000108
    49    -0.000555
    50    -0.000356
Sym=    10a
Ene=   -0.921502E+00
Spin= Alpha
Occup= 1.967666
     1     0.008440
     2     0.020824
     3     0.032323
     4    -0.023287
     5    -0.023818
     6    -0.000201
     7    -0.026868
     8    -0.013827
     9    -0.000114
    10     0.002629
    11    -0.001245
    12     0.001339
    13    -0.001513
    14     0.000016
    15    -0.000004
    16     0.002431
    17     0.012368
    18    -0.026613
    19    -0.008834
    20    -0.005589
    21    -0.000552
    22    -0.021074
    23     0.003929
    24    -0.000370
    25     0.006937
    26    -0.007507
    27     0.002616
    28    -0.002767
    29    -0.000019
    30     0.000018
    31    -0.087916
    32    -0.181827
    33     0.035789
    34    -0.335640
    35     0.358719
    36     0.000308
    37    -0.169668
    38     0.165645
    39     0.000249
    40    -0.014380
    41    -0.007694
    42     0.004215
    43     0.018637
    44     0.000003
    45    -0.000009
    46    -0.434449
    47    -0.057677
    48     0.025947
    49    -0.042932
    50     0.000017
Sym=    11a
Ene=   -0.955232E+00
Spin= Alpha
Occup= 1.938557
     1    -0.024071
     2    -0.058992
     3     0.143058
     4     0.417956
     5    -0.220409
     6    -0.001770
     7     0.185514
     8    -0.111749
     9    -0.000952
    10    -0.037912
    11     0.003863
    12     0.011684
    13     0.021719
    14     0.000214
    15    -0.000085
    16    -0.049075
    17    -0.108369
    18     0.054667
    19    -0.417783
    20     0.262903
    21    -0.004209
    22    -0.190218
    23     0.153582
    24    -0.002960
    25    -0.028333
    26    -0.003034
    27     0.011235
    28     0.028565
    29    -0.000344
    30     0.000248
    31    -0.003780
    32    -0.010290
    33    -0.030940
    34     0.036463
    35     0.009591
    36     0.000505
    37     0.034450
    38     0.001249
    39     0.000522
    40    -0.000485
    41     0.004687
    42    -0.001815
    43     0.002726
    44    -0.000032
    45    -0.000041
    46     0.015051
    47     0.028653
    48     0.001399
    49     0.001843
    50     0.000026
Sym=    12a
Ene=   -0.648784E+00
Spin= Alpha
Occup= 1.789194
     1     0.001553
     2     0.000478
     3     0.016132
     4    -0.092133
     5    -0.142836
     6    -0.000318
     7    -0.091613
     8    -0.133574
     9    -0.000079
    10    -0.001797
    11     0.004004
    12    -0.001437
    13    -0.006463
    14     0.000085
    15    -0.000036
    16     0.000758
    17     0.011142
    18     0.045713
    19     0.208968
    20     0.426246
    21    -0.001087
    22     0.083686
    23     0.275070
    24    -0.000912
    25    -0.000467
    26    -0.022072
    27     0.011331
    28    -0.021213
    29    -0.000139
    30    -0.000093
    31     0.004694
    32     0.017245
    33     0.032251
    34    -0.345765
    35    -0.283761
    36     0.000477
    37    -0.232909
    38    -0.151907
    39     0.000358
    40    -0.023468
    41     0.001774
    42     0.009386
    43    -0.021138
    44    -0.000000
    45    -0.000014
    46     0.057370
    47     0.054983
    48    -0.014468
    49    -0.001255
    50     0.000013
Sym=    13a
Ene=   -0.317586E+00
Spin= Alpha
Occup= 1.000000
     1    -0.000127
     2    -0.000156
     3    -0.001306
     4     0.000394
     5     0.000841
     6     0.649898
     7     0.001225
     8     0.000130
     9     0.440565
    10     0.000032
    11    -0.000007
    12    -0.000016
    13    -0.000022
    14    -0.005546
    15    -0.000066
    16    -0.000219
    17    -0.000733
    18     0.001210
    19     0.000407
    20    -0.000403
    21    -0.370271
    22     0.000820
    23    -0.000632
    24    -0.293083
    25     0.000094
    26    -0.000028
    27     0.000080
    28     0.000095
    29     0.011506
    30     0.000777
    31     0.000023
    32     0.000122
    33    -0.000283
    34     0.000051
    35    -0.000014
    36     0.069344
    37    -0.000207
    38     0.000000
    39     0.062939
    40    -0.000003
    41     0.000016
    42     0.000020
    43    -0.000007
    44    -0.001747
    45    -0.005231
    46     0.000077
    47     0.000105
    48    -0.000033
    49     0.000003
    50     0.005727
Sym=    14a
Ene=   -0.486335E-03
Spin= Alpha
Occup= 0.000273
     1     0.006770
     2     0.181928
     3    -0.033358
     4    -0.420614
     5     0.210802
     6     0.003124
     7     0.312081
     8    -0.427452
     9    -0.041947
    10     0.018895
    11    -0.041600
    12     0.286489
    13     0.404124
    14     0.135532
    15    -0.061882
    16    -0.008566
    17     0.268905
    18    -0.637053
    19     0.308904
    20    -0.392390
    21    -0.016970
    22    -0.215276
    23     0.741487
    24     0.063219
    25     0.178214
    26    -0.076902
    27     0.389629
    28     0.470021
    29     0.096526
    30    -0.056115
    31    -0.009087
    32     0.038052
    33    -0.104917
    34     0.080012
    35    -0.101615
    36     0.001705
    37    -0.016649
    38     0.354087
    39    -0.010423
    40     0.102627
    41    -0.093727
    42     0.153956
    43     0.274314
    44    -0.004210
    45    -0.003556
    46     0.409423
    47     0.026431
    48     0.074216
    49     0.011757
    50    -0.002480
Sym=    15a
Ene=   -0.479894E-01
Spin= Alpha
Occup= 0.058867
     1    -0.102524
     2    -0.258158
     3    -0.304235
     4     0.651297
     5    -0.301152
     6    -0.001479
     7     0.268616
     8    -0.113813
     9    -0.000312
    10    -0.013089
    11     0.004822
    12    -0.007165
    13     0.002375
    14    -0.000910
    15     0.000487
    16     0.113416
    17     0.318921
    18     0.263421
    19     0.659023
    20    -0.298950
    21    -0.002115
    22     0.251737
    23    -0.064058
    24     0.002661
    25    -0.002591
    26     0.007873
    27    -0.003695
    28    -0.016062
    29     0.003127
    30    -0.002124
    31     0.007034
    32     0.010837
    33     0.049756
    34    -0.009867
    35     0.019360
    36    -0.000009
    37    -0.005360
    38     0.022728
    39    -0.000465
    40     0.002117
    41    -0.006624
    42    -0.000903
    43    -0.001711
    44     0.000070
    45     0.000070
    46    -0.018570
    47    -0.005544
    48    -0.000230
    49    -0.001042
    50    -0.000055
Sym=    16a
Ene=   -0.235545E-02
Spin= Alpha
Occup= 0.001420
     1    -0.005162
     2    -0.038051
     3     0.089021
     4    -0.011296
     5     0.039158
     6    -0.000820
     7    -0.006501
     8    -0.011292
     9    -0.001428
    10    -0.025411
    11     0.012069
    12     0.013475
    13     0.008180
    14     0.005136
    15    -0.001852
    16    -0.016056
    17    -0.063846
    18    -0.130498
    19     0.188509
    20     0.207057
    21    -0.000168
    22    -0.115071
    23    -0.235036
    24     0.001611
    25     0.007828
    26    -0.007664
    27     0.010773
    28     0.080788
    29     0.007834
    30    -0.007875
    31    -0.019447
    32    -0.111926
    33     0.033684
    34    -0.163110
    35    -0.159591
    36     0.000326
    37     0.305811
    38     0.344755
    39    -0.000407
    40    -0.606380
    41     0.585438
    42     0.041027
    43     0.091518
    44     0.000715
    45     0.000074
    46     0.074040
    47    -0.099859
    48    -0.422498
    49    -0.244251
    50    -0.000713
Sym=    17a
Ene=   -0.276277E-02
Spin= Alpha
Occup= 0.001961
     1    -0.008890
     2    -0.087344
     3     0.397685
     4     0.086478
     5    -0.021901
     6     0.016035
     7    -0.307420
     8     0.010364
     9    -0.128232
    10    -0.022447
    11    -0.042250
    12     0.008822
    13     0.032144
    14    -0.121438
    15     0.064000
    16     0.035120
    17     0.263045
    18    -0.713444
    19    -0.044906
    20    -0.122412
    21     0.014661
    22    -0.015468
    23     0.396654
    24    -0.024781
    25     0.290235
    26     0.434426
    27    -0.701362
    28     0.143088
    29     0.495270
    30    -0.314168
    31    -0.010163
    32    -0.064841
    33     0.255092
    34    -0.044149
    35    -0.046736
    36    -0.012047
    37     0.161671
    38     0.109148
    39     0.036598
    40    -0.001445
    41     0.015219
    42    -0.011180
    43     0.014690
    44     0.016243
    45     0.010979
    46    -0.037990
    47    -0.007386
    48    -0.000316
    49     0.001724
    50    -0.003883
Sym=    18a
Ene=   -0.347283E-02
Spin= Alpha
Occup= 0.002647
     1    -0.002660
     2    -0.018129
     3     0.045601
     4     0.012578
     5    -0.004751
     6     0.635848
     7    -0.033482
     8     0.015704
     9    -0.854200
    10    -0.009596
    11     0.013175
    12    -0.006457
    13     0.009827
    14     0.347947
    15     0.624189
    16    -0.001416
    17    -0.005933
    18    -0.027105
    19     0.006092
    20    -0.002708
    21    -0.089869
    22    -0.025619
    23     0.010646
    24     0.381115
    25     0.005975
    26    -0.000267
    27    -0.005352
    28    -0.010712
    29    -0.020833
    30    -0.007789
    31     0.000261
    32     0.000864
    33     0.000152
    34    -0.002317
    35    -0.002798
    36     0.002125
    37     0.004887
    38    -0.000604
    39    -0.046510
    40    -0.000240
    41    -0.000218
    42    -0.000376
    43     0.000274
    44    -0.002141
    45    -0.003043
    46    -0.004016
    47     0.000152
    48     0.001127
    49     0.000154
    50    -0.013855
Sym=    19a
Ene=   -0.332969E-02
Spin= Alpha
Occup= 0.002466
     1    -0.000424
     2    -0.004998
     3     0.018079
     4     0.008967
     5    -0.002477
     6     0.642097
     7    -0.015984
     8     0.010414
     9    -0.868623
    10    -0.001074
    11    -0.022323
    12     0.018847
    13     0.002991
    14    -0.257198
    15    -0.653689
    16    -0.002353
    17    -0.014684
    18     0.006305
    19     0.007568
    20     0.002504
    21    -0.095159
    22    -0.019100
    23    -0.001887
    24     0.387612
    25    -0.002184
    26     0.004697
    27    -0.005335
    28    -0.011349
    29    -0.013733
    30    -0.000974
    31    -0.000012
    32     0.000184
    33    -0.004673
    34    -0.003296
    35    -0.001771
    36     0.012302
    37     0.001331
    38    -0.004317
    39    -0.068074
    40    -0.000251
    41    -0.000454
    42     0.000120
    43    -0.000209
    44    -0.005180
    45    -0.002233
    46    -0.001339
    47    -0.003261
    48     0.000477
    49     0.000072
    50    -0.012412
Sym=    20a
Ene=   -0.994625E-02
Spin= Alpha
Occup= 0.012007
     1     0.008367
     2    -0.003186
     3     0.289545
     4    -0.050289
     5     0.021298
     6    -0.120467
     7    -0.077768
     8     0.080608
     9    -0.075772
    10     0.005441
    11    -0.004220
    12     0.003011
    13    -0.004904
    14    -0.026760
    15     0.014157
    16     0.249948
    17     1.296116
    18    -1.380543
    19    -0.133317
    20     0.296776
    21    -0.614807
    22     0.075144
    23    -0.211263
    24     0.767506
    25    -0.090821
    26    -0.134275
    27    -0.023171
    28     0.015186
    29     0.019890
    30    -0.040131
    31     0.011823
    32    -0.009421
    33     0.242206
    34     0.061567
    35     0.064532
    36    -0.005586
    37     0.022186
    38     0.081284
    39    -0.141892
    40     0.003204
    41    -0.008889
    42    -0.006056
    43    -0.004305
    44    -0.000742
    45     0.009885
    46     0.010622
    47    -0.033909
    48     0.001705
    49     0.001358
    50    -0.008350
Sym=    21a
Ene=   -0.258905E-02
Spin= Alpha
Occup= 0.001639
     1    -0.006177
     2    -0.055146
     3     0.132261
     4     0.033377
     5     0.037339
     6     0.004770
     7    -0.158584
     8    -0.112378
     9    -0.047935
    10     0.000053
    11    -0.023915
    12     0.017902
    13     0.038985
    14    -0.022845
    15     0.011225
    16     0.035378
    17     0.177084
    18    -0.134543
    19    -0.189730
    20    -0.313414
    21    -0.041435
    22     0.127776
    23     0.371463
    24     0.131429
    25    -0.058842
    26     0.036081
    27     0.020336
    28    -0.077734
    29    -0.009154
    30    -0.013142
    31     0.016770
    32     0.096728
    33     0.010400
    34     0.346974
    35     0.270110
    36     0.021515
    37    -0.304853
    38    -0.257767
    39    -0.085923
    40    -0.331160
    41     0.020801
    42     0.304524
    43    -0.200426
    44    -0.221233
    45    -0.660241
    46    -0.085481
    47     0.118979
    48    -0.033188
    49    -0.049293
    50     0.073282
Sym=    22a
Ene=   -0.108508E-01
Spin= Alpha
Occup= 0.011129
     1     0.002034
     2     0.009536
     3     0.009497
     4    -0.015123
     5    -0.002357
     6     0.017402
     7     0.006463
     8     0.006980
     9     0.005756
    10    -0.002546
    11     0.004628
    12     0.003276
    13    -0.004273
    14     0.005967
    15    -0.004816
    16    -0.011778
    17     0.008187
    18    -0.223722
    19     0.075583
    20     0.062950
    21    -0.008030
    22     0.065357
    23     0.002399
    24    -0.140128
    25     0.013952
    26    -0.005469
    27     0.004923
    28     0.010926
    29    -0.011595
    30    -0.005209
    31    -0.237767
    32    -1.194141
    33     1.153160
    34     0.299285
    35    -0.142292
    36    -0.673590
    37    -0.214279
    38     0.187178
    39     0.759881
    40     0.137784
    41     0.139600
    42    -0.017141
    43    -0.000878
    44     0.059832
    45    -0.029953
    46    -0.099378
    47    -0.069188
    48     0.001718
    49    -0.019295
    50     0.026962
Sym=    23a
Ene=   -0.181084E-02
Spin= Alpha
Occup= 0.000086
     1    -0.001883
     2     0.010938
     3    -0.483163
     4    -0.114818
     5     0.053003
     6    -0.001543
     7     0.209472
     8    -0.072607
     9     0.002633
    10     0.152192
    11     0.048395
    12     0.007772
    13    -0.069860
    14     0.004921
    15    -0.002744
    16     0.712797
    17     2.190308
    18     1.612328
    19     0.035972
    20    -0.035269
    21     0.002205
    22     0.010129
    23    -0.115381
    24    -0.002737
    25    -1.511028
    26    -1.477146
    27    -1.461287
    28     0.020921
    29     0.002275
    30     0.005945
    31    -0.007245
    32    -0.009078
    33    -0.253258
    34    -0.047467
    35    -0.043557
    36    -0.000439
    37    -0.030443
    38    -0.069403
    39     0.001484
    40     0.030374
    41     0.039172
    42    -0.027233
    43     0.041522
    44     0.000445
    45     0.000039
    46    -0.014999
    47     0.010527
    48    -0.004096
    49    -0.021272
    50    -0.000095
Sym=    24a
Ene=   -0.110165E-04
Spin= Alpha
Occup= 0.000001
     1     0.006343
     2    -0.084285
     3     0.509760
     4     0.024762
     5     0.045939
     6    -0.018754
     7    -0.223183
     8    -0.147187
     9     0.061277
    10    -0.012804
    11    -0.075345
    12    -0.065866
    13     0.037077
    14    -0.019328
    15     0.008562
    16     0.001953
    17     0.018622
    18    -0.200042
    19    -0.005552
    20    -0.006584
    21     0.019980
    22    -0.103233
    23     0.206103
    24    -0.116689
    25     0.038975
    26    -0.075842
    27     0.002412
    28     0.000494
    29     0.010521
    30     0.044609
    31     0.006719
    32    -0.186369
    33     1.321503
    34     0.053217
    35     0.013627
    36    -0.013010
    37     0.381573
    38    -0.572223
    39     0.396881
    40    -0.030343
    41     0.012332
    42    -0.131650
    43    -0.145383
    44     0.306582
    45    -0.335972
    46    -0.235063
    47    -1.145990
    48     0.268472
    49    -0.396328
    50    -0.940530
Sym=    25a
Ene=   -0.764171E-04
Spin= Alpha
Occup= 0.000004
     1     0.002114
     2    -0.031726
     3     0.002801
     4     0.074152
     5    -0.044077
     6     0.000379
     7    -0.103552
     8     0.136595
     9     0.002188
    10     0.033393
    11     0.002907
    12    -0.077421
    13    -0.110960
    14    -0.017143
    15     0.006947
    16     0.004578
    17    -0.027518
    18     0.060124
    19    -0.092537
    20     0.042201
    21     0.001163
    22     0.084008
    23    -0.169531
    24    -0.006153
    25    -0.157728
    26     0.087279
    27    -0.023265
    28    -0.062934
    29    -0.001378
    30     0.011553
    31    -0.058634
    32     0.185422
    33    -0.521157
    34     0.436320
    35    -0.634627
    36    -0.000951
    37    -0.201957
    38     0.256251
    39     0.001771
    40     0.346753
    41     0.666859
    42     0.124575
    43    -0.308660
    44     0.001204
    45     0.002340
    46    -0.335339
    47     0.227671
    48     0.810351
    49    -0.990945
    50     0.003113
Sym=    26a
Ene=   -0.469372E-03
Spin= Alpha
Occup= 0.000239
     1    -0.001208
     2    -0.078993
     3     1.091636
     4     0.087903
     5    -0.073632
     6    -0.012337
     7    -0.505232
     8     0.385369
     9     0.071476
    10    -0.742940
    11     0.180095
    12     0.356094
    13     0.224757
    14    -0.239242
    15     0.107688
    16     0.013659
    17     0.325764
    18    -1.440855
    19     0.449545
    20    -0.138906
    21     0.006925
    22    -0.927033
    23     0.400006
    24    -0.082795
    25     0.188527
    26     0.211338
    27     0.035032
    28    -0.595064
    29    -0.156281
    30     0.096486
    31     0.006464
    32    -0.050079
    33     0.250992
    34    -0.021398
    35    -0.043646
    36    -0.002634
    37     0.260179
    38     0.035421
    39     0.013941
    40     0.048659
    41    -0.059024
    42    -0.023341
    43     0.120663
    44     0.006208
    45     0.005722
    46    -0.027738
    47    -0.052317
    48     0.048043
    49    -0.018541
    50     0.002267
Sym=    27a
Ene=   -0.320449E-02
Spin= Alpha
Occup= 0.002101
     1     0.011666
     2    -0.110514
     3     0.234650
     4     0.288339
     5    -0.123290
     6    -0.002669
     7    -0.564000
     8     0.194862
     9    -0.002538
    10    -0.448506
    11    -0.013748
    12     0.277298
    13     0.256296
    14    -0.028149
    15     0.012593
    16     0.014808
    17    -0.068947
    18    -0.022649
    19    -0.206322
    20     0.087118
    21     0.005538
    22     0.350733
    23    -0.155947
    24    -0.014109
    25    -0.288961
    26     0.029399
    27     0.112700
    28     0.388081
    29     0.041251
    30    -0.022942
    31    -0.010547
    32    -0.031385
    33     0.034534
    34    -0.027214
    35    -0.009536
    36    -0.001469
    37    -0.092806
    38     0.060828
    39     0.005739
    40    -0.013276
    41     0.024422
    42    -0.005316
    43    -0.033818
    44     0.001251
    45     0.000197
    46    -0.013540
    47    -0.038600
    48    -0.031201
    49     0.017080
    50     0.000471
Sym=    28a
Ene=   -0.360753E-02
Spin= Alpha
Occup= 0.002530
     1     0.005602
     2     0.054733
     3    -0.062922
     4    -0.009371
     5    -0.027595
     6     0.000989
     7     0.040873
     8     0.115182
     9    -0.000368
    10     0.011036
    11     0.010327
    12    -0.019041
    13    -0.031312
    14     0.004943
    15    -0.002267
    16    -0.020336
    17    -0.032413
    18    -0.158105
    19     0.038783
    20     0.143361
    21     0.002967
    22    -0.029977
    23     0.019452
    24    -0.002401
    25     0.022692
    26    -0.014031
    27     0.006370
    28     0.000057
    29    -0.002602
    30    -0.004443
    31    -0.002126
    32    -0.160333
    33     0.817044
    34     0.008776
    35     0.110927
    36     0.000145
    37     0.565939
    38    -0.680078
    39     0.000322
    40    -0.069813
    41    -0.167640
    42     0.137094
    43     0.473900
    44    -0.000359
    45     0.000535
    46    -0.926199
    47     0.239941
    48     0.184731
    49    -0.419160
    50    -0.001173
Sym=    29a
Ene=   -0.104114E-01
Spin= Alpha
Occup= 0.013877
     1     0.008900
     2     0.005391
     3     0.274838
     4    -0.051809
     5     0.023194
     6     0.157318
     7    -0.076133
     8     0.066538
     9     0.056136
    10     0.005779
    11    -0.002407
    12     0.001949
    13    -0.004124
    14     0.031655
    15    -0.016736
    16     0.216217
    17     1.139478
    18    -1.260994
    19    -0.108540
    20     0.244524
    21     0.700776
    22     0.046561
    23    -0.150774
    24    -0.864636
    25    -0.080474
    26    -0.115895
    27     0.010264
    28     0.015677
    29    -0.014093
    30     0.014311
    31     0.011635
    32    -0.004994
    33     0.223388
    34     0.055650
    35     0.058825
    36     0.010266
    37     0.030619
    38     0.073335
    39     0.155219
    40     0.003043
    41    -0.007278
    42    -0.006023
    43    -0.003517
    44    -0.000237
    45    -0.011504
    46     0.009303
    47    -0.031371
    48     0.002116
    49     0.001028
    50     0.008399
Sym=    30a
Ene=   -0.272793E-02
Spin= Alpha
Occup= 0.001695
     1     0.053479
     2     0.285987
     3    -0.436679
     4    -0.081616
     5     0.060678
     6     0.006714
     7     0.236568
     8    -0.209501
     9    -0.017361
    10    -0.430986
    11    -0.132522
    12     0.497831
    13    -0.787173
    14     0.031368
    15    -0.003696
    16     0.002789
    17     0.012163
    18     0.217055
    19    -0.082698
    20    -0.114519
    21    -0.004074
    22     0.260023
    23     0.046431
    24     0.015929
    25    -0.033566
    26    -0.025366
    27     0.020703
    28     0.075357
    29     0.027568
    30    -0.002385
    31    -0.008262
    32    -0.064962
    33     0.173967
    34    -0.020769
    35     0.005516
    36    -0.000300
    37     0.097700
    38     0.043649
    39    -0.000755
    40     0.017666
    41    -0.016538
    42     0.001357
    43     0.027584
    44    -0.000040
    45    -0.000296
    46     0.051020
    47    -0.099685
    48    -0.028763
    49    -0.036471
    50    -0.000173
Sym=    31a
Ene=   -0.111683E-01
Spin= Alpha
Occup= 0.011966
     1    -0.255168
     2    -1.281245
     3     1.291077
     4     0.087799
     5     0.688332
     6    -0.003165
     7    -0.291919
     8    -0.709188
     9     0.004422
    10     0.105389
    11    -0.005227
    12     0.143608
    13    -0.036850
    14     0.001270
    15     0.000145
    16    -0.010802
    17    -0.021458
    18    -0.305094
    19     0.013058
    20     0.110569
    21     0.002332
    22    -0.111707
    23     0.098674
    24    -0.003864
    25    -0.015327
    26     0.006471
    27     0.004157
    28    -0.015284
    29     0.000624
    30    -0.002267
    31     0.001583
    32     0.022830
    33    -0.016085
    34    -0.007510
    35    -0.030712
    36     0.000055
    37    -0.053484
    38     0.037513
    39     0.000462
    40     0.004726
    41    -0.000446
    42    -0.000915
    43    -0.006109
    44     0.000007
    45    -0.000054
    46    -0.124981
    47     0.049266
    48     0.010266
    49     0.015351
    50     0.000018
Sym=    32a
Ene=   -0.184090E-02
Spin= Alpha
Occup= 0.001126
     1    -0.028107
     2    -0.207354
     3     0.412081
     4     0.332818
     5    -0.149688
     6    -0.000874
     7    -0.524842
     8     0.120591
     9    -0.033424
    10    -0.057526
    11    -0.090301
    12     0.013493
    13     0.099795
    14     0.079969
    15    -0.058945
    16     0.005418
    17    -0.035379
    18    -0.186778
    19    -0.039429
    20    -0.019795
    21    -0.000928
    22    -0.137817
    23     0.042211
    24     0.017763
    25     0.726084
    26    -0.672400
    27    -0.093775
    28     0.008966
    29     0.341877
    30     0.424740
    31     0.016720
    32     0.146259
    33    -0.266226
    34     0.056724
    35    -0.013481
    36    -0.024509
    37    -0.110683
    38    -0.054019
    39     0.067297
    40    -0.014360
    41    -0.019227
    42     0.046169
    43    -0.029527
    44     0.026166
    45     0.010092
    46    -0.023022
    47     0.123667
    48     0.038268
    49    -0.000927
    50     0.014008
Sym=    33a
Ene=   -0.108851E-01
Spin= Alpha
Occup= 0.011187
     1     0.001867
     2     0.008277
     3     0.011372
     4    -0.013504
     5    -0.003025
     6    -0.015017
     7     0.003320
     8     0.008143
     9    -0.008151
    10    -0.002640
    11     0.004681
    12     0.003054
    13    -0.004560
    14    -0.005393
    15     0.004535
    16    -0.012299
    17     0.004626
    18    -0.219926
    19     0.075110
    20     0.061448
    21     0.011682
    22     0.063907
    23     0.003852
    24     0.136799
    25     0.014637
    26    -0.005374
    27     0.002576
    28     0.010259
    29     0.013878
    30     0.004120
    31    -0.237154
    32    -1.190639
    33     1.148401
    34     0.299841
    35    -0.141841
    36     0.674536
    37    -0.215752
    38     0.186226
    39    -0.760091
    40     0.137243
    41     0.139445
    42    -0.017621
    43    -0.000864
    44    -0.060142
    45     0.029249
    46    -0.099686
    47    -0.067068
    48     0.001659
    49    -0.019304
    50    -0.027038
Sym=    34a
Ene=   -0.256765E-02
Spin= Alpha
Occup= 0.001614
     1     0.005429
     2     0.048958
     3    -0.114653
     4    -0.027303
     5    -0.039615
     6     0.001927
     7     0.143626
     8     0.118840
     9    -0.045692
    10    -0.001949
    11     0.024578
    12    -0.018458
    13    -0.039876
    14     0.011782
    15    -0.003105
    16    -0.035014
    17    -0.175857
    18     0.128807
    19     0.190107
    20     0.312265
    21    -0.034554
    22    -0.141612
    23    -0.371359
    24     0.130564
    25     0.065392
    26    -0.040742
    27    -0.024447
    28     0.073559
    29    -0.011975
    30    -0.043517
    31    -0.014195
    32    -0.081953
    33    -0.031502
    34    -0.340210
    35    -0.263698
    36     0.025950
    37     0.291822
    38     0.248871
    39    -0.093583
    40     0.333735
    41    -0.014203
    42    -0.318596
    43     0.207441
    44    -0.202491
    45    -0.666125
    46     0.087229
    47    -0.112698
    48     0.031996
    49     0.049773
    50     0.073082
Sym=    35a
Ene=   -0.663553E-04
Spin= Alpha
Occup= 0.000004
     1     0.012675
     2     0.013631
     3    -0.494998
     4     0.191167
     5    -0.023295
     6     0.000582
     7     0.057143
     8    -0.404990
     9     0.009357
    10     0.019818
    11    -0.150978
    12    -0.098951
    13     0.068890
    14    -0.040913
    15     0.019085
    16     0.002958
    17     0.122664
    18    -0.404752
    19    -0.395627
    20    -0.115949
    21     0.002423
    22     1.587988
    23     0.503463
    24    -0.014692
    25     0.000210
    26    -0.062215
    27     0.088592
    28    -0.447131
    29    -0.029644
    30     0.012249
    31     0.006449
    32    -0.151487
    33     0.480764
    34    -0.024124
    35    -0.080381
    36    -0.000255
    37     0.022161
    38     1.483476
    39     0.001619
    40    -0.049923
    41    -0.268692
    42     0.086752
    43     0.848533
    44     0.000496
    45     0.001301
    46     1.158865
    47    -0.175728
    48    -0.451491
    49     0.261172
    50     0.001128
Sym=    36a
Ene=   -0.221623E-04
Spin= Alpha
Occup= 0.000001
     1    -0.007631
     2     0.563152
     3    -4.004741
     4    -0.116858
     5     0.054406
     6     0.005257
     7     2.579982
     8    -1.109363
     9    -0.009571
    10    -0.489072
    11     0.268510
    12     0.465508
    13     0.503076
    14     0.005190
    15    -0.000433
    16     0.005627
    17    -0.586615
    18     4.067126
    19    -0.065964
    20     0.057072
    21     0.002881
    22     2.499871
    23    -1.204924
    24     0.003739
    25     0.456687
    26    -0.230822
    27    -0.455615
    28    -0.407533
    29     0.002491
    30    -0.018948
    31     0.001903
    32    -0.004816
    33     0.088889
    34    -0.024895
    35    -0.053452
    36     0.001464
    37    -0.099313
    38    -0.048060
    39    -0.018162
    40    -0.151390
    41     0.254616
    42    -0.125171
    43    -0.179167
    44    -0.014394
    45     0.012688
    46    -0.212138
    47     0.046614
    48     0.232282
    49    -0.084305
    50     0.039453
Sym=    37a
Ene=   -0.322731E-04
Spin= Alpha
Occup= 0.000002
     1    -0.003505
     2    -0.005628
     3    -0.141137
     4     0.002896
     5    -0.055578
     6    -0.001338
     7     0.101925
     8     0.201305
     9     0.003535
    10     0.012022
    11     0.075688
    12    -0.020891
    13    -0.116320
    14    -0.001293
    15     0.000483
    16     0.004483
    17    -0.172501
    18     0.970364
    19     0.030942
    20     0.075093
    21     0.001981
    22    -0.420318
    23    -0.642937
    24    -0.005789
    25    -0.116178
    26     0.080433
    27    -0.113723
    28     0.102442
    29    -0.000836
    30     0.000252
    31     0.001304
    32     0.235898
    33    -1.205397
    34     0.028399
    35     0.072081
    36    -0.000313
    37    -1.021485
    38    -0.331422
    39     0.011737
    40    -0.666011
    41     0.375954
    42     0.328073
    43     0.335501
    44     0.009149
    45    -0.009636
    46     0.625615
    47    -0.027334
    48     0.634858
    49     0.810666
    50    -0.027303
Sym=    38a
Ene=   -0.102844E+00
Spin= Alpha
Occup= 0.210293
     1     0.004253
     2     0.013485
     3    -0.008175
     4    -0.109896
     5    -0.107376
     6     0.000154
     7    -0.081740
     8    -0.105580
     9     0.000158
    10    -0.003205
    11     0.007193
    12     0.000265
    13    -0.007487
    14     0.000399
    15    -0.000198
    16    -0.074582
    17    -0.178715
    18    -0.231377
    19     0.351447
    20     0.512801
    21     0.000304
    22     0.203576
    23     0.245354
    24    -0.000785
    25     0.017387
    26    -0.013661
    27    -0.008756
    28     0.011317
    29    -0.000539
    30    -0.001168
    31     0.061657
    32     0.139028
    33     0.206252
    34     0.422344
    35     0.416195
    36    -0.000059
    37     0.251391
    38     0.276610
    39     0.000110
    40     0.014747
    41    -0.014645
    42     0.005176
    43    -0.006505
    44     0.000045
    45     0.000069
    46    -0.010112
    47    -0.005560
    48     0.016851
    49     0.013912
    50    -0.000190
Sym=    39a
Ene=   -0.104960E-02
Spin= Alpha
Occup= 0.000476
     1     0.001875
     2     0.055991
     3    -0.301488
     4    -0.087782
     5     0.047723
     6     0.036523
     7     0.194079
     8    -0.162790
     9     0.079405
    10     0.175962
    11    -0.017826
    12    -0.070676
    13    -0.029449
    14    -0.879071
    15     0.411700
    16    -0.005052
    17    -0.063353
    18     0.349727
    19    -0.048395
    20    -0.011150
    21     0.023060
    22     0.149713
    23    -0.036541
    24    -0.254534
    25     0.045555
    26    -0.195141
    27     0.086477
    28     0.250212
    29    -0.263229
    30     0.173049
    31     0.000570
    32     0.035636
    33    -0.113380
    34     0.000089
    35    -0.004431
    36    -0.013584
    37    -0.054343
    38    -0.013998
    39     0.057052
    40    -0.001350
    41    -0.008658
    42     0.021388
    43    -0.019731
    44     0.020131
    45     0.019158
    46     0.016873
    47     0.042414
    48     0.007730
    49     0.011002
    50     0.014956
Sym=    40a
Ene=   -0.252382E-01
Spin= Alpha
Occup= 0.028383
     1     0.007321
     2     0.008122
     3     0.047484
     4    -0.019692
     5    -0.020695
     6    -0.000169
     7    -0.031376
     8    -0.064887
     9     0.000286
    10    -0.000482
    11    -0.006188
    12     0.005382
    13    -0.002055
    14    -0.000308
    15     0.000190
    16     0.001909
    17     0.001780
    18     0.022941
    19    -0.000652
    20     0.012917
    21    -0.000110
    22    -0.024352
    23     0.016324
    24    -0.000038
    25    -0.002280
    26    -0.001920
    27     0.000498
    28    -0.004681
    29    -0.000324
    30     0.000037
    31     0.139385
    32     0.509874
    33     0.082621
    34     0.491109
    35    -0.618214
    36    -0.000098
    37    -0.018720
    38    -0.080734
    39     0.000026
    40     0.011530
    41    -0.001535
    42    -0.026836
    43    -0.035753
    44    -0.000059
    45     0.000047
    46    -0.951304
    47    -0.098597
    48     0.026643
    49    -0.055252
    50     0.000092
Sym=    41a
Ene=   -0.221503E-02
Spin= Alpha
Occup= 0.001459
     1    -0.019630
     2    -0.142098
     3     0.294204
     4     0.210742
     5    -0.094124
     6    -0.012504
     7    -0.366227
     8     0.083104
     9     0.041596
    10    -0.034404
    11    -0.042229
    12     0.006783
    13     0.043595
    14     0.027658
    15     0.007217
    16     0.004963
    17    -0.016668
    18    -0.136890
    19    -0.031665
    20    -0.039430
    21     0.004740
    22    -0.113235
    23     0.063429
    24     0.004602
    25     0.447371
    26    -0.426616
    27    -0.069468
    28     0.026080
    29    -0.447707
    30    -0.719143
    31     0.014092
    32     0.116100
    33    -0.201118
    34     0.049684
    35    -0.009606
    36     0.038435
    37    -0.089437
    38    -0.029199
    39    -0.106928
    40    -0.017085
    41    -0.016129
    42     0.032521
    43    -0.029674
    44    -0.032785
    45    -0.011323
    46    -0.012652
    47     0.105834
    48     0.023818
    49    -0.004500
    50    -0.030956
Sym=    42a
Ene=   -0.110409E-01
Spin= Alpha
Occup= 0.012309
     1     0.249379
     2     1.246984
     3    -1.236614
     4     0.484261
     5     0.520173
     6    -0.000938
     7    -0.383282
     8    -0.694532
     9     0.001042
    10    -0.086513
    11    -0.028426
    12    -0.145839
    13     0.073177
    14     0.000252
    15     0.000095
    16     0.004725
    17    -0.034318
    18     0.370993
    19     0.092262
    20     0.054288
    21    -0.001948
    22     0.115550
    23     0.021851
    24     0.002127
    25    -0.013758
    26     0.013705
    27    -0.003715
    28    -0.023819
    29    -0.001769
    30     0.001381
    31    -0.000792
    32     0.015905
    33    -0.057236
    34    -0.003908
    35    -0.006850
    36    -0.000048
    37    -0.048078
    38    -0.004215
    39    -0.000426
    40     0.002565
    41    -0.003069
    42     0.004102
    43    -0.002704
    44     0.000037
    45     0.000107
    46    -0.019382
    47     0.011032
    48     0.002952
    49     0.001062
    50    -0.000000
Sym=    43a
Ene=   -0.260656E-02
Spin= Alpha
Occup= 0.001563
     1    -0.032521
     2    -0.146169
     3     0.139605
     4    -0.076882
     5     0.056254
     6     0.008889
     7     0.018075
     8    -0.121896
     9    -0.020719
    10    -0.335761
    11     0.968250
    12    -0.549860
    13    -0.151663
    14     0.033529
    15    -0.043636
    16     0.003039
    17     0.092877
    18    -0.290187
    19    -0.063056
    20    -0.151980
    21    -0.006207
    22     0.125510
    23     0.205238
    24     0.023574
    25    -0.007478
    26    -0.015199
    27     0.102939
    28     0.056308
    29     0.023130
    30     0.003232
    31    -0.003696
    32    -0.065015
    33     0.270700
    34    -0.016704
    35    -0.014525
    36     0.000211
    37     0.143634
    38     0.089077
    39    -0.002991
    40     0.010168
    41     0.002344
    42    -0.025534
    43     0.028609
    44    -0.000359
    45    -0.000413
    46    -0.018056
    47    -0.070552
    48    -0.014876
    49    -0.014078
    50    -0.000287
Sym=    44a
Ene=   -0.252548E-02
Spin= Alpha
Occup= 0.001659
     1    -0.002007
     2    -0.036010
     3     0.165116
     4     0.050478
     5    -0.005198
     6    -0.015816
     7    -0.169809
     8    -0.061724
     9     0.171962
    10     0.012529
    11    -0.066285
    12     0.012931
    13     0.041839
    14     0.065224
    15    -0.044298
    16     0.031622
    17     0.198209
    18    -0.405834
    19    -0.074391
    20    -0.094057
    21    -0.000954
    22     0.115297
    23     0.266358
    24    -0.014393
    25     0.240069
    26     0.294117
    27    -0.538346
    28     0.264059
    29    -0.632946
    30     0.422268
    31    -0.007988
    32    -0.026266
    33     0.120886
    34    -0.026693
    35    -0.040187
    36     0.011534
    37     0.069031
    38     0.103896
    39    -0.031869
    40    -0.011386
    41     0.018950
    42     0.004202
    43    -0.000812
    44    -0.016117
    45    -0.010653
    46    -0.005955
    47     0.028453
    48    -0.004490
    49     0.006854
    50     0.005399
Sym=    45a
Ene=   -0.270309E-02
Spin= Alpha
Occup= 0.001758
     1    -0.004721
     2    -0.054320
     3     0.136885
     4     0.026887
     5     0.015970
     6    -0.003785
     7    -0.094916
     8    -0.012485
     9     0.001586
    10    -0.013868
    11    -0.001490
    12    -0.003476
    13     0.006805
    14    -0.017640
    15     0.009204
    16     0.001151
    17    -0.015556
    18     0.216031
    19    -0.018852
    20    -0.065865
    21    -0.008073
    22    -0.163707
    23    -0.033169
    24     0.009306
    25    -0.008712
    26    -0.002729
    27    -0.003305
    28    -0.020325
    29     0.011470
    30     0.011760
    31     0.060515
    32     0.345595
    33    -0.476805
    34     0.229027
    35     0.277753
    36    -0.058120
    37    -0.431118
    38    -0.388225
    39     0.138912
    40     0.129446
    41     0.295691
    42    -0.533714
    43     0.206243
    44    -0.639932
    45     0.152037
    46     0.056622
    47     0.030786
    48    -0.038471
    49     0.041061
    50    -0.142612
Sym=    46a
Ene=   -0.270481E-02
Spin= Alpha
Occup= 0.001764
     1     0.004571
     2     0.053400
     3    -0.134907
     4    -0.024892
     5    -0.018506
     6    -0.006639
     7     0.093899
     8     0.018947
     9     0.002487
    10     0.013251
    11     0.002482
    12     0.002500
    13    -0.008648
    14     0.000502
    15     0.001082
    16    -0.002014
    17     0.010515
    18    -0.215794
    19     0.024494
    20     0.076163
    21    -0.007222
    22     0.156718
    23     0.021190
    24     0.014198
    25     0.013425
    26    -0.001209
    27     0.000858
    28     0.020906
    29     0.015319
    30     0.004913
    31    -0.060631
    32    -0.346531
    33     0.474789
    34    -0.239515
    35    -0.287478
    36    -0.055924
    37     0.440043
    38     0.397364
    39     0.134600
    40    -0.120943
    41    -0.296638
    42     0.524969
    43    -0.201547
    44    -0.644206
    45     0.132951
    46    -0.053928
    47    -0.033780
    48     0.040110
    49    -0.040415
    50    -0.141827
Sym=    47a
Ene=   -0.434764E-04
Spin= Alpha
Occup= 0.000002
     1    -0.007057
     2    -0.044257
     3     0.830518
     4    -0.051981
     5    -0.014411
     6    -0.001736
     7    -0.649083
     8     0.024219
     9     0.000960
    10     0.235434
    11    -0.139705
    12     0.037675
    13     0.011534
    14     0.004653
    15    -0.002909
    16    -0.026511
    17     0.584132
    18    -3.119689
    19    -0.156983
    20    -0.318932
    21    -0.005238
    22     0.469996
    23     1.809346
    24     0.006735
    25     0.059335
    26     0.006270
    27     0.556541
    28    -0.152490
    29    -0.002454
    30     0.002022
    31     0.012631
    32    -0.576576
    33     2.883790
    34    -0.256716
    35    -0.149575
    36     0.000078
    37     1.806248
    38     0.297910
    39     0.001738
    40    -0.135508
    41     0.406188
    42    -0.662393
    43    -0.088933
    44     0.002228
    45    -0.003670
    46    -1.314896
    47     0.109921
    48     0.371065
    49    -0.059752
    50    -0.008549
Sym=    48a
Ene=   -0.170112E-02
Spin= Alpha
Occup= 0.000081
     1     0.702467
     2     2.186268
     3     1.475282
     4    -0.017253
     5     0.012234
     6     0.000889
     7    -0.147189
     8     0.048469
     9    -0.003328
    10    -1.459648
    11    -1.457864
    12    -1.476940
    13     0.029923
    14     0.004769
    15    -0.001908
    16    -0.002364
    17     0.000995
    18    -0.476306
    19     0.090184
    20    -0.042036
    21    -0.000640
    22    -0.191326
    23     0.078348
    24     0.002785
    25     0.179518
    26     0.012962
    27     0.003821
    28    -0.062426
    29     0.005417
    30    -0.006394
    31     0.001410
    32     0.015059
    33     0.009663
    34     0.017237
    35     0.003502
    36     0.000172
    37    -0.015783
    38    -0.024366
    39    -0.000615
    40    -0.006412
    41     0.024675
    42    -0.002174
    43    -0.022750
    44    -0.000296
    45    -0.000326
    46    -0.057172
    47    -0.017565
    48    -0.006363
    49    -0.005585
    50    -0.000297
Sym=    49a
Ene=   -0.162138E-02
Spin= Alpha
Occup= 0.000076
     1     0.000779
     2     0.028200
     3    -0.077703
     4    -0.032175
     5    -0.001615
     6     0.000289
     7     0.065784
     8     0.004443
     9    -0.001438
    10     0.003955
    11     0.016494
    12     0.017066
    13    -0.019564
    14     0.002810
    15    -0.001572
    16    -0.006725
    17     0.003520
    18    -0.254469
    19     0.034246
    20     0.040295
    21     0.000370
    22     0.143014
    23     0.028805
    24     0.000296
    25    -0.009523
    26     0.055391
    27    -0.002744
    28     0.052534
    29     0.006529
    30     0.002266
    31     0.702299
    32     2.176448
    33     1.334209
    34     0.022853
    35    -0.099385
    36    -0.000429
    37     0.046615
    38     0.306962
    39     0.001096
    40    -1.443360
    41    -1.464489
    42    -1.447145
    43     0.016072
    44     0.000967
    45     0.000397
    46     0.149706
    47    -0.136809
    48    -0.045482
    49    -0.001175
    50    -0.000231
Sym=    50a
Ene=    0.000000E+00
Spin= Alpha
Occup= 0.000000
     1     0.010190
     2    -0.174430
     3     1.094862
     4     0.049174
     5     0.064954
     6     0.010029
     7    -0.539367
     8    -0.145858
     9    -0.032952
    10     0.012943
    11    -0.136415
    12    -0.135072
    13     0.021347
    14     0.006957
    15    -0.001621
    16     0.002759
    17     0.070869
    18    -0.600574
    19    -0.001624
    20    -0.014036
    21    -0.013030
    22    -0.353181
    23     0.406069
    24     0.071755
    25     0.033088
    26    -0.105024
    27     0.034036
    28     0.029251
    29    -0.023573
    30    -0.030024
    31     0.011355
    32    -0.293652
    33     2.085496
    34     0.080023
    35     0.026969
    36     0.009264
    37     0.597114
    38    -0.918731
    39    -0.251791
    40    -0.072200
    41     0.021556
    42    -0.197045
    43    -0.202930
    44    -0.193876
    45     0.209654
    46    -0.350344
    47    -1.825998
    48     0.443456
    49    -0.584841
    50     0.591353
