[Molden Format]
p30-5 set                                                                       
[Atoms] AU
 O        1     8        2.2193        0.3672        0.0000
 O        2     8        0.0000        1.0454        0.0000
 O        3     8       -1.7961       -1.3563        0.0000
 H        4     1       -3.3852       -0.4502        0.0000
[GTO]
    1 0
s    5 1.00
    2266.176778500000 -0.538935039217E-02
     340.870101910000 -0.402347213890E-01
      77.363135167000 -0.180081842055E+00
      21.479644940000 -0.468288576577E+00
       6.658943312400 -0.446926171602E+00
s    1 1.00
       0.809759756680  0.100000000000E+01
s    1 1.00
       0.255307722340  0.100000000000E+01
p    3 1.00
      17.721504317000  0.626302487632E-01
       3.863550544000  0.333311384824E+00
       1.048092088300  0.741486383081E+00
p    1 1.00
       0.276415444110  0.100000000000E+01
d    1 1.00
       1.200000000000  0.100000000000E+01

    2 0
s    5 1.00
    2266.176778500000 -0.538935039217E-02
     340.870101910000 -0.402347213890E-01
      77.363135167000 -0.180081842055E+00
      21.479644940000 -0.468288576577E+00
       6.658943312400 -0.446926171602E+00
s    1 1.00
       0.809759756680  0.100000000000E+01
s    1 1.00
       0.255307722340  0.100000000000E+01
p    3 1.00
      17.721504317000  0.626302487632E-01
       3.863550544000  0.333311384824E+00
       1.048092088300  0.741486383081E+00
p    1 1.00
       0.276415444110  0.100000000000E+01
d    1 1.00
       1.200000000000  0.100000000000E+01

    3 0
s    5 1.00
    2266.176778500000 -0.538935039217E-02
     340.870101910000 -0.402347213890E-01
      77.363135167000 -0.180081842055E+00
      21.479644940000 -0.468288576577E+00
       6.658943312400 -0.446926171602E+00
s    1 1.00
       0.809759756680  0.100000000000E+01
s    1 1.00
       0.255307722340  0.100000000000E+01
p    3 1.00
      17.721504317000  0.626302487632E-01
       3.863550544000  0.333311384824E+00
       1.048092088300  0.741486383081E+00
p    1 1.00
       0.276415444110  0.100000000000E+01
d    1 1.00
       1.200000000000  0.100000000000E+01

    4 0
s    3 1.00
      13.010701000000  0.334854848130E-01
       1.962257200000  0.234721870881E+00
       0.444537960000  0.813770285260E+00
s    1 1.00
       0.121949620000  0.100000000000E+01
p    1 1.00
       0.800000000000  0.100000000000E+01

[MO]
Sym=     1a
Ene=   -0.206305E+02
Spin= Alpha
Occup= 1.999917
     1    -0.000065
     2     0.000070
     3    -0.001025
     4     0.000124
     5     0.000517
     6     0.000010
     7     0.000756
     8     0.000481
     9     0.000006
    10     0.000051
    11     0.000123
    12     0.000206
    13     0.000021
    14    -0.000005
    15    -0.000000
    16    -0.000127
    17    -0.000322
    18    -0.001624
    19    -0.000098
    20    -0.000792
    21     0.000014
    22     0.001140
    23     0.000434
    24     0.000013
    25     0.000066
    26     0.000256
    27     0.000012
    28     0.000126
    29     0.000001
    30    -0.000002
    31     0.994248
    32    -0.026514
    33     0.017189
    34     0.002728
    35    -0.003299
    36    -0.000052
    37     0.001868
    38     0.000106
    39    -0.000038
    40     0.003765
    41     0.004298
    42     0.003948
    43     0.000781
    44    -0.000000
    45    -0.000002
    46     0.001958
    47    -0.002118
    48     0.001555
    49    -0.001150
    50    -0.000004
Sym=     2a
Ene=   -0.206732E+02
Spin= Alpha
Occup= 1.999915
     1     0.994703
     2    -0.024901
     3     0.018305
     4     0.004313
     5    -0.001058
     6     0.000015
     7    -0.000866
     8     0.000311
     9     0.000008
    10     0.004162
    11     0.004263
    12     0.004588
    13     0.000053
    14    -0.000001
    15     0.000003
    16    -0.000186
    17    -0.000693
    18    -0.004818
    19     0.001635
    20    -0.000442
    21     0.000028
    22    -0.001284
    23     0.000245
    24     0.000018
    25     0.001584
    26     0.000238
    27     0.000048
    28    -0.000547
    29     0.000003
    30     0.000001
    31    -0.000067
    32    -0.000010
    33    -0.000219
    34     0.000021
    35     0.000057
    36    -0.000001
    37    -0.000643
    38     0.000114
    39    -0.000001
    40     0.000143
    41     0.000139
    42     0.000139
    43    -0.000088
    44     0.000000
    45    -0.000003
    46    -0.000193
    47    -0.000046
    48    -0.000060
    49     0.000125
    50     0.000001
Sym=     3a
Ene=   -0.207309E+02
Spin= Alpha
Occup= 1.999906
     1    -0.000200
     2    -0.000544
     3    -0.005572
     4    -0.001488
     5     0.000163
     6     0.000097
     7     0.001763
     8    -0.000417
     9     0.000055
    10     0.001441
    11     0.000341
    12     0.000092
    13    -0.000605
    14    -0.000008
    15     0.000005
    16     0.993693
    17    -0.027736
    18     0.019733
    19    -0.003197
    20     0.002905
    21     0.000210
    22     0.000282
    23    -0.001936
    24     0.000126
    25     0.003949
    26     0.004337
    27     0.003748
    28     0.000406
    29     0.000010
    30    -0.000007
    31    -0.000153
    32    -0.000050
    33    -0.003014
    34     0.000491
    35     0.000683
    36    -0.000003
    37    -0.001134
    38    -0.000956
    39    -0.000012
    40     0.000009
    41     0.000318
    42     0.000114
    43     0.000003
    44     0.000004
    45     0.000001
    46    -0.000006
    47    -0.000450
    48    -0.000096
    49     0.000098
    50     0.000001
Sym=     4a
Ene=   -0.856872E+00
Spin= Alpha
Occup= 1.984700
     1     0.002010
     2     0.004952
     3     0.012901
     4    -0.008971
     5    -0.017069
     6     0.032846
     7    -0.013153
     8    -0.013414
     9     0.024831
    10     0.001312
    11    -0.000647
    12     0.000334
    13    -0.000523
    14    -0.001739
    15     0.001342
    16     0.002768
    17     0.013499
    18     0.006261
    19     0.005135
    20     0.031633
    21     0.010501
    22    -0.012991
    23     0.016934
    24     0.011586
    25     0.001789
    26    -0.006167
    27     0.003585
    28    -0.005355
    29     0.005632
    30     0.004685
    31    -0.187635
    32    -0.406125
    33    -0.315807
    34    -0.123980
    35     0.111101
    36    -0.463480
    37    -0.084410
    38     0.082536
    39    -0.345929
    40    -0.007765
    41    -0.005952
    42    -0.008010
    43    -0.006380
    44     0.005981
    45    -0.009876
    46     0.023191
    47     0.027278
    48    -0.003163
    49     0.004809
    50    -0.021101
Sym=     5a
Ene=   -0.860127E+00
Spin= Alpha
Occup= 1.984693
     1    -0.002075
     2    -0.005085
     3    -0.012958
     4     0.009165
     5     0.017216
     6     0.033581
     7     0.013234
     8     0.013516
     9     0.025155
    10    -0.001341
    11     0.000657
    12    -0.000334
    13     0.000537
    14    -0.001838
    15     0.001365
    16    -0.003415
    17    -0.014941
    18    -0.007224
    19    -0.004866
    20    -0.031892
    21     0.012746
    22     0.013385
    23    -0.016993
    24     0.013040
    25    -0.001864
    26     0.006162
    27    -0.003637
    28     0.005370
    29     0.005695
    30     0.004612
    31     0.188928
    32     0.409220
    33     0.318275
    34     0.124901
    35    -0.112513
    36    -0.460095
    37     0.085058
    38    -0.083493
    39    -0.343397
    40     0.007805
    41     0.005943
    42     0.008100
    43     0.006399
    44     0.005949
    45    -0.009775
    46    -0.023549
    47    -0.027408
    48     0.003163
    49    -0.004854
    50    -0.020940
Sym=     6a
Ene=   -0.102856E+01
Spin= Alpha
Occup= 1.984276
     1    -0.004745
     2    -0.019049
     3    -0.031772
     4    -0.001226
     5     0.008049
     6    -0.170924
     7     0.017917
     8    -0.004837
     9    -0.097418
    10     0.001539
    11    -0.001703
    12    -0.002687
    13    -0.003778
    14     0.018678
    15    -0.005544
    16     0.210509
    17     0.459757
    18     0.335586
    19    -0.127844
    20     0.097592
    21    -0.379727
    22    -0.080453
    23     0.066558
    24    -0.253615
    25     0.009860
    26     0.008603
    27     0.009701
    28     0.005868
    29    -0.015097
    30     0.008773
    31    -0.004243
    32    -0.014137
    33    -0.031045
    34     0.016080
    35     0.034875
    36     0.007581
    37     0.002520
    38     0.012652
    39     0.016322
    40    -0.000986
    41     0.006884
    42    -0.002877
    43     0.005590
    44    -0.002562
    45    -0.002829
    46    -0.008199
    47     0.004812
    48     0.000260
    49     0.001533
    50     0.000599
Sym=     7a
Ene=   -0.978155E+00
Spin= Alpha
Occup= 1.983843
     1    -0.200555
     2    -0.439748
     3    -0.327552
     4     0.021184
     5     0.451811
     6    -0.001899
     7     0.020737
     8     0.305288
     9    -0.001160
    10    -0.015570
    11     0.000529
    12    -0.008403
    13    -0.015879
    14     0.000197
    15    -0.000055
    16    -0.012745
    17    -0.015088
    18     0.003838
    19     0.021905
    20     0.124065
    21    -0.002501
    22     0.042968
    23     0.059077
    24    -0.001597
    25     0.005396
    26    -0.008716
    27     0.004132
    28     0.019271
    29    -0.000153
    30     0.000048
    31     0.010669
    32     0.022769
    33     0.053146
    34     0.009053
    35    -0.003800
    36     0.000163
    37     0.011005
    38     0.016301
    39     0.000186
    40    -0.001072
    41     0.000297
    42     0.001125
    43    -0.001343
    44    -0.000016
    45    -0.000017
    46    -0.010336
    47    -0.014484
    48    -0.000559
    49     0.000870
    50     0.000009
Sym=     8a
Ene=   -0.944645E+00
Spin= Alpha
Occup= 1.983078
     1    -0.194932
     2    -0.427455
     3    -0.334766
     4    -0.222547
     5    -0.404509
     6    -0.000486
     7    -0.138440
     8    -0.279590
     9    -0.000250
    10     0.003737
    11    -0.016929
    12    -0.007518
    13     0.014888
    14     0.000069
    15    -0.000011
    16     0.013895
    17     0.036078
    18     0.092520
    19    -0.070169
    20    -0.117154
    21    -0.002192
    22    -0.015466
    23    -0.076565
    24    -0.001446
    25    -0.015209
    26     0.015270
    27     0.002542
    28    -0.012772
    29    -0.000092
    30     0.000099
    31    -0.009022
    32    -0.018967
    33    -0.057182
    34    -0.007046
    35     0.006396
    36     0.000044
    37    -0.017995
    38    -0.018130
    39     0.000088
    40     0.001948
    41     0.001040
    42    -0.001029
    43     0.002468
    44    -0.000015
    45    -0.000016
    46     0.008425
    47     0.012329
    48    -0.000369
    49    -0.001052
    50     0.000002
Sym=     9a
Ene=   -0.936238E+00
Spin= Alpha
Occup= 1.982144
     1    -0.006295
     2    -0.020956
     3    -0.029888
     4    -0.000010
     5     0.006728
     6     0.203599
     7     0.015441
     8    -0.004132
     9     0.116305
    10     0.001030
    11    -0.001471
    12    -0.002337
    13    -0.003146
    14    -0.022181
    15     0.006594
    16     0.176639
    17     0.386938
    18     0.283861
    19    -0.109307
    20     0.084235
    21     0.450773
    22    -0.068016
    23     0.057272
    24     0.301030
    25     0.007629
    26     0.007021
    27     0.008179
    28     0.005095
    29     0.018098
    30    -0.010578
    31    -0.004680
    32    -0.014171
    33    -0.027483
    34     0.013780
    35     0.028808
    36    -0.010588
    37     0.002229
    38     0.010406
    39    -0.020596
    40    -0.000921
    41     0.005709
    42    -0.002446
    43     0.004707
    44     0.003071
    45     0.003324
    46    -0.007948
    47     0.004196
    48     0.000088
    49     0.001341
    50    -0.000790
Sym=    10a
Ene=   -0.907097E+00
Spin= Alpha
Occup= 1.965993
     1     0.006412
     2     0.017722
     3     0.020830
     4    -0.016965
     5    -0.008295
     6     0.000562
     7    -0.019158
     8    -0.001170
     9     0.000311
    10     0.001746
    11     0.000690
    12     0.001436
    13    -0.001306
    14    -0.000062
    15     0.000019
    16    -0.013424
    17    -0.027652
    18    -0.042045
    19     0.010275
    20     0.004541
    21     0.001108
    22    -0.012113
    23     0.001262
    24     0.000748
    25     0.007235
    26    -0.005228
    27    -0.001210
    28     0.002141
    29     0.000046
    30    -0.000030
    31     0.086732
    32     0.181899
    33    -0.049163
    34    -0.407598
    35     0.268709
    36    -0.000254
    37    -0.191982
    38     0.131607
    39    -0.000216
    40     0.013695
    41     0.008028
    42    -0.003287
    43    -0.019121
    44     0.000003
    45     0.000011
    46     0.438665
    47     0.066654
    48     0.044332
    49    -0.020631
    50    -0.000014
Sym=    11a
Ene=   -0.100335E+01
Spin= Alpha
Occup= 1.945960
     1     0.028924
     2     0.070060
     3    -0.157587
     4    -0.445836
     5     0.151703
     6     0.000719
     7    -0.187190
     8     0.071042
     9     0.000318
    10     0.041104
    11    -0.006930
    12    -0.011826
    13    -0.016487
    14    -0.000113
    15     0.000028
    16     0.066380
    17     0.149648
    18    -0.034328
    19     0.445460
    20    -0.191006
    21     0.001905
    22     0.215102
    23    -0.113373
    24     0.001518
    25     0.035513
    26    -0.002739
    27    -0.009612
    28    -0.023013
    29     0.000231
    30    -0.000126
    31    -0.003852
    32    -0.002403
    33    -0.015267
    34    -0.029139
    35    -0.012684
    36    -0.000185
    37    -0.030194
    38    -0.005396
    39    -0.000196
    40     0.003525
    41    -0.003931
    42     0.001795
    43    -0.002425
    44     0.000014
    45     0.000016
    46     0.020333
    47     0.004263
    48     0.001513
    49    -0.000901
    50    -0.000009
Sym=    12a
Ene=   -0.587859E+00
Spin= Alpha
Occup= 1.721910
     1     0.001819
     2     0.009064
     3    -0.005538
     4     0.060962
     5     0.182016
     6     0.000159
     7     0.062291
     8     0.175525
     9    -0.000038
    10     0.003021
    11    -0.001182
    12     0.001971
    13     0.005521
    14    -0.000078
    15     0.000022
    16    -0.013591
    17    -0.036285
    18    -0.075457
    19    -0.132448
    20    -0.444443
    21     0.000882
    22    -0.064331
    23    -0.281030
    24     0.000734
    25     0.000061
    26     0.018392
    27    -0.010055
    28     0.015769
    29     0.000131
    30     0.000125
    31    -0.009311
    32    -0.024421
    33    -0.050215
    34     0.221409
    35     0.396180
    36    -0.000388
    37     0.120030
    38     0.266866
    39    -0.000277
    40    -0.003266
    41     0.021772
    42    -0.007937
    43     0.013091
    44     0.000019
    45     0.000015
    46    -0.023100
    47    -0.034239
    48     0.001639
    49     0.014575
    50    -0.000000
Sym=    13a
Ene=   -0.311201E+00
Spin= Alpha
Occup= 1.000000
     1     0.000102
     2     0.000106
     3     0.001119
     4    -0.000128
     5    -0.000836
     6    -0.654700
     7    -0.000987
     8    -0.000264
     9    -0.443558
    10    -0.000024
    11     0.000001
    12     0.000016
    13     0.000010
    14     0.005311
    15    -0.001212
    16     0.000180
    17     0.000632
    18    -0.001082
    19    -0.000361
    20     0.000317
    21     0.365640
    22    -0.000664
    23     0.000478
    24     0.296998
    25    -0.000049
    26    -0.000000
    27    -0.000073
    28    -0.000102
    29    -0.012866
    30    -0.000253
    31    -0.000012
    32    -0.000052
    33     0.000074
    34    -0.000045
    35     0.000014
    36    -0.060386
    37     0.000159
    38     0.000089
    39    -0.053468
    40     0.000009
    41    -0.000009
    42    -0.000003
    43     0.000005
    44     0.003195
    45     0.002805
    46     0.000028
    47     0.000068
    48    -0.000015
    49    -0.000022
    50    -0.002426
Sym=    14a
Ene=   -0.122518E+00
Spin= Alpha
Occup= 0.277614
     1    -0.001838
     2    -0.006385
     3     0.006950
     4     0.090692
     5     0.151546
     6    -0.000089
     7     0.069580
     8     0.137616
     9    -0.000194
    10     0.001692
    11    -0.005226
    12    -0.000254
    13     0.008600
    14    -0.000340
    15     0.000109
    16     0.061377
    17     0.138248
    18     0.211660
    19    -0.269217
    20    -0.537272
    21     0.000129
    22    -0.175748
    23    -0.300055
    24     0.000323
    25    -0.007405
    26     0.001621
    27     0.009196
    28    -0.014579
    29     0.000457
    30     0.001033
    31    -0.054208
    32    -0.119574
    33    -0.191389
    34    -0.334174
    35    -0.471443
    36     0.000127
    37    -0.234720
    38    -0.292733
    39    -0.000062
    40     0.009391
    41    -0.007227
    42    -0.004528
    43     0.013220
    44    -0.000087
    45    -0.000010
    46     0.004470
    47     0.015433
    48    -0.009669
    49    -0.013920
    50     0.000175
Sym=    15a
Ene=   -0.449496E-01
Spin= Alpha
Occup= 0.051468
     1    -0.107317
     2    -0.275712
     3    -0.297296
     4     0.700085
     5    -0.212082
     6    -0.001180
     7     0.268568
     8    -0.080434
     9    -0.001081
    10    -0.018725
    11     0.005055
    12    -0.004646
    13     0.005972
    14    -0.001487
    15     0.000457
    16     0.127406
    17     0.376473
    18     0.240537
    19     0.689305
    20    -0.225855
    21    -0.004023
    22     0.238068
    23    -0.044288
    24     0.004809
    25     0.007630
    26     0.000102
    27    -0.009737
    28    -0.017750
    29     0.002869
    30    -0.001718
    31     0.000979
    32     0.005589
    33    -0.006775
    34    -0.008847
    35     0.016374
    36    -0.000079
    37    -0.001521
    38     0.014354
    39    -0.000694
    40     0.002235
    41    -0.004539
    42     0.001506
    43    -0.001566
    44     0.000132
    45     0.000082
    46     0.025575
    47     0.013678
    48     0.003231
    49     0.000536
    50    -0.000114
Sym=    16a
Ene=   -0.259419E-01
Spin= Alpha
Occup= 0.029797
     1     0.000733
     2     0.007062
     3    -0.001327
     4    -0.003775
     5     0.003919
     6     0.000216
     7     0.002706
     8     0.026545
     9    -0.000230
    10    -0.000384
    11     0.002250
    12     0.001454
    13    -0.002976
    14     0.000021
    15    -0.000009
    16    -0.004622
    17    -0.002589
    18    -0.045704
    19     0.014244
    20    -0.000040
    21     0.000260
    22    -0.007530
    23    -0.010465
    24    -0.000156
    25     0.005105
    26    -0.000430
    27     0.000227
    28     0.001225
    29     0.000157
    30    -0.000019
    31    -0.138384
    32    -0.499685
    33    -0.108919
    34     0.677868
    35    -0.394291
    36     0.000569
    37     0.074732
    38    -0.000312
    39    -0.000523
    40    -0.009868
    41    -0.000796
    42     0.027408
    43     0.031773
    44     0.000176
    45    -0.000008
    46     0.933633
    47     0.130025
    48     0.050147
    49    -0.014429
    50    -0.000099
Sym=    17a
Ene=   -0.107155E-01
Spin= Alpha
Occup= 0.014351
     1    -0.008356
     2    -0.005982
     3    -0.235249
     4     0.049432
     5    -0.013341
     6    -0.149775
     7     0.070149
     8    -0.058495
     9    -0.067571
    10    -0.007330
    11     0.001630
    12    -0.000831
    13     0.003004
    14    -0.032494
    15     0.011059
    16    -0.214885
    17    -1.120885
    18     1.206249
    19     0.189600
    20    -0.213292
    21    -0.698931
    22    -0.122913
    23     0.135130
    24     0.860008
    25     0.089697
    26     0.102784
    27    -0.009597
    28    -0.018605
    29     0.022517
    30    -0.011033
    31    -0.012012
    32    -0.004291
    33    -0.181000
    34    -0.046769
    35    -0.077864
    36    -0.007912
    37    -0.040816
    38    -0.061633
    39    -0.142292
    40     0.003135
    41     0.003547
    42     0.004371
    43     0.006558
    44     0.011137
    45     0.001887
    46    -0.047422
    47     0.027729
    48     0.008275
    49     0.003666
    50    -0.006577
Sym=    18a
Ene=   -0.109219E-01
Spin= Alpha
Occup= 0.012625
     1     0.246534
     2     1.238556
     3    -1.250358
     4     0.409625
     5     0.579884
     6    -0.000907
     7    -0.281751
     8    -0.744945
     9     0.001096
    10    -0.096455
    11    -0.010409
    12    -0.134951
    13     0.058556
    14     0.000060
    15     0.000138
    16     0.005596
    17    -0.021939
    18     0.372108
    19     0.086687
    20     0.076093
    21    -0.001756
    22     0.109609
    23     0.028145
    24     0.001823
    25    -0.006513
    26     0.009071
    27    -0.003438
    28    -0.028403
    29    -0.002076
    30     0.000707
    31    -0.000909
    32     0.023911
    33    -0.092310
    34    -0.008097
    35     0.003581
    36    -0.000000
    37    -0.029072
    38    -0.025551
    39    -0.000356
    40     0.006104
    41    -0.003336
    42     0.006018
    43    -0.003815
    44     0.000076
    45     0.000017
    46    -0.003714
    47     0.034593
    48     0.002170
    49     0.001401
    50    -0.000152
Sym=    19a
Ene=   -0.263975E-02
Spin= Alpha
Occup= 0.001620
     1    -0.030997
     2    -0.129792
     3     0.080445
     4    -0.084573
     5     0.043157
     6     0.008496
     7     0.062127
     8    -0.112362
     9    -0.018136
    10    -0.271764
    11     0.910395
    12    -0.548291
    13    -0.364606
    14     0.022931
    15    -0.029926
    16     0.000611
    17     0.074526
    18    -0.223343
    19    -0.056062
    20    -0.165322
    21    -0.004294
    22     0.117949
    23     0.194956
    24     0.017112
    25    -0.037803
    26    -0.000541
    27     0.109098
    28     0.034714
    29     0.020715
    30     0.013727
    31    -0.004096
    32    -0.064832
    33     0.245219
    34    -0.015113
    35    -0.037344
    36    -0.000341
    37     0.047552
    38     0.170903
    39    -0.001388
    40     0.010250
    41     0.010433
    42    -0.029574
    43     0.027338
    44    -0.000202
    45     0.000492
    46    -0.049040
    47    -0.032222
    48    -0.015962
    49     0.008345
    50     0.001651
Sym=    20a
Ene=   -0.104355E-01
Spin= Alpha
Occup= 0.012850
     1     0.008091
     2    -0.000919
     3     0.237507
     4    -0.048362
     5     0.012072
     6    -0.119077
     7    -0.070232
     8     0.067739
     9    -0.082245
    10     0.007968
    11    -0.003185
    12     0.001343
    13    -0.003387
    14    -0.027884
    15     0.009344
    16     0.244700
    17     1.259631
    18    -1.309625
    19    -0.230419
    20     0.252137
    21    -0.619143
    22     0.173578
    23    -0.178841
    24     0.769159
    25    -0.096861
    26    -0.115494
    27    -0.022119
    28     0.018217
    29     0.034984
    30    -0.030465
    31     0.012817
    32     0.005076
    33     0.191267
    34     0.051663
    35     0.087300
    36    -0.004606
    37     0.038575
    38     0.065507
    39    -0.129806
    40    -0.004057
    41    -0.004020
    42    -0.003551
    43    -0.007629
    44     0.009878
    45     0.000941
    46     0.052184
    47    -0.024073
    48    -0.008495
    49    -0.003320
    50    -0.006153
Sym=    21a
Ene=   -0.110991E-01
Spin= Alpha
Occup= 0.011583
     1     0.000410
     2    -0.021591
     3     0.070395
     4    -0.006320
     5     0.014196
     6     0.015438
     7    -0.037760
     8    -0.067411
     9     0.007771
    10    -0.000178
    11    -0.008823
    12     0.004717
    13     0.004321
    14     0.004967
    15    -0.003013
    16     0.015611
    17     0.029306
    18     0.115386
    19    -0.017881
    20    -0.091061
    21    -0.009099
    22    -0.077545
    23    -0.022996
    24    -0.125183
    25    -0.002504
    26    -0.008839
    27     0.002527
    28    -0.013987
    29    -0.011819
    30    -0.006119
    31     0.239482
    32     1.203629
    33    -1.161153
    34     0.196417
    35    -0.259415
    36    -0.673078
    37    -0.207658
    38     0.170298
    39     0.751104
    40    -0.138098
    41    -0.135247
    42     0.020237
    43    -0.000449
    44    -0.038794
    45     0.054146
    46     0.100583
    47     0.084378
    48     0.019153
    49     0.001399
    50     0.026241
Sym=    22a
Ene=   -0.111182E-01
Spin= Alpha
Occup= 0.011616
     1     0.000242
     2    -0.022768
     3     0.071676
     4    -0.004692
     5     0.013840
     6    -0.017002
     7    -0.040338
     8    -0.067233
     9    -0.006747
    10    -0.000157
    11    -0.008823
    12     0.004411
    13     0.003999
    14    -0.007141
    15     0.003850
    16     0.015148
    17     0.026131
    18     0.119729
    19    -0.018762
    20    -0.093208
    21     0.005817
    22    -0.078173
    23    -0.021110
    24     0.128935
    25    -0.001557
    26    -0.008694
    27     0.000289
    28    -0.014323
    29     0.011353
    30     0.006930
    31     0.238697
    32     1.200854
    33    -1.161490
    34     0.196717
    35    -0.254143
    36     0.676609
    37    -0.207964
    38     0.163447
    39    -0.755654
    40    -0.136931
    41    -0.134650
    42     0.020164
    43     0.000606
    44     0.038894
    45    -0.052311
    46     0.100824
    47     0.085869
    48     0.018921
    49     0.000793
    50    -0.026286
Sym=    23a
Ene=   -0.418267E-04
Spin= Alpha
Occup= 0.000002
     1    -0.000647
     2     0.068358
     3    -0.499134
     4    -0.024415
     5    -0.017470
     6    -0.000146
     7     0.442258
     8     0.209407
     9    -0.002097
    10    -0.152994
    11     0.134476
    12     0.041777
    13    -0.075959
    14     0.013103
    15    -0.003435
    16     0.013089
    17    -0.389246
    18     2.067015
    19     0.165324
    20     0.239033
    21     0.000920
    22    -0.640872
    23    -1.259247
    24     0.004182
    25     0.012467
    26    -0.017437
    27    -0.332996
    28     0.195753
    29     0.004143
    30    -0.008964
    31    -0.003829
    32     0.469129
    33    -2.370447
    34     0.118584
    35     0.184881
    36     0.000191
    37     0.078868
    38    -1.762031
    39    -0.011566
    40    -0.184525
    41    -0.301087
    42     0.659089
    43     0.494586
    44     0.012072
    45    -0.008320
    46     1.482173
    47    -0.151941
    48     0.722778
    49     0.261061
    50     0.026941
Sym=    24a
Ene=   -0.190722E-04
Spin= Alpha
Occup= 0.000001
     1    -0.003086
     2     0.528012
     3    -4.088430
     4    -0.066332
     5     0.041965
     6     0.004887
     7     2.698880
     8    -0.856508
     9    -0.003543
    10    -0.599878
    11     0.331242
    12     0.413458
    13     0.392677
    14    -0.002898
    15     0.003035
    16     0.005478
    17    -0.589726
    18     4.237665
    19    -0.070271
    20     0.052888
    21     0.006857
    22     2.747049
    23    -0.979038
    24    -0.016404
    25     0.535100
    26    -0.287350
    27    -0.466844
    28    -0.324293
    29     0.003251
    30    -0.006269
    31     0.001923
    32    -0.010498
    33     0.071385
    34    -0.014210
    35    -0.042215
    36    -0.000684
    37    -0.477256
    38     0.111353
    39     0.056229
    40     0.144205
    41    -0.054465
    42    -0.118233
    43    -0.163482
    44    -0.057295
    45     0.035918
    46    -0.359251
    47     0.118963
    48     0.027840
    49     0.312174
    50    -0.137897
Sym=    25a
Ene=   -0.185895E-04
Spin= Alpha
Occup= 0.000001
     1     0.000279
     2    -0.064744
     3     0.501629
     4     0.006190
     5    -0.005154
     6     0.001054
     7    -0.327843
     8     0.111398
     9     0.016125
    10     0.072428
    11    -0.037562
    12    -0.050632
    13    -0.051878
    14    -0.007697
    15     0.006940
    16    -0.000572
    17     0.066596
    18    -0.489898
    19     0.011854
    20    -0.002426
    21     0.017178
    22    -0.357697
    23     0.097721
    24    -0.097567
    25    -0.069515
    26     0.037710
    27     0.054562
    28     0.043548
    29     0.021227
    30     0.048350
    31    -0.000457
    32     0.011348
    33    -0.059547
    34     0.003536
    35     0.010171
    36    -0.012092
    37     0.060930
    38    -0.054492
    39     0.455507
    40    -0.016758
    41     0.000861
    42     0.025760
    43     0.037449
    44    -0.451756
    45     0.295041
    46     0.077488
    47    -0.018628
    48     0.014779
    49    -0.024616
    50    -1.103458
Sym=    26a
Ene=   -0.439696E-03
Spin= Alpha
Occup= 0.000243
     1     0.001129
     2     0.067868
     3    -1.320728
     4     0.000621
     5     0.033153
     6     0.008910
     7     0.573827
     8    -0.318607
     9    -0.049613
    10     0.796390
    11    -0.230618
    12    -0.401131
    13    -0.167238
    14     0.159550
    15    -0.046423
    16    -0.013982
    17    -0.389217
    18     1.658498
    19    -0.588412
    20     0.094020
    21     0.001561
    22     1.306165
    23    -0.276220
    24     0.048354
    25    -0.345831
    26    -0.133163
    27    -0.073913
    28     0.339755
    29     0.115560
    30    -0.050789
    31    -0.002414
    32     0.091327
    33    -0.316223
    34    -0.018578
    35     0.015522
    36     0.001278
    37    -0.047634
    38    -0.057851
    39    -0.007075
    40    -0.122089
    41     0.116333
    42     0.111621
    43     0.060425
    44    -0.003505
    45    -0.002150
    46     0.174409
    47     0.070529
    48     0.024451
    49     0.075219
    50    -0.000285
Sym=    27a
Ene=   -0.334589E-02
Spin= Alpha
Occup= 0.002111
     1    -0.011485
     2     0.093572
     3    -0.139045
     4    -0.272930
     5     0.061628
     6     0.001150
     7     0.520155
     8    -0.074323
     9     0.006172
    10     0.483554
    11    -0.048498
    12    -0.274297
    13    -0.188867
    14     0.026882
    15    -0.007355
    16    -0.006530
    17     0.113730
    18    -0.080658
    19     0.213867
    20    -0.012665
    21    -0.004484
    22    -0.421285
    23     0.075628
    24     0.010986
    25     0.388934
    26    -0.132760
    27    -0.135582
    28    -0.323157
    29    -0.046351
    30     0.016838
    31    -0.007437
    32    -0.095021
    33     0.138724
    34     0.017741
    35     0.032407
    36     0.001493
    37     0.102291
    38    -0.070455
    39    -0.004885
    40     0.020332
    41    -0.006429
    42    -0.037882
    43     0.000617
    44    -0.000076
    45    -0.001380
    46    -0.011696
    47    -0.037352
    48     0.016269
    49    -0.031162
    50    -0.000559
Sym=    28a
Ene=   -0.261306E-02
Spin= Alpha
Occup= 0.001601
     1     0.005825
     2     0.069992
     3    -0.255410
     4    -0.022904
     5    -0.043905
     6    -0.001194
     7     0.197792
     8     0.096758
     9     0.001458
    10     0.029598
    11     0.007816
    12    -0.021592
    13    -0.032859
    14     0.015788
    15    -0.003867
    16    -0.033146
    17    -0.194800
    18     0.273635
    19     0.067595
    20     0.233382
    21     0.002564
    22     0.025018
    23    -0.256534
    24     0.000200
    25     0.050963
    26    -0.020578
    27    -0.044581
    28     0.056011
    29    -0.003700
    30    -0.012570
    31    -0.018169
    32    -0.085534
    33    -0.034505
    34    -0.119456
    35    -0.181812
    36     0.000909
    37     0.250040
    38     0.326305
    39    -0.000841
    40     0.540272
    41    -0.542582
    42     0.029821
    43     0.280233
    44    -0.000263
    45    -0.001721
    46     0.077537
    47    -0.072803
    48    -0.197879
    49    -0.452333
    50    -0.003105
Sym=    29a
Ene=   -0.229462E-02
Spin= Alpha
Occup= 0.001495
     1    -0.017252
     2    -0.134826
     3     0.298437
     4     0.181069
     5    -0.045001
     6    -0.010861
     7    -0.341731
     8    -0.040230
     9     0.040954
    10    -0.026877
    11    -0.043213
    12     0.002325
    13     0.070792
    14     0.028018
    15     0.016646
    16     0.004811
    17    -0.007814
    18    -0.149977
    19    -0.029848
    20    -0.062365
    21    -0.001068
    22    -0.084596
    23     0.114626
    24     0.009419
    25     0.420325
    26    -0.395050
    27    -0.058553
    28     0.234809
    29    -0.370470
    30    -0.760449
    31     0.006784
    32     0.049929
    33    -0.051758
    34     0.044055
    35     0.046700
    36     0.040219
    37    -0.046751
    38    -0.086500
    39    -0.098888
    40    -0.006215
    41    -0.019705
    42     0.010241
    43    -0.054872
    44    -0.007815
    45    -0.027653
    46    -0.006467
    47     0.005659
    48     0.000303
    49    -0.022905
    50    -0.027911
Sym=    30a
Ene=   -0.265004E-02
Spin= Alpha
Occup= 0.001659
     1     0.050407
     2     0.284281
     3    -0.491976
     4    -0.082524
     5     0.038590
     6     0.009389
     7     0.280507
     8    -0.152078
     9    -0.019419
    10    -0.250183
    11    -0.315699
    12     0.519627
    13    -0.804742
    14     0.017811
    15     0.005814
    16     0.000846
    17     0.004228
    18     0.246245
    19    -0.071501
    20    -0.117620
    21    -0.002929
    22     0.270220
    23     0.057283
    24     0.012281
    25    -0.052703
    26    -0.007494
    27     0.023849
    28     0.054756
    29     0.026118
    30     0.007910
    31    -0.017265
    32    -0.120294
    33     0.228889
    34    -0.011140
    35    -0.029554
    36    -0.000772
    37     0.019882
    38     0.110007
    39     0.000274
    40     0.024508
    41     0.017346
    42    -0.019639
    43     0.009165
    44     0.000297
    45     0.000752
    46    -0.037879
    47    -0.057419
    48    -0.000355
    49     0.017512
    50     0.001464
Sym=    31a
Ene=   -0.107426E-01
Spin= Alpha
Occup= 0.011953
     1    -0.255608
     2    -1.279423
     3     1.279422
     4    -0.019875
     5     0.695088
     6    -0.002774
     7    -0.171328
     8    -0.762546
     9     0.003736
    10     0.121697
    11    -0.009455
    12     0.145830
    13    -0.014055
    14     0.001134
    15     0.000328
    16    -0.008516
    17    -0.016560
    18    -0.280503
    19    -0.007010
    20     0.098551
    21     0.001421
    22    -0.112288
    23     0.101445
    24    -0.002552
    25    -0.016331
    26     0.005843
    27     0.004499
    28    -0.022880
    29     0.000513
    30    -0.001905
    31     0.002308
    32     0.062403
    33    -0.130219
    34    -0.033376
    35    -0.004233
    36     0.000125
    37    -0.018664
    38     0.020792
    39     0.000170
    40     0.006928
    41    -0.011444
    42     0.012241
    43    -0.005685
    44    -0.000106
    45    -0.000070
    46     0.019209
    47     0.039062
    48    -0.007305
    49     0.000621
    50    -0.000106
Sym=    32a
Ene=   -0.186406E-02
Spin= Alpha
Occup= 0.001120
     1     0.025151
     2     0.200581
     3    -0.428032
     4    -0.294551
     5     0.077003
     6     0.003162
     7     0.500647
     8     0.049940
     9     0.028785
    10     0.047483
    11     0.090129
    12    -0.006141
    13    -0.153659
    14    -0.076268
    15     0.048934
    16    -0.004278
    17     0.028608
    18     0.205472
    19     0.032568
    20     0.048511
    21    -0.003001
    22     0.108526
    23    -0.112665
    24    -0.012809
    25    -0.697525
    26     0.620627
    27     0.096924
    28    -0.342685
    29    -0.281512
    30    -0.465389
    31    -0.007438
    32    -0.067009
    33     0.098519
    34    -0.054426
    35    -0.049264
    36     0.025680
    37     0.062899
    38     0.115195
    39    -0.062786
    40    -0.004907
    41     0.028394
    42    -0.014404
    43     0.069257
    44    -0.007998
    45    -0.020734
    46     0.004563
    47    -0.008921
    48    -0.006209
    49     0.031648
    50    -0.011292
Sym=    33a
Ene=   -0.296509E-02
Spin= Alpha
Occup= 0.002058
     1    -0.003825
     2    -0.046927
     3     0.081406
     4     0.026360
     5     0.035564
     6     0.000533
     7    -0.081322
     8    -0.120860
     9    -0.032058
    10    -0.004945
    11    -0.010532
    12    -0.002682
    13     0.015862
    14    -0.023120
    15     0.007418
    16     0.014316
    17     0.026238
    18     0.216366
    19    -0.139394
    20    -0.294884
    21    -0.032697
    22     0.009991
    23     0.234044
    24     0.086725
    25    -0.031168
    26     0.016769
    27    -0.001329
    28    -0.078616
    29     0.007089
    30     0.008545
    31     0.048276
    32     0.272626
    33    -0.287581
    34     0.341114
    35     0.471177
    36    -0.028126
    37    -0.378120
    38    -0.593432
    39     0.041726
    40     0.161942
    41    -0.125595
    42    -0.118002
    43     0.100563
    44    -0.254031
    45    -0.647940
    46     0.008983
    47     0.084120
    48    -0.003905
    49    -0.058998
    50    -0.043027
Sym=    34a
Ene=   -0.274514E-02
Spin= Alpha
Occup= 0.001732
     1     0.001854
     2     0.010391
     3    -0.015087
     4    -0.002178
     5    -0.026571
     6    -0.000235
     7     0.041546
     8     0.118464
     9    -0.030891
    10    -0.008306
    11     0.010309
    12    -0.013827
    13    -0.024555
    14     0.003197
    15    -0.001394
    16    -0.021901
    17    -0.100582
    18     0.044347
    19     0.134404
    20     0.300153
    21    -0.034284
    22    -0.117721
    23    -0.365236
    24     0.110893
    25     0.035162
    26    -0.015055
    27    -0.016513
    28     0.081859
    29    -0.006518
    30    -0.036982
    31     0.004530
    32     0.028816
    33    -0.143115
    34    -0.150224
    35    -0.290058
    36     0.035736
    37     0.131982
    38     0.206254
    39    -0.115118
    40     0.029706
    41     0.402737
    42    -0.451000
    43     0.159709
    44    -0.654572
    45    -0.181668
    46     0.094601
    47    -0.095347
    48     0.059367
    49     0.035885
    50     0.109563
Sym=    35a
Ene=   -0.185272E-02
Spin= Alpha
Occup= 0.000088
     1    -0.000377
     2     0.015114
     3    -0.465278
     4    -0.132631
     5     0.041123
     6    -0.001314
     7     0.197681
     8    -0.047277
     9     0.002442
    10     0.165375
    11     0.036237
    12     0.014228
    13    -0.050815
    14     0.002579
    15    -0.001138
    16     0.714726
    17     2.215545
    18     1.541323
    19     0.036132
    20    -0.034105
    21     0.001359
    22     0.018147
    23    -0.078555
    24    -0.001982
    25    -1.513726
    26    -1.481962
    27    -1.448066
    28     0.010841
    29     0.000011
    30     0.005333
    31    -0.007483
    32    -0.017131
    33    -0.173043
    34    -0.047952
    35    -0.051753
    36    -0.000212
    37    -0.017636
    38    -0.057445
    39     0.000667
    40     0.028780
    41     0.011303
    42    -0.029564
    43     0.040770
    44    -0.000682
    45     0.000374
    46     0.011753
    47    -0.037793
    48    -0.007674
    49    -0.011403
    50     0.000385
Sym=    36a
Ene=   -0.497777E-04
Spin= Alpha
Occup= 0.000003
     1     0.005175
     2     0.143749
     3    -0.891252
     4     0.068632
     5    -0.031596
     6    -0.000804
     7     0.558199
     8    -0.075138
     9     0.014057
    10    -0.258916
    11     0.092667
    12     0.107669
    13     0.029111
    14    -0.047205
    15     0.013985
    16     0.008691
    17    -0.163371
    18     1.061664
    19     0.000847
    20     0.011873
    21     0.003640
    22     0.506908
    23    -0.210478
    24    -0.019788
    25     0.167607
    26    -0.129120
    27    -0.207231
    28    -0.263365
    29    -0.034150
    30     0.017282
    31     0.002193
    32     0.093829
    33    -0.700333
    34     0.027028
    35     0.032571
    36    -0.001099
    37     0.728206
    38    -0.195719
    39     0.006182
    40    -0.826896
    41     0.517008
    42     0.246996
    43     0.179429
    44    -0.000833
    45     0.004891
    46     1.039828
    47    -0.099285
    48    -0.045280
    49    -0.856674
    50    -0.005648
Sym=    37a
Ene=   -0.841056E-04
Spin= Alpha
Occup= 0.000004
     1    -0.002717
     2     0.020775
     3     0.055225
     4    -0.033861
     5    -0.018980
     6    -0.000983
     7     0.005290
     8     0.069459
     9     0.002966
    10    -0.032027
    11     0.033715
    12     0.053527
    13     0.005246
    14    -0.004311
    15     0.001189
    16    -0.003996
    17     0.003869
    18    -0.045324
    19     0.051132
    20    -0.053991
    21    -0.000468
    22    -0.235857
    23     0.043379
    24    -0.001335
    25     0.068223
    26    -0.020289
    27     0.022158
    28     0.013362
    29    -0.006095
    30     0.003495
    31    -0.061974
    32     0.214980
    33    -0.689876
    34    -0.699118
    35     0.388541
    36    -0.000710
    37     0.407168
    38    -0.268913
    39     0.000325
    40     0.640953
    41     0.342471
    42     0.194911
    43    -0.214048
    44     0.002355
    45    -0.001450
    46    -0.176326
    47     0.244980
    48    -1.074969
    49     0.594826
    50     0.001658
Sym=    38a
Ene=   -0.418594E-03
Spin= Alpha
Occup= 0.000232
     1     0.004631
     2     0.267628
     3    -0.527783
     4    -0.567895
     5     0.176314
     6     0.004903
     7     0.750602
     8    -0.369666
     9    -0.059894
    10     0.114507
    11     0.089961
    12     0.231153
    13     0.289018
    14     0.200833
    15    -0.059624
    16    -0.007323
    17     0.112686
    18     0.222132
    19     0.344263
    20    -0.186450
    21    -0.014848
    22    -0.326533
    23     0.270295
    24     0.080758
    25    -0.149573
    26     0.079151
    27     0.322847
    28     0.646543
    29     0.144121
    30    -0.059141
    31    -0.011137
    32    -0.039942
    33    -0.028544
    34     0.044888
    35     0.037195
    36     0.002210
    37     0.132028
    38    -0.138441
    39    -0.012032
    40    -0.097646
    41     0.062309
    42     0.031300
    43    -0.075503
    44    -0.003629
    45    -0.005082
    46     0.162065
    47    -0.103606
    48    -0.045665
    49    -0.230785
    50    -0.002790
Sym=    39a
Ene=   -0.104380E-02
Spin= Alpha
Occup= 0.000460
     1    -0.003054
     2    -0.064395
     3     0.282355
     4     0.113294
     5    -0.040036
     6    -0.047674
     7    -0.225127
     8     0.127818
     9    -0.078446
    10    -0.161360
    11     0.017436
    12     0.050318
    13    -0.011131
    14     0.945711
    15    -0.287589
    16     0.004394
    17     0.052398
    18    -0.332780
    19     0.017935
    20     0.006171
    21    -0.012445
    22    -0.097079
    23     0.029854
    24     0.255583
    25     0.041510
    26     0.096033
    27    -0.084406
    28    -0.247992
    29     0.309643
    30    -0.147570
    31     0.000227
    32    -0.022341
    33     0.091787
    34    -0.007902
    35    -0.004705
    36     0.013661
    37     0.012349
    38     0.065861
    39    -0.055638
    40     0.006095
    41     0.008635
    42    -0.016765
    43     0.020316
    44    -0.016721
    45    -0.022867
    46    -0.032346
    47    -0.008524
    48    -0.013796
    49     0.008683
    50    -0.005776
Sym=    40a
Ene=   -0.369495E-02
Spin= Alpha
Occup= 0.002610
     1    -0.005337
     2    -0.069727
     3     0.211468
     4    -0.010594
     5     0.021258
     6     0.001303
     7    -0.094478
     8    -0.028029
     9    -0.002025
    10    -0.020497
    11    -0.002073
    12     0.005836
    13     0.010017
    14    -0.000607
    15     0.000410
    16    -0.002221
    17     0.091578
    18    -0.416968
    19     0.107077
    20     0.154157
    21     0.001124
    22     0.009059
    23    -0.085181
    24    -0.000682
    25     0.012166
    26    -0.007317
    27     0.026179
    28     0.018455
    29     0.001685
    30    -0.005589
    31     0.000704
    32    -0.137961
    33     0.795834
    34     0.082781
    35     0.016990
    36     0.000418
    37    -0.743015
    38     0.479327
    39    -0.001398
    40    -0.280050
    41     0.054914
    42     0.134516
    43     0.425709
    44    -0.002215
    45     0.002099
    46    -0.961656
    47     0.257335
    48    -0.425941
    49     0.164849
    50     0.001949
Sym=    41a
Ene=   -0.283507E-02
Spin= Alpha
Occup= 0.002010
     1    -0.005877
     2    -0.064791
     3     0.342393
     4     0.058266
     5    -0.000485
     6     0.015614
     7    -0.250749
     8    -0.050412
     9    -0.141184
    10    -0.014945
    11    -0.034332
    12     0.004381
    13     0.034160
    14    -0.119412
    15     0.040975
    16     0.033868
    17     0.250262
    18    -0.630295
    19    -0.034510
    20    -0.141849
    21     0.018067
    22    -0.042977
    23     0.384211
    24    -0.018606
    25     0.223541
    26     0.471096
    27    -0.679566
    28     0.140950
    29     0.544499
    30    -0.274570
    31    -0.006915
    32    -0.044254
    33     0.188509
    34    -0.028503
    35    -0.052935
    36    -0.010738
    37     0.093765
    38     0.153954
    39     0.029556
    40     0.006423
    41     0.009034
    42    -0.004855
    43     0.029586
    44     0.005546
    45     0.014167
    46    -0.028962
    47     0.018965
    48    -0.003031
    49    -0.002683
    50    -0.001811
Sym=    42a
Ene=   -0.339739E-02
Spin= Alpha
Occup= 0.002639
     1    -0.002643
     2    -0.018650
     3     0.048111
     4     0.013636
     5    -0.003125
     6     0.633163
     7    -0.037188
     8     0.010520
     9    -0.859771
    10    -0.008491
    11     0.013210
    12    -0.008142
    13     0.009535
    14     0.263777
    15     0.664881
    16    -0.001011
    17    -0.003584
    18    -0.031948
    19     0.004668
    20    -0.001760
    21    -0.087307
    22    -0.025138
    23     0.008379
    24     0.379453
    25     0.011135
    26    -0.004802
    27    -0.005213
    28    -0.007911
    29    -0.017606
    30    -0.006567
    31     0.000456
    32     0.002501
    33    -0.002457
    34    -0.001192
    35    -0.000874
    36     0.002816
    37     0.002488
    38     0.000810
    39    -0.044096
    40     0.000373
    41    -0.001403
    42    -0.000011
    43    -0.000099
    44     0.002134
    45    -0.006816
    46    -0.000582
    47     0.000589
    48    -0.001083
    49    -0.001656
    50    -0.002293
Sym=    43a
Ene=   -0.337120E-02
Spin= Alpha
Occup= 0.002583
     1     0.000619
     2     0.006438
     3    -0.022189
     4    -0.009843
     5     0.001747
     6    -0.642903
     7     0.020235
     8    -0.009509
     9     0.876266
    10     0.002264
    11     0.018134
    12    -0.015927
    13    -0.005984
    14     0.149941
    15     0.687192
    16     0.001692
    17     0.010164
    18     0.003796
    19    -0.005851
    20    -0.003178
    21     0.091334
    22     0.018361
    23     0.002596
    24    -0.392442
    25    -0.002622
    26    -0.001446
    27     0.005608
    28     0.012564
    29     0.012205
    30     0.002026
    31    -0.000191
    32    -0.002270
    33     0.008132
    34     0.001761
    35     0.001197
    36    -0.012813
    37    -0.000944
    38     0.002446
    39     0.063839
    40    -0.000708
    41     0.001285
    42    -0.000691
    43    -0.000112
    44    -0.003735
    45     0.009030
    46    -0.000897
    47    -0.000353
    48     0.000440
    49     0.000805
    50     0.008184
Sym=    44a
Ene=   -0.263537E-02
Spin= Alpha
Occup= 0.001753
     1    -0.000875
     2     0.014622
     3    -0.129713
     4    -0.011394
     5    -0.015882
     6     0.012600
     7     0.111882
     8     0.109321
     9    -0.174230
    10    -0.017222
    11     0.051464
    12    -0.011412
    13    -0.046381
    14    -0.076211
    15     0.031588
    16    -0.032332
    17    -0.206533
    18     0.375201
    19     0.065947
    20     0.122729
    21     0.004677
    22    -0.093993
    23    -0.301237
    24     0.015790
    25    -0.128075
    26    -0.400473
    27     0.537604
    28    -0.259074
    29     0.659836
    30    -0.338667
    31     0.005826
    32     0.024451
    33    -0.123200
    34     0.013977
    35     0.041245
    36    -0.010052
    37    -0.049612
    38    -0.113155
    39     0.024543
    40     0.002995
    41    -0.010882
    42    -0.006863
    43    -0.014842
    44     0.004567
    45     0.014488
    46     0.021788
    47    -0.030657
    48    -0.006558
    49    -0.004565
    50    -0.001037
Sym=    45a
Ene=   -0.268710E-02
Spin= Alpha
Occup= 0.001666
     1    -0.000561
     2     0.011002
     3    -0.020166
     4    -0.007979
     5     0.008276
     6     0.000063
     7    -0.009497
     8    -0.061609
     9    -0.014577
    10     0.011847
    11    -0.005740
    12     0.017542
    13     0.018299
    14    -0.004737
    15    -0.001112
    16     0.016596
    17     0.095392
    18    -0.169768
    19    -0.072187
    20    -0.172269
    21    -0.021168
    22     0.115897
    23     0.274817
    24     0.070092
    25    -0.013211
    26     0.003613
    27     0.013486
    28    -0.043792
    29    -0.006777
    30    -0.015048
    31    -0.033513
    32    -0.187058
    33     0.312073
    34    -0.025591
    35     0.063238
    36     0.056086
    37     0.065876
    38     0.095365
    39    -0.154070
    40    -0.127437
    41    -0.393166
    42     0.594968
    43    -0.251961
    44    -0.616699
    45     0.211925
    46    -0.110531
    47     0.061632
    48    -0.069277
    49    -0.010006
    50     0.154408
Sym=    46a
Ene=   -0.289119E-02
Spin= Alpha
Occup= 0.001952
     1     0.002727
     2     0.043624
     3    -0.077349
     4    -0.024219
     5    -0.025475
     6    -0.001955
     7     0.059258
     8     0.065900
     9    -0.019330
    10     0.010707
    11     0.005764
    12     0.010735
    13    -0.004614
    14     0.000047
    15     0.002396
    16    -0.002401
    17     0.032681
    18    -0.278473
    19     0.074570
    20     0.150355
    21    -0.017189
    22     0.060326
    23    -0.040373
    24     0.043469
    25     0.019991
    26    -0.015725
    27     0.008115
    28     0.039554
    29     0.009627
    30    -0.000897
    31    -0.057172
    32    -0.326101
    33     0.415330
    34    -0.296151
    35    -0.359690
    36    -0.047874
    37     0.350843
    38     0.552389
    39     0.109710
    40    -0.212495
    41    -0.109142
    42     0.422845
    43    -0.217925
    44     0.090655
    45    -0.668668
    46    -0.069395
    47    -0.034322
    48    -0.033558
    49     0.041823
    50    -0.122384
Sym=    47a
Ene=   -0.747387E-04
Spin= Alpha
Occup= 0.000004
     1    -0.004131
     2     0.060492
     3     0.066670
     4    -0.047207
     5     0.013021
     6    -0.000527
     7    -0.096773
     8    -0.327319
     9     0.002039
    10     0.012143
    11    -0.066227
    12     0.141383
    13     0.250956
    14    -0.013226
    15     0.003725
    16    -0.032877
    17     0.381994
    18    -1.807794
    19    -0.123926
    20    -0.439784
    21    -0.004909
    22     0.672765
    23     1.546544
    24     0.003219
    25     0.296745
    26    -0.110297
    27     0.485593
    28    -0.206530
    29    -0.010833
    30     0.001911
    31     0.012541
    32    -0.316775
    33     1.277021
    34    -0.125556
    35    -0.195022
    36     0.000566
    37     1.142290
    38     0.765913
    39    -0.004247
    40    -0.147661
    41    -0.101514
    42    -0.129091
    43     0.783329
    44    -0.002490
    45    -0.001223
    46     0.535247
    47    -0.073460
    48     0.373234
    49     0.048489
    50     0.006634
Sym=    48a
Ene=   -0.170710E-02
Spin= Alpha
Occup= 0.000081
     1    -0.703318
     2    -2.191508
     3    -1.474333
     4     0.016636
     5    -0.012248
     6    -0.000983
     7     0.148591
     8    -0.017777
     9     0.003796
    10     1.464881
    11     1.456199
    12     1.477830
    13    -0.035992
    14    -0.006029
    15     0.001559
    16     0.001366
    17    -0.010356
    18     0.502082
    19    -0.100159
    20     0.044966
    21     0.000941
    22     0.180575
    23    -0.074417
    24    -0.003635
    25    -0.189798
    26    -0.008392
    27    -0.015673
    28     0.038433
    29    -0.006242
    30     0.005558
    31    -0.000369
    32    -0.026715
    33     0.030360
    34    -0.010236
    35    -0.009904
    36    -0.000238
    37     0.056784
    38    -0.015322
    39     0.000764
    40    -0.019867
    41    -0.009931
    42    -0.014752
    43     0.002955
    44     0.000511
    45     0.000235
    46     0.040148
    47    -0.012058
    48     0.012445
    49    -0.022234
    50     0.000322
Sym=    49a
Ene=   -0.165641E-02
Spin= Alpha
Occup= 0.000078
     1    -0.000544
     2     0.061642
     3    -0.186279
     4    -0.039791
     5    -0.026281
     6    -0.000134
     7     0.124689
     8     0.068735
     9    -0.000573
    10     0.018137
    11     0.024618
    12     0.035723
    13    -0.031095
    14     0.005258
    15    -0.001682
    16    -0.006220
    17    -0.001342
    18    -0.125354
    19     0.033283
    20     0.049624
    21     0.000520
    22     0.078152
    23     0.052945
    24     0.000613
    25    -0.005330
    26     0.022896
    27    -0.011030
    28     0.028045
    29     0.003186
    30     0.000840
    31     0.702412
    32     2.185605
    33     1.274036
    34    -0.110567
    35     0.012794
    36    -0.000054
    37     0.295128
    38     0.051636
    39     0.000310
    40    -1.457514
    41    -1.443572
    42    -1.448864
    43     0.002008
    44    -0.000200
    45     0.000607
    46     0.146672
    47    -0.119479
    48     0.007112
    49    -0.046349
    50    -0.000456
Sym=    50a
Ene=    0.000000E+00
Spin= Alpha
Occup= 0.000000
     1     0.003471
     2    -0.078687
     3     0.444531
     4     0.043270
     5     0.037053
     6    -0.000179
     7    -0.301377
     8    -0.067952
     9     0.002521
    10     0.031901
    11    -0.058596
    12    -0.067450
    13     0.020253
    14    -0.010819
    15     0.003296
    16     0.008183
    17    -0.037937
    18     0.019054
    19     0.040207
    20    -0.025683
    21    -0.001135
    22    -0.271150
    23     0.176496
    24    -0.001564
    25    -0.095454
    26    -0.039486
    27    -0.055296
    28    -0.041568
    29    -0.008244
    30     0.004408
    31     0.013084
    32    -0.285832
    33     2.185602
    34     0.005144
    35     0.065710
    36     0.000234
    37    -1.138592
    38     0.471262
    39    -0.000332
    40     0.100303
    41    -0.150771
    42    -0.206788
    43    -0.221088
    44     0.000218
    45    -0.000393
    46    -0.373342
    47    -2.020886
    48    -0.777695
    49     0.452167
    50     0.000489
