p30-5 set                                                                       
ENERGY    PNOF7    /home/ion/p30-5/def2-qzvp/pnof7/ncwo/def2-qzvp.bas                              
Number of atoms                            I                1
Charge                                     I                0
Multiplicity                               I                3
Number of electrons                        I                8
Number of alpha electrons                  I                5
Number of beta electrons                   I                3
Number of basis functions                  I               72
Number of independent functions            I               59
Number of contracted shells                I               17
Highest angular momentum                   I                4
Largest degree of contraction              I                8
Number of primitive shells                 I               29
Virial Ratio                               R      0.000000000000000E+00
Atomic numbers                             I   N=           1
           8
Nuclear charges                            R   N=           1
  8.00000000E+00
Current cartesian coordinates              R   N=           3
  0.00000000E+00  0.00000000E+00  0.00000000E+00
Total Energy                               R     -7.496307274575945E+01
Shell types                                I   N=          17
           0           0           0           0           0           0
           0           1           1           1           1           2
           2           2           3           3           4
Number of primitives per shell             I   N=          17
           8           2           1           1           1           1
           1           5           1           1           1           1
           1           1           1           1           1
Shell to atom map                          I   N=          17
           1           1           1           1           1           1
           1           1           1           1           1           1
           1           1           1           1           1
Coordinates of each shell                  R   N=          51
  0.00000000E+00  0.00000000E+00  0.00000000E+00  0.00000000E+00  0.00000000E+00
  0.00000000E+00  0.00000000E+00  0.00000000E+00  0.00000000E+00  0.00000000E+00
  0.00000000E+00  0.00000000E+00  0.00000000E+00  0.00000000E+00  0.00000000E+00
  0.00000000E+00  0.00000000E+00  0.00000000E+00  0.00000000E+00  0.00000000E+00
  0.00000000E+00  0.00000000E+00  0.00000000E+00  0.00000000E+00  0.00000000E+00
  0.00000000E+00  0.00000000E+00  0.00000000E+00  0.00000000E+00  0.00000000E+00
  0.00000000E+00  0.00000000E+00  0.00000000E+00  0.00000000E+00  0.00000000E+00
  0.00000000E+00  0.00000000E+00  0.00000000E+00  0.00000000E+00  0.00000000E+00
  0.00000000E+00  0.00000000E+00  0.00000000E+00  0.00000000E+00  0.00000000E+00
  0.00000000E+00  0.00000000E+00  0.00000000E+00  0.00000000E+00  0.00000000E+00
  0.00000000E+00
Primitive exponents                        R   N=          29
  1.16506469E+05  1.75043497E+04  3.99345132E+03  1.13300632E+03  3.69995696E+02
  1.33620743E+02  5.20356436E+01  2.14619393E+01  8.98350513E+01  2.64280108E+01
  9.28228246E+00  4.09477285E+00  1.32553491E+00  5.18772308E-01  1.97726765E-01
  1.91152558E+02  4.52333567E+01  1.43534659E+01  5.24223718E+00  2.07924186E+00
  8.42823714E-01  3.36176949E-01  1.28639980E-01  3.77500000E+00  1.30000000E+00
  4.44000000E-01  2.66600000E+00  8.59000000E-01  1.84600000E+00
Contraction coefficients                   R   N=          29
  7.19875758E-05  5.57148772E-04  2.91300317E-03  1.21720511E-02  4.30037618E-02
  1.29647624E-01  3.19696086E-01  5.89314588E-01  9.48480528E-02  9.25363788E-01
  1.00000000E+00  1.00000000E+00  1.00000000E+00  1.00000000E+00  1.00000000E+00
  2.53595741E-03  2.02338243E-02  9.45180200E-02  3.09154328E-01  6.84689495E-01
  1.00000000E+00  1.00000000E+00  1.00000000E+00  1.00000000E+00  1.00000000E+00
  1.00000000E+00  1.00000000E+00  1.00000000E+00  1.00000000E+00
Alpha Orbital Energies                     R   N=          59
 -2.06744588E+01 -9.97115759E-01 -9.02801298E-01 -3.85674421E-01 -3.85674429E-01
 -5.33904887E-03 -5.01887456E-03 -4.89715058E-04 -4.83750355E-04 -4.25521819E-03
 -1.74885526E-03 -5.33911100E-03 -1.45890801E-02 -7.94431879E-03 -1.54762214E-02
 -1.56376017E-03 -1.42903975E-05 -1.10273088E-04 -1.54311340E-04 -8.17604704E-05
 -7.45839957E-04 -5.01895330E-03 -3.07685643E-05 -5.61506954E-04 -3.74931747E-04
 -9.12750988E-06 -1.22123532E-04 -4.18753743E-04 -4.23216343E-05 -1.22065735E-04
 -1.81764037E-04 -4.26537026E-05 -4.66479705E-03 -4.25545762E-03 -5.84880282E-05
 -7.45887910E-04 -1.54323859E-04 -3.09268687E-05 -9.20995138E-05 -1.27873242E-04
 -5.84896082E-05 -1.28103778E-04 -1.34565437E-04 -8.17587206E-05 -3.27687584E-04
 -1.34583168E-04 -7.53098748E-05 -3.28018097E-04 -5.00012190E-04 -1.74883745E-03
 -4.90673925E-04 -4.18421014E-04 -8.15485175E-05 -4.83750548E-04 -3.75167588E-04
 -4.26550344E-05 -5.61373876E-04 -1.27873267E-04 -8.98047883E-04
Alpha MO coefficients                      R   N=        4248
  5.64120786E-01  3.03401941E-04  3.69906794E-01  1.62603557E-01  5.90199672E-03
 -9.32453180E-03 -6.20187700E-03 -3.37531403E-04 -3.84621792E-06 -1.74460897E-05
 -3.38976086E-04 -3.86829908E-06 -1.75227535E-05 -3.22655411E-04 -3.64507782E-06
 -1.66674745E-05 -1.42468639E-04 -1.68172199E-06 -7.39989636E-06 -1.48751076E-03
 -2.10054063E-04 -2.13298449E-04 -1.67725549E-05 -7.62320334E-05 -8.67376554E-07
 -1.70015047E-03 -7.26572977E-03 -7.25161574E-03  7.31165803E-05  3.32162001E-04
  3.78722980E-06 -8.18406225E-04 -4.92486413E-04 -4.93297964E-04 -4.34352684E-06
 -1.95175599E-05 -2.28116938E-07 -3.99791827E-06  7.04527286E-08  3.48789992E-07
  3.15156556E-06 -1.18690282E-07 -5.78209340E-07  3.11600047E-06  3.18299292E-08
  1.59281810E-07 -8.37629319E-09 -3.13949340E-05  4.14774669E-07  1.74461157E-06
  1.48530634E-05 -7.74967788E-07 -3.61895848E-06  1.46399205E-05  1.81617627E-07
  7.77677214E-07 -5.60275664E-08  2.53689914E-03 -1.40007483E-06  1.48779078E-03
 -1.40101440E-06  2.54488619E-03 -1.22940194E-04 -1.20974590E-05 -5.49761043E-05
 -2.70481437E-05  5.66399332E-04 -6.61181660E-07  5.68865640E-04 -1.25225352E-04
 -2.75503146E-05 -6.31393282E-04 -8.58260210E-02 -1.52350036E-02 -1.12205969E-01
 -4.51805311E-02  2.36315482E-01  3.93727969E-01  1.93290694E-01 -2.43111843E-01
 -2.76815490E-03 -1.25683893E-02 -2.35478337E-01 -2.67949632E-03 -1.21755144E-02
 -2.20397272E-01 -2.50646492E-03 -1.14079803E-02 -1.07215683E-01 -1.22368478E-03
 -5.53787021E-03  4.38646583E-03  2.11526409E-03  2.12108411E-03  3.01444466E-05
  1.35979390E-04  1.27186537E-06  1.45391798E-02  2.16492330E-02  2.16309275E-02
 -9.52467346E-05 -4.26911098E-04 -3.43342183E-06  5.55324594E-03  1.66729668E-03
  1.67679797E-03  5.06242239E-05  2.30807372E-04  2.81470179E-06  9.13499596E-04
 -2.33938176E-05 -1.02571288E-04 -8.95926714E-04  3.40258138E-05  1.56114749E-04
 -8.85988419E-04 -1.03375943E-05 -4.59959707E-05  2.63555144E-06  2.87510032E-03
 -6.78694829E-05 -2.93738767E-04 -2.58591327E-03  1.01560212E-04  4.68244665E-04
 -2.55634280E-03 -2.99906117E-05 -1.31800224E-04  7.88762401E-06 -6.07560958E-03
  1.00142159E-06 -3.56043968E-03  1.02849862E-06 -6.08528585E-03  1.47410765E-04
  1.47344822E-05  6.59366624E-05  3.30172826E-05 -2.46559788E-03 -1.46774551E-08
 -2.46656762E-03  1.15402500E-04  2.60358759E-05 -2.75394555E-03 -7.40456329E-02
 -1.32739222E-02 -9.72860101E-02 -3.92268982E-02  2.06107218E-01  3.42803533E-01
  1.68729770E-01  2.78963828E-01  3.17544952E-03  1.44197715E-02  2.70321691E-01
  3.07453609E-03  1.39742044E-02  2.53881086E-01  2.88563867E-03  1.31388185E-02
  1.23854547E-01  1.41333752E-03  6.39586843E-03  3.78540440E-03  1.86870275E-03
  1.87352165E-03  2.49173935E-05  1.14037773E-04  1.61285798E-06  1.28332943E-02
  1.81078730E-02  1.80948798E-02 -6.74681545E-05 -3.11898902E-04 -5.21882836E-06
  4.83972625E-03  8.32870422E-04  8.43376466E-04  5.32788285E-05  2.40592556E-04
  2.55039078E-06 -9.73802342E-04  2.40076678E-05  1.04486563E-04  9.11962728E-04
 -3.53423276E-05 -1.62144331E-04  9.01695163E-04  1.06128234E-05  4.68711682E-05
 -2.73860936E-06 -2.33406514E-03  6.51872946E-05  2.77870323E-04  2.44612781E-03
 -9.04694466E-05 -4.17783020E-04  2.41945061E-03  2.88414388E-05  1.24719157E-04
 -7.22045158E-06 -5.07857662E-03  1.83887203E-06 -2.97559419E-03  1.83889448E-06
 -5.08454573E-03  9.42153197E-05  9.05981369E-06  4.21379178E-05  2.01935217E-05
 -2.25839150E-03  1.22142836E-06 -2.26170892E-03  1.21639608E-04  2.61505169E-05
 -2.28422471E-03  4.48644057E-07 -1.93767009E-07  7.46225272E-07 -1.33463039E-05
  1.72431746E-07  3.90017443E-05  4.12095844E-05  1.04464634E-02  2.78613244E-01
 -2.63408634E-01  1.04886987E-02  2.79750079E-01 -2.64483365E-01  9.16560147E-03
  2.44376530E-01 -2.31036908E-01  2.91237691E-03  7.77436142E-02 -7.35033439E-02
 -8.90583137E-08  5.22545018E-07 -4.76721578E-06  5.00416349E-05 -4.75301641E-05
  2.08056886E-06 -3.01851868E-05 -3.34418312E-05 -1.67106323E-05 -1.76935991E-04
  1.68682765E-04 -7.20292304E-06 -4.41087526E-05 -2.52547113E-05  1.09201429E-05
 -3.50256566E-04  3.30592553E-04 -1.43080942E-05 -9.75269675E-05  1.95049750E-03
 -1.83326328E-03 -1.37161663E-05 -1.16466297E-03  1.09153244E-03  2.31351797E-04
  8.69233841E-04 -8.27006640E-04 -9.62566925E-05 -4.50472548E-04  1.98994224E-03
 -1.84879390E-03 -1.09313810E-04 -5.36698239E-03  5.04423614E-03  6.43908700E-04
  8.80024144E-04 -8.48188342E-04 -2.95680281E-04  8.41732424E-06  6.46689080E-07
  5.51171498E-06  6.34022837E-07  1.03765667E-05 -1.48714191E-05  6.63623152E-06
 -6.45152418E-06  1.45690408E-05 -1.56307173E-06  2.94692662E-06  5.63815726E-06
 -6.00309576E-05  6.29821358E-05  8.98677009E-06 -1.16382436E-06  4.14051813E-07
 -1.78717080E-06  2.65197967E-05  4.53977953E-06 -8.08511247E-05 -9.19876958E-05
 -1.73798033E-02  2.63579338E-01  2.78105165E-01 -1.74495422E-02  2.64656841E-01
  2.79239492E-01 -1.52485582E-02  2.31192208E-01  2.43922254E-01 -4.84451122E-03
  7.35476062E-02  7.76071372E-02  1.78254472E-06  1.45047067E-06  5.05724124E-06
  4.77624086E-05  5.07048828E-05  2.84418897E-06  5.56624616E-05  6.13774079E-05
  4.92919096E-05 -1.69508546E-04 -1.80621604E-04 -8.93043522E-06  8.58781044E-05
  3.45493476E-05  9.72637547E-06 -3.30872115E-04 -3.48453891E-04 -2.07282735E-05
  1.62281931E-04  1.84476639E-03  1.93580744E-03 -9.80495411E-05 -1.09753679E-03
 -1.14756977E-03 -2.63948584E-04  8.17572092E-04  8.68485734E-04 -1.41567462E-04
  7.49434392E-04  1.88107910E-03  1.95351034E-03 -1.90006450E-04 -5.06411160E-03
 -5.31007106E-03 -6.99737555E-04  8.17810799E-04  8.81599899E-04 -4.34868697E-04
 -1.99067705E-05  3.17940005E-07 -1.21355880E-05  3.00019217E-07 -2.15253925E-05
  1.69232213E-05  6.87980063E-06  7.49286265E-06  1.48065474E-05 -2.49893418E-06
  4.01585171E-06 -7.49283943E-06  6.44197855E-05  6.04347085E-05 -1.50292053E-05
  8.96381335E-06 -7.28348070E-07  1.33017468E-05 -8.42569253E-05 -4.48051815E-05
  2.32981558E-04  3.83870479E-04 -1.67833996E-02  1.51161802E-01  2.89112941E-01
 -1.78446525E-02  1.63695555E-01  3.13108070E-01  2.36857960E-02 -2.15596113E-01
 -4.12327880E-01  1.57583711E-02 -1.43530313E-01 -2.74630947E-01 -7.42386610E-03
  7.29733127E-04  6.66289639E-03  3.91975297E-02  7.48577697E-02  2.87771068E-03
 -4.01953494E-02  3.64830092E-03  3.59572301E-02  2.12186098E-01  4.05203344E-01
  1.56783736E-02 -2.24581025E-02  2.12580689E-03  1.99312178E-02  1.19482984E-01
  2.28284620E-01  8.60503703E-03 -6.92833613E-03  1.19830790E-02  2.31704533E-02
 -9.36935693E-05  2.83574017E-02  5.40931039E-02  3.93245941E-03  5.46705067E-03
  1.02728399E-02  1.95338447E-03 -8.90029437E-03 -5.81957058E-02 -1.10640358E-01
  4.18702288E-03  3.67898940E-02  7.00064214E-02  1.51199131E-02 -2.57208387E-02
 -4.96960652E-02  5.30058906E-03 -2.89961542E-03 -8.49419327E-04 -9.17715656E-04
 -8.50526918E-04 -2.31638555E-04 -2.13441663E-02 -4.98968416E-03 -9.56921340E-03
 -1.12131870E-02  1.08508654E-03  3.48254907E-05  1.00841486E-03 -1.33522765E-02
 -6.98165553E-03  2.08710512E-03 -8.41857420E-06 -2.19864033E-06 -1.36425982E-05
  5.43151038E-05  2.94260829E-05 -9.69849711E-05 -2.39582007E-04 -7.41953903E-03
  2.34572658E-01  8.94978592E-02 -8.93589713E-03  2.91803454E-01  1.11343125E-01
  1.12705116E-02 -3.62721972E-01 -1.38384659E-01  8.64432837E-03 -2.83342805E-01
 -1.08119872E-01  4.19604075E-03 -1.51991070E-03 -2.66713501E-03 -7.90375356E-02
 -3.00433086E-02 -4.40631119E-03  2.58622652E-02 -9.25985431E-03 -1.62631170E-02
 -4.84260891E-01 -1.84073127E-01 -2.71551297E-02  1.52814403E-02 -5.41322476E-03
 -9.68422106E-03 -2.90999987E-01 -1.10615108E-01 -1.59655311E-02 -4.64829064E-03
  1.64139868E-02  6.39108462E-03  1.12124748E-03  6.76195990E-02  2.56264221E-02
  2.12503879E-03  7.51377962E-03  2.86776808E-03  3.89477712E-03 -9.67806581E-03
 -1.27469995E-01 -4.82161379E-02  6.20482432E-03  1.42339555E-01  5.37331370E-02
  9.53109412E-03 -5.64145179E-02 -2.15227476E-02  1.28364712E-02  1.61688166E-03
  1.79922296E-03  7.45362787E-04  1.80038309E-03  9.31453824E-04  1.19442498E-02
  1.40516438E-02  5.34004492E-03  3.15396877E-02 -9.59194440E-04 -2.82382955E-04
 -8.79089201E-04  6.49214980E-03  1.69731356E-02 -1.46200256E-03  4.00885430E+00
 -3.39400400E+00 -3.99529374E+00  5.67546323E+00 -5.75488226E-01 -1.70640225E+00
 -4.35011297E-01 -2.92769836E-02 -1.77550337E-04 -1.33811202E-03  9.16188039E-02
  4.24907504E-04  4.01351154E-03 -6.35109451E-02 -6.22353944E-04 -3.17476429E-03
  3.89293200E-02  1.37317809E-04  1.69826948E-03 -1.72194680E+00 -9.69589039E-01
 -9.71240948E-01 -1.06901532E-02 -4.59023383E-02 -5.76483629E-04  4.39741038E+00
  2.10778621E+00  2.11284197E+00  3.23677600E-02  1.39633207E-01  1.73187164E-03
  1.56928174E-01  4.18893911E-01  4.18367366E-01 -3.97363471E-03 -1.62532228E-02
 -2.28244753E-04  4.66950349E-02 -1.21148226E-03 -4.79710254E-03 -4.02449983E-02
  2.07159425E-03  7.82189304E-03 -3.97558228E-02 -5.20013859E-04 -2.10210318E-03
  1.67821640E-04 -8.89578644E-02  1.61242088E-03  5.16088815E-03  3.93966170E-02
 -2.46760941E-03 -1.03605883E-02  3.87848046E-02  6.95725616E-04  2.25714386E-03
 -2.00752278E-04 -1.06407620E+00 -4.21308640E-04 -6.22818490E-01 -4.52072999E-04
 -1.06218112E+00 -3.55913713E-02 -3.69578937E-03 -1.57857440E-02 -8.26757411E-03
 -8.83621587E-01 -6.57068000E-04 -8.81422442E-01 -6.48587340E-02 -1.47818171E-02
 -2.32181598E+00  1.94537183E-06  6.99054878E-06  1.78231503E-06 -1.33489378E-04
  2.45221002E-04 -9.54291384E-05  1.59478290E-04  4.40974591E-05  1.28738937E-05
  2.48667487E-05 -1.07954287E-04 -4.53183378E-05 -8.24249263E-05  8.73538128E-05
  4.83123216E-05  8.39713990E-05  3.48566376E-05  5.19755580E-05  8.53502810E-05
  2.76396411E-05  1.28002049E-05 -4.03068127E-05  1.98688431E-05  3.48661107E-05
  5.29589108E-05 -1.21554195E-04  2.40516192E-05 -1.67198353E-04  1.57436118E-04
  2.60513461E-04  2.25133763E-04  2.58372851E-06 -1.34105372E-04  4.85562539E-05
 -6.28582853E-05 -1.05695613E-04 -1.83181131E-04  7.35844804E-05 -1.49793594E-01
 -2.65210054E-01 -1.61509892E-02  9.79825498E-04 -5.83118324E-04  1.61303822E-02
  2.00043140E-01  3.56481579E-01 -1.66316420E-02  3.30598060E-05 -2.77632978E-01
 -4.91533405E-01 -3.00278290E-02  1.74998366E-03 -1.18157358E-03  2.98574444E-02
  3.70615553E-01  6.60457215E-01 -3.08911130E-02 -2.30341237E-02  1.27153017E-02
  2.28654486E-02  7.87871769E-04 -2.89071569E-03 -1.67716553E-01  1.26423273E-01
  2.26025345E-01 -9.56604733E-02  1.77214117E-02 -1.83101901E-02 -1.78118350E-02
 -9.80254340E-04  1.29473908E-03  7.09298216E-05  4.68425509E-07  1.79330909E-07
  5.74139293E-07  6.19651933E-06 -9.11337027E-06 -2.47322395E-06 -2.35364470E-05
  4.39530966E-06 -1.09132305E-05 -2.15952085E-05  7.34212450E-06 -3.80590381E-05
 -1.57712434E-04 -7.60330222E-06  3.88509373E-05  1.58072793E-04 -4.10997943E-07
  7.41485796E-06  5.74458208E-05  1.89534658E-04 -4.44238257E-02  4.42348418E-02
 -3.40145897E-03 -3.47777969E-03  7.72429422E-02  1.19854303E-03 -2.82469932E-01
  2.81300303E-01 -2.16361675E-02 -2.20795765E-02  4.91487121E-01  9.59012765E-04
 -2.24823948E-01  2.23892516E-01 -1.71987885E-02 -1.75626982E-02  3.90820884E-01
 -2.24844066E-04  6.07133415E-04 -2.73661608E-03  2.39447501E-02  3.16727784E-03
  3.21943610E-03 -2.36431492E-02 -3.98813446E-03  4.22566794E-04 -4.14707329E-02
 -9.55254643E-04  2.57413208E-03 -1.14687284E-02  1.00587349E-01  1.33304264E-02
  1.36276113E-02 -9.93122552E-02 -1.67648662E-02  1.78762343E-03 -1.74247847E-01
 -1.31783212E-02 -1.50549597E-02  1.49596129E-05 -1.50857518E-02  1.32429155E-02
  9.68523478E-04  7.50781452E-04  2.45522383E-04  5.89216710E-04 -1.55337053E-03
 -2.63915887E-03  1.49347088E-03  3.07951496E-04  2.70299730E-04 -2.86110502E-05
  2.30469981E-04 -4.23867171E-05 -3.90710870E-04 -1.30547646E-04  9.97253548E-04
 -5.50652900E-04  7.70134642E-04  5.54811333E-02 -1.50347558E+00 -7.56650687E-01
 -1.69815438E-02  4.59767959E-01  2.31365834E-01 -1.23558494E-02  3.36978666E-01
  1.69622862E-01  5.64582646E-03 -1.56259258E-01 -7.86230670E-02 -1.46134410E-03
  2.38870718E-04  7.89552451E-04  2.14631079E-02  1.07607867E-02  1.27927061E-03
  1.77119577E-03 -6.14550889E-04 -1.41076277E-03 -3.19735744E-02 -1.60021108E-02
 -1.73389316E-03 -9.99444925E-04  5.35467973E-05  4.31502379E-04  1.57433414E-02
  7.87266245E-03  7.90094142E-04 -3.54419294E-02  8.58287923E-01  4.32095014E-01
 -1.31667019E-02  4.29879431E-01  2.16194850E-01 -1.18178555E-02  3.83977057E-01
  1.93231710E-01  3.07198135E-03  2.12871759E-02 -4.41642584E-01 -2.22474387E-01
  5.95818309E-03 -2.57734302E-01 -1.29496533E-01  4.19721116E-03 -1.97648608E-01
 -9.94673901E-02 -3.98729363E-03  1.11453519E-03  1.00037763E-03  4.58329701E-04
  1.00318997E-03  4.46985396E-04  8.58968456E-03  7.64834641E-03  3.84503877E-03
  1.72837866E-02 -1.37661586E-03 -1.13550048E-03 -8.91907186E-04 -1.30781475E-03
 -2.72038259E-03  2.49370463E-04 -5.13900525E-07  4.58834479E-07 -8.96174833E-07
  3.16042334E-05 -4.73192660E-06 -8.48666667E-05 -1.02385864E-04  4.52263696E-03
  2.89608102E-01 -1.51104671E-01  4.88138269E-03  3.13614902E-01 -1.63637684E-01
 -6.45219713E-03 -4.13042878E-01  2.15501748E-01 -4.26953657E-03 -2.75027265E-01
  1.43550108E-01  2.03656978E-03  1.47436290E-03 -3.49968559E-03  7.52061849E-02
 -3.91789269E-02  3.43879743E-03  1.10185111E-02  8.16637794E-03 -1.90100074E-02
  4.07073899E-01 -2.12055793E-01  1.86815822E-02  6.22097010E-03  4.34731082E-03
 -1.04235657E-02  2.29269320E-01 -1.19497842E-01  1.03811689E-02  1.89706339E-03
  2.29594956E-02 -1.21124364E-02  1.16340577E-03  5.44507616E-02 -2.83334963E-02
 -2.21892041E-03  1.03490873E-02 -5.30393919E-03  2.33513843E-03  2.47190544E-03
 -1.11482284E-01  5.78132623E-02  1.91983910E-03  7.08323727E-02 -3.67678557E-02
 -7.23164586E-03 -4.96121580E-02  2.61433195E-02  6.35565299E-03  1.55929365E-03
 -1.00103817E-03  2.47668219E-04 -1.00147143E-03 -7.17060316E-04  1.11661545E-02
 -9.60036316E-03  5.02262347E-03 -2.15050297E-02 -3.14359928E-04  5.00861664E-05
 -2.60511560E-04  6.97314405E-03 -1.33642615E-02 -5.54722573E-04 -9.82527528E-02
 -1.49473290E-02 -1.41595704E-01  1.18907483E-01  6.36636154E-01 -4.36158595E-01
 -9.41876284E-01 -3.78823077E-01 -4.30346677E-03 -1.95720625E-02 -2.56842641E-01
 -2.91982014E-03 -1.32589242E-02  3.67613278E-01  4.16276077E-03  1.89970254E-02
  2.83407263E-01  3.21110050E-03  1.46155169E-02  4.80841941E-02  1.16251351E-02
  1.17167776E-02  4.77588400E-04  2.17291683E-03  2.55758594E-05  4.84356099E-01
  3.19207934E-01  3.19624509E-01  2.16563712E-03  9.84821358E-03  1.08378404E-04
  9.09393923E-02  8.19895390E-02  8.20149099E-02  9.69193343E-05  5.08885214E-04
  3.84862219E-06 -3.80638115E-02 -2.67261072E-04 -1.22448821E-03 -1.05709214E-02
 -3.36537359E-04 -1.54179319E-03 -1.06203713E-02 -1.20440773E-04 -5.47995427E-04
 -1.25924131E-05  4.17148792E-02  9.44345072E-04  4.25398036E-03  3.70034307E-02
 -1.91036699E-04 -9.15018718E-04  3.68670355E-02  4.21370750E-04  1.90657013E-03
 -3.69483673E-05 -9.41605719E-02 -1.12604104E-05 -5.51128420E-02 -1.12518912E-05
 -9.40867052E-02 -1.13864415E-03 -1.12170991E-04 -5.09304948E-04 -2.51478408E-04
 -6.36184637E-02 -2.34732585E-07 -6.36152557E-02 -8.14075109E-04 -1.81097236E-04
 -1.18982843E-01 -1.42888260E+00 -6.42055120E-02  2.12049187E+00 -7.30422239E-01
 -1.40453185E+00  1.49119362E+00  3.84726877E-01  3.71071057E-02  3.44086039E-04
  1.80631986E-03 -9.54286804E-03 -1.26861340E-04 -4.95693952E-04 -1.61070942E-02
 -1.71044191E-04 -8.10105961E-04  2.26696714E-02  1.65442617E-04  1.06885347E-03
  5.50223011E-01  6.56195065E-01  6.55926920E-01 -1.41999284E-03 -6.36743855E-03
 -7.43670539E-05 -1.53941927E+00 -1.76145118E+00 -1.76091496E+00  3.05484807E-03
  1.34206436E-02  1.66423306E-04 -1.40149914E-01 -1.78194311E-01 -1.78075054E-01
  3.91368063E-04  2.15070070E-03  1.44756898E-05 -2.37075866E-02 -2.50264608E-05
 -1.54335215E-04 -1.36874085E-03 -2.81359795E-04 -1.43348378E-03 -1.43323223E-03
 -1.03792105E-05 -6.32671850E-05 -1.51566344E-05 -2.80426056E-02  5.47524451E-04
  2.23829648E-03  1.91378104E-02 -8.26268938E-04 -3.83506423E-03  1.89069935E-02
  2.39961071E-04  9.95981273E-04 -6.36669773E-05  8.33166475E-01 -3.20244717E-05
  4.87879092E-01 -3.42817003E-05  8.33337331E-01 -2.69753479E-03 -2.73970935E-04
 -1.19462578E-03 -6.08856630E-04  4.67925042E-01 -8.49085971E-05  4.68229617E-01
 -7.25670411E-03 -1.61283610E-03  7.07092001E-01  9.02877387E-02  1.37728024E-02
  1.30780894E-01 -1.19153923E-01 -5.72394407E-01  4.00010155E-01  9.00388853E-01
 -4.13252717E-01 -4.68237120E-03 -2.13223259E-02 -2.71062340E-01 -3.07110947E-03
 -1.39731992E-02  3.91188520E-01  4.41182408E-03  2.02012755E-02  3.17077481E-01
  3.61062765E-03  1.63447092E-02 -4.87542070E-02 -8.62504960E-03 -8.72684920E-03
 -5.26692127E-04 -2.39329230E-03 -2.65255948E-05 -4.71830056E-01 -3.05377625E-01
 -3.05798356E-01 -2.18766131E-03 -9.93290745E-03 -1.17238308E-04 -7.90295315E-02
 -9.09367555E-02 -9.09066768E-02  1.71714700E-04  7.36300329E-04  9.03340430E-06
 -3.64318840E-02 -2.39479152E-04 -1.10687908E-03 -9.59505489E-03 -3.38848630E-04
 -1.53769653E-03 -9.64550345E-03 -1.08011211E-04 -4.95454866E-04 -1.41410440E-05
  4.44941473E-02  8.11334146E-04  3.67625567E-03  3.20828628E-02 -4.20383244E-05
 -2.26798751E-04  3.19900739E-02  3.62473936E-04  1.64823151E-03 -2.38107304E-05
  9.01954445E-02  1.57207397E-05  5.27900293E-02  1.56615530E-05  9.01164602E-02
  1.22643803E-03  1.20016511E-04  5.49118990E-04  2.68706338E-04  6.19992374E-02
  2.07015122E-06  6.19945656E-02  9.00060240E-04  1.97369612E-04  1.17402458E-01
  1.79443086E-02 -9.14854781E-03  5.44706137E-02  1.93963265E-01 -5.44925380E-01
  2.40132060E-01 -4.13648044E-01  5.21722447E-01  5.74873175E-03  2.66006107E-02
 -4.41532097E-01 -4.91937518E-03 -2.25292799E-02  1.49645632E-03  6.78399186E-05
  2.00712798E-04  5.62697800E-01  6.01351042E-03  2.83489825E-02 -1.50854444E-02
  1.16205862E-03  1.11112026E-03 -2.29595145E-04 -1.01390652E-03 -9.41376869E-06
  8.42392953E-01 -1.20551007E-01 -1.18287250E-01  1.23630812E-02  5.66754334E-02
  6.47666292E-04  4.74013105E-02  1.30129648E-01  1.29968135E-01 -1.12683536E-03
 -4.89047793E-03 -6.83964379E-05 -1.40861045E-01  2.51348366E-03  1.15130622E-02
  1.01193706E-01 -4.34466712E-03 -1.99948342E-02  9.99862111E-02  1.11425196E-03
  5.18187666E-03 -3.26251357E-04 -7.25479730E-01  5.09767129E-03  2.28134162E-02
  1.99523901E-01 -1.52591530E-02 -7.01870087E-02  1.95649215E-01  2.23194130E-03
  1.02502926E-02 -1.04593858E-03  3.45354793E-02 -1.47421179E-04  2.04740735E-02
 -1.46657948E-04  3.53593307E-02 -1.31768654E-02 -1.28143082E-03 -5.91199009E-03
 -2.88910095E-03 -7.88895349E-02  1.63775739E-04 -7.95066180E-02  2.02912497E-03
  4.38452965E-04 -1.10059049E-01  3.34036710E+00 -5.54527068E+00  1.29903534E+01
 -1.35176327E+01 -1.29255810E+01  1.00717716E+01 -6.18653227E-02 -1.45347124E-01
  1.29143451E-04 -5.30317017E-03  1.23645094E+00 -8.99270398E-04  4.53505125E-02
 -2.30881028E-02 -1.44202994E-03 -2.78560722E-03  8.55962683E-02  4.76901983E-04
  3.89826434E-03  1.03456509E+01  6.03274372E+00  6.05191009E+00  6.04873160E-02
  2.60330625E-01  3.76495678E-03 -2.34864631E+01 -2.58240844E+00 -2.67605346E+00
 -2.93334915E-01 -1.26184768E+00 -1.82973362E-02 -3.62255780E-01 -1.02640453E+00
 -1.02360765E+00  9.24107690E-03  4.00101892E-02  5.65638310E-04 -3.01496852E-01
 -1.15496981E-03 -2.10644287E-02 -2.36340395E-01  2.79527206E-03  5.81011696E-03
 -2.35385498E-01 -5.30394621E-04 -9.53766968E-03  2.14458940E-04 -5.34344937E-01
  1.95191313E-03 -1.23472011E-02 -1.73946955E-01 -1.18022024E-03 -1.51117537E-02
 -1.74623619E-01  8.84536954E-04 -5.42986266E-03 -1.37556835E-04  6.44255858E-01
  8.03544058E-03  3.58679363E-01  7.87058966E-03  5.82375434E-01  5.49756128E-01
  5.71572000E-02  2.45969998E-01  1.27837325E-01  4.42943174E+00  3.06957340E-03
  4.41299580E+00  5.20258395E-01  1.21002716E-01  1.41219494E+01 -2.18642373E-03
 -1.99167824E-02 -4.71692280E-02  3.25878879E-01 -4.32007219E-01  8.07172732E-02
 -1.69097849E-01 -6.68317190E-02 -6.70503214E-04 -3.33762154E-03  5.47928387E-01
  6.09824272E-03  2.89570330E-02  3.52103975E-02  2.12058602E-04  1.22261050E-03
  1.15419387E-01  9.47916748E-04  5.27935959E-03 -6.26582659E-01  2.71120419E-01
  2.68907221E-01 -1.18971298E-02 -5.35324037E-02 -6.20415943E-04  4.10087588E-01
  6.90895955E-02  6.97955579E-02  5.79333441E-03  2.26547594E-02  3.61746729E-04
 -3.36862601E-01  1.72522929E-01  1.71305999E-01 -6.71155133E-03 -3.03761823E-02
 -3.58777103E-04 -9.44577552E-01  1.04000914E-02  5.14838690E-02  4.79678248E-01
 -2.25922738E-02 -1.10463840E-01  4.72702428E-01  4.73039944E-03  2.36680751E-02
 -1.46035948E-03  4.37835040E-01 -1.44659922E-02 -7.06597951E-02 -6.42664532E-01
  1.91389002E-02  9.29664847E-02 -6.36236555E-01 -6.51933312E-03 -3.21127162E-02
  1.39442024E-03 -6.58170418E-02 -4.04736312E-04 -3.72500204E-02 -4.27662710E-04
 -6.43758259E-02 -2.62865743E-02 -3.00261284E-03 -1.20201507E-02 -6.82566518E-03
 -2.11224419E-01  1.56972045E-03 -2.16247639E-01  7.40990028E-02  1.67687286E-02
  5.67380813E-01  1.33271139E-06 -1.90235410E-05  1.72816748E-04 -7.97340909E-04
  1.63194186E-03 -9.94241356E-04  8.06987481E-04 -2.54282068E-04  6.93092871E-03
  6.02603609E-03  7.15296021E-03 -1.57766788E-01 -1.37394509E-01 -2.48376799E-03
  4.87714942E-02  4.24724644E-02  3.03572033E-04 -8.21658641E-03 -7.01113817E-03
  1.77869251E-02 -3.56662588E-03 -1.45793939E-02 -1.93856184E-01 -1.68061175E-01
 -1.16239351E-02 -2.69600117E-02  4.02828753E-03  2.20429333E-02  2.57445355E-01
  2.23057534E-01  2.04121027E-02  6.02889657E-03 -1.09333531E-03 -5.39081269E-03
 -6.20776917E-02 -5.38999049E-02 -4.82125052E-03  3.64372374E-02  2.76683801E-01
  2.38354804E-01 -1.54798417E-02 -2.71896442E-01 -2.34172711E-01 -4.44597109E-02
  1.21731448E-01  1.06837349E-01 -3.17724888E-02 -3.85070275E-03 -3.07979912E-02
 -2.65146508E-02  2.16640157E-03  2.18817170E-02  1.87874994E-02  5.94836538E-03
 -1.33386983E-02 -1.18295087E-02  4.53884783E-03 -8.04757221E-02 -4.35930332E-02
 -2.91210075E-02 -4.39430740E-02 -1.89076538E-02 -5.65799103E-01 -2.89681668E-01
 -2.54764498E-01 -6.64431868E-01  1.54699164E-01  1.01369767E-01  6.00092688E-02
  6.52832829E-01  7.61403519E-01 -1.11337141E-01 -5.74825044E+00  7.93771584E+00
 -7.55441975E+00  9.37429438E+00 -1.48910865E+00 -4.26026863E+00 -1.16106050E+00
 -5.04230474E-02  5.20761641E-04 -1.33399037E-03  4.13776845E-01 -6.18222997E-03
  9.01334625E-03 -4.79249419E-02 -4.11968302E-04 -2.53849351E-03  7.60425066E-02
  6.96677819E-04  3.75935839E-03 -1.48730430E-01 -2.92775009E+00 -2.92183415E+00
  3.96111216E-02  1.68784505E-01  2.34960983E-03 -1.32479901E+00  1.09452363E+01
  1.09194026E+01 -1.75065703E-01 -7.45383948E-01 -1.04558341E-02  1.16992738E+00
  4.84220685E-01  4.85731708E-01  9.70953915E-03  4.15765338E-02  5.64056980E-04
 -1.67573312E-01  4.09748447E-03  3.21788591E-03 -1.72980167E-02 -1.81781711E-03
 -9.56587242E-03 -1.79585228E-02  1.78079431E-03  1.30086816E-03 -2.37448313E-04
 -1.24818146E-01  3.34183929E-04 -8.60839862E-03 -1.04293743E-01  3.53423396E-03
  5.79799902E-03 -1.03702139E-01  1.97560871E-04 -3.72094197E-03  2.23802894E-04
 -5.77808501E+00  4.22313898E-03 -3.38780663E+00  4.16901300E-03 -5.79359178E+00
  2.95985545E-01  3.12159391E-02  1.32242767E-01  6.98366293E-02 -1.21158803E+00
  2.17939822E-03 -1.21729661E+00  3.17300484E-01  7.41652980E-02  1.91616499E+00
  3.58997726E-07  3.26909135E-07  1.20314142E-06 -3.22702655E-05  5.26160052E-05
 -7.74937817E-06  5.91418759E-05 -1.20059620E-06  6.16599660E-05  1.25652209E-04
 -1.85182129E-05  3.89915150E-05  1.34285542E-04  1.11989078E-06  4.27631497E-05
  8.12876695E-05 -7.97037206E-06  1.48250237E-04  3.78398699E-04 -2.44267214E-05
  6.96216422E-04 -6.75590219E-04  1.11726183E-04  2.25436052E-04 -1.34931711E-03
  9.25992951E-04 -2.09713696E-01  2.08688744E-01 -1.90606225E-02 -1.68143937E-02
  4.22906213E-01 -2.03981569E-04  4.37640898E-02 -4.36108859E-02  3.91536663E-03
  3.28253182E-03 -8.77476286E-02  1.25174645E-03 -2.90081912E-03  1.40341225E-02
 -1.19332789E-01 -1.88431587E-02 -1.70947225E-02  1.17639209E-01  2.29001291E-02
 -1.28198909E-03  2.39216834E-01  3.52129991E-03 -8.56910161E-03  3.78469698E-02
 -3.31545585E-01 -5.25726966E-02 -4.80764167E-02  3.26874999E-01  6.35349922E-02
 -4.06778062E-03  6.65275545E-01 -9.46173880E-02 -1.25657787E-01  2.95621531E-04
 -1.27081308E-01  9.59474070E-02  1.81898848E-02  2.43065088E-02  9.52872823E-04
  2.88027246E-03  6.81843420E-02  1.40007034E-01 -7.06165943E-02 -1.32246924E-02
 -1.43569158E-02  1.15120510E-03 -1.16708675E-05 -3.51050384E-06 -1.78199348E-05
 -4.39530200E-05  1.16575088E-04  6.17583147E-05  7.16937383E-05 -1.12311974E-02
 -8.97600052E-02  2.34367566E-01 -1.36582657E-02 -1.11651789E-01  2.91536876E-01
  1.71562638E-02  1.38783685E-01 -3.62369821E-01  1.32093028E-02  1.08403053E-01
 -2.83062533E-01  6.39834673E-03  5.88471417E-04 -7.00106713E-03  3.02900107E-02
 -7.87956708E-02  6.72014357E-04  3.93127013E-02  3.72296741E-03 -4.32031974E-02
  1.85605449E-01 -4.82785211E-01  4.08714174E-03  2.33281256E-02  1.83577414E-03
 -2.53761844E-02  1.11498670E-01 -2.90058374E-01  2.52114442E-03 -7.09932778E-03
 -6.28017025E-03  1.67376425E-02 -8.82005957E-04 -2.59503090E-02  6.73036011E-02
  5.84202622E-03 -2.79415563E-03  7.29956236E-03 -5.90170671E-04 -1.48441176E-02
  4.87744363E-02 -1.26237296E-01  9.80932000E-04 -5.47049217E-02  1.41331736E-01
  2.30812723E-02  2.18482151E-02 -5.70401450E-02 -1.96069257E-03  4.40734489E-03
 -2.60229025E-04  1.17655115E-03 -2.58912651E-04 -3.93906228E-04  3.13288135E-02
 -5.41275008E-03  1.40732148E-02 -1.20914660E-02 -1.60243623E-03  5.07478562E-05
 -1.13172837E-03  1.69860670E-02 -6.49201111E-03 -2.15357256E-03  1.32560137E-02
 -1.70207056E-02  9.37092836E-03 -7.25687111E-03 -3.87643927E-03  7.58383051E-03
 -6.11859123E-04 -9.84119326E-03 -2.36798558E-02  2.05546897E-01  1.32541885E-01
  3.15129975E-01 -2.73537082E+00 -9.22558947E-03 -2.24273953E-02  1.94685896E-01
 -7.27985956E-03 -1.66895211E-02  1.44810443E-01 -6.39562828E-03  4.37240284E-03
  8.48932426E-03 -4.86203135E-03  4.01359325E-02  9.64489794E-05  2.54223058E-02
 -1.68504856E-02 -3.12761508E-02  1.64618394E-02 -1.34407721E-01 -2.48972951E-04
 -9.49337827E-04 -9.18745016E-05 -1.62564225E-03  2.12924813E-03 -1.90021207E-02
 -1.51631766E-04  4.67843034E-02 -1.82071803E-01  1.57386800E+00 -3.11873549E-02
  5.12321557E-02 -4.28358888E-01 -1.47657658E-01 -8.21828386E-02  7.05797703E-01
 -6.22006193E-03 -1.31372781E-01 -1.91502641E-02  1.72733129E-01 -6.95977974E-03
 -1.40992363E-01  1.20746746E+00  1.09921206E-01 -7.78465316E-03  7.52250099E-02
  6.32189521E-03  4.88023082E-02  1.10546641E-03  1.72987565E-02  1.07969866E-03
  1.06248555E-02  2.71484567E-01 -1.48726933E-02  1.22313840E-01 -3.23953523E-02
 -5.63730474E-02 -2.39665394E-03 -1.13909434E-02 -2.01946675E-01  2.40324151E-02
  2.00884575E-02  1.31172682E-05  6.85091369E-05 -5.92767377E-05 -1.16019127E-03
  2.18554667E-03 -7.75718228E-04  1.90152722E-03 -1.68471133E-03  8.30767360E-02
  2.50332027E-02 -1.69280905E-03  3.98607557E-02  1.19725232E-02 -6.89295497E-04
  5.08394404E-02  1.53572743E-02 -3.25625698E-03  1.51306280E-01  4.55981647E-02
 -6.32863812E-03  2.79037550E-03  3.50747265E-03  1.36314195E-01  4.08778070E-02
  8.19736998E-03 -1.79576838E-03  3.14979441E-04 -1.33036787E-03 -2.85825697E-03
 -8.31898155E-04  3.93880129E-03  2.72055063E-03 -2.40945671E-03 -1.68161708E-03
 -5.57276183E-02 -1.67276978E-02 -5.89249652E-03  1.32169008E-02  3.00333266E-01
  8.98283391E-02 -1.14045816E-02 -2.19470319E-01 -6.51621359E-02 -1.43836784E-02
  1.33298637E-01  4.00384386E-02 -2.24712162E-02  5.28066915E-02  8.40972634E-02
  2.36606270E-02 -2.28865803E-02 -8.88461801E-01 -2.65069894E-01 -3.00944600E-02
  3.49043313E-02  1.01854711E-02 -6.03090107E-02  7.15529212E-03  8.01189397E-03
  3.46291774E-03  8.09133840E-03  4.74199278E-03  4.84366352E-02  7.20302095E-02
  2.13761406E-02  1.65456448E-01 -1.90604646E-02 -3.33484326E-02 -1.51503444E-02
 -9.74092541E-02 -3.29312803E-01  2.41508858E-02  3.66305153E-05  9.44488689E-05
  1.03496065E-04 -2.07031892E-03  3.84023951E-03 -1.91578508E-03  2.73100908E-03
  1.04538236E-03  7.12582775E-03 -2.61433294E-02  9.51147947E-03  5.26084865E-02
 -1.92765397E-01 -1.63814835E-02 -9.27565836E-02  3.40030570E-01 -1.88658898E-02
 -1.06251551E-01  3.89505950E-01  1.99716431E-02 -1.84021744E-04 -1.99072696E-02
  6.63313776E-02 -2.42168224E-01  9.98379875E-04  1.07964803E-01 -2.33821018E-03
 -1.09412930E-01  3.63927705E-01 -1.32882419E+00  5.73308616E-03 -5.57512919E-02
  4.17962802E-04  5.36077135E-02 -1.84749129E-01  6.74593716E-01 -3.00150137E-03
 -5.51338779E-02 -2.23199489E-02  8.44510123E-02 -2.99580455E-03 -1.40535611E-01
  5.11064726E-01  4.52456060E-02 -9.80065342E-03  3.64723312E-02 -1.92915698E-03
  4.32955911E-02  1.20840079E-01 -4.44085502E-01  1.09401871E-02  1.12233563E-01
 -4.09769104E-01 -1.11586498E-02  5.39211016E-02 -1.97929941E-01  7.89371059E-04
  5.66596835E-02 -1.83390517E-03  1.67313518E-02 -1.83201218E-03  4.94071271E-04
  4.44894847E-01 -5.45099029E-02  1.98967149E-01 -1.21869843E-01  8.03931812E-04
 -9.46172931E-04 -1.64419738E-02  4.57707094E-01 -1.25321517E-01 -5.67529095E-02
 -3.78513864E-03  6.09091435E-03 -1.26506381E-02  1.37860296E-02  9.97738660E-03
 -9.30803364E-03 -2.32942022E-05  2.13573606E-04  1.56621261E-04 -3.71492826E-04
 -1.81604513E-03 -1.32101467E-03  3.14486848E-03 -9.59075939E-06 -1.47021818E-04
  3.38726929E-04 -1.00570556E-04 -2.47129404E-05  6.22895539E-05  1.45596465E-03
 -4.14064230E+00  4.11940702E+00  5.68498729E-02 -2.50431181E-01 -1.64015286E-02
 -3.07714867E-02  2.03655279E+01 -2.03076761E+01 -2.79731493E-01  1.23267257E+00
  8.07546406E-02  1.80679649E-03 -5.78342797E-01  5.78733344E-01  7.88632721E-03
 -3.49437690E-02 -2.31976754E-03  1.05710874E-03 -2.28486937E-03  1.12920027E-02
 -1.06021206E-01  2.65643414E-03 -1.14697887E-02  1.05899919E-01  1.36988362E-03
 -5.96761670E-03 -4.26173958E-04  2.12727780E-04  3.27318438E-03 -1.35380929E-02
  1.04956418E-01 -2.19445567E-03  1.02763876E-02 -1.03646775E-01 -8.93394360E-04
  4.79536801E-03  4.16091256E-04  1.32696104E+01 -3.45137622E-02 -1.03581531E-02
 -3.45252888E-02 -1.33048994E+01 -5.27444298E-01  5.37580937E-02 -2.36509235E-01
  1.19947499E-01  3.89695794E+00 -1.54971021E-02 -3.89473265E+00 -5.26893809E-01
  1.19293590E-01  2.14261478E-02  1.73823652E-06 -4.59742343E-06 -4.13564094E-05
  1.84131617E-04 -2.43941835E-04  2.23037569E-05 -8.01065466E-05 -1.05460780E-05
 -1.29157601E-05  1.39570216E-05  1.66609569E-04  1.12756682E-03 -8.35504662E-04
 -1.86246125E-04 -4.61014169E-04  2.86087910E-04 -8.30103466E-06 -1.93058803E-04
  1.46347524E-04 -1.94321214E-04  1.13398131E-01 -1.13214206E-01 -7.04106685E-03
  6.20225728E-03  9.57505982E-02 -4.13389994E-04  5.39490859E-01 -5.38750445E-01
 -2.63201757E-02  2.63780506E-02  4.03278490E-01  3.37100147E-05 -3.70787111E-02
  3.70860716E-02  1.93151791E-03 -1.62726431E-03 -3.26897868E-02 -2.09232318E-03
  1.56232417E-02 -7.75623994E-02  6.81201883E-01 -6.36248477E-02  5.84151664E-02
 -6.78589800E-01  4.12222102E-02  4.67097108E-02  5.53892103E-01  1.75233422E-03
 -1.31881960E-02  6.34301407E-02 -5.53056747E-01  5.18576022E-02 -4.75667828E-02
  5.50926745E-01 -3.37147188E-02 -3.77876763E-02 -4.49876864E-01  6.15540080E-01
 -3.10728838E-01  1.19906415E-03 -3.11272665E-01 -6.18987243E-01 -6.24296342E-02
  3.17639474E-02  1.71798227E-02  2.85786510E-02 -1.44485862E-01  1.26471192E-01
  1.46964694E-01  1.47362232E-02 -1.70385497E-02 -8.70240369E-04  2.33861659E-06
  6.45379447E-07  1.69725046E-05 -1.24085418E-04  2.10465632E-04 -1.14797174E-04
  2.35108650E-04  3.09815924E-05 -5.90693919E-05  7.52500008E-05 -2.83617194E-04
 -4.87011629E-04  5.53142131E-04  2.86094874E-04  1.47269193E-03 -2.15501572E-03
  2.22989041E-04  1.75846045E-03 -2.53847074E-03  2.25402618E-04 -2.35616055E-01
  2.35354011E-01  2.14872318E-03 -1.18967201E-02 -7.74697330E-03  2.04917121E-03
 -1.43645972E+00  1.43419865E+00  1.60664193E-02 -7.79491664E-02 -4.89638625E-02
 -1.30049096E-03  8.20830467E-01 -8.19796339E-01 -9.36685015E-03  4.48250661E-02
  2.74192778E-02 -9.22553452E-04  7.61599722E-03 -3.14405704E-02  2.54227018E-01
 -5.22756999E-03  2.46463690E-02 -2.52428584E-01 -1.64760532E-03  1.24112876E-02
  8.49040462E-03 -6.79247947E-04 -2.68303820E-03  7.34922783E-03 -4.71677108E-02
 -2.44348396E-03  1.44858311E-03  4.72874315E-02 -4.19163741E-04 -1.35061553E-03
 -1.67525738E-03 -6.36809926E-01  1.43417637E-02  3.90728451E-04  1.44182753E-02
  6.37649502E-01  1.96034356E-02 -2.50564063E-03  1.22255948E-02 -4.20062913E-03
 -2.16004087E-01  7.46883158E-03  2.15780387E-01  2.43000419E-02 -4.44259897E-03
 -8.44184527E-04 -4.21071516E-04  5.03647823E-04 -4.37606600E-06 -3.29255165E-04
  9.41233990E-05  4.59160076E-04  1.00337482E-04 -9.59338591E-06  1.19199019E-05
 -2.73087602E-06  1.36779673E-04 -1.20381563E-04  2.67858255E-05 -3.88118190E-05
 -4.61513744E-06 -5.80772517E-07 -1.81590492E-05  3.73123099E-06 -1.36549783E-06
 -7.35022400E-04  6.42914628E-04  6.42694218E-04  1.67627267E-05 -9.09550972E-05
  2.38841519E-05  2.80807466E-03 -2.67056968E-03 -2.67243670E-03 -7.20881009E-05
  3.62381569E-04 -9.66715665E-05 -3.40838877E-04  9.89157612E-05  1.00597551E-04
  2.64277906E-06 -2.86819904E-05  1.23908315E-05  1.36648193E-04 -1.99634922E-02
  3.45165794E-03  3.83008751E-04  7.03564609E-05  6.88955042E-05 -7.04039566E-04
  2.68094598E-02 -4.72144540E-03 -1.54940468E-03 -1.74102311E-04  1.83756605E-02
 -3.18093105E-03 -3.81793756E-04 -2.49272169E-05 -7.03589428E-05  6.13502895E-04
 -2.45341887E-02  4.32047653E-03  1.41976458E-03 -1.44304425E-01  1.09225907E+00
  2.56398802E-01 -1.09451085E+00 -1.43724612E-01  8.98156661E-05 -6.94609356E-02
 -3.09433898E-04  5.19382006E-02  5.19548735E-04  3.13364806E-03 -4.98972756E-04
 -1.89858885E-04 -9.45523284E-05 -1.86854360E-03  1.48728418E-06 -7.83731382E-06
 -2.91534698E-05  1.66363643E-04 -2.45985471E-04  6.84768386E-05 -1.03459429E-04
 -1.92439674E-05  5.08023210E-06  1.54718883E-05  2.60022350E-04 -3.54268529E-04
 -1.34700087E-03 -1.38994961E-04  1.46059582E-04  5.14824750E-04 -1.55432211E-06
  5.50201211E-05  2.52494959E-04 -4.95998505E-04  8.00355831E-02 -7.95401811E-02
  6.19318160E-03  7.00968682E-03 -1.36045669E-01 -9.20271292E-04  3.79987919E-01
 -3.78837897E-01  2.40207611E-02  2.72707325E-02 -5.72384643E-01  2.38114660E-05
 -2.61396882E-02  2.61572198E-02 -1.96774327E-03 -1.79257043E-03  4.64801593E-02
 -4.12022710E-03  1.27655022E-02 -5.33946497E-02  4.81398212E-01  5.91359086E-02
  6.31538809E-02 -4.76128479E-01 -7.58144538E-02  1.02123543E-02 -7.86613835E-01
  3.33514611E-03 -1.02348605E-02  4.39622501E-02 -3.90900297E-01 -4.81030493E-02
 -5.14731861E-02  3.86484484E-01  6.17006329E-02 -8.01956681E-03  6.38910558E-01
  4.32926043E-01  4.40025529E-01 -5.13842652E-04  4.42879955E-01 -4.36074021E-01
 -4.99072410E-02 -5.02852391E-02 -3.36374820E-03 -1.15667401E-02 -1.00532715E-01
 -1.79560141E-01  1.04927357E-01  1.59760771E-02  1.72495080E-02 -1.31540706E-03
 -2.58986383E-02 -6.29891654E-02 -2.18510679E-01  1.81266842E+00 -2.97322757E+00
  1.17662660E+00 -1.84304197E+00  9.93291572E-02  1.05428954E-03  5.06934796E-03
 -4.50392260E-01 -7.63328179E-03 -2.57092790E-02  6.96193114E-02  2.58301385E-03
  5.21351441E-03  1.87155277E-02  8.64330927E-04  1.51146614E-03  1.39359104E-01
 -5.77301171E-02 -5.71097096E-02  1.28129164E-03  1.02034703E-02  1.86437752E-05
  1.59239417E+00  8.01647338E-01  8.04206634E-01  7.03409563E-03  4.42872001E-02
  3.00669827E-04 -1.77403590E-02  5.27485919E-01  5.25895289E-01 -6.34385241E-03
 -3.18099621E-02 -2.95316605E-04  9.89154534E-02  2.14193946E-03  8.32302757E-03
  6.79738811E-02  2.84195801E-03  2.44412714E-03  6.76287325E-02  1.00738542E-03
  3.89285688E-03  1.77821740E-04  4.42431362E-01 -4.76783160E-03 -2.06746050E-02
 -1.81894212E-01  8.47712288E-03  4.66988679E-02 -1.79071167E-01 -2.13516976E-03
 -9.39395688E-03  5.82436312E-04 -3.21399268E-01  8.30203138E-04 -1.89335494E-01
  8.12301651E-04 -3.25058192E-01  6.42515985E-02  6.78355268E-03  2.89763831E-02
  1.54363692E-02  2.80996168E-01 -2.34933599E-03  2.90105402E-01 -1.16808086E-01
 -2.40619823E-02 -1.03831699E+00 -1.85276477E-03  2.23887202E-03 -5.39062245E-04
 -1.11473644E-04  6.73344049E-04 -6.28794885E-04  2.76320413E-04 -2.93322092E-05
 -3.94484481E-05  3.79939614E-04  3.41439152E-04  4.20690565E-04 -3.97476156E-03
 -4.32016368E-05  8.70654483E-06 -1.31275300E-04 -3.26495790E-05 -1.32361489E-05
  1.38145571E-04 -9.85260711E-04  8.63874558E-04  1.10653123E-04 -1.73958795E-04
  1.39776919E-03  2.16580059E-04  4.02223130E-03 -3.19363254E-03 -8.82270195E-05
  7.14879245E-04 -5.84045251E-03 -9.05762237E-04 -2.49320763E-04  4.15060766E-04
 -4.42588485E-05 -5.40852454E-05  4.08715636E-04  1.14094744E-04  3.38515744E-04
  6.57221374E-02 -7.66662213E-01 -5.48191044E-02  9.96850072E-04 -2.66425263E-03
  5.40532264E-02 -8.95176950E-02  1.03449473E+00 -8.28037189E-03 -5.25651531E-04
 -6.04865789E-02  7.05000279E-01  5.01333121E-02 -1.04327183E-03  3.68313611E-03
 -4.95536169E-02  8.18831192E-02 -9.46528323E-01  7.57533986E-03 -3.84637182E-02
  7.80541394E-04  3.50408250E-02  3.52383325E-03  7.70428014E-04 -2.67163323E-01
 -3.23160714E-02  3.65633832E-01  2.29600314E-02  3.23630297E-02 -4.71975521E-03
 -3.30427529E-02  8.03024378E-05  4.67751726E-04 -2.60335908E-03 -1.80662317E-02
 -1.19450030E-03 -3.22149495E-02  3.45020418E-02  1.33570766E-01 -1.47349583E-01
 -1.83148736E-01  2.71996957E-01  3.00074759E-03  1.38588212E-02 -2.01286346E-01
 -2.20626959E-03 -1.02060013E-02 -6.48260203E-02 -7.01127122E-04 -3.23312459E-03
  2.95079691E-01  3.16792597E-03  1.48425528E-02 -6.81586750E-02  4.62525231E-02
  4.59775070E-02 -1.45452744E-03 -6.72204857E-03 -7.40276327E-05 -4.03650308E-01
  3.31595585E-01  3.29808176E-01 -9.36176678E-03 -4.32472796E-02 -4.90485255E-04
 -4.34912506E-01  2.78250540E-01  2.76516062E-01 -9.05163152E-03 -4.19200727E-02
 -4.66615232E-04 -8.23273913E-02  8.88685237E-04  4.05056572E-03  3.56147040E-02
 -2.01398701E-03 -9.28175822E-03  3.50777359E-02  3.92999521E-04  1.82582615E-03
 -1.42880676E-04 -3.22553840E-01  2.89429037E-03  1.31256180E-02  1.15076167E-01
 -7.37988946E-03 -3.39302643E-02  1.13145402E-01  1.26997959E-03  5.89206069E-03
 -5.14637281E-04 -3.40194148E-02  1.96528427E-05 -1.99541301E-02  2.15896293E-05
 -3.41157155E-02  1.51446816E-03  1.45685131E-04  6.77796067E-04  3.31026232E-04
 -8.61765572E-03 -2.79587316E-05 -8.50402713E-03 -9.81790754E-04 -2.11797181E-04
 -2.72100829E-02 -1.74029025E-06 -2.63411841E-07 -2.94619267E-06 -1.31799011E-05
  2.43033629E-05  3.88201052E-06  5.33891646E-05 -1.58293678E-05 -1.24382080E-05
  1.52288003E-05  7.46151908E-06 -1.19984263E-04  1.19759988E-04  6.07746863E-06
  1.16899101E-04 -1.15179935E-04 -1.19476929E-05  4.45118606E-05 -4.95543966E-05
 -1.20869054E-04  6.69719318E-02 -6.68520651E-02 -3.49383785E-03  3.37641145E-03
  5.11721964E-02 -7.71904806E-04  4.25811695E-01 -4.25102421E-01 -2.21939200E-02
  2.14439429E-02  3.25585113E-01 -6.28448707E-04  3.38963488E-01 -3.38397434E-01
 -1.76381829E-02  1.70691280E-02  2.58936810E-01  1.42142248E-04 -9.05095842E-04
  4.14274889E-03 -3.60056555E-02  3.24338132E-03 -3.13060588E-03  3.58159376E-02
 -2.05127551E-03 -2.40637260E-03 -2.74719901E-02  6.01547778E-04 -3.78249458E-03
  1.73983923E-02 -1.51255260E-01  1.37057130E-02 -1.32320980E-02  1.50460286E-01
 -8.61118840E-03 -1.01306370E-02 -1.15433742E-01  1.99055356E-02 -9.97793222E-03
  9.00264184E-06 -9.98311187E-03 -1.99560398E-02 -1.11576473E-03  5.32391021E-04
 -1.32731329E-05  7.67061300E-04  2.31919020E-03 -1.74526823E-03 -2.27815971E-03
 -2.90182251E-04  3.02166597E-04  2.10728297E-05 -9.71992049E-03  1.11674011E-02
  8.87840114E-06 -4.36270522E-03  3.56384922E-03 -1.44492557E-03  1.45688013E-03
 -1.08979076E-04  1.69893954E-03  9.15530227E-04  5.14005527E-03 -1.31849494E-01
 -7.29733793E-02 -9.95343952E-04  2.82702079E-02  1.56646180E-02 -4.21710158E-04
  9.87927733E-03  5.48314030E-03  2.25524041E-01 -6.07892537E-02 -1.61880980E-01
 -3.31915338E+00 -1.84776734E+00 -1.91914117E-01 -8.48264268E-01  2.31966560E-01
  6.13053382E-01  1.25101118E+01  6.96422165E+00  7.23171261E-01  8.31443671E-02
 -2.28164055E-02 -6.01234354E-02 -1.22314454E+00 -6.80901546E-01 -7.09670694E-02
 -7.44479016E-03  3.07018671E-02  1.71346355E-02  8.37281751E-04  9.09136739E-02
  5.03216561E-02  3.51144909E-03  1.42555145E-02  7.79549917E-03  5.14296339E-03
  5.08985103E-03  4.78558210E-02  2.63519890E-02 -2.38981406E-03 -6.41997313E-02
 -3.55807959E-02 -5.38612954E-03  2.08484528E-02  1.16546386E-02 -5.74871516E-03
 -3.47646594E-01 -2.67886791E-01 -1.40371825E-01 -2.67855655E-01 -1.31873933E-01
 -2.58254625E+00 -2.07476991E+00 -1.15477120E+00 -4.63745388E+00  2.29310025E-02
 -1.37859149E-01  9.54810515E-02 -2.70838495E+00 -4.86660464E+00  5.03892267E-01
  4.00748075E-07  1.27068577E-06 -3.28351590E-07 -5.64568508E-05  9.93952042E-05
 -2.82832787E-05  1.23190466E-04  9.35959445E-06 -1.10001459E-04  9.87207915E-05
 -1.58137887E-05 -1.15445070E-04  1.03539026E-04  1.03484542E-05 -7.91150632E-05
  5.40095537E-05  2.61684777E-05 -3.20718474E-04  2.81147557E-04 -1.68209528E-05
  1.20963735E-03 -1.20216114E-03 -1.93155179E-04  2.08016152E-04  7.69128202E-04
  6.84254757E-04 -3.66410463E-01  3.65564210E-01  1.69783422E-02 -1.86580459E-02
 -2.41733997E-01 -1.95410789E-04  7.64833869E-02 -7.63889189E-02 -3.36556349E-03
  3.69655476E-03  5.01684639E-02  9.14558610E-04 -5.58308236E-03  2.42823627E-02
 -2.07910873E-01  1.71501803E-02 -1.88578726E-02  2.06686881E-01 -1.00404683E-02
 -1.33522011E-02 -1.36729765E-01  2.52323300E-03 -1.45078717E-02  6.66253639E-02
 -5.77677702E-01  4.81323458E-02 -5.28819649E-02  5.74260737E-01 -2.74885302E-02
 -3.75591171E-02 -3.80251779E-01 -1.65758429E-01  7.21696288E-02 -5.54080993E-04
  7.22898112E-02  1.67633387E-01  2.85338530E-02 -1.17670972E-02 -1.02626683E-02
 -1.02637342E-02  1.20556613E-01 -8.00221451E-02 -1.22305056E-01 -1.45511588E-02
  1.32456477E-02  8.16190794E-04 -1.83423330E-06  4.62928921E-06 -1.17908159E-04
  5.64327377E-04 -1.00988957E-03  4.40721651E-04 -4.08680578E-04  2.45552776E-04
  6.02466055E-03 -6.92399034E-03 -5.95337068E-03 -1.37335737E-01  1.58170633E-01
  1.94349774E-03  4.24906527E-02 -4.89736957E-02 -2.79851600E-04 -7.09698299E-03
  8.01373728E-03 -1.35525260E-02 -3.03614464E-03  1.67168269E-02 -1.68889795E-01
  1.93636672E-01 -6.49388292E-03  1.96096341E-02  9.88236632E-03 -2.86155079E-02
  2.24427262E-01 -2.56970680E-01  9.57382563E-03 -4.53196097E-03 -2.18290344E-03
  6.90685749E-03 -5.41675701E-02  6.21521139E-02 -2.28600503E-03 -2.62208519E-02
  2.40707653E-01 -2.74093932E-01 -6.90572170E-03 -2.37537711E-01  2.70335328E-01
  5.07957685E-02  1.07058638E-01 -1.24213658E-01 -1.61688857E-02  2.48812196E-03
 -2.68282546E-02  3.05059423E-02  2.16538005E-03  1.92003093E-02 -2.16943275E-02
 -7.28543038E-03 -1.18790516E-02  1.39272827E-02  1.80264412E-03  9.58403193E-02
 -2.29303863E-02  2.15915486E-02 -2.30080465E-02 -2.28938955E-02  6.51382873E-01
 -2.56563549E-01  2.98265909E-01 -5.78643032E-01 -1.67676452E-01  5.50362304E-02
  8.68409344E-03 -7.55282836E-01  6.66175802E-01  8.30096700E-02 -1.34795858E-02
  1.72914144E-02 -9.44168829E-03  7.52972379E-03  3.33009647E-03 -7.64613951E-03
  4.97580634E-04  3.19320261E-03 -2.05282089E-01 -2.35209920E-02 -4.37316559E-02
  2.73639130E+00  3.13520875E-01  2.97244546E-03 -1.96329886E-01 -2.25063258E-02
  2.55314725E-03 -1.44933949E-01 -1.65962594E-02  4.32849237E-03 -5.46515333E-03
 -5.14544303E-03 -4.02787304E-02 -4.05144692E-03 -2.13142621E-03 -1.80387009E-02
  2.13927322E-02  2.02798654E-02  1.34753778E-01  1.31043791E-02  7.20700081E-03
  2.11291508E-03  4.25463926E-04  2.11527545E-04  1.91471694E-02  2.36505130E-03
  1.00314315E-03 -1.53652291E-02 -1.58131475E+00 -1.80452182E-01  3.49843217E-02
  4.33980925E-01  4.78775693E-02  2.41152447E-02 -7.03313627E-01 -7.97098017E-02
  6.80340375E-02  4.32439593E-02 -1.65071142E-01 -1.96161869E-02 -2.25258437E-02
 -1.21291389E+00 -1.37140480E-01 -1.14601031E-02 -7.76496269E-02 -9.77204463E-03
 -6.81585061E-02 -1.61380875E-02 -1.41228811E-02 -1.03385434E-02 -1.42607598E-02
 -1.95067090E-02 -2.98008176E-02 -1.20993320E-01 -1.27935222E-02 -2.75830914E-01
  9.46572242E-03  2.66486052E-02  1.36035055E-02  2.30623826E-02  2.04817836E-01
 -1.45947273E-03  1.10091717E-05 -4.41725983E-05  3.63108370E-05 -1.59434626E-04
 -1.17719463E-04  8.73073342E-04  2.63308133E-04  5.41302992E-05 -2.10816555E-06
 -2.15816430E-06 -4.98409350E-04  4.14440675E-05  6.60491964E-05  3.23603109E-04
 -6.19716396E-06 -5.23169846E-06 -2.92225055E-05 -4.73152027E-06 -1.01228795E-05
  5.94566330E-04  8.88922860E-05  9.76913066E-05  5.45434649E-07  1.79794243E-05
  3.36798757E-06 -2.21288057E-03 -1.74121960E-03 -1.76697351E-03  2.09526599E-05
  2.83475808E-05 -9.26783026E-06  1.96877601E-04 -3.94052053E-04 -3.86288290E-04
  3.44870642E-06  2.66569760E-05  2.83995303E-06 -5.72081108E-04 -1.72928188E-04
 -5.40342044E-04  5.69648703E-04  1.17946752E-06 -5.67586854E-05  6.31006258E-04
  1.89272377E-04  7.12494089E-04 -2.22187219E-05  5.87026098E-04  1.17962060E-04
  3.99755726E-04 -4.33879108E-04 -1.07285896E-05  3.04741456E-05 -4.83267658E-04
 -1.59081285E-04 -5.88468735E-04  1.76022616E-05  7.22296574E-01  2.20343276E-01
 -1.26914194E+00 -2.19614682E-01  7.26310618E-01 -5.89730300E-02  1.40356413E-03
  7.91848209E-02 -1.14275659E-03  3.85250167E-03 -9.70289656E-04 -3.21978386E-03
 -1.22203717E-04  6.79457574E-05  1.29879850E-03  3.91429611E-07  9.99042686E-07
  2.27725258E-05 -9.36786561E-05  1.29681007E-04 -4.48138047E-05  5.83188704E-05
  5.18957011E-07  4.94036552E-05 -3.06544507E-05  8.81993608E-06 -5.37469135E-04
  3.28041646E-04 -2.98726231E-05  1.38585930E-05  1.79717288E-06  6.94941064E-06
  3.31555283E-05 -2.04720667E-05 -2.59122962E-05  6.78510254E-05 -3.36270269E-05
  6.43380672E-05 -5.36909435E-05 -1.98978524E-04 -8.53856371E-06  1.66433725E-04
 -2.95619599E-04  2.94567503E-04 -1.32222313E-04  6.33515861E-05 -1.89867212E-05
 -1.62236720E-05  1.46812237E-05  3.16133249E-05 -3.64113286E-05 -2.08415735E-05
  1.39438918E-04  3.13227825E-01 -2.14032440E-01 -1.97769632E-02 -7.11485505E-04
 -1.21535816E-03  1.95787712E-02 -4.19103563E-01  2.88118802E-01  2.08377847E-02
 -7.12426259E-05 -9.73213904E-02  6.65007813E-02  6.23214337E-03  4.79952246E-04
  2.14117538E-04 -6.10262638E-03  1.30453953E-01 -8.96786167E-02 -6.46840205E-03
  5.50313693E-02  9.52011667E-02 -3.29615147E-02 -4.44661480E-02 -1.78155060E-02
  3.97938755E-01  7.84472916E-01 -5.40848848E-01 -5.87541157E-01 -6.32964293E-02
 -6.80126802E-02  6.39104050E-02  5.40854003E-03  2.42209316E-03 -3.37833743E-04
  5.88935490E-03 -6.77843019E-03  9.28566234E-05  2.19370497E-03 -1.35434507E-03
  6.77898971E-04 -7.49112155E-04  8.36034348E-05  9.25286173E-04 -1.59294930E-03
 -5.69592888E-03 -7.32411608E-02  1.29567674E-01  1.22885316E-03  1.57114701E-02
 -2.78229655E-02  4.56569309E-04  5.50397052E-03 -9.76902182E-03 -2.54564443E-01
 -4.05977463E-02  2.93219622E-01 -1.85999800E+00  3.31008934E+00 -5.81111733E-02
  9.58008544E-01  1.51074102E-01 -1.10741365E+00  7.01044109E+00 -1.24757379E+01
  2.18994631E-01 -9.37825004E-02 -1.49674563E-02  1.08656813E-01 -6.85444666E-01
  1.21978995E+00 -2.14039825E-02  8.57285662E-03  1.70171606E-02 -3.03789365E-02
  1.87528415E-03  5.07628925E-02 -8.97762748E-02 -7.02920702E-03  7.79014540E-03
 -1.36214348E-02  1.54294641E-03 -6.10947716E-03  2.66519507E-02 -4.68751433E-02
 -5.29179284E-04 -3.60018251E-02  6.37194777E-02  9.54573191E-03  1.17419916E-02
 -2.09667617E-02 -1.70585879E-03  6.27110795E-01 -8.11596681E-02  1.58695633E-01
 -8.11795215E-02 -8.48806861E-02  4.62618502E+00 -1.16213755E+00  2.06767883E+00
 -2.59867094E+00  5.25056427E-02 -4.17303115E-02 -1.87529421E-01  4.85272869E+00
 -2.72760025E+00 -5.68998152E-01 -7.77550686E-03 -4.69301592E-02 -2.91384777E-01
  1.61082408E+00 -2.32689157E+00  6.48903444E-01 -1.18784132E+00 -1.07835253E-01
 -1.24786121E-03 -5.61074473E-03  1.10446764E+00  1.15531331E-02  5.60812032E-02
 -4.47444520E-01 -4.53027228E-03 -2.24883926E-02  1.14378987E-01  1.41346235E-03
  5.97044145E-03 -3.87118826E-01  1.55400329E-01  1.54233726E-01 -6.87772343E-03
 -3.19523299E-02 -3.55999078E-04  1.75838459E+00  4.43358070E-01  4.47183122E-01
  1.75443448E-02  7.84152562E-02  8.91440558E-04 -1.78586925E-01  3.81151778E-01
  3.79721971E-01 -7.24701208E-03 -3.32204362E-02 -3.81787968E-04  1.54333840E-01
 -1.38751585E-02 -6.33268035E-02 -5.53316742E-01  1.58187469E-02  6.83660051E-02
 -5.47928491E-01 -6.10327105E-03 -2.82839352E-02  1.30101746E-03 -4.35085974E-01
  4.34336759E-03  1.90238832E-02  1.65008241E-01 -1.11270737E-02 -4.79172117E-02
  1.61693179E-01  1.87601287E-03  8.48269882E-03 -7.74919107E-04  2.01580843E-01
 -1.20741913E-03  1.19868402E-01 -1.18149676E-03  2.09029363E-01 -1.06184214E-01
 -1.03999439E-02 -4.76517512E-02 -2.36435938E-02 -6.74113165E-01  2.57422398E-03
 -6.83877442E-01  1.00239297E-01  2.17814169E-02  1.34322488E-01  3.94402781E-07
 -5.37956765E-07  3.68802179E-06 -1.85225103E-05  1.51728324E-05  2.08335687E-05
  1.71210701E-05  2.74864498E-06 -2.28187692E-05 -4.91848538E-05 -4.76760136E-05
  4.59385005E-04  8.20679016E-04  2.34376216E-05 -2.01433761E-04 -3.78242795E-04
 -1.48980241E-06  1.80917867E-05  5.66205229E-05 -4.21828836E-04  6.98321800E-02
 -6.94095444E-02  8.02436489E-03  6.66051008E-03 -1.65354103E-01  4.16531563E-04
 -5.56916927E-02  5.52107022E-02 -7.91004257E-03 -6.04562178E-03  1.57495143E-01
 -8.15779197E-05  1.16499990E-02 -1.15918737E-02  1.30589700E-03  1.10149971E-03
 -2.67622084E-02 -1.98343569E-03  3.64614148E-03 -1.96722057E-02  1.64672782E-01
  3.08783003E-02  2.56871662E-02 -1.61956837E-01 -3.63050921E-02 -2.04728576E-04
 -3.78345809E-01  7.48316133E-04 -1.47645200E-03  7.07996104E-03 -5.89066914E-02
 -1.11546048E-02 -9.44613372E-03  5.78902038E-02  1.32161142E-02  6.05163502E-05
  1.35761910E-01 -2.38359841E-01 -3.74524869E-01  1.61246049E-03 -3.81992324E-01
  2.43991364E-01  7.78964924E-02  1.26021149E-01  5.19456759E-03  5.72968606E-03
  3.88211623E-01  9.05834976E-01 -4.00980408E-01 -7.89465002E-02 -9.54789722E-02
  7.10275448E-03 -4.65181500E-04  4.91040126E-04  1.76866862E-04 -5.61194846E-04
  5.42688413E-04 -8.16699012E-05  1.29891469E-04 -6.88149675E-06  7.46028271E-06
 -1.09268504E-05  9.66762966E-05  1.69188833E-05 -4.78214759E-05 -2.94409443E-05
 -5.00436225E-05  9.85172993E-05  2.70113842E-06 -1.38051103E-05  1.53819316E-05
  7.79123465E-03 -2.94425118E+00  2.93658432E+00  3.95859176E-02 -1.74373937E-01
 -2.77926420E-02 -2.77014642E-02  1.04406559E+01 -1.04135766E+01 -1.40495661E-01
  6.18406890E-01  9.94640997E-02  2.91131412E-03 -1.09127127E+00  1.08835315E+00
  1.47930134E-02 -6.48903150E-02 -1.01184160E-02 -1.06116717E-03  4.74854581E-03
 -2.15990843E-02  1.86467130E-01 -4.34646929E-03  1.92077300E-02 -1.85128303E-01
 -2.08876986E-03  9.90340373E-03  1.67834729E-03  1.00707440E-03 -4.77476087E-03
  2.17275467E-02 -1.87427375E-01  4.42966135E-03 -1.94235113E-02  1.86049259E-01
  2.09204289E-03 -9.93020018E-03 -1.68877711E-03  5.88373521E+00 -3.69589999E-02
 -4.53242426E-03 -3.70562406E-02 -5.89870235E+00 -2.23083094E-01  2.32868512E-02
 -1.03452886E-01  5.03015488E-02  1.75721437E+00 -1.67745347E-02 -1.75349749E+00
 -2.34522316E-01  5.37688004E-02  1.60843814E-02 -6.23709302E-05 -1.44133025E-04
 -1.74148291E-04  3.35834781E-03 -5.73444064E-03  2.16156489E-03 -4.66787174E-03
 -1.24884408E-03  4.16373055E-02  9.56101616E-03 -5.09701662E-03  3.15175092E-01
  7.26038571E-02  8.93620336E-03 -4.39191754E-01 -1.01062480E-01  9.51434889E-03
 -4.16000109E-01 -9.57033181E-02  9.21116459E-03 -4.36608460E-03 -4.69090763E-03
 -2.47281865E-01 -5.66611620E-02 -1.32502770E-02  4.66638053E-02 -1.90439349E-02
 -2.07562130E-02 -1.14102902E+00 -2.61236247E-01 -6.08048859E-02 -1.96586891E-02
  1.09217167E-02  1.17766455E-02  5.24380799E-01  1.20028835E-01  2.78147100E-02
  3.18165419E-02 -6.36224574E-02 -1.54348451E-02 -1.30140767E-02 -6.48717626E-01
 -1.47920224E-01 -1.39680559E-02 -2.99176507E-02 -7.19797619E-03 -3.83867110E-02
 -1.69451456E-02  5.10579150E-01  1.17585147E-01 -2.94286739E-03  3.39545118E-01
  7.78779038E-02 -2.67197738E-03  2.28762156E-01  5.26641262E-02  6.67763499E-03
  1.77326667E-02  3.18360691E-02  1.00249461E-02  3.18773867E-02  1.65616121E-02
  1.35452449E-01  2.64598798E-01  6.03099327E-02  5.94564213E-01 -1.59264611E-02
 -1.37082073E-02 -1.57020698E-02  4.85118439E-02  2.07855691E-01 -1.21624812E-02
  6.02375080E-07  4.91022974E-07  1.88978424E-05 -8.72553426E-05  1.13811269E-04
 -2.18439263E-05  9.02525600E-05 -8.09781490E-07  4.59036503E-05 -4.48623130E-05
  5.21946966E-06 -8.07303575E-04  7.11886761E-04  1.41570318E-05  3.58860164E-04
 -3.09465200E-04  8.65226244E-06 -4.30559867E-05  4.91276322E-05 -3.35610430E-04
  1.39475073E-01 -1.39145716E-01 -6.74589180E-03  7.92139485E-03  8.25925904E-02
  2.79488229E-04 -1.10969616E-01  1.10559102E-01  6.45813680E-03 -6.57865998E-03
 -7.85472952E-02 -8.32548721E-05  2.32607090E-02 -2.32496745E-02 -1.12144568E-03
  1.31533189E-03  1.33681101E-02 -1.60275057E-03  9.91255611E-03 -3.90018711E-02
  3.27904312E-01 -2.57215797E-02  3.14000879E-02 -3.25740893E-01  1.33350603E-02
  2.01319302E-02  1.89052416E-01  5.88273127E-04 -3.52903924E-03  1.41260317E-02
 -1.17288853E-01  9.42287612E-03 -1.14622327E-02  1.16447985E-01 -4.80585568E-03
 -7.41176173E-03 -6.78328925E-02 -4.77823562E-01  1.88869036E-01 -3.00401554E-03
  1.88996429E-01  4.87175215E-01  1.43576971E-01 -5.02380136E-02 -5.87075638E-02
 -4.50102681E-02  7.84636244E-01 -4.52625168E-01 -7.94807132E-01 -9.71242317E-02
  7.92269324E-02  5.68255758E-03  2.22083349E+00 -2.60298705E+00  2.62597828E-01
  4.50283755E-01 -2.94569187E-01  2.97909651E-01 -2.09306131E-01  5.20198469E-05
 -9.54236859E-05 -2.03829176E-04 -6.67830141E-02  6.42361366E-04 -1.21078035E-04
  8.38347236E-02  6.88210319E-04  3.73303006E-03  3.84279347E-02  3.66610191E-04
  1.77699279E-03  2.88540020E+00 -1.74873339E+00 -1.73823811E+00  5.63474791E-02
  2.64625156E-01  3.06765335E-03 -1.14584493E+01  5.80223329E+00  5.76322724E+00
 -2.09624601E-01 -9.84973053E-01 -1.14423631E-02  1.04628309E+00 -5.71237551E-01
 -5.67613204E-01  1.98327819E-02  9.24704188E-02  1.09575765E-03 -2.46523916E-01
  4.44996538E-03  2.28631912E-02  2.23059991E-01 -8.08215700E-03 -3.89243612E-02
  2.20681066E-01  2.16175188E-03  1.10641617E-02 -6.28913740E-04  1.72755174E-01
 -4.70905579E-03 -2.23082757E-02 -2.01126977E-01  6.12246517E-03  3.07104383E-02
 -1.99175266E-01 -2.25612562E-03 -1.07024072E-02  5.15010059E-04 -3.11358736E+00
  3.88468491E-03 -1.82761979E+00  3.55272101E-03 -3.13287905E+00  3.22304991E-01
  3.03451291E-02  1.43937887E-01  6.77206964E-02  7.25842061E-01  3.56676472E-03
  7.13452760E-01  4.40830906E-01  9.47083466E-02  7.06871022E+00 -4.35609273E-05
 -1.13817670E-04 -1.08515273E-04  2.23813976E-03 -4.06332040E-03  1.96631838E-03
 -2.70005081E-03 -2.29256974E-03 -9.60625265E-03  4.15318672E-02 -1.33645673E-02
 -7.24796950E-02  3.13752750E-01  2.04036675E-02  1.01263540E-01 -4.38236145E-01
  2.01132064E-02  9.60618694E-02 -4.15622021E-01  2.00879929E-02  1.39178822E-03
 -2.14968195E-02  5.71707296E-02 -2.46274828E-01  1.94458205E-04  9.64464721E-02
  6.12615597E-03 -9.86023747E-02  2.64283424E-01 -1.13803272E+00  9.98139252E-04
 -4.34948250E-02 -1.62298597E-03  4.63143737E-02 -1.21586681E-01  5.23554390E-01
 -4.89843171E-04  6.89912594E-02  1.46186275E-02 -6.66313902E-02  4.35604344E-03
  1.50319279E-01 -6.44621342E-01 -6.14802878E-02  6.14880335E-03 -2.79138998E-02
  6.21643063E-04 -3.63949026E-02 -1.17955315E-01  5.10989281E-01 -1.16077315E-02
 -7.83749884E-02  3.38060557E-01 -1.56692312E-04 -5.27307803E-02  2.28356491E-01
 -1.46824046E-04  7.93759002E-02 -4.96897226E-04  2.20147259E-02 -4.72848185E-04
 -4.34361439E-03  5.89409900E-01 -6.18296653E-02  2.65128518E-01 -1.37541704E-01
 -4.46490090E-02  2.18342987E-04 -2.13063811E-02  2.09102368E-01 -4.76876249E-02
 -2.61427434E-02  4.28773560E-03  1.65102526E-02 -1.08493169E-02 -2.71678817E-01
  5.33428783E-01 -2.68687800E-01  4.45953955E-01 -1.27382532E-01 -1.39896349E-03
 -6.47419726E-03  4.75811479E-01  5.22970141E-03  2.43588881E-02 -3.46241129E-01
 -3.50054707E-03 -1.75265710E-02 -2.72161200E-01 -2.53368429E-03 -1.36391917E-02
  2.39188449E-01 -1.08132778E-01 -1.07028641E-01  4.08416866E-03  2.01443902E-02
  1.22655749E-04  1.16344478E+00 -9.05937087E-01 -8.99130513E-01  2.50839336E-02
  1.21430810E-01  7.18114248E-04 -7.85082874E-01  3.17028414E-01  3.13335782E-01
 -1.32564826E-02 -6.44990740E-02 -3.52734547E-04 -5.90948841E-01  3.53270382E-03
  1.52265024E-02  1.30168923E-01 -1.14440531E-02 -5.41010096E-02  1.26909101E-01
  1.57249727E-03  6.95531824E-03 -6.92801800E-04  2.45203298E-01  4.51913126E-03
  2.24517257E-02  1.95093234E-01 -1.85824271E-03 -4.79048663E-03  1.94350681E-01
  2.01289731E-03  1.00728234E-02 -2.66298168E-04  3.97260087E-01 -4.32594451E-04
  2.33878012E-01 -4.38668769E-04  4.01467330E-01 -5.38135760E-02 -5.11600766E-03
 -2.41545553E-02 -1.14814364E-02 -1.70148051E-01  4.18483651E-04 -1.70996918E-01
 -1.73074367E-02 -3.08574160E-03 -5.29984156E-01 -1.04239053E-04  1.85618799E-05
  1.80095286E-04  3.10191016E-05 -3.99920791E-04  2.18403192E-04 -2.65839750E-04
 -6.84973686E-02 -7.58449477E-01  1.50205156E+00  2.09329789E-02  2.31921241E-01
 -4.59267745E-01  1.53110796E-02  1.70006298E-01 -3.36742672E-01 -7.03057438E-03
 -7.88088069E-02  1.56037812E-01  1.69292758E-03  3.76373847E-04 -1.88572002E-03
  1.08302448E-02 -2.13609340E-02  3.14447606E-04 -2.29527287E-03 -3.04104385E-04
  2.63841563E-03 -1.60950432E-02  3.17008366E-02 -4.82726866E-04  1.15124522E-03
  1.29534850E-04 -1.12485437E-03  7.91156841E-03 -1.55666343E-02  2.40370868E-04
  4.37922855E-02  4.32987034E-01 -8.57793212E-01  1.80793136E-02  2.16930935E-01
 -4.29306004E-01  1.27442814E-02  1.93638397E-01 -3.83464129E-01  7.85134861E-04
 -2.62970154E-02 -2.22820187E-01  4.41705284E-01 -9.71150364E-03 -1.30091694E-01
  2.57203764E-01 -2.79511719E-03 -9.96312124E-02  1.97302392E-01 -1.02759601E-03
 -2.31982224E-03  2.55246387E-04 -5.73231911E-04  2.53230957E-04  3.76788484E-04
 -1.70503145E-02  3.90240714E-03 -7.72270705E-03  8.72146871E-03  2.36645412E-03
 -2.78343740E-04  3.71793849E-04  2.67225803E-03 -1.41481388E-03 -3.52853221E-04
 -1.11860390E-02 -3.47180793E-02 -4.91336625E-03  7.58487495E-01 -1.48283647E+00
  7.47425509E-01 -1.17840979E+00 -1.78446068E-01 -2.03186178E-03 -9.12941838E-03
  4.61159442E-01  4.99568907E-03  2.35187808E-02 -2.96263168E-01 -2.85224549E-03
 -1.45593656E-02 -3.28363009E-01 -3.45222589E-03 -1.60679581E-02 -1.31925370E-01
  8.89656147E-02  8.84132122E-02 -2.54922388E-03 -1.25269717E-02 -1.17088518E-04
 -2.35144042E-01  9.05836565E-01  9.02935053E-01 -1.27146451E-02 -6.48356966E-02
 -5.56487815E-04  6.36014814E-01  9.87818406E-03  1.14895132E-02  6.70467032E-03
  3.51945776E-02  2.88847497E-04 -4.98828186E-01  2.99731640E-03  1.35914000E-02
  1.13994428E-01 -9.70061213E-03 -4.58039321E-02  1.11484851E-01  1.34528226E-03
  6.16412149E-03 -6.58708918E-04 -7.60699994E-02  9.73652213E-03  4.54186818E-02
  4.03386112E-01 -1.08279087E-02 -4.83391556E-02  4.00160741E-01  4.38551966E-03
  2.04739738E-02 -9.50762200E-04 -3.62503210E-01  5.07141108E-04 -2.13271029E-01
  5.23254451E-04 -3.65763572E-01  4.94829839E-02  4.66182915E-03  2.22492093E-02
  1.04855987E-02  1.60941702E-01 -8.48854904E-04  1.63916670E-01 -2.02052165E-02
 -4.79129238E-03  3.62592910E-02 -5.08673640E-07 -3.30746441E-06  4.49884261E-06
  2.59793035E-05 -5.74226096E-05  3.64532685E-05 -3.08949327E-05  3.22306667E-05
 -1.08501045E-04 -4.72553198E-05 -1.38688866E-04 -8.05083316E-04 -3.82929690E-04
  3.42372608E-05  2.22151557E-03  1.14679641E-03 -2.65728812E-05  2.66142621E-03
  1.35672838E-03 -2.57469389E-04  6.94535424E-03 -6.70432853E-03  1.17108458E-02
  2.36940626E-03 -2.66983674E-01 -1.75950743E-03  4.25427209E-02 -4.07178838E-02
  7.85804765E-02  1.75397042E-02 -1.69413179E+00  9.95424909E-04 -2.42314644E-02
  2.31981873E-02 -4.41097756E-02 -9.92685806E-03  9.45940847E-01  7.51212520E-04
  1.30565138E-03  1.71732874E-03 -7.84394553E-03 -2.39228382E-02 -5.50884707E-03
  6.84447142E-03  2.71253514E-02  5.83024599E-03  2.93418210E-01  1.93887850E-04
 -2.58740433E-03 -1.43432730E-03  1.39576886E-03 -1.30836003E-04 -1.65571938E-03
 -1.50212361E-03 -5.91244836E-03 -1.45551087E-03 -5.56927692E-02  1.80835987E-02
  4.99210505E-01 -1.93663591E-04  4.99018826E-01 -1.89562969E-02 -5.34383773E-03
 -7.03696333E-03 -1.74782337E-03 -2.35889151E-02  6.47243824E-03  2.57522856E-01
 -6.16213404E-03 -5.18538690E-03 -2.55070024E-02  7.58451423E-04  4.55973466E-05
 -5.03386848E-05  3.60269037E-07  6.11497416E-06  1.55384564E-05 -1.78265209E-05
 -7.92447822E-06 -3.77355814E-06  1.72694614E-05  7.00362242E-06  3.97107137E-05
 -1.09074232E-04  5.30392769E-05 -8.98900367E-06 -4.68297949E-05 -5.90785518E-05
  6.95411512E-06 -1.47937677E-05 -1.85674845E-05 -3.34847850E-03  2.56406970E-02
 -2.23124348E-02  1.82768667E-01  4.15101731E-02 -3.56104206E+00  1.21101464E-02
 -9.18217434E-02  7.97739734E-02 -6.60118876E-01 -1.49942317E-01  1.28561916E+01
 -1.20909387E-03  9.40114139E-03 -8.17503688E-03  6.59938210E-02  1.50501306E-02
 -1.28327963E+00  4.35297899E-04 -2.19443554E-04 -2.75300150E-06 -1.74682869E-03
 -1.80874453E-02 -4.07956474E-03  1.13611515E-03  1.84190724E-02  3.98310964E-03
  2.02821582E-01 -4.80347005E-04  2.84900707E-04 -1.89121763E-05  1.76453906E-03
  1.84657172E-02  4.17788657E-03 -1.14892224E-03 -1.86381389E-02 -4.04315787E-03
 -2.05740656E-01 -4.53239245E-02 -4.80128601E+00  1.91181147E-03 -4.80108741E+00
  5.21141568E-02  5.53994537E-02  1.06028564E-01  2.39625914E-02  2.45615495E-01
 -1.53034382E-02 -2.18384868E+00  1.36370968E-02  5.76131084E-02  2.51876520E-01
 -7.13251285E-03  1.68997592E-08  3.64813992E-07 -5.66721539E-08 -3.64371881E-06
  3.81029264E-06  4.90926515E-06 -3.09371736E-06  4.98725808E-06 -2.57164783E-05
  1.21051533E-05 -8.97573385E-06  8.04987626E-05 -4.22477854E-05  1.08085926E-05
 -9.85831903E-05  4.40867417E-05 -3.08015253E-06 -1.03566804E-04  4.61042415E-05
  8.08708969E-07  4.78849574E-05 -4.74627382E-05 -3.88646435E-05  2.23574826E-05
 -3.19610148E-05 -4.38559728E-05  2.10298776E-04 -1.72039527E-04 -2.84703210E-04
  1.65652346E-04 -1.30573040E-04  2.63576390E-05 -1.75148156E-04  1.50338889E-04
  1.21473996E-04 -7.37769348E-05  1.10995797E-04  3.36644599E-05  2.65947522E-01
 -1.48757979E-01 -1.44316221E-02 -7.59707580E-04 -8.81973752E-04  1.43881537E-02
 -3.56151194E-01  2.00506081E-01  1.86291880E-02  7.41698776E-05  4.92942705E-01
 -2.75694474E-01 -2.68219225E-02 -1.27012381E-03 -1.69846862E-03  2.67156135E-02
 -6.59828429E-01  3.71480884E-01  3.45595535E-02 -1.28837860E-02 -2.72126956E-02
  6.96600993E-03  1.20115550E-02  5.00043955E-03 -9.36850796E-02 -2.25391120E-01
  1.27304417E-01  1.69145581E-01  1.58087147E-02  2.05052929E-02 -1.59256818E-02
 -1.34098702E-03 -9.05385931E-04  8.28387111E-05 -7.56335470E-05 -1.60595823E-04
 -2.22392118E-04  4.25385151E-03 -7.52132131E-03  3.14063577E-03 -6.34481379E-03
 -3.59556907E-04  2.61145976E-02  7.10751534E-03 -5.00575721E-03  1.92625251E-01
  5.23057366E-02  8.25426970E-03 -3.40065161E-01 -9.23682469E-02  9.76497247E-03
 -3.89554625E-01 -1.05830613E-01 -9.61916176E-03  3.91688289E-03  6.14622907E-03
  2.42881730E-01  6.57010219E-02  1.13453218E-02 -5.10675743E-02  2.35675742E-02
  3.62120850E-02  1.33378349E+00  3.60743128E-01  6.10682009E-02  2.83676677E-02
 -8.39932724E-03 -1.51959595E-02 -6.77455516E-01 -1.83263513E-01 -3.04740114E-02
  2.80987987E-02 -8.18361561E-02 -2.29984481E-02 -8.92348521E-03 -5.13388267E-01
 -1.38281765E-01 -1.27104257E-02 -3.76335921E-02 -1.03786281E-02 -2.78220288E-02
 -2.10314718E-02  4.43047069E-01  1.20598105E-01 -1.29173602E-03  4.10871952E-01
  1.11270794E-01  1.59646843E-04  1.98573427E-01  5.39725327E-02  1.29041779E-02
 -1.81159017E-02 -2.08915190E-02 -8.83526844E-03 -2.08887090E-02 -1.20714858E-02
 -1.20608578E-01 -1.99591267E-01 -5.39251013E-02 -4.46257771E-01  3.07258685E-03
 -9.94595950E-03  5.13713353E-03 -1.24344269E-01 -4.59288574E-01  2.69190531E-02
  6.29105055E-04 -7.60073428E-04  1.84067163E-04  4.08266640E-05 -2.51974371E-04
  2.37756030E-04 -9.98395858E-05  9.88388761E-06 -3.96203346E-04 -3.23038907E-05
 -1.14354053E-04  4.20084684E-03  3.25417929E-04  1.45255404E-05  1.08805871E-04
  1.67200764E-05  1.10858269E-05 -1.46852486E-04 -9.47501901E-06  2.93714299E-04
  1.56432631E-05 -2.85342064E-04 -1.40689227E-03 -8.29574301E-05 -6.58747038E-04
 -1.20224973E-03 -1.75518838E-04  1.06590613E-03  5.85042959E-03  3.56015302E-04
  2.75472100E-03  6.57129206E-05  3.52691059E-05 -1.44595351E-04 -3.94571205E-04
 -1.88293024E-05 -3.24129214E-04 -2.26588130E-05  7.69345205E-01  6.70027455E-02
 -7.07711461E-03 -2.76957132E-03 -1.01238302E-03  7.21191529E-03 -1.03286074E+00
 -8.91427921E-02  6.29433469E-02  9.47040268E-05 -7.07583666E-01 -6.16034723E-02
  6.49314273E-03  1.22197017E-03  8.24648358E-04 -6.57847081E-03  9.44972394E-01
  8.15651792E-02 -5.76404258E-02 -7.81152693E-04 -1.50578997E-02 -3.91178940E-03
 -1.54674424E-02  4.74752292E-03  2.38046849E-02 -3.66125272E-01 -3.12245006E-02
  2.71802165E-01  4.18406778E-03  3.77054147E-02 -4.12062844E-03 -8.72734354E-04
 -4.37070142E-03  8.74472797E-04 -1.54141501E-05 -8.86333200E-05  6.71197724E-05
  1.40153779E-03 -2.86743224E-03  1.42087678E-03 -2.11141419E-03  3.32353889E-03
  2.50604620E-02 -8.29515269E-02  2.77334942E-03  1.20382413E-02 -3.97666639E-02
  1.63934806E-03  1.53493812E-02 -5.09056968E-02  6.27108836E-03  4.56999420E-02
 -1.51294882E-01  1.12432890E-02  1.80753908E-03 -1.30324738E-02  4.12826240E-02
 -1.35951176E-01  4.20471156E-04  1.55583837E-03  5.91915571E-03 -4.54809181E-03
 -6.83694905E-04  2.62697263E-03 -9.91689126E-04 -4.72605780E-03 -3.47809108E-03
  9.38634804E-03 -1.69734569E-02  5.56616481E-02  4.37432904E-04 -2.38371698E-02
  9.07120022E-02 -2.98104152E-01  3.86770952E-03 -6.67099510E-02  2.17646096E-01
  4.27118801E-02  4.07121795E-02 -1.34356237E-01 -1.75996033E-03 -9.50087402E-02
  2.53447926E-02 -7.82468794E-02 -5.60102168E-03 -2.69509448E-01  8.83310710E-01
  9.98359613E-02  1.18053273E-02 -3.79666363E-02 -4.25697588E-03 -2.05274209E-02
  9.79533232E-04 -6.26751645E-03  9.55569562E-04 -6.72696037E-04 -1.61091308E-01
  2.26687526E-02 -7.40207703E-02  5.00477225E-02  5.98819720E-02 -2.35879995E-03
  1.59481263E-03  3.26190743E-01 -1.00393355E-01 -4.26317972E-02  1.32619162E-06
  2.44645046E-06  6.43897513E-05 -2.59142238E-04  3.53576517E-04 -1.29623761E-04
  1.73857207E-04  6.28908303E-07 -3.22381005E-05 -4.47309346E-05  2.85207002E-05
  3.51546594E-04  4.67264904E-04 -8.36578071E-05 -3.17100156E-06  2.71738325E-06
  2.09390325E-05 -2.26513966E-05 -2.64729200E-05 -7.58647038E-05  2.79772260E-04
 -1.82405918E-04 -4.52011158E-05 -8.51761513E-05 -3.02983751E-05 -7.88603535E-06
 -2.15140691E-04 -1.26284088E-04 -1.86131534E-04 -2.04121245E-04  3.05094191E-04
 -5.94468578E-05  2.58330849E-05 -3.65684445E-05 -2.51832243E-05 -5.53975858E-05
 -3.34637218E-05  2.43590334E-04 -2.15405233E-01 -3.12433615E-01 -1.81014044E-02
  1.23740158E-03 -6.48851762E-04  1.77427419E-02  2.87483436E-01  4.19470865E-01
 -2.28836852E-02 -1.50684809E-04  6.69265700E-02  9.70900799E-02  5.72012205E-03
 -5.59363979E-04 -5.35489864E-05 -5.42906451E-03 -8.94797858E-02 -1.30562163E-01
  7.15758312E-03  7.94316274E-02 -5.60548896E-02 -8.11076737E-02  6.21174445E-04
  1.26867305E-02  5.83191331E-01 -5.37358449E-01 -7.86461163E-01  4.05590112E-01
 -5.82327871E-02  7.39523162E-02  5.87783667E-02  3.34941814E-03 -4.79983313E-03
 -2.88770089E-04  8.05653916E-02 -3.00470053E-02 -1.37928640E-01  5.27473676E-02
  1.75872273E-01 -1.08305096E-01  1.21201795E-01  1.50040292E+00  1.67040603E-02
  7.68981306E-02 -7.40693070E-02 -7.76793819E-04 -3.78259351E-03 -4.89707979E-01
 -5.50779789E-03 -2.52392717E-02 -7.63020536E-02 -7.30034986E-04 -3.70957369E-03
 -4.08243308E-02 -3.95060651E-02 -3.95186647E-02 -1.02515309E-04 -2.23414814E-04
 -8.05662190E-06 -5.05586682E-02  5.90994876E-02  5.88595936E-02 -1.31738631E-03
 -6.25586064E-03 -6.93210820E-05  8.38701755E-02 -7.41006247E-02 -7.37539018E-02
  2.04094494E-03  9.27663627E-03  1.15410948E-04 -1.19128361E+00 -1.34279687E-02
 -6.17665542E-02 -5.39265847E-01 -5.75323837E-03 -2.65845349E-02 -5.39224051E-01
 -6.00892051E-03 -2.76397290E-02  1.69727398E-05  8.34003053E-01  5.56199883E-03
  2.60920917E-02  2.28954550E-01  7.46662339E-03  3.41107839E-02  2.30057257E-01
  2.50109644E-03  1.16511302E-02  3.01181614E-04 -3.62196188E-02 -2.12207130E-06
 -2.12163284E-02  9.43984515E-06 -3.62801842E-02  8.73969832E-04  6.37873382E-05
  3.84298520E-04  1.49120651E-04 -1.36153764E-02 -2.36735579E-05 -1.35116388E-02
 -1.40627209E-03 -2.88598887E-04 -4.22854411E-02
Total SCF Density                          R   N=        2628
  6.62547121E-01  4.76539213E-03  9.69537576E-04  4.50036019E-01  6.18885464E-03
  3.18911325E-01  1.96722211E-01  2.35916103E-03  1.36535094E-01  6.12974875E-02
 -6.47849274E-02 -1.26883513E-02 -9.07859942E-02 -3.30156856E-02  2.08019867E-01
 -1.26115932E-01 -2.05949083E-02 -1.56630898E-01 -6.62966023E-02  3.12155635E-01
  5.43338670E-01 -6.13712403E-02 -9.73277371E-03 -7.50152314E-02 -3.66065325E-02
  1.39908094E-01  2.76685618E-01  1.59531997E-01 -4.24162484E-05 -1.32001114E-05
 -5.62119710E-05  2.17912360E-04  2.93447175E-04 -5.08700524E-04 -1.02178316E-03
  2.75817835E-01 -4.98240720E-07 -6.28930102E-08 -7.02303230E-07  5.84188160E-06
  3.99488228E-06 -1.68181755E-05 -2.45869527E-05  1.45354302E-03  1.48090980E-01
 -2.25894399E-06 -4.49896338E-07 -3.14260136E-06  2.20729476E-05  1.53197514E-05
 -5.99158625E-05 -8.88272225E-05  6.60129424E-03  7.51188110E-05  1.48415839E-01
 -1.18963278E-05 -3.02054066E-06 -5.15615452E-05  7.99874950E-06  2.38910846E-04
 -1.81047318E-04 -3.61708207E-05  2.64621694E-01  1.32208587E-03  6.00221355E-03
  2.56138485E-01 -1.01041144E-07  6.68105013E-08 -5.39380748E-07  3.36528634E-06
  3.55440904E-06 -1.37010904E-05 -1.37059588E-05  1.31924836E-03  1.48519254E-01
  6.87487800E-05  1.21374822E-03  1.49351379E-01 -6.07457105E-07  8.64627756E-08
 -2.74977413E-06  1.12565653E-05  1.25978390E-05 -4.38764772E-05 -3.86275757E-05
  6.00228940E-03  6.82358809E-05  1.48814093E-01  5.52169842E-03  6.32272464E-05
  1.49621824E-01 -7.66814572E-05 -1.31512321E-05 -9.47368602E-05 -2.77481661E-04
  3.06301777E-04  6.73148195E-04  1.21277408E-03  2.39884906E-01  1.27442534E-03
  5.78614327E-03  2.34033654E-01  1.20094521E-03  5.46368923E-03  2.27750564E-01
 -7.98118059E-07 -6.35034871E-08 -1.04929086E-06 -2.03656541E-07  4.27196286E-06
 -2.67985077E-06  2.04995857E-06  1.27150146E-03  1.27914018E-01  6.63264996E-05
  1.19972744E-03  1.28325166E-01  6.25268411E-05  1.28114184E-03  1.14851765E-01
 -4.00870324E-06 -4.70983163E-07 -5.10147451E-06 -4.30495889E-06  1.61084245E-05
  3.69950697E-06  2.88319863E-05  5.80405421E-03  6.47613029E-05  1.28196091E-01
  5.47865958E-03  6.14233117E-05  1.28590759E-01  5.84819045E-03  6.57561403E-05
  1.15133432E-01 -5.41805482E-05 -1.65615586E-05 -4.74958164E-05 -1.05182242E-04
 -1.63412948E-05  6.68260280E-04  7.75351841E-04  1.15801136E-01  8.59976745E-04
  3.90424467E-03  1.12471634E-01  8.21275898E-04  3.73333150E-03  1.12373403E-01
  8.54674260E-04  3.89582295E-03  5.65534432E-02 -6.37297884E-07 -1.41822571E-07
 -5.99392766E-07 -7.09112348E-07  4.99437266E-07  4.57801232E-06  6.26325663E-06
  8.62668880E-04  4.03102806E-02  4.43441882E-05  8.24883607E-04  4.03122135E-02
  4.23683129E-05  8.58945860E-04  3.71904266E-02  4.38212282E-05  5.04925222E-04
  1.23210563E-02 -2.72832559E-06 -7.43887843E-07 -2.44260632E-06 -2.45027110E-06
 -5.70059152E-07  2.38142830E-05  2.93990651E-05  3.89687329E-03  4.51066360E-05
  4.05042515E-02  3.72510920E-03  4.32649772E-05  4.04976440E-02  3.88043359E-03
  4.48834435E-05  3.73827752E-02  2.28389962E-03  2.61375503E-05  1.24347164E-02
 -3.33482851E-03 -2.50191747E-04 -2.65052807E-03 -1.21451735E-03  4.39474364E-03
  5.52994450E-03  1.56572708E-03 -2.08493067E-05 -5.66594059E-07 -4.21857400E-06
  5.51332366E-05  3.66712884E-07  1.67522506E-07 -5.13697917E-05  6.88710009E-07
  2.00471869E-06 -1.36493490E-04 -1.13316327E-06 -5.46501467E-06  3.31053311E-04
 -1.13970542E-03 -1.24651596E-04 -6.38904423E-04 -5.29782238E-04  1.70142893E-03
  3.02069134E-03  1.11607086E-03  5.13827429E-05  1.90260116E-06  2.83762785E-06
 -1.76795223E-05  9.82348661E-07 -6.44855081E-07  1.29627727E-05 -3.08210414E-07
  9.25730798E-07  6.50688499E-05  5.48197320E-07  3.36038219E-06  1.28462268E-04
  2.25210248E-04 -1.14527840E-03 -1.24970490E-04 -6.44020666E-04 -5.31515317E-04
  1.70827219E-03  3.02705980E-03  1.11722792E-03  5.08717678E-05  5.50325010E-07
  8.91012132E-06 -1.78222850E-05 -1.98247586E-07  4.78163077E-06  1.28457577E-05
  1.48933525E-07 -1.15199039E-06  6.45841934E-05  6.84460019E-07  2.70533646E-06
  1.28400297E-04  1.02592065E-04  2.25598263E-04 -2.88359484E-05 -1.64549395E-06
 -2.64264708E-05 -9.04621707E-06  3.54122856E-05  3.30874307E-05  6.01984775E-06
 -1.95722235E-06  6.73950815E-05 -4.44463578E-09 -5.81285742E-08  6.08746238E-05
  9.35279555E-08 -8.46756113E-07 -2.37247585E-05  8.29338650E-08 -2.61941104E-06
 -7.14882314E-06 -8.71577625E-08  4.11497522E-07  1.01455537E-06  3.14951719E-07
  1.15615809E-04 -1.31005440E-04 -7.48712077E-06 -1.20065032E-04 -4.09351521E-05
  1.60779234E-04  1.49913584E-04  2.70269561E-05 -8.08480113E-06  2.91365700E-08
  6.70241641E-05  7.44988426E-07  1.27037290E-07  6.09625361E-05 -2.99675269E-06
  1.07067343E-07 -2.35662456E-05 -1.16750930E-05 -7.87381468E-08 -7.62543980E-06
  1.78362826E-06  1.49403965E-06  4.58515040E-06 -1.87445764E-08  1.15561678E-04
 -1.49050283E-06 -8.45692283E-08 -1.36492760E-06 -4.68645914E-07  1.82970575E-06
  1.70838088E-06  3.08409837E-07  1.68019244E-07  3.46042266E-06  7.28394265E-07
  2.64148962E-07  3.09548291E-06  6.40756859E-07  2.70619816E-07 -1.25785964E-06
 -3.03859086E-07  2.01581669E-08 -3.86085455E-07 -1.00467576E-07 -1.90200772E-08
  7.11079823E-08  4.02886116E-08  2.01607801E-06  4.51781220E-07  7.72729547E-05
 -7.17056496E-03 -1.01416279E-03 -1.00776041E-02 -1.38515446E-04  2.16417613E-02
  1.28691327E-02 -5.55609138E-03  5.48967828E-04  9.34102898E-06  3.67697496E-05
  4.22268311E-04  9.42206105E-06  3.76283780E-05 -2.81982514E-04  5.57082226E-06
  2.18283774E-05 -4.40619783E-04 -3.00710949E-06 -1.27381114E-05  7.69542408E-04
 -7.04636822E-05 -7.04067684E-05  4.90060307E-06  2.25056276E-05  2.81329641E-08
  1.13427208E-02 -1.49010014E-02 -1.26732386E-03 -1.61533853E-02 -3.61704594E-03
  2.40546107E-02  2.40013636E-02  3.74865140E-03  1.12275228E-04  1.13915349E-05
  3.06519848E-05 -4.27347596E-04  3.52394506E-06  3.51399498E-06 -6.37143168E-04
 -4.70811633E-06 -9.40793173E-06 -1.54466811E-04 -1.07047408E-06 -7.34554971E-07
  4.95587790E-04  6.27413853E-05 -3.56988116E-05  1.18794851E-05  3.13710072E-05
  5.37868262E-07  6.11621919E-03  8.31996870E-03 -1.48813922E-02 -1.26667750E-03
 -1.61379855E-02 -3.60829043E-03  2.40485980E-02  2.39730831E-02  3.72519763E-03
  1.13402755E-04  9.38111353E-06  3.82765985E-05 -4.24846585E-04  3.55190685E-06
  2.78397636E-06 -6.34847603E-04  1.15184848E-07 -3.19734164E-05 -1.54717325E-04
  8.71092881E-08 -6.36527680E-06  4.94165734E-04 -3.71107055E-05  6.58565698E-05
  6.76570768E-06  5.35906474E-05  6.49843870E-07  6.11550601E-03  5.06724405E-03
  8.33090181E-03  1.01561139E-04  3.30624011E-06  7.99325248E-05  4.59072998E-05
 -3.23934755E-05 -1.45844305E-04 -1.22468687E-04  7.05614274E-06  7.32144163E-05
 -2.50949520E-07  1.29923996E-05 -1.33270480E-05  6.30647443E-08  9.23474118E-06
 -2.60082874E-04 -5.34595055E-08 -1.91804191E-06 -6.58289286E-05 -2.87340496E-07
 -2.39104404E-06  4.28535332E-06 -4.66091473E-07  3.07471478E-04 -2.51904585E-07
  1.12769385E-05  1.16388943E-05  2.83629996E-05  1.32630532E-05  2.90374502E-03
  4.61340775E-04  1.50862952E-05  3.62689197E-04  2.07836344E-04 -1.44770655E-04
 -6.63766553E-04 -5.55327741E-04  2.55896172E-05 -3.93321916E-07  7.28780543E-05
  5.39206226E-05 -8.18562332E-08 -1.19091274E-05  3.69518524E-05 -1.70664579E-07
 -2.58273411E-04 -1.19346132E-05 -3.35528762E-07 -6.64407145E-05 -1.10317346E-05
 -2.01357492E-06  1.94356560E-05 -2.43973830E-07  3.06296459E-04  2.44857585E-06
  5.23179194E-05  6.17560419E-05  1.28535922E-04 -5.89523542E-07  2.90160009E-03
  5.25640291E-06  1.68811854E-07  4.14058798E-06  2.39610962E-06 -1.71621762E-06
 -7.52208968E-06 -6.36795279E-06 -1.33460137E-06  4.42088948E-06  1.33005309E-06
 -9.15134860E-07 -2.71068803E-07  2.36708860E-07 -9.55741648E-07 -1.30549169E-05
 -2.58315192E-06 -8.51996473E-07 -3.28378169E-06 -6.50596645E-07 -3.63146644E-07
  1.50922934E-07  2.80212877E-07  1.15607092E-05  2.61342447E-06  8.96703179E-05
 -2.92973582E-07  1.91078233E-06  1.16793479E-06  4.41547589E-05  9.87729899E-06
  2.06370833E-03 -2.76420225E-03 -3.38473419E-04 -3.18456613E-03 -6.69919729E-04
  5.88167662E-03  6.66211713E-03  1.09285904E-03 -3.63447775E-04  5.10703688E-06
  1.07808228E-05  2.67935972E-04  1.28716553E-05  4.65462506E-05  1.07863602E-04
  1.12710391E-05  4.21116243E-05 -4.44985044E-04 -2.50037313E-06 -1.42717556E-05
  2.71670761E-04 -5.43697204E-06 -5.68141504E-06  1.86332497E-07  5.64245008E-07
 -6.16580825E-08  2.14697609E-03  1.14673722E-03  1.14401072E-03 -5.26338029E-06
 -2.53821326E-05 -6.86689526E-07  1.21234336E-03 -1.18779927E-03 -1.17815256E-04
 -1.43857877E-03  1.49183177E-04  2.93675122E-03  4.65484181E-04 -2.10235371E-03
  1.30891490E-04  4.83133574E-06  2.24830373E-05 -4.41955167E-04 -2.31409740E-06
 -6.60554929E-06 -5.36787712E-04 -5.44443054E-06 -1.30023958E-05  4.11273529E-05
  1.00571075E-06  6.54090767E-06  7.56255673E-05  1.29906791E-04 -3.30275962E-05
  2.58383198E-06  6.71005995E-06  1.41762967E-07  1.42502997E-03  1.80378791E-03
  9.94096200E-04  1.31797148E-05  2.61866757E-05  7.09632664E-07 -1.74753325E-04
  1.19598155E-03 -1.19177979E-03 -1.18377076E-04 -1.44297610E-03  1.47220594E-04
  2.94404426E-03  4.81186399E-04 -2.09458959E-03  1.30623907E-04  7.01502636E-06
  1.21422368E-05 -4.39208382E-04  7.81718466E-07 -2.06288478E-05 -5.33872351E-04
 -1.26624330E-06 -3.23644181E-05  4.03582033E-05  1.62090439E-06  3.71393572E-06
  7.52277028E-05 -3.32563317E-05  1.30776082E-04  1.51128694E-06  1.24225318E-05
  1.38982221E-07  1.42184025E-03  9.93440369E-04  1.80852726E-03  5.81780584E-06
  6.17977645E-05  6.97716390E-07 -1.74063035E-04 -7.95905956E-06  1.19517608E-03
 -2.07181458E-05 -2.87178179E-06 -2.29959829E-05 -1.12824433E-05  3.92587640E-05
  8.14038529E-05  4.34434294E-05 -4.30190741E-06 -1.16435410E-04 -1.50596891E-07
  1.15294388E-05 -1.57614054E-04  6.77624142E-07  1.13297534E-05 -2.19844133E-04
  8.03317752E-07 -5.40530518E-06 -2.74597024E-05 -1.40615145E-07 -1.03938560E-06
  1.76242617E-06  3.24527081E-07  1.81250444E-04 -1.17843871E-07  3.72042254E-06
 -1.00187740E-05  9.93666939E-06  1.19532774E-06  9.63465440E-04 -9.10705166E-07
  2.22494769E-05  2.21757023E-06 -2.75265210E-06 -2.25490867E-06  7.99668613E-04
 -9.40719598E-05 -1.31353235E-05 -1.04244803E-04 -4.94241927E-05  1.76210691E-04
  3.69853434E-04  1.92340329E-04 -2.14806312E-05 -1.46738445E-07 -1.17215582E-04
  5.14052348E-05  6.78803337E-07 -1.54726380E-04  5.08801312E-05  8.14060156E-07
 -2.17119936E-04 -2.60200143E-05 -1.33352719E-07 -2.89830626E-05 -4.55672884E-06
  1.61633543E-06  8.08466729E-06 -1.22860722E-07  1.80740135E-04  8.12511262E-07
 -4.36853199E-05  8.08340620E-06  4.65627260E-05 -9.37911570E-07  9.59565438E-04
  4.94833334E-06  1.10709169E-05 -9.80514554E-06 -1.09653917E-05  2.69252077E-07
  8.00925879E-04 -1.07557446E-06 -1.47620037E-07 -1.19750186E-06 -6.08668375E-07
  2.06757737E-06  4.21696894E-06  2.32337087E-06 -3.71524817E-07 -5.94660967E-06
 -1.25715066E-06  5.00296736E-07 -8.10223742E-06 -1.70986976E-06  5.12716096E-07
 -1.11989986E-05 -2.34237888E-06 -3.68367284E-07 -1.47608014E-06 -3.64312335E-07
 -1.07534057E-07  8.98541504E-08  6.72417983E-08  3.44641391E-06  6.49392658E-07
  1.09504185E-04 -9.10617881E-07  4.87374967E-07  4.04338924E-07  2.12120651E-05
  4.33094868E-06  5.39340310E-04  1.14221759E-07 -5.49447283E-08 -2.47625417E-07
 -3.53543508E-07 -1.87535477E-07  8.00567354E-04 -6.07965729E-06  2.32663075E-06
 -2.01324214E-05 -6.71300754E-05  1.05379294E-04  3.31190560E-05  1.69239092E-04
 -6.39995613E-04  5.99187684E-06  2.70048324E-05 -5.97636886E-04  4.46537731E-06
  2.01409800E-05 -1.27017842E-03  3.79254989E-06  1.71892549E-05 -9.03559939E-04
 -2.48959664E-06 -1.13208554E-05  1.92045631E-05 -1.83913790E-05 -1.84273047E-05
  6.40734778E-07  2.88815975E-06 -9.90067504E-09 -4.55418930E-05 -5.84958879E-05
 -5.88579514E-05  1.10856058E-06  5.20198504E-06 -8.60097884E-08  1.35673718E-04
 -1.11761198E-04 -1.11520906E-04  3.22782061E-06  1.47956792E-05  7.39310866E-08
  2.75856041E-04  5.20656431E-07  7.75052160E-08  8.25211289E-07  5.25778526E-07
 -2.06161657E-06 -1.64847301E-06 -2.24168218E-06  1.77798121E-05  9.73003410E-04
  7.84581208E-07  1.17855632E-05  1.12554491E-03  4.66147126E-07  9.00176759E-06
  8.59031796E-04  3.41065583E-07  7.26758656E-06  2.35182875E-04  3.38624151E-07
 -3.47046908E-07 -8.49957098E-08  5.00339272E-07  1.17601001E-05 -4.68516844E-08
  6.16244788E-07  7.59088326E-08 -1.02193468E-06  2.20032694E-06  1.18303897E-05
 -1.24967438E-07  6.78326257E-07 -1.54463511E-06  5.88278307E-07  2.04955482E-06
  7.48208730E-06 -2.12313068E-07  3.50647166E-07 -1.39561024E-06  1.31905145E-04
  2.41476057E-06  3.40510913E-07  3.84824825E-06  2.65084207E-06 -9.90075805E-06
 -7.47963317E-06 -1.08188589E-05  7.70236051E-05  9.39539014E-07  9.71618439E-04
  4.97832103E-05  6.24681857E-07  1.12295707E-03  3.70606100E-05  4.94565847E-07
  8.54828576E-04  3.11387672E-05  3.69633324E-07  2.34474749E-04 -1.63082166E-06
  2.32891729E-06 -3.81780572E-07 -4.77255769E-08  1.16781169E-05  1.38030372E-07
  6.64156845E-07  1.02805798E-05 -4.64600011E-06 -1.22141914E-07  1.19290697E-05
  1.75689184E-07 -7.11595346E-06  9.44670014E-06  2.87813073E-06 -2.12837412E-07
  6.91694723E-06  5.80240718E-08 -6.45800311E-06 -3.98732681E-08  1.32555209E-04
  2.11955312E-05  2.88013286E-06  3.39137623E-05  2.36837837E-05 -8.81031614E-05
 -6.36770101E-05 -9.53143902E-05  1.10921824E-03 -1.40592598E-05  3.47972713E-05
  9.39641567E-04 -1.64790611E-05  2.25160559E-05  7.09823637E-04 -2.13414313E-05
  1.71023450E-05  3.78608641E-04 -6.22317322E-06  1.40883515E-05 -5.59891586E-06
 -1.23271317E-05  2.05054865E-05 -2.21215037E-07 -1.81019626E-06  6.53264281E-09
  1.60194011E-05 -5.10387733E-05  8.96368599E-05 -1.64214029E-07 -4.61443505E-06
  7.88966506E-08 -5.79870086E-05  2.03567392E-05  8.17222844E-05 -1.17460186E-06
 -8.42822691E-06 -1.95715082E-08 -2.55814445E-05  1.32040360E-06 -1.47993099E-06
  1.03377435E-04 -5.57228272E-07 -3.72048855E-08 -1.08689771E-06 -1.50157474E-06
  3.60986674E-06  1.87489750E-06  4.76738339E-06 -2.88040199E-05 -5.18159141E-04
 -4.31724979E-07 -2.52222544E-05 -4.41262262E-04 -2.69489181E-07 -2.70795293E-05
 -7.18859064E-04 -1.69793238E-07 -1.87750488E-05 -3.05203719E-04 -5.18909758E-07
  4.92616342E-07 -1.09782157E-07 -7.30155814E-07 -5.60206241E-06  6.15175250E-08
  1.63669491E-06 -2.62536790E-07 -5.76804131E-07 -2.84738268E-06 -3.95045950E-05
  7.88928355E-08  6.44173351E-06  3.27626733E-06 -2.17617280E-06 -3.58971277E-06
 -1.51653090E-06  3.97205870E-07  3.67317520E-06  8.03867006E-07  3.12509264E-05
 -6.27681635E-08  3.40993194E-07  1.56729206E-04 -2.58323398E-06 -1.46803187E-07
 -4.88159131E-06 -7.01789548E-06  1.63031230E-05  8.91670484E-06  2.15333283E-05
 -1.32460453E-04 -3.58425289E-07 -5.19705878E-04 -1.16053683E-04 -1.93920421E-07
 -4.42046066E-04 -1.24523747E-04 -1.20674499E-07 -7.19266134E-04 -8.60831225E-05
 -4.94745939E-07 -3.07286229E-04  2.35923762E-06 -3.36838130E-06 -4.91903345E-07
  6.32382447E-08 -5.31351525E-06  3.56618783E-07 -1.28934268E-06 -1.32107757E-05
 -2.48894536E-06  7.77433637E-08 -3.88798480E-05  1.37428090E-06  1.52455438E-05
 -1.62686050E-05 -9.88130263E-06  3.96033531E-07 -3.22390651E-09  8.36649508E-07
  3.67588573E-06 -6.12713980E-08  3.08624781E-05 -2.13187488E-06  6.09736075E-08
  1.56995237E-04  2.10154411E-05  2.86486408E-06  3.35916470E-05  2.32768355E-05
 -8.71051719E-05 -6.30292104E-05 -9.39853610E-05  1.10345005E-03  7.59322206E-06
 -6.39124101E-05  9.35237974E-04  4.89339113E-06 -7.50338014E-05  7.05702393E-04
  3.77944445E-06 -9.70726090E-05  3.74756916E-04  3.06890709E-06 -2.84442734E-05
 -5.48605788E-06  2.03779500E-05 -1.23953368E-05 -3.89162465E-07 -9.79458579E-07
  8.64033416E-09  1.57594472E-05  8.89639573E-05 -5.11325375E-05 -9.76472731E-07
 -8.07485067E-07  6.87591039E-08 -5.72478606E-05  8.10615794E-05  1.95959080E-05
 -1.82503619E-06 -5.24144622E-06 -1.71442111E-08 -2.54580551E-05 -3.36537974E-07
  5.98784887E-06 -2.87737402E-06 -4.36380676E-07  1.56320991E-06  1.03235235E-04
  2.30468139E-07  3.38966891E-08  3.64280611E-07  2.35524214E-07 -9.15800553E-07
 -7.23217849E-07 -9.90916511E-07  7.91562844E-06  4.32629274E-04 -7.75065856E-07
  5.24554767E-06  5.00876662E-04 -9.00815395E-07  4.00110862E-06  3.81306683E-04
 -1.15103480E-06  3.21473528E-06  1.04120444E-04 -3.32872416E-07 -1.56164141E-07
  3.33198453E-07 -1.47208046E-07  5.33125672E-06  9.35207660E-09 -1.65332943E-06
  3.12601863E-08  1.13022345E-06 -6.02179632E-07  5.61711796E-06  8.25670813E-08
 -8.25835010E-06 -6.90548793E-07  9.63632261E-07  2.11822856E-07  3.50619612E-06
 -1.82188398E-08 -3.53666119E-06 -6.24574463E-07  2.13431848E-05  6.77339391E-08
 -4.57040583E-08  1.39079723E-05 -5.35284357E-08  4.81972264E-07  6.03652064E-05
  1.08220543E-06  1.50641510E-07  1.72262552E-06  1.20879154E-06 -4.45867923E-06
 -3.33716559E-06 -4.87462929E-06  3.45071144E-05 -6.96380726E-07  4.36862635E-04
  2.22879860E-05 -8.21114721E-07  5.04510252E-04  1.65577866E-05 -1.07592561E-06
  3.85046633E-04  1.39587042E-05 -3.15116560E-07  1.05892655E-04 -7.32504971E-07
 -6.49857749E-07  1.52613551E-06  8.95969251E-09  5.15942990E-06 -3.61051338E-07
  3.32320139E-07 -2.63770164E-06  5.17495810E-06  8.50667137E-08  5.05612490E-06
 -1.79639218E-06 -3.20641330E-06  1.06244315E-06  4.49925217E-06 -1.85590935E-08
  2.91567427E-06 -7.88279104E-07 -2.90431142E-06  6.84367651E-08  2.12666513E-05
  2.22460657E-06 -5.41473436E-08  1.38394357E-05 -1.88607918E-07  6.89406799E-08
  6.01662991E-05 -4.60153998E-08 -4.43144179E-09 -8.61162322E-08 -9.96132219E-08
  2.69175049E-07  1.47759737E-07  3.32343112E-07 -1.53038707E-06 -5.69015972E-05
 -1.25742188E-05 -1.16836684E-06 -5.63114556E-05 -1.23985629E-05 -1.09160299E-06
 -6.58842204E-05 -1.45349795E-05 -1.03088773E-06 -2.44927231E-05 -5.42562286E-06
  3.02104646E-08 -2.77269605E-08 -2.51139217E-08  4.59904646E-07  1.00772569E-07
 -2.15706530E-05 -5.76857112E-08 -9.28197325E-08 -9.36536272E-08  2.27819547E-06
  5.02124150E-07 -9.57977300E-05  1.99750251E-07 -1.88479493E-07 -1.91421671E-07
  1.83976737E-06  4.21752506E-07 -4.10793892E-05  3.38792461E-08  6.01164562E-07
  1.28408822E-07 -1.74520228E-08  2.13567824E-06  4.61249885E-07 -1.67178201E-08
  3.59542277E-06  7.90895279E-07  7.08612598E-05 -1.56365557E-04 -1.69464403E-05
 -2.19504606E-04 -2.46542603E-04  5.60578005E-04  6.80833794E-04  8.54370191E-04
 -3.83026156E-03  2.16503593E-05  9.69017762E-05 -2.50212917E-03  3.61041918E-05
  1.63270445E-04 -1.81403204E-03  5.39235665E-05  2.46192886E-04 -1.41001925E-03
  1.34289914E-05  6.11709091E-05  9.60631128E-05 -6.01085708E-05 -5.97687092E-05
  3.16460064E-06  1.45448331E-05  9.05905467E-08 -5.11290115E-06 -3.04298573E-04
 -3.04605728E-04  6.70426459E-06  3.09371123E-05 -4.68034131E-08  4.19145080E-04
 -3.74169639E-04 -3.74131777E-04  1.26110934E-05  5.82830797E-05  3.64729877E-08
  6.82421480E-05 -8.63442405E-07 -3.86573442E-06 -1.24286227E-04  2.16413235E-06
  1.01129970E-05 -1.23610664E-04 -3.76945121E-07 -1.75773675E-06  1.81017594E-07
  9.48815840E-04  1.96114032E-06  1.74599449E-07  2.65596185E-06  3.55805528E-06
 -7.12161167E-06 -8.65827201E-06 -1.11158372E-05  5.22549382E-05  7.91351311E-04
  2.27437503E-06  4.78432595E-05  6.89751581E-04  2.04857443E-06  5.64074070E-05
  1.34694452E-03  2.57181816E-06  3.68738703E-05  6.02431839E-04  1.80878991E-06
 -7.30298038E-07 -4.84907916E-07  1.70328820E-06  1.04376167E-06 -1.44308342E-07
  6.90601241E-08 -5.00922522E-07 -6.89852488E-07  8.38165301E-06  4.19317153E-05
 -4.97573919E-07  2.30222449E-06 -3.39844255E-06 -2.70806395E-06  9.64259828E-06
  6.23129038E-06 -8.06190727E-07  2.86493839E-07 -6.71477878E-08 -2.67099588E-05
 -6.98325904E-10 -1.22538452E-06 -1.68716665E-04  1.59894526E-08 -4.12386740E-08
 -6.25135958E-05 -6.08831974E-08 -6.31670967E-06 -2.88734750E-06  2.87822725E-04
  9.08374292E-06  9.08117823E-07  1.22508499E-05  1.50699702E-05 -3.10678599E-05
 -4.12839607E-05 -4.91041856E-05  2.20979114E-04  2.89979581E-06  7.87133648E-04
  2.01991590E-04  2.69197897E-06  6.84946583E-04  2.41383086E-04  3.16875616E-06
  1.33981077E-03  1.59685577E-04  1.95761778E-06  6.02537948E-04 -3.37805320E-06
  7.67133118E-06 -2.34877196E-06 -1.42480397E-07  7.14050878E-07  1.69237355E-08
 -3.42008851E-06  3.77205595E-05 -4.00122037E-06 -5.01049259E-07  4.12528927E-05
  5.42101433E-07 -1.55881551E-05  4.33714343E-05 -1.27047447E-05 -7.84588067E-07
  5.62238466E-06  5.47214199E-08  1.28803677E-07  2.76099820E-09 -2.69320705E-05
 -2.71697054E-07  2.23673666E-08 -1.68863343E-04 -5.82806211E-06 -6.04499200E-08
 -6.23412879E-05 -1.37513036E-06 -1.28225766E-05 -2.11202321E-07  2.90059482E-04
  7.98856208E-05  8.17686811E-06  1.07817225E-04  1.28159749E-04 -2.69803156E-04
 -3.61077750E-04 -4.22213700E-04  2.30126612E-03 -4.39894255E-05  1.00535865E-04
  2.09062397E-03 -4.44739514E-05  9.21575774E-05  2.72597103E-03 -5.62962436E-05
  1.10470089E-04  1.66998296E-03 -1.62963730E-05  7.22857768E-05 -2.91416249E-05
 -2.12117168E-05  6.63446449E-05 -1.19886464E-06 -5.71329475E-06 -2.88086291E-09
 -2.82434269E-06 -7.07445556E-05  3.25184324E-04 -2.33181058E-06 -2.04196134E-05
  8.67952472E-08 -1.32300975E-04 -1.16413049E-04  3.72698855E-04 -2.61349198E-06
 -3.00152182E-05  1.81509476E-07 -1.66745800E-04  4.91589753E-07 -2.64212550E-07
  8.34896814E-05 -3.48818941E-07 -4.50086859E-06 -3.02625270E-05 -3.01240023E-07
  2.25714621E-06 -3.74628975E-09 -2.27791534E-04  4.25274826E-06 -7.50896152E-06
  4.45924698E-04 -4.11337345E-06 -4.43180943E-07 -5.61706433E-06 -6.44623057E-06
  1.41030867E-05  1.84544452E-05  2.19040051E-05 -8.08503167E-05 -2.53603332E-03
 -9.37874829E-07 -5.63085138E-05 -2.52257875E-03  2.51569602E-07 -5.51692453E-05
 -2.94702300E-03  1.15170344E-06 -4.55559396E-05 -1.15695611E-03 -7.46952202E-07
  3.00559452E-06 -1.32837910E-06 -2.34480825E-06 -4.66796282E-05  3.04510908E-07
  2.79038208E-06  2.43366647E-06 -5.36705441E-06 -1.16230410E-05 -1.16586260E-04
  7.45937244E-07  1.72811721E-05  1.11192742E-05 -4.67773489E-06 -1.39938067E-05
 -1.02356700E-04  1.20358251E-06  2.41331874E-05  3.25745782E-06 -8.98543513E-05
 -4.97088496E-08 -1.12333412E-06  6.32878228E-05  2.71375018E-07 -6.68973831E-07
 -4.03285761E-05 -1.02565372E-07 -7.59904387E-07  8.86703703E-06 -1.14450147E-04
 -4.83632774E-08 -2.22318244E-06  4.18286273E-04 -1.88801574E-05 -2.01849618E-06
 -2.59736396E-05 -3.01403273E-05  6.57444424E-05  8.45881651E-05  1.02221173E-04
 -3.74497562E-04 -5.91729244E-07 -2.53891791E-03 -2.61918403E-04  5.84789053E-07
 -2.52027084E-03 -2.57375630E-04  1.38230595E-06 -2.94107328E-03 -2.11186313E-04
 -6.49772396E-07 -1.15997495E-03  1.36627918E-05 -1.09001477E-05 -6.06608109E-06
  3.04553892E-07 -4.52897692E-05  6.13386395E-07  1.02972007E-05 -5.44847877E-05
 -2.48164228E-05  7.58198585E-07 -1.13425882E-04  3.67977477E-06  5.08633863E-05
 -6.46423540E-05 -2.24771663E-05  1.18492583E-06 -9.65072816E-05  5.40090619E-06
  1.47184771E-05 -4.93287143E-08 -9.04420337E-05 -3.26897818E-06  2.72580252E-07
  6.44509399E-05 -4.69993871E-06 -1.00009303E-07 -4.02779123E-05 -2.11338814E-07
  4.06751106E-05 -3.33231511E-08 -1.16672319E-04 -7.67548593E-06  8.53124157E-07
  4.21628413E-04  7.87403956E-05  8.05168277E-06  1.06255716E-04  1.26334043E-04
 -2.65842700E-04 -3.55898452E-04 -4.16052027E-04  2.28535155E-03  2.19358034E-05
 -1.99151874E-04  2.08046656E-03  2.01490721E-05 -2.01125191E-04  2.71699315E-03
  2.43488617E-05 -2.56235071E-04  1.65971793E-03  1.59014640E-05 -7.51164977E-05
 -2.84318268E-05  6.58905042E-05 -2.16730432E-05 -1.24092337E-06 -5.31818167E-06
  1.55538751E-09 -2.66555400E-06  3.22559365E-04 -7.24034243E-05 -4.40209974E-06
 -1.05887334E-05  9.07089922E-08 -1.30343832E-04  3.69811852E-04 -1.17724246E-04
 -6.44536804E-06 -1.16236864E-05  2.32110461E-07 -1.66173193E-04 -4.58707654E-08
  2.16957770E-06 -3.02688078E-05 -9.37025315E-07 -1.78962591E-06  8.33791523E-05
  4.97807426E-07 -1.40361166E-06 -1.03590971E-08 -2.25391086E-04 -1.62140301E-06
  1.93089853E-05 -5.24591242E-05 -1.63265084E-06 -1.02539988E-05  4.44412079E-04
  8.60021897E-07  7.67168279E-08  1.16552785E-06  1.56140206E-06 -3.12365709E-06
 -3.79900036E-06 -4.88767797E-06  2.32602777E-05  3.46024235E-04 -2.43698626E-06
  2.13574622E-05  3.00726919E-04 -2.46392456E-06  2.52401372E-05  5.92867808E-04
 -3.04854721E-06  1.64146292E-05  2.65649570E-04 -8.70758438E-07 -3.18948821E-07
  7.75403100E-07 -2.40172355E-07  6.10505828E-07 -5.94504153E-10 -5.19837267E-06
 -2.46857629E-07  4.18008505E-06 -7.76202421E-07  1.96217998E-05  1.58805564E-07
 -2.25595191E-05 -1.51244871E-06  4.33526108E-06 -1.26920349E-06  3.96080631E-06
  1.77211969E-07 -2.90568996E-05 -2.15416455E-08 -6.23163865E-05  2.85589025E-08
 -1.08215087E-06 -7.54855666E-05 -1.60916235E-08  5.10782011E-07  3.97530767E-05
 -1.54454310E-08 -7.15729807E-08 -1.23449856E-06  2.58459518E-05  2.05284413E-07
 -2.22192115E-06 -5.21718759E-05 -4.62577289E-07  3.34863905E-06  1.50678041E-04
  4.06767502E-06  4.08801133E-07  5.48829249E-06  6.73601309E-06 -1.39027748E-05
 -1.85029585E-05 -2.20038583E-05  9.89525412E-05 -2.08358614E-06  3.58883292E-04
  9.03916128E-05 -2.10650464E-06  3.13017943E-04  1.08025576E-04 -2.71846798E-06
  6.07713781E-04  7.15373879E-05 -7.79000547E-07  2.72927035E-04 -1.50996193E-06
 -1.10029437E-06  3.48312253E-06 -2.28462047E-09  1.90972787E-07 -1.14343542E-06
 -1.54323118E-06 -3.59724876E-06  1.87080296E-05  1.49278336E-07  1.76788130E-05
 -4.95031505E-06 -6.94260159E-06 -5.89696718E-06  1.96079822E-05  1.78524989E-07
  1.36837472E-06 -6.39976018E-06  4.69056774E-08  2.89879443E-08 -6.25384129E-05
  2.27478776E-06 -1.37067551E-08 -7.54500923E-05 -4.99921116E-06 -1.42811430E-08
  3.97763954E-05 -4.33029548E-09 -5.79052590E-06  2.09922095E-07  2.55340447E-05
  1.53017007E-05 -4.74456736E-07 -5.12009491E-05 -9.94596785E-06  2.28165762E-07
  1.49948919E-04 -2.85874408E-07 -2.94071315E-08 -3.89147819E-07 -4.81543888E-07
  9.99569579E-07  1.30552652E-06  1.59832442E-06 -4.29915019E-06 -1.72637810E-04
 -3.81836806E-05 -2.76275534E-06 -1.69113499E-04 -3.73249258E-05 -2.43984288E-06
 -2.11768947E-04 -4.65744336E-05 -2.76191751E-06 -8.50093770E-05 -1.87391634E-05
  1.92308456E-07 -1.27359406E-07 -1.20083030E-07  1.94549665E-07  5.70180699E-08
 -5.83365906E-05  4.19847499E-08 -5.89043851E-07 -5.55885440E-07  5.54670162E-06
  1.26254958E-06 -2.62991335E-04  5.43556105E-07 -5.66754672E-07 -5.36565929E-07
  1.05293070E-05  2.34587639E-06 -3.25368213E-04  1.59517756E-07 -1.64177269E-06
 -3.62512310E-07 -2.31188151E-08  1.52800065E-06  3.57554069E-07 -1.48886308E-08
  1.99611683E-06  4.35311442E-07  7.56708698E-05  6.40235870E-07 -8.48933031E-06
 -1.92706770E-06 -1.98931333E-07 -1.65843354E-06 -2.73280466E-07 -1.95102535E-07
  1.77287123E-05  3.87596842E-06  3.31989748E-04  4.63322971E-03  3.54245753E-04
  5.11394105E-03  1.04725140E-03 -6.87805809E-03 -6.59600204E-03 -8.80871213E-04
  2.14724881E-05 -2.62116346E-06 -6.57848016E-06  9.05390573E-05 -1.86164669E-06
 -1.60423060E-07  1.62998616E-04 -7.01512062E-07  4.51311934E-07  1.10908793E-04
  5.60762244E-07  3.00530475E-06 -1.15599790E-04  2.39176109E-05  1.13193457E-04
 -1.77697473E-06 -1.30651122E-05 -1.82194737E-07 -1.92867871E-03 -1.61214274E-03
 -2.59183665E-03 -4.07615180E-06 -2.32413560E-05 -6.56052936E-08 -4.76555873E-04
 -4.31214369E-04 -2.82041674E-04 -3.49789108E-07 -8.70697530E-06 -9.95982366E-08
 -2.86434959E-06 -8.49202279E-08  5.59261026E-07 -3.24253348E-06  2.54043833E-08
 -5.30727034E-07 -4.15457802E-06 -4.76733946E-08 -6.16502092E-07  3.54450333E-09
  1.86938212E-05  1.35092110E-07 -1.12221095E-07  6.90346763E-06  7.27359824E-08
  7.19859990E-07 -2.86602878E-05 -3.46728948E-07 -3.36640705E-06  5.24370340E-08
  9.86137601E-04 -1.97315673E-06 -7.29469002E-08 -1.55755224E-06 -6.41631895E-07
  7.28609683E-07  2.32704186E-06  1.27477299E-06  4.43432478E-07  2.16058059E-07
 -8.14063194E-08  4.45336938E-07  1.31052834E-06  1.66689944E-07  5.57538638E-07
 -1.18209362E-07 -1.12789758E-07  2.21114513E-07 -8.41520692E-08 -5.18060640E-08
  4.73760407E-08  3.48012875E-08 -3.78878208E-08 -1.26785859E-06 -2.98487445E-07
  2.90283051E-05 -1.99946661E-08 -1.75951849E-07  2.25725551E-07 -4.20384480E-06
 -9.91040669E-07 -3.78293656E-04  1.52129360E-07 -7.81268244E-08 -7.89014386E-08
 -2.41689606E-06 -5.40964316E-07  6.66320692E-05  2.95756176E-08 -3.71754053E-07
  9.09037315E-08 -9.01550609E-09 -3.59065872E-07 -7.20654509E-08  1.17262814E-08
  9.40879254E-07 -2.27776541E-08  6.70557519E-07  9.66241412E-08 -3.09388165E-06
  2.63774438E-07  8.74774896E-10  3.93433996E-08  4.37873978E-08 -2.14330975E-08
  3.01100776E-06 -6.29528808E-07 -1.60762995E-05  2.64042876E-06  1.30077408E-04
  2.71627660E-03  2.07559427E-04  2.99706312E-03  6.14259463E-04 -4.02863005E-03
 -3.86634003E-03 -5.17932793E-04  1.30565606E-05 -1.51635426E-06 -4.06035321E-06
  5.34811195E-05 -8.74397999E-07 -1.17104344E-06  9.57037842E-05 -4.23863007E-07
  2.92755362E-07  6.51701844E-05  3.12346592E-07  1.82612429E-06 -6.77966343E-05
  4.03010588E-05  3.99971694E-05 -1.37456144E-06 -6.23337621E-06 -8.84731370E-08
 -1.12917330E-03 -1.23051165E-03 -1.23124489E-03 -2.71120729E-06 -1.22707265E-05
 -8.09468324E-08 -2.79333847E-04 -2.08553453E-04 -2.08827469E-04 -6.29645892E-07
 -3.26912884E-06 -4.78723044E-08 -1.73546542E-06 -1.16191658E-07 -5.50189030E-07
 -2.15691520E-06 -2.57660656E-08 -1.17692396E-07 -2.17523750E-06  1.23725038E-07
  5.53885448E-07  1.32561450E-08  1.07644194E-05 -7.31789632E-07 -3.19901083E-06
 -6.42089525E-06  6.09214999E-08  3.82733699E-07 -6.25641167E-06  6.74234919E-07
  3.11163873E-06  1.04207019E-08  4.01356356E-04 -4.82160954E-06  2.76347608E-04
 -1.97897642E-06 -7.30518327E-08 -1.56550856E-06 -6.40152609E-07  7.40550471E-07
  2.33896528E-06  1.27661785E-06  4.32728566E-07  2.07743882E-07 -8.24294963E-08
  4.37170236E-07  1.30799063E-06  1.66405686E-07  5.41373230E-07 -1.26902792E-07
 -1.16837863E-07  2.16932414E-07 -8.61687816E-08 -5.30752403E-08  4.17644159E-08
  2.52504133E-08 -3.09897767E-08 -1.26633971E-06 -2.98457855E-07  2.90496673E-05
 -6.22900531E-09 -4.00846367E-08  1.45530676E-07 -4.20431884E-06 -9.92230398E-07
 -3.78563709E-04  1.51775333E-07 -6.86291791E-08 -7.89890836E-08 -2.41577111E-06
 -5.42261442E-07  6.66160763E-05  3.23496505E-08  4.10007515E-07 -7.93698821E-08
  8.57423943E-10 -3.57182122E-07 -7.00339028E-08 -8.14428467E-09 -1.13058149E-07
  2.04743106E-07  6.33535647E-07  8.90684804E-08  1.25166431E-06 -6.97718605E-07
 -1.74271027E-08  3.35303508E-08  4.26550008E-08  8.78791484E-09 -2.81878707E-06
  6.58677217E-07 -1.60148832E-05 -2.87349338E-06  1.23668536E-04  4.81187244E-06
  1.29995748E-04  4.64450109E-03  3.54664875E-04  5.12283283E-03  1.05087569E-03
 -6.88218384E-03 -6.60933315E-03 -8.87995272E-04  2.32405415E-05 -2.55753289E-06
 -7.27113599E-06  9.21919573E-05 -1.11366760E-06 -3.81408350E-06  1.63982657E-04
 -7.55781901E-07  5.63735574E-07  1.11719696E-04  5.02478648E-07  3.23367590E-06
 -1.15906302E-04  1.13814478E-04  2.34056138E-05 -2.91797973E-06 -8.22721467E-06
 -9.37665137E-08 -1.92835925E-03 -2.59159405E-03 -1.61317210E-03 -5.18646096E-06
 -1.86723530E-05 -5.42126612E-07 -4.77511049E-04 -2.81184612E-04 -4.31221596E-04
 -1.80133651E-06 -2.45282911E-06 -7.92341389E-08 -3.06276062E-06  1.28658741E-07
 -4.04315601E-07 -4.19608618E-06 -1.07986212E-07  1.28150016E-07 -3.17208447E-06
 -1.31488302E-07 -2.30495342E-07 -4.86603879E-09  1.80847759E-05 -9.05952190E-08
  7.56768517E-07 -2.86781941E-05  1.28241554E-07  5.84864919E-07  7.15675346E-06
 -7.66750197E-07 -1.52022459E-06  5.91241281E-08  4.65225706E-04  2.83866685E-06
  4.01434846E-04 -2.65870638E-06  9.86535805E-04 -1.73543689E-04 -6.47145815E-06
 -1.36945694E-04 -5.60078078E-05  6.37817803E-05  2.05367105E-04  1.10910400E-04
 -2.52948461E-05  2.52661224E-08  6.92394194E-06 -2.21022979E-05  5.82608009E-08
  2.74962748E-05 -1.32982237E-05  1.54606466E-07 -4.45082821E-07 -1.18711092E-05
 -2.75136757E-08 -1.27655479E-06  1.51650956E-06  2.66190944E-06 -9.82733152E-07
 -2.05658236E-09  5.80338605E-06 -2.38276142E-07 -8.39479577E-06  3.82653479E-06
  1.10536925E-05 -1.04826496E-07 -4.57152487E-04 -8.21410553E-07  9.96139996E-06
 -2.65620999E-06 -6.45768833E-06  1.68242368E-07  2.17954687E-05 -5.98976781E-07
  2.57241071E-06 -1.48942688E-08  7.96193629E-06 -8.53159784E-07  6.18587309E-08
 -5.94587748E-06  1.25111171E-06  3.70194953E-09 -3.27479067E-06 -4.00658078E-08
  9.73848295E-06 -1.03335711E-07  2.47361607E-05 -4.89605085E-06  2.52909014E-07
 -2.70573440E-05  6.04078973E-09 -4.01043626E-08 -2.65747598E-05  1.61132014E-07
 -2.92246235E-06  4.26500786E-07 -1.99745761E-06  3.05518913E-08  4.12015743E-07
  1.87131884E-04 -1.70828772E-05 -6.36573299E-07 -1.34956518E-05 -5.51663822E-06
  6.32166763E-06  2.02136375E-05  1.09564416E-05 -2.71172508E-06  3.44077185E-06
  7.00723693E-09 -2.37843368E-06  1.25936259E-05 -1.05118348E-08 -1.52980779E-06
 -8.27584441E-08  1.08775328E-07 -1.26285456E-06 -3.55364500E-07 -1.37071639E-09
  1.50860704E-07 -1.82309973E-08  1.83711017E-07  2.56791500E-06 -9.99256319E-09
 -9.15377655E-07 -8.57579937E-07  2.03434031E-07  1.29424762E-06 -2.04109885E-04
  1.39986796E-08  3.13051743E-06  9.74262046E-07 -7.22062928E-07 -1.90771678E-07
  9.34957708E-06  9.24513060E-08 -8.29579522E-07  2.48537819E-07 -3.23334583E-06
  2.46176449E-10 -1.07967751E-07 -2.77979540E-06  1.65378205E-08  1.47056362E-07
  7.69511828E-06  4.65724689E-09  1.12239101E-06  9.37878534E-07 -2.64158432E-05
 -1.68179616E-08 -3.75499177E-07 -1.25816580E-05  1.12782244E-07 -1.10784328E-07
  3.86474611E-05 -5.05217826E-09  2.22418617E-06 -6.64316260E-07  2.03005437E-06
  5.23623101E-07 -3.15608363E-06 -4.11784692E-07 -2.45893054E-09  6.90066630E-05
 -7.76105145E-05 -2.89697344E-06 -6.12439261E-05 -2.50115185E-05  2.84591459E-05
  9.18940980E-05  4.95750519E-05 -1.13241188E-05  3.16731666E-08  3.06095271E-06
 -9.90514019E-06  1.15272759E-08  1.23130375E-05 -5.93100821E-06  1.28331253E-07
 -3.29109802E-07 -5.31708173E-06  3.44474134E-09 -6.07536557E-07  6.80500531E-07
  8.55381772E-07 -1.00891850E-07 -1.06542054E-08  2.61119267E-06 -1.91823266E-07
 -3.76918485E-06  5.94842988E-06  7.53157054E-07  1.63879671E-08 -2.04587217E-04
  7.13749041E-07  4.48814777E-06 -9.43532014E-07 -3.14764446E-06  8.68782698E-08
  9.71419623E-06 -2.10751327E-07  1.15535243E-06  3.12721006E-10 -3.25230678E-06
  6.74041766E-07  1.74861865E-08 -2.64146214E-06 -4.89058737E-07  5.47619070E-09
  7.66558548E-06  2.48284861E-07  4.38421973E-06 -1.61099304E-08 -2.66128158E-05
 -5.48900484E-07  1.17790067E-07 -1.20887260E-05 -1.65921501E-06 -5.80868764E-09
  3.85477339E-05  4.92118560E-07 -9.25480178E-07 -3.95006273E-07  8.05862232E-07
  1.44145711E-07 -2.13369779E-06  4.82178963E-05 -8.44578103E-09  6.92204740E-05
 -3.81988614E-05 -1.42471266E-06 -3.01744755E-05 -1.23190386E-05  1.40949662E-05
  4.52362418E-05  2.44865702E-05 -6.13196588E-06  7.54191885E-06 -4.22182675E-08
 -5.39125863E-06  2.82478060E-05 -2.71242042E-09 -3.47606216E-06 -5.44649865E-07
  9.50784419E-08 -2.86271149E-06 -9.01454127E-07 -4.66464232E-08  3.32479258E-07
 -1.98366057E-07  5.77630484E-07  5.79867907E-06 -6.48401739E-10 -1.16315229E-06
 -1.92055325E-06  2.55686400E-06  8.16701828E-07 -4.56703310E-04 -1.09163131E-07
 -3.90906734E-06  2.18996242E-06 -1.50762064E-06 -5.31266005E-07  2.08720877E-05
  1.80079478E-07 -2.51996824E-06  5.61028106E-07  7.91433483E-06 -1.80793309E-08
  2.74824202E-07 -6.14916588E-06  6.06063884E-08 -1.88499937E-07 -3.24630052E-06
  3.09770715E-09 -2.01198744E-07  2.13459389E-06  2.49049761E-05 -1.01483285E-07
 -3.44848251E-08 -2.81992543E-05  2.47328892E-07 -1.06844594E-06 -2.64777059E-05
 -4.10899715E-08  7.08705443E-07  2.54458716E-07 -8.97395237E-07 -7.06564977E-07
  2.98080115E-06 -5.24301509E-07  4.76531289E-08  4.81530624E-05 -3.12199390E-09
  1.86952082E-04  1.41562912E-03  1.59035654E-04  1.97100285E-03  1.94190714E-04
 -3.55041557E-03 -2.32720558E-03  3.13137311E-04 -1.63194627E-04 -2.93237003E-06
 -9.90196907E-06 -9.10746827E-05 -2.36304909E-06 -9.04096257E-06  6.02645024E-06
 -7.94040979E-07  2.42528373E-06 -1.96562180E-05 -4.32832661E-07 -4.89546181E-07
 -5.23358380E-05  3.42280942E-05  5.45235447E-05 -1.13974646E-06 -7.75038440E-06
 -8.62139614E-08 -1.49675399E-03 -9.14630158E-04 -1.13182740E-03 -3.47880562E-06
 -8.51999014E-06 -1.27256012E-07 -1.90831618E-04 -2.74006046E-04 -2.25332006E-04
  9.01216838E-07  3.46771563E-06  9.06730846E-08  1.22565392E-05 -1.47066687E-07
 -3.75828361E-07 -9.41136251E-06  4.58480787E-07  2.88316896E-06  1.58460022E-05
  3.44217687E-08 -6.49013341E-07  2.46094414E-08  5.93263260E-05 -5.91978529E-07
 -4.10455465E-06 -4.25847258E-05  2.08989588E-06  1.28855125E-05  1.89358716E-05
 -5.48531951E-07 -4.94532713E-07  1.34392755E-07  3.64806933E-04 -5.99201338E-08
  1.87519324E-04  7.23989536E-09  2.75522261E-04 -1.46567060E-06  2.34060553E-07
 -8.07038742E-07  4.40167648E-07  3.08710110E-04 -8.89015971E-07 -1.43655531E-08
 -7.24184904E-07 -5.42024483E-07  8.72392975E-07  6.19716317E-07  7.72023031E-07
  6.78957826E-07  1.13109554E-06  2.11380751E-07  7.22035080E-07 -2.21307316E-09
 -2.11760170E-08  5.59716268E-07  2.89662580E-06  5.92383061E-07  3.83868967E-07
  8.06741040E-07  1.70742771E-07  3.85831088E-08 -2.00015113E-08 -4.47234819E-08
 -1.14774519E-06 -2.63261718E-07  9.10724599E-06  1.15683635E-07 -2.74220788E-07
 -1.18455464E-07  3.30096356E-06  7.13308614E-07 -1.22291130E-04 -1.23493857E-07
 -7.89874421E-09 -3.86936910E-08 -3.82500090E-07 -1.06744683E-07  3.28988813E-05
 -5.28300124E-08 -3.87957089E-07 -9.15134625E-08 -8.87646629E-10  4.33718509E-07
  9.36568581E-08  3.52207153E-09  4.19094952E-07  8.47017938E-08  1.72577486E-05
 -3.10846579E-07  8.73655737E-07  2.00540405E-07  9.78253264E-08  1.87314940E-06
  3.88308369E-07  9.41062486E-08 -1.18729627E-06 -2.50255563E-07  4.04479665E-05
  2.14994446E-09  2.89230007E-05 -2.95222222E-08  2.91761292E-05  9.98348708E-08
 -3.68790745E-07 -5.67915439E-07 -1.28020609E-07 -1.65478684E-06  3.95693223E-08
  6.23829645E-05  1.41894154E-03  1.59090320E-04  1.97369132E-03  1.96173255E-04
 -3.55358043E-03 -2.32952704E-03  3.10360564E-04 -1.64578830E-04 -2.55290215E-06
 -1.19601689E-05 -9.26587034E-05 -2.38783674E-06 -9.17826962E-06  5.04553148E-06
  2.57751031E-07 -2.63208281E-06 -2.05460055E-05 -1.57423374E-07 -1.90618475E-06
 -5.24924056E-05  5.49138273E-05  3.40954870E-05 -1.71007448E-06 -5.32438547E-06
 -5.65169338E-08 -1.49708325E-03 -1.13041722E-03 -9.14746057E-04 -1.81433335E-06
 -1.62860204E-05 -2.44018545E-07 -1.90437031E-04 -2.25528647E-04 -2.73616660E-04
  7.29941508E-07  4.16800857E-06  7.30518913E-08  1.24535371E-05 -8.36886982E-08
 -7.53073347E-07  1.57608186E-05  6.46129286E-07  2.07970086E-06 -9.33218788E-06
 -1.39726299E-07  1.36549663E-07  2.20072438E-08  6.04688344E-05 -9.15941595E-07
 -2.65399056E-06  1.81110053E-05  2.83485892E-06  9.75925860E-06 -4.23954365E-05
 -1.11747541E-07 -2.54449489E-06  1.36731723E-07  2.75558585E-04  6.60600315E-08
  1.87393973E-04 -9.89173051E-09  3.64764838E-04  1.98776244E-06 -1.83832173E-07
  1.02639358E-06 -3.44330127E-07  2.08236581E-04  6.98338856E-08  3.08290107E-04
 -1.73884472E-04 -5.27150922E-06 -1.38639544E-04 -7.24477073E-05  9.88871247E-05
  1.77737933E-04  1.23416595E-04  8.53807890E-06  3.79472701E-07  2.33183422E-05
  1.33796652E-05  4.90075970E-07  2.05673534E-05  1.08005501E-05  3.41358858E-07
  4.31197310E-05  8.47126852E-06  1.86130984E-07  1.18818228E-05  1.89489058E-06
  9.43855825E-07 -2.42821692E-06  4.40133501E-08 -4.99081895E-06 -3.19941269E-07
  5.58914733E-06 -7.70302630E-06 -1.08119761E-05  6.73106372E-08 -3.46737334E-04
 -1.06917112E-06 -8.78197663E-07 -3.40877588E-06 -5.75708735E-06  5.80730035E-08
  3.35857313E-05 -2.13344150E-07 -9.46596953E-07  1.31569893E-09 -1.02150800E-05
 -3.49590620E-08 -1.96534923E-08  2.41846697E-05 -4.57056877E-07 -1.85866133E-08
 -4.53456902E-06 -6.67910270E-08 -1.06082597E-05  4.35567055E-08 -2.63741804E-05
  2.93585471E-06 -2.94982834E-07  5.90850765E-05  2.22653004E-06  5.04012802E-08
 -1.18703221E-05 -9.21205520E-08  8.48460505E-07  1.12897131E-07  1.09677814E-06
  1.06788944E-07  2.91349456E-06  7.01490389E-05  2.08486049E-08  3.13279100E-05
  5.26234969E-09  1.29064467E-06  2.52686073E-07  3.14427279E-07  1.64847332E-04
 -3.82692401E-05 -1.16046793E-06 -3.05424192E-05 -1.59627267E-05  2.18656164E-05
  3.91104916E-05  2.73221263E-05  1.22589545E-06  2.24459578E-05  3.04886150E-07
  2.33195061E-06  1.93925903E-05  4.08136487E-07  1.73906498E-06  4.24631746E-05
  2.86908601E-07  1.53534846E-06  1.14341361E-05  1.61536638E-07  4.18197872E-07
 -5.65479577E-07  2.29800933E-07 -5.21710400E-06  4.52268718E-08 -1.38736229E-06
  1.24162998E-06 -2.52727194E-06 -1.59479090E-06 -3.46893146E-04  7.53510322E-08
 -4.20797601E-06 -3.02096523E-07 -1.10124300E-06 -8.80922438E-07  3.34525739E-05
  5.69647779E-08 -1.65170036E-06 -2.03118638E-07 -1.01857357E-05  3.60059780E-09
 -1.07726702E-07  2.43346256E-05 -1.71332738E-08 -9.95629259E-09 -4.60687875E-06
 -1.80235595E-08 -2.81661179E-07 -2.30999159E-06 -2.68085905E-05  4.72219678E-08
  5.29982606E-07  6.02537986E-05 -2.96204128E-07  6.47484514E-07 -1.19244472E-05
  5.37252870E-08 -3.47756797E-07  6.16320412E-07  3.42860361E-07  2.48353928E-07
  3.31642993E-07  2.20283424E-07  4.85089076E-09  3.13088940E-05  2.15064850E-08
  6.99399315E-05  4.61683937E-08  1.08158224E-06  3.07723061E-07 -6.51331929E-08
  1.65007552E-04  1.97412280E-04  2.04215520E-04  1.59614564E-03 -5.92303640E-04
 -4.80292071E-03 -1.70267612E-03  2.10794923E-03 -1.36144024E-04 -2.64420007E-06
 -1.19616847E-05  4.60124213E-05 -4.66104825E-07 -2.11641644E-06  1.95253272E-04
  5.17077271E-07  2.46041608E-06  9.15267285E-05  7.48520630E-07  2.75328619E-06
 -7.15129044E-05  6.97367061E-05  6.96362585E-05 -1.64812647E-06 -7.63311520E-06
 -3.66434589E-08 -2.88360551E-03 -1.66496573E-03 -1.66575071E-03 -5.64184826E-06
 -2.53492668E-05 -1.34105153E-07 -2.94538555E-04 -5.05764475E-04 -5.05344847E-04
  2.03070685E-06  8.35334124E-06  1.26791280E-07  4.47903662E-05 -1.78907607E-07
 -8.72947465E-07 -1.96867672E-05  3.68599501E-07  1.77581853E-06 -1.95402622E-05
 -7.84701044E-08 -3.99518511E-07  3.44251505E-08  5.52872618E-05 -3.77688552E-07
 -1.53041790E-06 -4.40667771E-05 -7.80995848E-08  1.44748107E-09 -4.40104840E-05
 -1.69288537E-07 -6.75971797E-07  1.44900164E-08  5.09448581E-04  3.29079558E-08
  2.98188943E-04  2.55751947E-08  5.09112092E-04  3.61337366E-06  3.70912799E-07
  1.63163785E-06  8.42026447E-07  3.96077348E-04 -9.80520424E-08  3.96378760E-04
 -1.41345736E-06 -3.04374733E-07  9.47843006E-04
Natural orbital occupancies                R   N=          59
  9.99774906E-01  9.83885926E-01  9.83737263E-01  5.00000000E-01  5.00000000E-01
  2.29447421E-03  2.01672141E-03  3.51680938E-06  8.74870050E-05  1.50668533E-03
  3.69689206E-05  2.29456832E-03  8.17988858E-03  1.18308770E-04  8.98987811E-03
  4.14702113E-04  1.22159144E-07  1.07586094E-05  1.57323604E-05  4.36733305E-07
  1.55129300E-04  2.01674698E-03  6.29959567E-07  1.12335167E-04  6.45222374E-05
  1.65099406E-07  1.18333978E-05  7.16723132E-05  8.55846241E-07  1.18332227E-05
  2.81138112E-05  8.63400269E-07  1.71619777E-03  1.50689350E-03  1.10657185E-06
  1.55125469E-04  1.57363244E-05  6.37406982E-07  9.48530057E-06  1.28165286E-05
  1.10658316E-06  1.48091328E-05  1.35263077E-05  1.56440205E-06  5.08623964E-05
  1.35277661E-05  1.00812862E-06  5.09698939E-05  8.80636228E-05  3.69681621E-05
  9.72149571E-05  7.13212519E-05  1.55059321E-06  8.74872280E-05  6.45865839E-05
  8.63467902E-07  1.12287739E-04  1.28165281E-05  1.84214362E-05
Dipole Moment                              R   N=           3
 -1.32966505E-03 -1.16844945E-05 -5.77676323E-05
