[Molden Format]
p30-20 set                                                                      
[Atoms] AU
 C        1     6        0.0000        0.0000        0.0000
 H        2     1       -1.1922        1.1922        1.1922
 H        3     1        1.1922       -1.1922        1.1922
 H        4     1       -1.1922       -1.1922       -1.1922
 H        5     1        1.1922        1.1922       -1.1922
[GTO]
    1 0
s    5 1.00
    1238.401693800000  0.551736504811E-02
     186.290049920000  0.410888285559E-01
      42.251176346000  0.182253821265E+00
      11.676557932000  0.468284594374E+00
       3.593050648200  0.445758173360E+00
s    1 1.00
       0.402451473630  0.100000000000E+01
s    1 1.00
       0.130901826680  0.100000000000E+01
p    3 1.00
       9.468097062100  0.568883320110E-01
       2.010354514200  0.312940593365E+00
       0.547710047070  0.760650165091E+00
p    1 1.00
       0.152686137950  0.100000000000E+01
d    1 1.00
       0.800000000000  0.100000000000E+01
 
    2 0
s    3 1.00
      13.010701000000  0.334854848130E-01
       1.962257200000  0.234721870881E+00
       0.444537960000  0.813770285260E+00
s    1 1.00
       0.121949620000  0.100000000000E+01
p    1 1.00
       0.800000000000  0.100000000000E+01
 
    3 0
s    3 1.00
      13.010701000000  0.334854848130E-01
       1.962257200000  0.234721870881E+00
       0.444537960000  0.813770285260E+00
s    1 1.00
       0.121949620000  0.100000000000E+01
p    1 1.00
       0.800000000000  0.100000000000E+01
 
    4 0
s    3 1.00
      13.010701000000  0.334854848130E-01
       1.962257200000  0.234721870881E+00
       0.444537960000  0.813770285260E+00
s    1 1.00
       0.121949620000  0.100000000000E+01
p    1 1.00
       0.800000000000  0.100000000000E+01
 
    5 0
s    3 1.00
      13.010701000000  0.334854848130E-01
       1.962257200000  0.234721870881E+00
       0.444537960000  0.813770285260E+00
s    1 1.00
       0.121949620000  0.100000000000E+01
p    1 1.00
       0.800000000000  0.100000000000E+01
 
[MO]
Sym=     1a
Ene=   -0.112265E+02
Spin= Alpha
Occup= 1.999959
     1     0.990061
     2     0.041785
     3    -0.035261
     4    -0.000041
     5     0.000061
     6     0.000239
     7    -0.000053
     8     0.000057
     9     0.000098
    10     0.002475
    11     0.002463
    12     0.002458
    13    -0.000032
    14    -0.000008
    15     0.000000
    16    -0.003344
    17     0.006661
    18    -0.001275
    19     0.001283
    20     0.001253
    21    -0.003624
    22     0.006602
    23     0.001288
    24    -0.001287
    25     0.001320
    26    -0.003700
    27     0.006575
    28    -0.001302
    29    -0.001293
    30    -0.001281
    31    -0.003793
    32     0.006546
    33     0.001293
    34     0.001305
    35    -0.001291
Sym=     2a
Ene=   -0.678938E+00
Spin= Alpha
Occup= 1.975553
     1    -0.128213
     2     0.233804
     3     0.067604
     4    -0.216054
     5     0.208539
     6     0.203404
     7    -0.096261
     8     0.092870
     9     0.090192
    10     0.013946
    11     0.014143
    12     0.013958
    13    -0.010886
    14    -0.011253
    15     0.011535
    16     0.430109
    17     0.149828
    18     0.013066
    19    -0.013270
    20    -0.013359
    21    -0.020797
    22    -0.027316
    23    -0.006127
    24     0.005837
    25     0.005034
    26    -0.007457
    27    -0.022299
    28    -0.004910
    29     0.006419
    30     0.006310
    31    -0.015263
    32    -0.025459
    33    -0.006187
    34     0.005008
    35     0.005977
Sym=     3a
Ene=   -0.668974E+00
Spin= Alpha
Occup= 1.974797
     1     0.121692
     2    -0.222801
     3    -0.063046
     4    -0.215257
     5     0.222246
     6    -0.201712
     7    -0.095856
     8     0.098934
     9    -0.089123
    10    -0.013453
    11    -0.013258
    12    -0.013161
    13     0.010783
    14    -0.011914
    15     0.011614
    16     0.033090
    17     0.030741
    18    -0.005387
    19     0.005742
    20    -0.005553
    21    -0.431844
    22    -0.152307
    23     0.013028
    24    -0.012842
    25     0.013304
    26     0.011334
    27     0.022746
    28    -0.006331
    29     0.005338
    30    -0.006075
    31     0.018697
    32     0.025460
    33    -0.005403
    34     0.006170
    35    -0.005769
Sym=     4a
Ene=   -0.659423E+00
Spin= Alpha
Occup= 1.973718
     1    -0.115403
     2     0.212112
     3     0.057821
     4     0.211603
     5     0.207454
     6    -0.230390
     7     0.094031
     8     0.091949
     9    -0.103090
    10     0.012592
    11     0.012518
    12     0.012788
    13     0.012312
    14    -0.011085
    15    -0.011361
    16    -0.036822
    17    -0.031042
    18     0.005165
    19     0.006060
    20    -0.005680
    21    -0.032488
    22    -0.029258
    23     0.005981
    24     0.005274
    25    -0.005852
    26    -0.012715
    27    -0.021931
    28     0.006200
    29     0.006148
    30    -0.005718
    31     0.432492
    32     0.155150
    33    -0.013161
    34    -0.013240
    35     0.012703
Sym=     5a
Ene=   -0.644061E+00
Spin= Alpha
Occup= 1.972106
     1    -0.105289
     2     0.193016
     3     0.053672
     4    -0.218772
     5    -0.223090
     6    -0.224821
     7    -0.097480
     8    -0.099300
     9    -0.100457
    10     0.011540
    11     0.011533
    12     0.011545
    13     0.012054
    14     0.011967
    15     0.011702
    16    -0.041771
    17    -0.031785
    18    -0.006605
    19    -0.005201
    20    -0.005239
    21    -0.037113
    22    -0.029916
    23    -0.005259
    24    -0.006556
    25    -0.005445
    26     0.434380
    27     0.156948
    28     0.013070
    29     0.012975
    30     0.012944
    31    -0.035450
    32    -0.029477
    33    -0.005335
    34    -0.005463
    35    -0.006525
Sym=     6a
Ene=   -0.213737E-01
Spin= Alpha
Occup= 0.017928
     1     0.253905
     2    -1.142246
     3     0.373290
     4     0.493065
     5     0.489170
     6     0.493133
     7     0.062283
     8     0.060864
     9     0.057570
    10     0.158371
    11     0.157437
    12     0.157584
    13     0.014713
    14     0.014780
    15     0.016663
    16    -0.006593
    17    -0.084588
    18     0.018651
    19     0.020290
    20     0.018286
    21    -0.012844
    22    -0.080545
    23     0.019633
    24     0.020065
    25     0.021594
    26     0.939556
    27     0.080811
    28     0.033963
    29     0.035209
    30     0.034388
    31    -0.013902
    32    -0.078326
    33     0.021376
    34     0.021557
    35     0.019416
Sym=     7a
Ene=   -0.219066E-01
Spin= Alpha
Occup= 0.018654
     1     0.258773
     2    -1.164001
     3     0.383721
     4    -0.486404
     5    -0.488249
     6     0.497243
     7    -0.059198
     8    -0.059053
     9     0.056134
    10     0.165207
    11     0.166123
    12     0.153893
    13     0.013789
    14    -0.014053
    15    -0.011705
    16    -0.006926
    17    -0.085862
    18    -0.021824
    19    -0.018416
    20     0.015607
    21    -0.011058
    22    -0.079659
    23    -0.017567
    24    -0.023151
    25     0.019637
    26    -0.002891
    27    -0.083809
    28    -0.020756
    29    -0.021204
    30     0.019654
    31     0.935438
    32     0.083618
    33    -0.032030
    34    -0.032915
    35     0.035715
Sym=     8a
Ene=   -0.620886E-02
Spin= Alpha
Occup= 0.004229
     1     0.003126
     2    -0.057547
     3     0.388986
     4    -0.274013
     5     0.197358
     6     0.090189
     7     0.397479
     8    -0.316619
     9    -0.048432
    10     0.377922
    11     0.047607
    12    -0.387321
    13    -0.014205
    14    -0.195077
    15     0.252570
    16    -0.003465
    17    -0.025191
    18    -0.072836
    19    -0.004494
    20    -0.031388
    21    -0.302218
    22     0.109548
    23     0.306027
    24    -0.129898
    25    -0.181691
    26    -0.070630
    27    -0.084665
    28    -0.050498
    29    -0.053695
    30     0.096378
    31    -0.065747
    32    -0.121804
    33     0.110750
    34    -0.033825
    35     0.097282
Sym=     9a
Ene=   -0.210628E-01
Spin= Alpha
Occup= 0.016872
     1    -0.265756
     2     1.205078
     3    -0.434870
     4    -0.504156
     5     0.501031
     6     0.490916
     7    -0.042720
     8     0.042187
     9     0.053679
    10    -0.175413
    11    -0.166605
    12    -0.173080
    13     0.009260
    14     0.009956
    15    -0.007352
    16    -0.935700
    17    -0.057379
    18    -0.036859
    19     0.039232
    20     0.041235
    21     0.010708
    22     0.086873
    23    -0.019980
    24     0.020391
    25     0.015777
    26     0.009031
    27     0.088192
    28    -0.014856
    29     0.018770
    30     0.021041
    31     0.012023
    32     0.089106
    33    -0.022217
    34     0.019142
    35     0.021036
Sym=    10a
Ene=   -0.167885E-03
Spin= Alpha
Occup= 0.000016
     1    -0.258063
     2     0.127721
     3     1.746218
     4    -0.015681
     5     0.054075
     6    -0.003297
     7     0.012039
     8    -0.078416
     9    -0.026822
    10    -1.171742
    11    -1.132792
    12    -1.147210
    13    -0.018034
    14    -0.077764
    15     0.031305
    16     0.263881
    17    -0.253972
    18     0.411805
    19    -0.393852
    20    -0.427869
    21     0.285671
    22    -0.252275
    23    -0.471563
    24     0.537774
    25    -0.437769
    26     0.276316
    27    -0.280792
    28     0.422038
    29     0.511002
    30     0.465144
    31     0.278490
    32    -0.272517
    33    -0.448045
    34    -0.372214
    35     0.464591
Sym=    11a
Ene=   -0.583048E-02
Spin= Alpha
Occup= 0.003816
     1    -0.014083
     2     0.063784
     3     0.019007
     4     0.247117
     5    -0.208703
     6    -0.013198
     7    -0.301066
     8     0.253771
     9     0.016345
    10     0.479263
    11    -0.470599
    12    -0.080133
    13     0.011935
    14     0.143807
    15    -0.173913
    16    -0.055583
    17    -0.061186
    18    -0.092580
    19    -0.104565
    20    -0.023005
    21     0.021353
    22     0.065563
    23     0.116844
    24     0.063704
    25     0.004124
    26    -0.018965
    27     0.003409
    28    -0.333999
    29     0.287999
    30     0.027324
    31    -0.012816
    32     0.013783
    33     0.099582
    34    -0.080970
    35     0.003188
Sym=    12a
Ene=   -0.670756E-02
Spin= Alpha
Occup= 0.004976
     1    -0.013547
     2     0.012283
     3     0.480127
     4    -0.188894
     5    -0.164129
     6     0.311232
     7     0.336566
     8     0.300432
     9    -0.508359
    10    -0.026404
    11    -0.107157
    12     0.092376
    13    -0.301855
    14     0.190684
    15     0.208650
    16    -0.020684
    17    -0.097653
    18     0.030785
    19     0.057338
    20    -0.020416
    21    -0.032396
    22    -0.102505
    23     0.068904
    24     0.048619
    25    -0.018121
    26    -0.082423
    27    -0.108569
    28     0.032317
    29     0.054981
    30    -0.101518
    31    -0.486990
    32     0.208627
    33     0.116574
    34     0.064223
    35    -0.214465
Sym=    13a
Ene=   -0.219601E-01
Spin= Alpha
Occup= 0.018423
     1    -0.263713
     2     1.189378
     3    -0.401998
     4     0.488310
     5    -0.494046
     6     0.484466
     7     0.055409
     8    -0.054167
     9     0.064973
    10    -0.161163
    11    -0.166193
    12    -0.168101
    13     0.012786
    14    -0.010165
    15     0.011538
    16    -0.001925
    17     0.090130
    18     0.017996
    19    -0.020287
    20     0.021492
    21    -0.939959
    22    -0.076046
    23     0.036122
    24    -0.034912
    25     0.034232
    26     0.003007
    27     0.083595
    28     0.018434
    29    -0.017874
    30     0.020190
    31     0.006269
    32     0.085906
    33     0.018406
    34    -0.020800
    35     0.019981
Sym=    14a
Ene=   -0.592228E-02
Spin= Alpha
Occup= 0.003786
     1     0.020208
     2    -0.072364
     3    -0.234972
     4    -0.130965
     5     0.244686
     6    -0.154275
     7     0.211554
     8    -0.337249
     9     0.134083
    10    -0.010524
    11    -0.398925
    12     0.494451
    13     0.060811
    14    -0.217118
    15     0.139082
    16     0.216765
    17    -0.097859
    18     0.109992
    19    -0.332078
    20     0.220977
    21     0.008523
    22    -0.016273
    23    -0.009885
    24     0.093775
    25     0.049025
    26     0.056700
    27     0.050081
    28     0.036106
    29     0.070545
    30    -0.101130
    31     0.061722
    32     0.094091
    33     0.019481
    34    -0.108306
    35    -0.106918
Sym=    15a
Ene=   -0.987661E-05
Spin= Alpha
Occup= 0.000001
     1    -0.078123
     2    -0.374896
     3     6.317147
     4    -0.009958
     5     0.006611
     6     0.012530
     7    -0.153920
     8     0.138399
     9     0.036157
    10    -0.234337
    11    -0.240277
    12    -0.236193
    13    -0.004884
    14    -0.027828
    15     0.032845
    16    -0.098417
    17    -1.989269
    18    -0.178843
    19     0.182423
    20     0.172529
    21    -0.075245
    22    -1.567546
    23     0.121404
    24    -0.127134
    25     0.112214
    26    -0.103838
    27    -1.697164
    28    -0.128212
    29    -0.154513
    30    -0.142064
    31    -0.103879
    32    -1.668227
    33     0.150618
    34     0.120444
    35    -0.135785
Sym=    16a
Ene=   -0.147259E-02
Spin= Alpha
Occup= 0.000808
     1    -0.040097
     2     0.188265
     3    -0.043412
     4    -0.231279
     5    -0.302154
     6     0.661398
     7     0.038511
     8     0.077650
     9    -0.143820
    10    -0.097107
    11    -0.118403
    12    -0.029500
    13    -0.304586
    14     0.147579
    15     0.116774
    16    -0.316942
    17     0.336258
    18    -0.283791
    19     0.172398
    20     0.040647
    21    -0.362134
    22     0.391047
    23     0.215667
    24    -0.345483
    25     0.037215
    26     0.081190
    27    -0.066841
    28     0.311193
    29     0.364693
    30    -0.556246
    31     0.654982
    32    -0.641059
    33    -0.236831
    34    -0.203443
    35     0.526405
Sym=    17a
Ene=   -0.951355E-03
Spin= Alpha
Occup= 0.000493
     1    -0.014245
     2     0.047814
     3     0.206325
     4    -0.089564
     5    -0.117453
     6    -0.064894
     7     0.567115
     8     0.162513
     9     0.670939
    10    -0.018905
    11     0.029955
    12    -0.084598
    13    -0.717771
    14    -0.148701
    15    -0.596178
    16    -0.196058
    17    -0.005594
    18     0.084361
    19     0.051392
    20     0.020482
    21    -0.818300
    22     0.197463
    23     0.076385
    24     0.043966
    25     0.084910
    26     0.845533
    27    -0.219086
    28    -0.088506
    29    -0.021160
    30    -0.046018
    31    -0.015791
    32    -0.074539
    33    -0.056799
    34    -0.060950
    35    -0.040985
Sym=    18a
Ene=   -0.154136E-02
Spin= Alpha
Occup= 0.000852
     1     0.046725
     2    -0.217185
     3     0.059412
     4    -0.424114
     5    -0.545031
     6    -0.029158
     7     0.129594
     8     0.191309
     9    -0.051332
    10     0.164345
    11    -0.014377
    12     0.138014
    13     0.093781
    14     0.222493
    15     0.181317
    16     0.073844
    17    -0.067110
    18    -0.026847
    19     0.097781
    20    -0.249062
    21     0.011282
    22     0.002671
    23     0.372388
    24     0.547574
    25     0.252905
    26    -0.529446
    27     0.516070
    28    -0.028732
    29    -0.564412
    30    -0.222672
    31     0.385882
    32    -0.493350
    33    -0.362858
    34    -0.183828
    35     0.212188
Sym=    19a
Ene=   -0.399185E-02
Spin= Alpha
Occup= 0.001545
     1     0.657346
     2    -3.386798
     3     3.121174
     4    -0.068946
     5     0.075757
     6     0.005539
     7     0.026916
     8    -0.033392
     9     0.049354
    10     1.263910
    11     1.286201
    12     1.358922
    13     0.096223
    14     0.025590
    15    -0.022562
    16    -0.761862
    17    -0.273167
    18    -0.111970
    19     0.152744
    20     0.217175
    21    -0.662838
    22    -0.438032
    23     0.059467
    24    -0.088208
    25     0.037271
    26    -0.639902
    27    -0.461997
    28    -0.043257
    29    -0.048306
    30    -0.067492
    31    -0.639051
    32    -0.458216
    33     0.070299
    34     0.016079
    35    -0.086903
Sym=    20a
Ene=   -0.178161E-04
Spin= Alpha
Occup= 0.000002
     1     0.006046
     2     0.026882
     3    -0.504927
     4    -0.076179
     5     0.222152
     6     0.070380
     7    -0.646146
     8     2.137354
     9     0.712665
    10     0.016576
    11     0.019523
    12     0.013680
    13    -0.134722
    14    -0.408546
    15     0.116603
    16    -0.238560
    17    -2.205293
    18    -0.429134
    19     0.240992
    20     0.429791
    21     0.151592
    22     1.539544
    23    -0.240862
    24     0.059511
    25    -0.431042
    26     0.175541
    27     1.597118
    28     0.438676
    29     0.064094
    30     0.249932
    31    -0.048755
    32    -0.380095
    33     0.187351
    34    -0.171073
    35    -0.199855
Sym=    21a
Ene=   -0.661468E-02
Spin= Alpha
Occup= 0.004903
     1    -0.007192
     2    -0.022303
     3     0.531600
     4     0.188964
     5     0.211023
     6     0.286757
     7    -0.335510
     8    -0.367339
     9    -0.473977
    10    -0.000643
    11     0.004187
    12    -0.009303
    13    -0.280868
    14    -0.229968
    15    -0.206734
    16    -0.037428
    17    -0.109798
    18    -0.075027
    19    -0.023724
    20    -0.045953
    21    -0.048551
    22    -0.108953
    23    -0.020133
    24    -0.082038
    25    -0.044538
    26    -0.507725
    27     0.213949
    28    -0.120522
    29    -0.142142
    30    -0.151030
    31    -0.076397
    32    -0.116482
    33    -0.030926
    34    -0.037272
    35    -0.077290
Sym=    22a
Ene=   -0.151918E-02
Spin= Alpha
Occup= 0.000843
     1    -0.024152
     2     0.117189
     3    -0.153841
     4     0.376370
     5     0.063306
     6     0.717469
     7    -0.138753
     8    -0.029371
     9    -0.308788
    10    -0.129486
    11    -0.067117
    12     0.017280
    13    -0.161701
    14    -0.045045
    15    -0.145406
    16    -0.090995
    17     0.221673
    18    -0.141435
    19     0.173584
    20    -0.009592
    21    -0.357227
    22     0.529296
    23     0.477665
    24    -0.247601
    25     0.068205
    26     0.516857
    27    -0.559907
    28     0.192786
    29     0.290721
    30     0.475013
    31     0.143952
    32    -0.141882
    33    -0.530319
    34    -0.215354
    35    -0.436028
Sym=    23a
Ene=   -0.242907E-02
Spin= Alpha
Occup= 0.001236
     1     0.388082
     2    -1.717127
     3    -0.948431
     4    -0.289104
     5     0.190299
     6     0.097341
     7     0.112922
     8    -0.094974
     9    -0.090108
    10     0.752854
    11     0.751892
    12     0.630178
    13    -0.175268
    14     0.022630
    15     0.032847
    16     0.184168
    17     0.278036
    18     0.048567
    19    -0.142373
    20     0.205931
    21     0.588379
    22    -0.330096
    23    -0.051044
    24     0.259349
    25    -0.577406
    26     0.351228
    27     0.049652
    28     0.164938
    29     0.047855
    30     0.097838
    31     0.472866
    32    -0.077882
    33    -0.204334
    34    -0.087027
    35     0.157365
Sym=    24a
Ene=   -0.152074E-02
Spin= Alpha
Occup= 0.000825
     1     0.001544
     2    -0.011366
     3     0.114176
     4     0.305371
     5     0.542900
     6     0.040482
     7    -0.028987
     8    -0.225472
     9     0.080448
    10     0.118125
    11    -0.047538
    12    -0.037844
    13    -0.096851
    14    -0.142217
    15    -0.205374
    16    -0.155708
    17     0.154586
    18    -0.675302
    19    -0.282617
    20    -0.083590
    21    -0.079580
    22    -0.093736
    23    -0.115381
    24     0.134512
    25     0.093045
    26     0.448343
    27    -0.481664
    28     0.589657
    29    -0.049128
    30     0.154775
    31    -0.355528
    32     0.377901
    33     0.168357
    34     0.328593
    35    -0.187654
Sym=    25a
Ene=   -0.182104E-04
Spin= Alpha
Occup= 0.000002
     1     0.004280
     2     0.014240
     3    -0.224786
     4    -0.181523
     5     0.009806
     6    -0.173468
     7    -1.684469
     8    -0.003520
     9    -1.638625
    10     0.011593
    11     0.019324
    12     0.020959
    13     0.327875
    14    -0.000000
    15     0.333893
    16     0.005128
    17     0.015891
    18     0.198736
    19     0.003465
    20     0.220306
    21     0.249178
    22     2.286104
    23    -0.297674
    24     0.514959
    25    -0.306751
    26    -0.248318
    27    -2.157200
    28    -0.287858
    29    -0.507586
    30    -0.301177
    31     0.009169
    32     0.082579
    33     0.202783
    34    -0.004884
    35     0.213231
Sym=    26a
Ene=   -0.508376E-03
Spin= Alpha
Occup= 0.000222
     1    -0.008274
     2     0.024384
     3     0.049766
     4     0.449277
     5     0.014771
     6    -0.086915
     7    -0.470912
     8    -0.074602
     9     0.090334
    10    -0.700047
    11     0.201942
    12     0.432189
    13     0.119354
    14     0.039228
    15    -0.648564
    16     0.184818
    17    -0.090651
    18     0.185085
    19    -0.176485
    20    -0.370543
    21    -0.142326
    22     0.052385
    23     0.743933
    24     0.067149
    25    -0.203143
    26     0.075465
    27    -0.067050
    28     0.166566
    29     0.177244
    30     0.177848
    31    -0.117891
    32     0.063895
    33     0.784219
    34     0.000983
    35     0.035564
Sym=    27a
Ene=   -0.882222E-03
Spin= Alpha
Occup= 0.000440
     1     0.006422
     2    -0.035434
     3     0.201911
     4    -0.022929
     5     0.151157
     6    -0.024964
     7    -0.567349
     8     0.488347
     9     0.313525
    10    -0.065982
    11     0.216262
    12    -0.071892
    13    -0.308183
    14    -0.809100
    15     0.588187
    16    -1.178800
    17     0.334589
    18    -0.127785
    19     0.080734
    20     0.170188
    21     0.641871
    22    -0.260479
    23     0.048896
    24     0.239660
    25    -0.056674
    26     0.230931
    27    -0.120017
    28     0.024558
    29     0.113602
    30    -0.021305
    31     0.086229
    32    -0.054643
    33     0.095577
    34     0.011652
    35    -0.123249
Sym=    28a
Ene=   -0.550440E-03
Spin= Alpha
Occup= 0.000239
     1     0.010823
     2    -0.036958
     3    -0.027902
     4     0.080591
     5     0.073195
     6     0.346670
     7    -0.120278
     8     0.079901
     9    -0.362028
    10     0.197643
    11    -0.729643
    12     0.617734
    13    -0.516676
    14    -0.255691
    15    -0.093383
    16    -0.240035
    17     0.098426
    18     0.073015
    19     0.448506
    20     0.126892
    21     0.004490
    22     0.046701
    23     0.062730
    24    -0.322913
    25     0.094090
    26     0.232966
    27    -0.097834
    28     0.240947
    29    -0.190025
    30     0.645761
    31    -0.021967
    32    -0.017179
    33    -0.015620
    34     0.377120
    35     0.593856
Sym=    29a
Ene=   -0.945013E-03
Spin= Alpha
Occup= 0.000469
     1     0.020560
     2    -0.083468
     3    -0.150283
     4    -0.047318
     5    -0.060204
     6     0.062003
     7     0.409972
     8     0.571200
     9    -0.499578
    10     0.009420
    11     0.135032
    12    -0.033808
    13     0.523979
    14    -0.685199
    15    -0.459133
    16     0.249950
    17    -0.047732
    18    -0.028090
    19    -0.065854
    20     0.027548
    21     0.493092
    22    -0.092404
    23     0.017935
    24     0.068193
    25    -0.010189
    26     0.390389
    27    -0.068222
    28     0.039762
    29     0.114359
    30    -0.095026
    31    -0.994526
    32     0.280270
    33    -0.006795
    34     0.039770
    35     0.063322
Sym=    30a
Ene=   -0.194134E-04
Spin= Alpha
Occup= 0.000002
     1     0.002127
     2     0.010183
     3    -0.207530
     4    -0.160416
     5    -0.094188
     6     0.166520
     7    -1.496449
     8    -0.988288
     9     1.528442
    10     0.003649
    11     0.009215
    12     0.000949
    13    -0.308604
    14     0.193723
    15     0.299013
    16    -0.151745
    17    -1.309336
    18    -0.122449
    19     0.434603
    20     0.118405
    21    -0.071553
    22    -0.623658
    23     0.343426
    24    -0.019784
    25    -0.049276
    26    -0.075627
    27    -0.559668
    28     0.055988
    29    -0.014120
    30    -0.320695
    31     0.308175
    32     2.729443
    33    -0.430036
    34    -0.490287
    35     0.430221
Sym=    31a
Ene=   -0.487049E-03
Spin= Alpha
Occup= 0.000216
     1     0.012416
     2    -0.039237
     3    -0.044736
     4    -0.167608
     5     0.171132
     6    -0.469935
     7     0.199578
     8    -0.162324
     9     0.578919
    10     0.012083
    11    -0.407542
    12     0.501146
    13     0.616889
    14    -0.299306
    15     0.211003
    16    -0.017569
    17    -0.002695
    18    -0.132151
    19     0.346083
    20    -0.644983
    21     0.187917
    22    -0.112680
    23    -0.266206
    24     0.087981
    25    -0.753308
    26    -0.047876
    27     0.056840
    28    -0.237014
    29    -0.101775
    30    -0.317924
    31    -0.134406
    32     0.088025
    33    -0.064130
    34     0.425895
    35    -0.318303
Sym=    32a
Ene=   -0.154829E-02
Spin= Alpha
Occup= 0.000875
     1     0.029980
     2    -0.158906
     3     0.325492
     4     0.442484
     5    -0.474467
     6    -0.258296
     7    -0.213786
     8     0.193871
     9     0.143783
    10     0.005281
    11     0.162242
    12     0.060711
    13     0.026581
    14     0.184133
    15    -0.066183
    16     0.314550
    17    -0.588193
    18     0.207004
    19    -0.584588
    20    -0.066565
    21    -0.363966
    22     0.285785
    23     0.354642
    24    -0.159483
    25     0.074225
    26    -0.227074
    27     0.114509
    28    -0.221541
    29     0.034397
    30    -0.118930
    31    -0.128377
    32     0.076419
    33    -0.318190
    34     0.660442
    35     0.065397
Sym=    33a
Ene=   -0.517443E-03
Spin= Alpha
Occup= 0.000226
     1     0.011327
     2    -0.024703
     3    -0.078101
     4    -0.414163
     5    -0.107011
     6     0.162021
     7     0.494136
     8     0.146969
     9    -0.163259
    10    -0.653655
    11     0.292826
    12     0.470581
    13    -0.232664
    14     0.134452
    15     0.536882
    16    -0.113520
    17     0.071863
    18    -0.758919
    19    -0.121836
    20     0.023289
    21     0.008445
    22     0.008207
    23    -0.090248
    24     0.016690
    25    -0.061466
    26    -0.055703
    27     0.073631
    28    -0.717367
    29    -0.053157
    30     0.259595
    31     0.144458
    32    -0.091219
    33    -0.154284
    34    -0.313091
    35     0.440616
Sym=    34a
Ene=   -0.197146E-02
Spin= Alpha
Occup= 0.000949
     1    -0.352588
     2     1.599383
     3     0.411891
     4    -0.488472
     5     0.301433
     6    -0.052327
     7     0.209852
     8    -0.135227
     9     0.013408
    10    -0.706138
    11    -0.685483
    12    -0.624356
    13     0.121783
    14     0.021879
    15     0.045789
    16    -0.465533
    17     0.487159
    18    -0.195757
    19     0.145691
    20     0.677780
    21     0.163588
    22    -0.440867
    23     0.131436
    24     0.156058
    25    -0.476308
    26    -0.292337
    27     0.125898
    28    -0.036294
    29    -0.247623
    30    -0.096647
    31    -0.118779
    32    -0.090012
    33    -0.042614
    34     0.089941
    35    -0.048411
Sym=    35a
Ene=   -0.196862E-03
Spin= Alpha
Occup= 0.000019
     1    -0.031498
     2     0.020183
     3     0.257288
     4     0.045387
     5    -0.542290
     6    -0.127205
     7    -0.132978
     8     0.802246
     9     0.191641
    10    -0.017690
    11    -0.361686
    12    -0.017970
    13     0.141446
    14     0.593500
    15    -0.012023
    16    -0.037663
    17    -0.035312
    18     0.227905
    19    -0.581716
    20    -0.312807
    21     0.070143
    22    -0.045026
    23     0.020208
    24    -0.646296
    25    -0.183119
    26     0.005168
    27    -0.039060
    28     0.055622
    29    -0.679496
    30    -0.120634
    31     0.047542
    32    -0.045127
    33    -0.105616
    34    -0.528304
    35     0.031611
