[Molden Format]
p30-20 set                                                                      
[Atoms] AU
 CL       1    17        0.0000        0.0000       -1.9008
 CL       2    17        0.0000        0.0000        1.9008
[GTO]
    1 0
s    5 1.00
   10449.827566000000  0.542659537894E-02
    1571.736522100000  0.406263781288E-01
     357.120655230000  0.183597478529E+00
     100.251859350000  0.474389487682E+00
      30.812727554000  0.437351811041E+00
s    3 1.00
      51.923789434000 -0.927541548481E-01
       5.704576097500  0.563808255442E+00
       2.350837680900  0.503670446297E+00
s    1 1.00
       0.446051246720  0.100000000000E+01
s    1 1.00
       0.168488561900  0.100000000000E+01
p    5 1.00
     307.667905690000 -0.887970255889E-02
      72.102015515000 -0.642840717212E-01
      22.532680262000 -0.242887397360E+00
       7.899176544400 -0.483408363699E+00
       2.876726832100 -0.389525638755E+00
p    1 1.00
       0.774593639550  0.100000000000E+01
p    1 1.00
       0.210376996980  0.100000000000E+01
d    1 1.00
       0.650000000000  0.100000000000E+01
 
    2 0
s    5 1.00
   10449.827566000000  0.542659537894E-02
    1571.736522100000  0.406263781288E-01
     357.120655230000  0.183597478529E+00
     100.251859350000  0.474389487682E+00
      30.812727554000  0.437351811041E+00
s    3 1.00
      51.923789434000 -0.927541548481E-01
       5.704576097500  0.563808255442E+00
       2.350837680900  0.503670446297E+00
s    1 1.00
       0.446051246720  0.100000000000E+01
s    1 1.00
       0.168488561900  0.100000000000E+01
p    5 1.00
     307.667905690000 -0.887970255889E-02
      72.102015515000 -0.642840717212E-01
      22.532680262000 -0.242887397360E+00
       7.899176544400 -0.483408363699E+00
       2.876726832100 -0.389525638755E+00
p    1 1.00
       0.774593639550  0.100000000000E+01
p    1 1.00
       0.210376996980  0.100000000000E+01
d    1 1.00
       0.650000000000  0.100000000000E+01
 
[MO]
Sym=     1a
Ene=   -0.104886E+03
Spin= Alpha
Occup= 1.999998
     1     0.698726
     2     0.020667
     3    -0.018202
     4    -0.001822
     5     0.000007
     6    -0.000002
     7     0.000033
     8     0.000005
     9     0.000008
    10     0.000037
    11    -0.000001
    12     0.000009
    13    -0.000369
    14     0.006646
    15     0.006646
    16     0.006684
    17     0.000000
    18    -0.000003
    19     0.000004
    20    -0.706251
    21    -0.020872
    22     0.018396
    23     0.001832
    24    -0.000006
    25     0.000002
    26     0.000030
    27    -0.000008
    28    -0.000003
    29     0.000038
    30    -0.000009
    31     0.000002
    32    -0.000370
    33    -0.006716
    34    -0.006715
    35    -0.006752
    36    -0.000001
    37     0.000003
    38    -0.000004
Sym=     2a
Ene=   -0.104886E+03
Spin= Alpha
Occup= 1.999998
     1     0.706270
     2     0.020710
     3    -0.018186
     4    -0.001098
     5    -0.000010
     6     0.000003
     7     0.000040
     8    -0.000000
     9     0.000006
    10     0.000056
    11    -0.000000
    12     0.000013
    13    -0.000057
    14     0.006550
    15     0.006545
    16     0.006435
    17     0.000000
    18     0.000002
    19     0.000005
    20     0.698746
    21     0.020499
    22    -0.017988
    23    -0.001076
    24     0.000003
    25    -0.000008
    26    -0.000027
    27     0.000005
    28    -0.000002
    29    -0.000056
    30     0.000013
    31    -0.000002
    32     0.000052
    33     0.006473
    34     0.006477
    35     0.006362
    36     0.000001
    37    -0.000006
    38    -0.000001
Sym=     3a
Ene=   -0.106237E+02
Spin= Alpha
Occup= 1.999797
     1    -0.223677
     2     0.732994
     3     0.032670
     4    -0.008373
     5     0.001135
     6    -0.003279
     7    -0.001272
     8    -0.000204
     9    -0.000282
    10     0.000570
    11    -0.000111
    12    -0.000597
    13    -0.000780
    14    -0.001982
    15    -0.001956
    16    -0.001047
    17    -0.000001
    18     0.000058
    19    -0.000069
    20     0.217394
    21    -0.712370
    22    -0.031729
    23     0.008207
    24     0.000258
    25    -0.003522
    26    -0.000296
    27     0.000425
    28     0.000194
    29     0.000502
    30     0.000566
    31    -0.000042
    32    -0.000777
    33     0.001900
    34     0.001919
    35     0.000982
    36     0.000009
    37    -0.000048
    38     0.000076
Sym=     4a
Ene=   -0.106235E+02
Spin= Alpha
Occup= 1.999756
     1    -0.217296
     2     0.711910
     3     0.032251
     4    -0.005820
     5    -0.004616
     6     0.002325
     7    -0.000550
     8     0.000151
     9    -0.000466
    10     0.000699
    11    -0.000112
    12    -0.000560
    13    -0.000025
    14    -0.002026
    15    -0.001954
    16    -0.002314
    17    -0.000004
    18    -0.000059
    19    -0.000077
    20    -0.223579
    21     0.732545
    22     0.033185
    23    -0.006078
    24    -0.005632
    25    -0.003910
    26     0.004467
    27    -0.000120
    28     0.000206
    29    -0.000913
    30    -0.000634
    31     0.000029
    32     0.000073
    33    -0.002008
    34    -0.002075
    35    -0.002344
    36    -0.000017
    37     0.000097
    38     0.000033
Sym=     5a
Ene=   -0.809456E+01
Spin= Alpha
Occup= 1.999614
     1     0.000051
     2     0.000096
     3    -0.000891
     4    -0.000278
     5    -0.534692
     6    -0.560851
     7     0.071697
     8     0.023368
     9     0.024410
    10    -0.003465
    11    -0.003820
    12    -0.003904
    13     0.000579
    14    -0.000016
    15     0.000162
    16    -0.000163
    17     0.000014
    18    -0.000483
    19    -0.000155
    20     0.000424
    21    -0.001270
    22    -0.000295
    23    -0.000508
    24    -0.393174
    25     0.455964
    26     0.012263
    27     0.018104
    28    -0.019072
    29    -0.000767
    30    -0.002829
    31     0.003212
    32    -0.000016
    33     0.000161
    34     0.000091
    35    -0.000168
    36    -0.000010
    37     0.000813
    38     0.000290
Sym=     6a
Ene=   -0.809437E+01
Spin= Alpha
Occup= 1.999564
     1     0.000833
     2    -0.002556
     3    -0.000549
     4    -0.000658
     5    -0.266183
     6    -0.550965
     7    -0.019957
     8     0.011073
     9     0.025220
    10     0.001152
    11    -0.001917
    12    -0.004032
    13    -0.000155
    14     0.000136
    15     0.000167
    16    -0.000151
    17     0.000042
    18     0.000209
    19    -0.001002
    20    -0.000822
    21     0.002589
    22     0.000187
    23     0.000468
    24     0.360388
    25    -0.673609
    26    -0.095931
    27    -0.015878
    28     0.029626
    29     0.004823
    30     0.002393
    31    -0.004718
    32    -0.000487
    33     0.000010
    34     0.000046
    35    -0.000053
    36     0.000040
    37    -0.000149
    38     0.000609
Sym=     7a
Ene=   -0.809666E+01
Spin= Alpha
Occup= 1.999550
     1     0.000938
     2    -0.003349
     3     0.001534
     4    -0.001429
     5     0.379742
     6    -0.206867
     7    -0.503386
     8    -0.015663
     9     0.009550
    10     0.025548
    11     0.002650
    12    -0.001313
    13    -0.003040
    14     0.000148
    15     0.000232
    16     0.000051
    17     0.000005
    18    -0.000407
    19    -0.000313
    20    -0.000640
    21     0.002531
    22    -0.001611
    23     0.000923
    24    -0.595933
    25    -0.235546
    26    -0.339160
    27     0.025989
    28     0.010228
    29     0.017422
    30    -0.004182
    31    -0.001713
    32    -0.002573
    33    -0.000128
    34    -0.000234
    35    -0.000283
    36    -0.000018
    37     0.000231
    38     0.000158
Sym=     8a
Ene=   -0.809964E+01
Spin= Alpha
Occup= 1.999540
     1    -0.001661
     2     0.005899
     3    -0.001976
     4    -0.000258
     5     0.331458
     6    -0.190896
     7     0.610275
     8    -0.014347
     9     0.008074
    10    -0.029661
    11     0.002340
    12    -0.001592
    13     0.002542
    14     0.000256
    15     0.000394
    16     0.000058
    17    -0.000023
    18     0.000179
    19    -0.000071
    20    -0.001641
    21     0.005818
    22    -0.001969
    23     0.000054
    24     0.074607
    25     0.140119
    26    -0.648584
    27    -0.003897
    28    -0.005787
    29     0.031620
    30     0.000285
    31     0.001094
    32    -0.002770
    33     0.000354
    34     0.000234
    35     0.000085
    36    -0.000035
    37    -0.000318
    38     0.000077
Sym=     9a
Ene=   -0.809724E+01
Spin= Alpha
Occup= 1.999515
     1     0.000112
     2    -0.000126
     3    -0.001132
     4     0.001136
     5     0.549687
     6    -0.426742
     7     0.260345
     8    -0.023587
     9     0.018981
    10    -0.013713
    11     0.003764
    12    -0.002960
    13     0.002283
    14    -0.000293
    15    -0.000275
    16    -0.000256
    17     0.000001
    18     0.000082
    19    -0.000383
    20    -0.000188
    21     0.000258
    22     0.002057
    23    -0.001383
    24    -0.083781
    25    -0.011283
    26     0.637283
    27     0.003275
    28     0.000941
    29    -0.032149
    30    -0.000270
    31    -0.000181
    32     0.003707
    33     0.000119
    34     0.000017
    35     0.000179
    36    -0.000017
    37    -0.000393
    38     0.000376
Sym=    10a
Ene=   -0.809608E+01
Spin= Alpha
Occup= 1.999509
     1     0.001355
     2    -0.004225
     3    -0.001655
     4     0.001145
     5    -0.236130
     6     0.296877
     7     0.513536
     8     0.010654
     9    -0.012763
    10    -0.025766
    11    -0.001650
    12     0.001767
    13     0.002887
    14     0.000070
    15     0.000016
    16    -0.000158
    17     0.000024
    18    -0.000470
    19    -0.000144
    20     0.001623
    21    -0.005215
    22    -0.000375
    23    -0.001357
    24    -0.561579
    25    -0.481451
    26     0.108072
    27     0.025135
    28     0.020335
    29    -0.006051
    30    -0.003953
    31    -0.003346
    32     0.001152
    33     0.000404
    34     0.000290
    35     0.000004
    36    -0.000015
    37     0.000643
    38    -0.000151
Sym=    11a
Ene=   -0.110670E+01
Spin= Alpha
Occup= 1.989761
     1     0.085564
     2    -0.531783
     3     0.706964
     4     0.393462
     5    -0.007497
     6    -0.034559
     7    -0.017628
     8    -0.012937
     9    -0.058315
    10    -0.034514
    11    -0.017509
    12    -0.078552
    13    -0.043623
    14     0.015732
    15     0.016535
    16     0.027259
    17     0.000026
    18     0.000190
    19    -0.001742
    20    -0.001614
    21     0.013969
    22    -0.026237
    23    -0.039567
    24     0.003946
    25    -0.000249
    26    -0.026388
    27     0.007049
    28     0.000154
    29    -0.042126
    30     0.010240
    31     0.002193
    32    -0.017679
    33    -0.007968
    34    -0.008080
    35     0.024048
    36    -0.000067
    37     0.000512
    38     0.003912
Sym=    12a
Ene=   -0.110655E+01
Spin= Alpha
Occup= 1.989759
     1    -0.001626
     2     0.014053
     3    -0.026360
     4    -0.039625
     5     0.000702
     6     0.004005
     7     0.026365
     8     0.001830
     9     0.006976
    10     0.042052
    11     0.004623
    12     0.009694
    13     0.017603
    14    -0.008084
    15    -0.007967
    16     0.024036
    17    -0.000059
    18    -0.003957
    19     0.000398
    20     0.085558
    21    -0.531761
    22     0.706973
    23     0.393437
    24    -0.035560
    25     0.000456
    26     0.017680
    27    -0.060063
    28     0.000476
    29     0.034577
    30    -0.080881
    31     0.000621
    32     0.043715
    33     0.016484
    34     0.015762
    35     0.027240
    36    -0.000095
    37     0.001668
    38    -0.000615
Sym=    13a
Ene=   -0.517620E+00
Spin= Alpha
Occup= 1.981803
     1     0.000298
     2    -0.001710
     3     0.001561
     4     0.000815
     5    -0.001807
     6    -0.008978
     7     0.002257
     8    -0.004161
     9    -0.022200
    10     0.003862
    11    -0.007327
    12    -0.040130
    13     0.003465
    14    -0.000917
    15    -0.000566
    16     0.002095
    17    -0.000229
    18     0.004994
    19     0.034005
    20     0.001290
    21    -0.008046
    22     0.010683
    23     0.005234
    24     0.040933
    25     0.275006
    26    -0.002210
    27     0.072368
    28     0.486474
    29    -0.003673
    30     0.096965
    31     0.650286
    32    -0.004036
    33    -0.000088
    34    -0.000045
    35     0.001505
    36     0.000059
    37    -0.002260
    38    -0.014855
Sym=    14a
Ene=   -0.517786E+00
Spin= Alpha
Occup= 1.981801
     1    -0.002284
     2     0.014432
     3    -0.019710
     4    -0.010261
     5    -0.277935
     6    -0.004466
     7    -0.000313
     8    -0.491680
     9    -0.008081
    10    -0.000249
    11    -0.657190
    12    -0.011066
    13    -0.000066
    14    -0.000350
    15    -0.000359
    16    -0.001154
    17    -0.000035
    18    -0.015135
    19    -0.000350
    20    -0.000198
    21     0.001106
    22    -0.000792
    23    -0.000694
    24     0.008959
    25     0.000686
    26     0.000974
    27     0.022123
    28     0.001264
    29     0.001679
    30     0.040392
    31     0.002047
    32     0.000667
    33     0.000493
    34     0.000865
    35    -0.001741
    36     0.000157
    37     0.034502
    38     0.000500
Sym=    15a
Ene=   -0.521393E+00
Spin= Alpha
Occup= 1.981287
     1    -0.001090
     2     0.006697
     3    -0.008800
     4    -0.002989
     5    -0.015131
     6     0.001489
     7    -0.010977
     8    -0.032965
     9     0.003670
    10    -0.018926
    11    -0.054422
    12     0.006446
    13    -0.024695
    14     0.000430
    15     0.000044
    16    -0.002534
    17    -0.000040
    18     0.034323
    19    -0.005191
    20     0.010455
    21    -0.066914
    22     0.092592
    23     0.054590
    24     0.272442
    25    -0.040823
    26     0.017104
    27     0.478801
    28    -0.071826
    29     0.030366
    30     0.647376
    31    -0.096841
    32     0.034845
    33     0.003757
    34     0.003549
    35    -0.002433
    36     0.000063
    37    -0.015690
    38     0.002303
Sym=    16a
Ene=   -0.521317E+00
Spin= Alpha
Occup= 1.981286
     1     0.010238
     2    -0.065569
     3     0.090908
     4     0.053529
     5    -0.005473
     6     0.275432
     7    -0.017422
     8    -0.009527
     9     0.484189
    10    -0.030848
    11    -0.012553
    12     0.654498
    13    -0.035404
    14     0.003569
    15     0.003741
    16    -0.002616
    17     0.000064
    18    -0.000233
    19     0.015820
    20    -0.001118
    21     0.006850
    22    -0.008901
    23    -0.003002
    24    -0.000563
    25    -0.014934
    26     0.011322
    27    -0.000899
    28    -0.032736
    29     0.019580
    30    -0.000989
    31    -0.054001
    32     0.025322
    33     0.000133
    34     0.000492
    35    -0.002767
    36    -0.000041
    37     0.000733
    38    -0.034629
Sym=    17a
Ene=   -0.627332E+00
Spin= Alpha
Occup= 1.962613
     1    -0.004283
     2     0.034411
     3    -0.061591
     4    -0.093769
     5    -0.002178
     6     0.021517
     7     0.199003
     8    -0.004224
     9     0.037485
    10     0.335755
    11    -0.006591
    12     0.050867
    13     0.378525
    14    -0.022683
    15    -0.023166
    16     0.076752
    17     0.000021
    18     0.002407
    19     0.000364
    20    -0.004274
    21     0.034360
    22    -0.061521
    23    -0.093724
    24     0.020135
    25    -0.007271
    26    -0.199009
    27     0.034965
    28    -0.013087
    29    -0.335756
    30     0.047273
    31    -0.018529
    32    -0.378531
    33    -0.023169
    34    -0.022672
    35     0.076750
    36     0.000087
    37    -0.000958
    38    -0.002273
Sym=    18a
Ene=   -0.577717E-01
Spin= Alpha
Occup= 0.037387
     1     0.020037
     2    -0.152355
     3     0.313727
     4     0.047208
     5     0.000424
     6     0.000706
     7     0.298161
     8     0.001663
     9     0.001933
    10     0.687054
    11    -0.002165
    12    -0.000893
    13     0.170122
    14    -0.041185
    15    -0.035671
    16    -0.084489
    17    -0.000382
    18    -0.000637
    19     0.001215
    20    -0.020021
    21     0.152217
    22    -0.313347
    23    -0.047327
    24    -0.000561
    25     0.000011
    26     0.298140
    27    -0.001556
    28    -0.000418
    29     0.687017
    30     0.000840
    31     0.001521
    32     0.170074
    33     0.035770
    34     0.041158
    35     0.084173
    36     0.000868
    37     0.001642
    38    -0.000689
Sym=    19a
Ene=   -0.214222E-01
Spin= Alpha
Occup= 0.018714
     1    -0.013888
     2     0.133688
     3    -0.385213
     4     0.118483
     5    -0.012459
     6    -0.210846
     7     0.002724
     8    -0.038729
     9    -0.662819
    10     0.008909
    11     0.026894
    12     0.488264
    13    -0.006895
    14     0.493748
    15    -0.317990
    16     0.125716
    17     0.088664
    18     0.031211
    19     0.473992
    20    -0.004129
    21     0.037938
    22    -0.099437
    23     0.009814
    24    -0.011093
    25    -0.142343
    26     0.006110
    27    -0.033881
    28    -0.427302
    29     0.016132
    30     0.021373
    31     0.239737
    32     0.007844
    33     0.020361
    34     0.014269
    35     0.042377
    36     0.016609
    37    -0.025003
    38    -0.332037
Sym=    20a
Ene=   -0.214437E-01
Spin= Alpha
Occup= 0.018713
     1     0.004288
     2    -0.039467
     3     0.103847
     4    -0.010776
     5     0.143268
     6    -0.011529
     7     0.006046
     8     0.430340
     9    -0.034199
    10     0.016145
    11    -0.242160
    12     0.017507
    13     0.007747
    14    -0.024168
    15    -0.013013
    16    -0.043194
    17    -0.018438
    18    -0.330313
    19     0.027177
    20     0.014237
    21    -0.137037
    22     0.394757
    23    -0.121156
    24     0.212634
    25    -0.020070
    26     0.002229
    27     0.668650
    28    -0.063448
    29     0.007414
    30    -0.493154
    31     0.048033
    32    -0.005975
    33     0.286321
    34    -0.467933
    35    -0.127382
    36    -0.183132
    37     0.470084
    38    -0.041520
Sym=    21a
Ene=   -0.196337E-01
Spin= Alpha
Occup= 0.018199
     1     0.009281
     2    -0.087427
     3     0.242466
     4    -0.062417
     5     0.009362
     6     0.105185
     7     0.003123
     8     0.029778
     9     0.327840
    10     0.000666
    11    -0.023194
    12    -0.231081
    13     0.028405
    14     0.739649
    15    -0.714469
    16    -0.213562
    17     0.199188
    18    -0.011429
    19    -0.223908
    20     0.005763
    21    -0.053443
    22     0.135599
    23    -0.014674
    24     0.004091
    25     0.085407
    26    -0.011724
    27     0.012138
    28     0.260784
    29    -0.029360
    30    -0.005906
    31    -0.162815
    32    -0.004741
    33     0.031540
    34    -0.019513
    35    -0.126820
    36     0.046209
    37     0.011244
    38     0.200698
Sym=    22a
Ene=   -0.196314E-01
Spin= Alpha
Occup= 0.018197
     1    -0.006030
     2     0.055956
     3    -0.142319
     4     0.015915
     5    -0.084783
     6     0.010748
     7    -0.011934
     8    -0.259090
     9     0.032853
    10    -0.029868
    11     0.162422
    12    -0.021055
    13    -0.005068
    14     0.016833
    15    -0.028280
    16     0.131712
    17    -0.048568
    18     0.196076
    19    -0.023974
    20    -0.009676
    21     0.091194
    22    -0.252841
    23     0.064792
    24    -0.104174
    25     0.010200
    26     0.003428
    27    -0.324776
    28     0.031392
    29     0.001242
    30     0.229124
    31    -0.020666
    32     0.029156
    33     0.676610
    34    -0.700733
    35     0.220973
    36    -0.337542
    37    -0.217748
    38     0.032009
Sym=    23a
Ene=   -0.231007E-01
Spin= Alpha
Occup= 0.010241
     1    -0.001593
     2     0.000138
     3     0.046776
     4    -0.088507
     5     0.024171
     6     0.008849
     7    -0.041903
     8     0.073444
     9     0.027249
    10    -0.112964
    11    -0.042952
    12    -0.017858
    13    -0.016018
    14    -0.047413
    15    -0.102695
    16     0.069812
    17     0.010220
    18    -0.055547
    19    -0.021050
    20    -0.134771
    21     1.369656
    22    -3.774993
    23     0.649186
    24     0.038179
    25     0.008447
    26    -0.035385
    27     0.120684
    28     0.026121
    29    -0.113120
    30    -0.089815
    31    -0.017372
    32     0.076192
    33     1.199555
    34     1.230673
    35     1.187579
    36     0.012900
    37     0.063044
    38     0.023185
Sym=    24a
Ene=   -0.230998E-01
Spin= Alpha
Occup= 0.010239
     1    -0.134827
     2     1.370278
     3    -3.776651
     4     0.649287
     5     0.015819
     6     0.035161
     7     0.035491
     8     0.049516
     9     0.111226
    10     0.113461
    11    -0.035087
    12    -0.083018
    13    -0.076376
    14     1.230297
    15     1.201550
    16     1.187919
    17     0.010006
    18    -0.032153
    19    -0.056837
    20    -0.001512
    21    -0.000684
    22     0.049043
    23    -0.088881
    24     0.012963
    25     0.021961
    26     0.041827
    27     0.039764
    28     0.066735
    29     0.112728
    30    -0.025086
    31    -0.038969
    32     0.016148
    33    -0.104258
    34    -0.046983
    35     0.068830
    36     0.015527
    37     0.030373
    38     0.049204
Sym=    25a
Ene=   -0.424161E-02
Spin= Alpha
Occup= 0.000491
     1     0.001307
     2    -0.016658
     3     0.043695
     4     0.001195
     5     0.058805
     6     0.004289
     7    -0.014825
     8     0.196152
     9     0.015266
    10    -0.046530
    11    -0.184398
    12    -0.020415
    13     0.025454
    14    -0.184078
    15     0.083733
    16     0.033415
    17     0.508399
    18     0.044519
    19     0.006900
    20     0.000947
    21    -0.012471
    22     0.033415
    23    -0.001334
    24    -0.049192
    25    -0.026176
    26     0.014469
    27    -0.165626
    28    -0.086667
    29     0.045551
    30     0.162358
    31     0.076923
    32    -0.024585
    33     0.246231
    34    -0.336191
    35     0.037697
    36     0.733952
    37     0.056426
    38     0.025339
Sym=    26a
Ene=   -0.418328E-02
Spin= Alpha
Occup= 0.000485
     1     0.002732
     2    -0.035187
     3     0.092646
     4     0.001067
     5    -0.009384
     6    -0.006902
     7    -0.034659
     8    -0.031713
     9    -0.023844
    10    -0.109141
    11     0.031726
    12     0.027178
    13     0.060218
    14    -0.215579
    15    -0.008259
    16     0.080369
    17     0.803231
    18    -0.021927
    19    -0.008111
    20     0.002488
    21    -0.032350
    22     0.085642
    23    -0.000778
    24     0.014118
    25     0.022585
    26     0.034342
    27     0.046489
    28     0.074906
    29     0.108054
    30    -0.041687
    31    -0.067347
    32    -0.058529
    33    -0.276596
    34     0.059087
    35     0.083905
    36    -0.504886
    37    -0.010494
    38    -0.017974
Sym=    27a
Ene=   -0.395023E-02
Spin= Alpha
Occup= 0.000460
     1    -0.008355
     2     0.107238
     3    -0.281344
     4    -0.007329
     5    -0.212059
     6     0.042322
     7     0.098666
     8    -0.704142
     9     0.145389
    10     0.309609
    11     0.645391
    12    -0.153633
    13    -0.167632
    14     0.222778
    15     0.441060
    16    -0.228870
    17     0.191573
    18    -0.135055
    19     0.082078
    20    -0.007032
    21     0.091890
    22    -0.243202
    23     0.000886
    24     0.125808
    25    -0.074752
    26    -0.097155
    27     0.427813
    28    -0.247261
    29    -0.305253
    30    -0.439754
    31     0.223955
    32     0.163769
    33     0.415425
    34     0.215002
    35    -0.248778
    36     0.044337
    37    -0.180623
    38     0.018037
Sym=    28a
Ene=   -0.388978E-02
Spin= Alpha
Occup= 0.000450
     1    -0.005918
     2     0.077980
     3    -0.206540
     4     0.002942
     5     0.167161
     6     0.029620
     7     0.087871
     8     0.559703
     9     0.104097
    10     0.276833
    11    -0.537680
    12    -0.127795
    13    -0.149303
    14     0.209445
    15     0.348821
    16    -0.230411
    17     0.074315
    18     0.164696
    19     0.021574
    20    -0.008511
    21     0.108075
    22    -0.281841
    23    -0.011843
    24    -0.180317
    25    -0.126532
    26    -0.090773
    27    -0.603205
    28    -0.420237
    29    -0.285088
    30     0.573537
    31     0.378172
    32     0.155918
    33     0.313308
    34     0.309403
    35    -0.190388
    36    -0.229698
    37     0.188774
    38     0.100163
Sym=    29a
Ene=   -0.378627E-02
Spin= Alpha
Occup= 0.000436
     1    -0.004948
     2     0.063583
     3    -0.167573
     4     0.000007
     5     0.025415
     6    -0.144448
     7     0.062836
     8     0.085591
     9    -0.486359
    10     0.198259
    11    -0.084311
    12     0.494939
    13    -0.109217
    14     0.124639
    15     0.265702
    16    -0.131777
    17     0.055331
    18     0.042412
    19    -0.058202
    20    -0.004325
    21     0.056486
    22    -0.147443
    23    -0.002905
    24    -0.033166
    25     0.284684
    26    -0.061756
    27    -0.109948
    28     0.951360
    29    -0.195637
    30     0.101058
    31    -0.883137
    32     0.110449
    33     0.257309
    34     0.124708
    35    -0.146471
    36     0.012249
    37     0.027429
    38    -0.344307
Sym=    30a
Ene=   -0.333455E-02
Spin= Alpha
Occup= 0.000386
     1     0.002959
     2    -0.034982
     3     0.085901
     4     0.020576
     5     0.033718
     6     0.257002
     7    -0.001880
     8     0.112531
     9     0.858460
    10    -0.004804
    11    -0.102186
    12    -0.759271
    13     0.001725
    14    -0.047607
    15    -0.052897
    16    -0.025563
    17    -0.006870
    18     0.055929
    19     0.595199
    20    -0.000244
    21     0.002854
    22    -0.005515
    23    -0.006881
    24    -0.006088
    25     0.087866
    26    -0.000416
    27    -0.020484
    28     0.295641
    29    -0.001537
    30     0.024275
    31    -0.230866
    32     0.005012
    33    -0.006654
    34    -0.002829
    35     0.019717
    36    -0.004471
    37    -0.009343
    38    -0.348614
Sym=    31a
Ene=   -0.264192E-02
Spin= Alpha
Occup= 0.000244
     1     0.000683
     2    -0.009569
     3     0.023673
     4     0.003864
     5    -0.182183
     6     0.014708
     7    -0.016366
     8    -0.611288
     9     0.049069
    10    -0.052673
    11     0.527098
    12    -0.041789
    13     0.034527
    14    -0.019847
    15    -0.048050
    16     0.024058
    17    -0.014470
    18    -0.450903
    19     0.026699
    20    -0.001251
    21     0.013531
    22    -0.030652
    23    -0.017001
    24    -0.192268
    25     0.014361
    26     0.015364
    27    -0.641230
    28     0.047492
    29     0.049923
    30     0.544828
    31    -0.039097
    32    -0.030203
    33    -0.015604
    34     0.008086
    35     0.048792
    36     0.009694
    37     0.546945
    38    -0.035904
Sym=    32a
Ene=   -0.220285E-02
Spin= Alpha
Occup= 0.000203
     1    -0.008592
     2     0.098494
     3    -0.277905
     4    -0.096665
     5    -0.018067
     6     0.008502
     7    -0.236221
     8    -0.062360
     9     0.037873
    10    -0.828182
    11     0.063193
    12    -0.064129
    13     0.692898
    14     0.190368
    15     0.269746
    16    -0.166265
    17    -0.016282
    18     0.135346
    19    -0.098525
    20    -0.008595
    21     0.098406
    22    -0.277503
    23    -0.097051
    24     0.003346
    25    -0.023555
    26     0.236088
    27     0.018580
    28    -0.083238
    29     0.827549
    30    -0.039914
    31     0.089995
    32    -0.691339
    33     0.272107
    34     0.188177
    35    -0.167387
    36    -0.022752
    37     0.047353
    38    -0.174417
Sym=    33a
Ene=   -0.241762E-03
Spin= Alpha
Occup= 0.000002
     1     0.001625
     2    -0.021263
     3     0.067623
     4     0.012252
     5    -0.090735
     6     0.044244
     7     0.043391
     8    -0.328796
     9     0.169191
    10     0.157961
    11     0.380392
    12    -0.221072
    13    -0.145474
    14    -0.004639
    15    -0.061083
    16    -0.008809
    17     0.011026
    18     0.639844
    19    -0.335438
    20     0.000137
    21    -0.000050
    22     0.003161
    23     0.017211
    24     0.066699
    25    -0.055778
    26    -0.054078
    27     0.257474
    28    -0.203719
    29    -0.188250
    30    -0.342907
    31     0.240104
    32     0.152935
    33    -0.103787
    34    -0.023211
    35     0.142815
    36     0.022563
    37     0.498768
    38    -0.396172
Sym=    34a
Ene=   -0.236846E-03
Spin= Alpha
Occup= 0.000002
     1    -0.006112
     2     0.082436
     3    -0.241428
     4    -0.001434
     5    -0.057096
     6    -0.052708
     7     0.015240
     8    -0.207185
     9    -0.207075
    10     0.031714
    11     0.240033
    12     0.285634
    13     0.023980
    14    -0.068793
    15    -0.040573
    16     0.440972
    17     0.000378
    18     0.404690
    19     0.424496
    20     0.005427
    21    -0.075135
    22     0.215596
    23    -0.003328
    24     0.039582
    25     0.080880
    26     0.048715
    27     0.154196
    28     0.291704
    29     0.150376
    30    -0.209282
    31    -0.333053
    32    -0.077256
    33     0.084695
    34     0.082592
    35    -0.484668
    36    -0.004472
    37     0.322786
    38     0.568843
Sym=    35a
Ene=    0.000000E+00
Spin= Alpha
Occup= 0.000000
     1    -0.002158
     2     0.061045
     3    -0.027767
     4    -0.295795
     5    -0.017447
     6    -0.040166
     7    -0.099459
     8    -0.065465
     9    -0.150034
    10    -0.334590
    11     0.082680
    12     0.185891
    13     0.377290
    14     0.420340
    15     0.501451
    16    -0.446609
    17    -0.006999
    18     0.134081
    19     0.261718
    20    -0.009287
    21     0.135223
    22    -0.308049
    23    -0.230681
    24     0.022181
    25     0.040510
    26    -0.075890
    27     0.080953
    28     0.149250
    29    -0.264660
    30    -0.094944
    31    -0.180302
    32     0.303654
    33    -0.106704
    34    -0.047860
    35     0.781736
    36     0.011876
    37     0.132438
    38     0.301380
Sym=    36a
Ene=    0.000000E+00
Spin= Alpha
Occup= 0.000000
     1    -0.001821
     2    -0.004093
     3    -0.677019
     4     2.086323
     5     0.002299
     6     0.006033
     7    -0.121010
     8     0.009023
     9     0.022579
    10    -0.623657
    11    -0.012348
    12    -0.028243
    13     1.938063
    14    -0.398151
    15    -0.407668
    16     0.443837
    17     0.000453
    18    -0.020860
    19    -0.041931
    20    -0.004820
    21     0.120172
    22     0.485830
    23    -2.404890
    24    -0.003344
    25    -0.006672
    26    -0.126139
    27    -0.012050
    28    -0.024586
    29    -0.650342
    30     0.013781
    31     0.029555
    32     1.952730
    33     0.619556
    34     0.619564
    35    -0.211245
    36     0.000775
    37    -0.024593
    38    -0.048123
Sym=    37a
Ene=    0.000000E+00
Spin= Alpha
Occup= 0.000000
     1     0.026980
     2    -0.471778
     3     0.720289
     4     1.471154
     5    -0.001595
     6    -0.004162
     7    -0.040466
     8    -0.007096
     9    -0.016210
    10    -0.203307
    11     0.011988
    12     0.021784
    13     0.299644
    14    -0.898944
    15    -0.863820
    16    -0.960565
    17    -0.003752
    18     0.014185
    19     0.023981
    20     0.032980
    21    -0.571867
    22     1.012668
    23     1.378638
    24     0.005043
    25     0.005379
    26    -0.028812
    27     0.017369
    28     0.019272
    29    -0.086542
    30    -0.017523
    31    -0.021859
    32     0.273482
    33    -1.080465
    34    -1.090924
    35    -1.065982
    36    -0.004020
    37     0.032112
    38     0.040050
Sym=    38a
Ene=    0.000000E+00
Spin= Alpha
Occup= 0.000000
     1     0.037718
     2    -0.632954
     3     1.055675
     4     1.960502
     5    -0.006895
     6    -0.007051
     7     0.039740
     8    -0.024173
     9    -0.027764
    10     0.153641
    11     0.025716
    12     0.038445
    13    -0.047063
    14    -1.107626
    15    -1.096994
    16    -1.274302
    17    -0.001210
    18     0.036763
    19     0.039970
    20    -0.031201
    21     0.518755
    22    -0.868240
    23    -1.646116
    24     0.004277
    25     0.011514
    26     0.046251
    27     0.016430
    28     0.040677
    29     0.185042
    30    -0.021789
    31    -0.044199
    32    -0.065674
    33     0.889486
    34     0.889010
    35     1.043695
    36     0.000721
    37     0.018535
    38     0.075352
