[Molden Format]
p30-20 set                                                                      
[Atoms] AU
 NA       1    11        0.0000        0.0000       -1.7926
 H        2     1        0.0000        0.0000        1.7926
[GTO]
    1 0
s    5 1.00
    4098.200390800000 -0.582973440428E-02
     616.493740310000 -0.434692743388E-01
     139.966440010000 -0.193522713755E+00
      39.073441051000 -0.484866458138E+00
      11.929847205000 -0.417110128653E+00
s    3 1.00
      20.659966030000  0.857687067851E-01
       1.983886097800 -0.562404693737E+00
       0.648363239420 -0.518446102123E+00
s    1 1.00
       0.052443967404  0.100000000000E+01
s    1 1.00
       0.028048160742  0.100000000000E+01
p    5 1.00
      75.401862017000  0.154353625324E-01
      17.274818978000  0.997382931840E-01
       5.184234742500  0.312095939659E+00
       1.660121197300  0.492956748074E+00
       0.512325289580  0.324203983180E+00
p    1 1.00
       0.052000000000  0.100000000000E+01
d    1 1.00
       0.131000000000  0.100000000000E+01
 
    2 0
s    3 1.00
      13.010701000000  0.334854848130E-01
       1.962257200000  0.234721870881E+00
       0.444537960000  0.813770285260E+00
s    1 1.00
       0.121949620000  0.100000000000E+01
p    1 1.00
       0.800000000000  0.100000000000E+01
 
[MO]
Sym=     1a
Ene=   -0.402116E+02
Spin= Alpha
Occup= 2.000000
     1    -0.969737
     2    -0.106789
     3    -0.034412
     4     0.011736
     5    -0.000002
     6    -0.000001
     7    -0.002952
     8     0.000002
     9     0.000000
    10    -0.000186
    11     0.009856
    12     0.009853
    13     0.009703
    14     0.000001
    15     0.000001
    16    -0.000001
    17    -0.000146
    18     0.000524
    19    -0.000000
    20    -0.000000
    21    -0.000292
Sym=     2a
Ene=   -0.306411E+01
Spin= Alpha
Occup= 2.000000
     1     0.349104
     2    -1.017520
     3     0.044415
     4    -0.020647
     5    -0.000005
     6    -0.000000
     7    -0.033258
     8    -0.000001
     9     0.000000
    10     0.002279
    11    -0.003076
    12    -0.003073
    13    -0.001604
    14    -0.000002
    15    -0.000001
    16     0.000001
    17     0.000347
    18    -0.003269
    19     0.000001
    20     0.000000
    21    -0.001661
Sym=     3a
Ene=   -0.152035E+01
Spin= Alpha
Occup= 1.999798
     1     0.000002
     2    -0.000005
     3    -0.000018
     4     0.000006
     5    -0.896514
     6    -0.439879
     7     0.000236
     8    -0.009666
     9    -0.004729
    10     0.000000
    11     0.000002
    12     0.000006
    13     0.000001
    14     0.000001
    15     0.002426
    16     0.001194
    17     0.000001
    18     0.000010
    19    -0.001026
    20    -0.000505
    21    -0.000002
Sym=     4a
Ene=   -0.151971E+01
Spin= Alpha
Occup= 1.999383
     1    -0.000006
     2     0.000023
     3     0.000025
     4    -0.000007
     5    -0.439874
     6     0.896511
     7    -0.000509
     8    -0.004765
     9     0.009686
    10    -0.000004
    11    -0.000009
    12    -0.000006
    13    -0.000003
    14     0.000001
    15     0.001185
    16    -0.002425
    17    -0.000005
    18    -0.000008
    19    -0.000501
    20     0.001027
    21     0.000002
Sym=     5a
Ene=   -0.151748E+01
Spin= Alpha
Occup= 1.999096
     1    -0.009420
     2     0.040266
     3     0.044572
     4    -0.017779
     5     0.000013
     6    -0.000563
     7    -0.996666
     8     0.000000
     9    -0.000004
    10    -0.005052
    11    -0.012606
    12    -0.012608
    13    -0.000532
    14    -0.000000
    15    -0.000000
    16     0.000002
    17    -0.013139
    18    -0.013308
    19     0.000002
    20    -0.000002
    21     0.003207
Sym=     6a
Ene=   -0.287229E+00
Spin= Alpha
Occup= 1.969758
     1     0.027514
     2    -0.161984
     3    -0.208318
     4    -0.114459
     5    -0.000001
     6    -0.000000
     7     0.085783
     8    -0.000004
     9    -0.000003
    10    -0.153885
    11    -0.016896
    12    -0.016892
    13    -0.069180
    14     0.000020
    15     0.000001
    16     0.000000
    17    -0.392130
    18    -0.364875
    19    -0.000000
    20    -0.000000
    21     0.012728
Sym=     7a
Ene=   -0.154065E-01
Spin= Alpha
Occup= 0.024087
     1    -0.071543
     2     0.568377
     3     2.855643
     4    -0.826170
     5    -0.000008
     6    -0.000005
     7     0.011398
     8     0.000057
     9     0.000035
    10     0.259076
    11    -0.566667
    12    -0.566569
    13    -0.481006
    14    -0.000107
    15     0.000027
    16     0.000023
    17    -0.821103
    18    -0.023712
    19     0.000031
    20     0.000007
    21    -0.019286
Sym=     8a
Ene=   -0.113293E-02
Spin= Alpha
Occup= 0.000446
     1    -0.045094
     2     0.484545
     3     2.781858
     4    -0.922137
     5    -0.004495
     6    -0.001879
     7     0.014425
     8     0.031095
     9     0.012939
    10    -0.323354
    11    -0.944067
    12    -0.944987
    13    -1.192600
    14     0.000650
    15     0.029147
    16     0.012341
    17    -0.142593
    18     0.716701
    19     0.057853
    20     0.025319
    21     0.802668
Sym=     9a
Ene=   -0.109630E-02
Spin= Alpha
Occup= 0.000461
     1    -0.000141
     2     0.001501
     3     0.008610
     4    -0.002801
     5     0.025310
     6    -0.052003
     7     0.000067
     8    -0.175676
     9     0.359986
    10    -0.001030
    11    -0.002891
    12    -0.002863
    13    -0.003699
    14    -0.000055
    15    -0.162316
    16     0.336600
    17    -0.000355
    18     0.002104
    19    -0.312787
    20     0.662759
    21     0.002731
Sym=    10a
Ene=   -0.222377E-03
Spin= Alpha
Occup= 0.000096
     1     0.000073
     2    -0.001003
     3    -0.004544
     4     0.003043
     5     0.047709
     6     0.077641
     7     0.000493
     8    -0.383119
     9    -0.623215
    10     0.001922
    11     0.002633
    12     0.002785
    13     0.004052
    14    -0.000127
    15    -0.249999
    16    -0.404515
    17     0.003413
    18    -0.008111
    19     0.359441
    20     0.582529
    21     0.001735
Sym=    11a
Ene=   -0.937551E-06
Spin= Alpha
Occup= 0.000000
     1     0.000004
     2    -0.000043
     3    -0.001994
     4    -0.000366
     5     0.071996
     6    -0.032168
     7    -0.000188
     8    -0.516292
     9     0.230471
    10    -0.003236
    11     0.057432
    12    -0.052324
    13    -0.005874
    14     0.097729
    15     0.751948
    16    -0.339434
    17     0.000999
    18     0.005051
    19    -0.191725
    20     0.087474
    21    -0.001141
Sym=    12a
Ene=   -0.143073E-08
Spin= Alpha
Occup= 0.000000
     1     0.000039
     2    -0.000563
     3    -0.001437
     4    -0.001561
     5     0.002701
     6     0.026824
     7     0.000010
     8    -0.019514
     9    -0.192477
    10     0.001444
    11     0.311671
    12    -0.307142
    13     0.001265
    14     0.871039
    15     0.025685
    16     0.277810
    17     0.001080
    18    -0.002468
    19    -0.005895
    20    -0.070145
    21     0.000032
Sym=    13a
Ene=   -0.567453E-02
Spin= Alpha
Occup= 0.006155
     1    -0.097037
     2     0.907124
     3     6.119708
     4    -2.535929
     5    -0.000026
     6    -0.000019
     7     0.039122
     8     0.000178
     9     0.000128
    10    -0.012676
    11    -1.572015
    12    -1.571823
    13    -1.456441
    14    -0.000112
    15     0.000167
    16     0.000117
    17     0.706215
    18    -0.741184
    19     0.000215
    20     0.000118
    21    -0.214406
Sym=    14a
Ene=   -0.109362E-02
Spin= Alpha
Occup= 0.000458
     1     0.003923
     2    -0.042112
     3    -0.241825
     4     0.080293
     5    -0.051862
     6    -0.024232
     7    -0.001184
     8     0.359184
     9     0.167352
    10     0.027964
    11     0.082048
    12     0.082128
    13     0.103607
    14    -0.000048
    15     0.336109
    16     0.158621
    17     0.012365
    18    -0.062163
    19     0.659461
    20     0.318008
    21    -0.068408
Sym=    15a
Ene=   -0.347703E-03
Spin= Alpha
Occup= 0.000156
     1    -0.014857
     2     0.205134
     3     0.914593
     4    -0.614898
     5     0.000253
     6     0.000281
     7    -0.113747
     8    -0.002041
     9    -0.002262
    10    -0.361340
    11    -0.590483
    12    -0.591684
    13    -0.809632
    14     0.000873
    15    -0.001200
    16    -0.001336
    17    -0.757716
    18     1.707173
    19     0.002350
    20     0.002529
    21    -0.488323
Sym=    16a
Ene=   -0.234506E-03
Spin= Alpha
Occup= 0.000106
     1    -0.000016
     2     0.000224
     3     0.001111
     4    -0.000657
     5    -0.077650
     6     0.047976
     7    -0.000092
     8     0.623274
     9    -0.384908
    10    -0.000316
    11    -0.000643
    12    -0.000599
    13    -0.000758
    14     0.000062
    15     0.396313
    16    -0.243316
    17    -0.000669
    18     0.001493
    19    -0.587530
    20     0.361326
    21    -0.000243
Sym=    17a
Ene=   -0.122372E-05
Spin= Alpha
Occup= 0.000000
     1    -0.004588
     2     0.086731
     3     0.100677
     4     0.453173
     5    -0.000019
     6     0.000563
     7    -0.057486
     8     0.000137
     9    -0.004051
    10    -0.162335
    11     0.181565
    12     0.184716
    13    -1.602150
    14    -0.002689
    15    -0.000124
    16     0.005802
    17     0.446326
    18     0.434985
    19     0.000131
    20    -0.001394
    21    -0.268665
Sym=    18a
Ene=   -0.472249E-06
Spin= Alpha
Occup= 0.000000
     1     0.000011
     2    -0.000285
     3     0.000873
     4    -0.001820
     5     0.034020
     6     0.067848
     7     0.000385
     8    -0.244355
     9    -0.486945
    10     0.002140
    11    -0.153849
    12     0.148448
    13     0.010767
    14    -0.270349
    15     0.348436
    16     0.700712
    17    -0.003005
    18    -0.004192
    19    -0.087026
    20    -0.176595
    21     0.002017
Sym=    19a
Ene=    0.000000E+00
Spin= Alpha
Occup= 0.000000
     1     0.003851
     2    -0.066780
     3    -1.323335
     4     0.025891
     5    -0.000205
     6    -0.001283
     7     0.021894
     8     0.001485
     9     0.009200
    10    -1.886913
    11     0.296174
    12     0.763533
    13    -0.661346
    14     0.117479
    15    -0.002083
    16    -0.013393
    17    -0.306182
    18     2.273058
    19     0.000537
    20     0.003413
    21    -0.267139
Sym=    20a
Ene=    0.000000E+00
Spin= Alpha
Occup= 0.000000
     1     0.005973
     2    -0.109049
     3    -0.422448
     4    -0.967320
     5     0.000315
     6     0.003836
     7    -0.013746
     8    -0.002297
     9    -0.027523
    10    -0.485217
    11     1.250621
    12    -0.020197
    13     0.002722
    14    -0.320337
    15     0.002911
    16     0.039543
    17    -0.168324
    18     0.848030
    19    -0.000673
    20    -0.009970
    21     0.006450
Sym=    21a
Ene=    0.000000E+00
Spin= Alpha
Occup= 0.000000
     1    -0.007019
     2     0.130272
     3    -0.099601
     4     1.508678
     5     0.000259
     6     0.002403
     7     0.033689
     8    -0.001874
     9    -0.017246
    10    -0.321171
    11    -0.236157
    12    -1.060915
    13    -0.379173
    14    -0.205489
    15     0.002679
    16     0.024992
    17     0.086848
    18    -0.020788
    19    -0.000600
    20    -0.006300
    21    -0.161718
