[Molden Format]
p30-20 set                                                                      
[Atoms] AU
 P        1    15        0.0000        0.0000       -1.7936
 P        2    15        0.0000        0.0000        1.7936
[GTO]
    1 0
s    5 1.00
    8002.479510600000  0.552555527945E-02
    1203.681359000000  0.413263671710E-01
     273.442270310000  0.186070058991E+00
      76.655541517000  0.477107006766E+00
      23.516927435000  0.432247688783E+00
s    3 1.00
      39.791683439000  0.909541455125E-01
       4.277034332300 -0.550855656186E+00
       1.694025688800 -0.518269979075E+00
s    1 1.00
       0.275676746440  0.100000000000E+01
s    1 1.00
       0.104955900990  0.100000000000E+01
p    5 1.00
     219.507558230000  0.957391014006E-02
      51.274155030000  0.679938519137E-01
      15.921595892000  0.249832097533E+00
       5.506991348100  0.481481790475E+00
       1.953771942600  0.388697985432E+00
p    1 1.00
       0.478033979320  0.100000000000E+01
p    1 1.00
       0.136579526210  0.100000000000E+01
d    1 1.00
       0.450000000000  0.100000000000E+01
 
    2 0
s    5 1.00
    8002.479510600000  0.552555527945E-02
    1203.681359000000  0.413263671710E-01
     273.442270310000  0.186070058991E+00
      76.655541517000  0.477107006766E+00
      23.516927435000  0.432247688783E+00
s    3 1.00
      39.791683439000  0.909541455125E-01
       4.277034332300 -0.550855656186E+00
       1.694025688800 -0.518269979075E+00
s    1 1.00
       0.275676746440  0.100000000000E+01
s    1 1.00
       0.104955900990  0.100000000000E+01
p    5 1.00
     219.507558230000  0.957391014006E-02
      51.274155030000  0.679938519137E-01
      15.921595892000  0.249832097533E+00
       5.506991348100  0.481481790475E+00
       1.953771942600  0.388697985432E+00
p    1 1.00
       0.478033979320  0.100000000000E+01
p    1 1.00
       0.136579526210  0.100000000000E+01
d    1 1.00
       0.450000000000  0.100000000000E+01
 
[MO]
Sym=     1a
Ene=   -0.799646E+02
Spin= Alpha
Occup= 1.999998
     1     0.703997
     2    -0.019495
     3    -0.021085
     4     0.000288
     5     0.000001
     6    -0.000004
     7    -0.000065
     8    -0.000000
     9    -0.000001
    10     0.000313
    11    -0.000000
    12     0.000001
    13    -0.000003
    14     0.007300
    15     0.007300
    16     0.007907
    17     0.000000
    18    -0.000000
    19     0.000001
    20    -0.701952
    21     0.019417
    22     0.021025
    23    -0.000287
    24     0.000002
    25     0.000008
    26    -0.000079
    27    -0.000000
    28     0.000000
    29     0.000314
    30     0.000000
    31    -0.000000
    32    -0.000004
    33    -0.007278
    34    -0.007279
    35    -0.007888
    36     0.000000
    37     0.000000
    38     0.000000
Sym=     2a
Ene=   -0.799647E+02
Spin= Alpha
Occup= 1.999998
     1     0.701949
     2    -0.019403
     3    -0.020744
     4     0.000415
     5    -0.000008
     6     0.000003
     7    -0.000029
     8    -0.000000
     9    -0.000000
    10    -0.000014
    11     0.000000
    12     0.000001
    13    -0.000023
    14     0.007296
    15     0.007297
    16     0.007116
    17    -0.000000
    18     0.000000
    19    -0.000000
    20     0.704003
    21    -0.019453
    22    -0.020802
    23     0.000415
    24    -0.000014
    25     0.000000
    26     0.000013
    27    -0.000001
    28     0.000000
    29     0.000013
    30     0.000000
    31    -0.000000
    32     0.000023
    33     0.007316
    34     0.007317
    35     0.007139
    36    -0.000000
    37     0.000000
    38     0.000000
Sym=     3a
Ene=   -0.751471E+01
Spin= Alpha
Occup= 1.999797
     1     0.212460
     2     0.722910
     3    -0.033329
     4     0.007083
     5     0.001138
     6    -0.002397
     7     0.006244
     8     0.000043
     9    -0.000107
    10     0.000564
    11    -0.000003
    12     0.000010
    13     0.000003
    14     0.002232
    15     0.002234
    16     0.001778
    17     0.000002
    18    -0.000001
    19    -0.000000
    20     0.211472
    21     0.719621
    22    -0.033157
    23     0.007050
    24     0.004528
    25    -0.001076
    26    -0.005766
    27     0.000207
    28    -0.000044
    29    -0.000541
    30    -0.000021
    31     0.000003
    32    -0.000021
    33     0.002219
    34     0.002222
    35     0.001779
    36     0.000001
    37    -0.000000
    38     0.000000
Sym=     4a
Ene=   -0.751338E+01
Spin= Alpha
Occup= 1.999795
     1     0.211516
     2     0.719753
     3    -0.034114
     4     0.010292
     5    -0.000235
     6     0.004591
     7     0.011903
     8    -0.000006
     9     0.000224
    10    -0.000720
    11    -0.000000
    12    -0.000025
    13     0.000432
    14     0.002150
    15     0.002152
    16     0.000457
    17     0.000005
    18     0.000000
    19     0.000002
    20    -0.212467
    21    -0.723008
    22     0.034248
    23    -0.010315
    24    -0.002377
    25    -0.006013
    26     0.015496
    27    -0.000109
    28    -0.000290
    29    -0.000541
    30     0.000011
    31     0.000031
    32     0.000396
    33    -0.002158
    34    -0.002157
    35    -0.000476
    36     0.000004
    37    -0.000000
    38    -0.000001
Sym=     5a
Ene=   -0.541156E+01
Spin= Alpha
Occup= 1.999643
     1    -0.000307
     2    -0.001068
     3    -0.000061
     4     0.000315
     5     0.323085
     6    -0.616266
     7    -0.013946
     8     0.015047
     9    -0.026917
    10    -0.001348
    11    -0.001536
    12     0.002453
    13     0.000254
    14    -0.000068
    15    -0.000066
    16    -0.000420
    17     0.000002
    18     0.000018
    19    -0.000022
    20    -0.001093
    21    -0.003760
    22     0.000195
    23    -0.000468
    24    -0.059956
    25    -0.667724
    26    -0.189411
    27    -0.003506
    28    -0.029409
    29    -0.009152
    30     0.000476
    31     0.002723
    32     0.000913
    33     0.000146
    34     0.000147
    35     0.000551
    36     0.000002
    37     0.000009
    38     0.000024
Sym=     6a
Ene=   -0.541180E+01
Spin= Alpha
Occup= 1.999574
     1    -0.004114
     2    -0.014118
     3     0.000926
     4    -0.002142
     5    -0.085467
     6     0.373070
     7     0.580366
     8    -0.003733
     9     0.018401
    10     0.029574
    11     0.000341
    12    -0.002048
    13    -0.003234
    14     0.000534
    15     0.000535
    16     0.002571
    17    -0.000008
    18    -0.000006
    19     0.000033
    20     0.004096
    21     0.013987
    22    -0.001015
    23     0.002088
    24    -0.092020
    25    -0.518667
    26     0.453817
    27    -0.004051
    28    -0.024793
    29     0.023925
    30     0.000374
    31     0.002632
    32    -0.002720
    33    -0.000467
    34    -0.000469
    35    -0.002497
    36    -0.000008
    37     0.000001
    38     0.000036
Sym=     7a
Ene=   -0.541099E+01
Spin= Alpha
Occup= 1.999574
     1     0.000146
     2     0.000521
     3     0.000074
     4    -0.000227
     5     0.683135
     6     0.126655
     7    -0.022454
     8     0.032985
     9     0.005344
    10    -0.000443
    11    -0.003554
    12    -0.000447
    13    -0.000069
    14     0.000037
    15     0.000032
    16     0.000293
    17    -0.000002
    18     0.000049
    19    -0.000001
    20     0.001475
    21     0.005065
    22    -0.000235
    23     0.000399
    24    -0.635114
    25     0.221750
    26     0.177530
    27    -0.030881
    28     0.009950
    29     0.008455
    30     0.003361
    31    -0.000950
    32    -0.000819
    33    -0.000122
    34    -0.000127
    35    -0.000440
    36    -0.000003
    37     0.000046
    38    -0.000014
Sym=     8a
Ene=   -0.541250E+01
Spin= Alpha
Occup= 1.999439
     1    -0.000701
     2    -0.002556
     3    -0.000219
     4    -0.000596
     5    -0.152836
     6    -0.124401
     7     0.667220
     8    -0.006377
     9    -0.006248
    10     0.030058
    11     0.000514
    12     0.000716
    13    -0.002570
    14     0.000322
    15     0.000352
    16     0.000754
    17     0.000008
    18    -0.000003
    19    -0.000012
    20    -0.001703
    21    -0.005995
    22    -0.000098
    23    -0.000275
    24    -0.299795
    25     0.220970
    26    -0.587601
    27    -0.013502
    28     0.010488
    29    -0.025895
    30     0.001284
    31    -0.001097
    32     0.002095
    33     0.000289
    34     0.000319
    35     0.000209
    36     0.000008
    37     0.000016
    38    -0.000015
Sym=     9a
Ene=   -0.541070E+01
Spin= Alpha
Occup= 1.999436
     1    -0.001570
     2    -0.005392
     3     0.000531
     4    -0.001622
     5    -0.036521
     6    -0.623869
     7     0.305488
     8    -0.001955
     9    -0.029669
    10     0.016754
    11     0.000240
    12     0.003118
    13    -0.002029
    14     0.000385
    15     0.000376
    16     0.002013
    17    -0.000009
    18    -0.000000
    19    -0.000044
    20     0.001447
    21     0.005003
    22    -0.000379
    23     0.001804
    24     0.117488
    25     0.378404
    26     0.571185
    27     0.005509
    28     0.018887
    29     0.028587
    30    -0.000565
    31    -0.002142
    32    -0.002982
    33    -0.000519
    34    -0.000531
    35    -0.002244
    36    -0.000010
    37    -0.000005
    38    -0.000033
Sym=    10a
Ene=   -0.541119E+01
Spin= Alpha
Occup= 1.999433
     1    -0.001166
     2    -0.004073
     3     0.000097
     4    -0.000476
     5     0.604558
     6     0.169820
     7     0.301991
     8     0.026398
     9     0.007591
    10     0.014018
    11    -0.002360
    12    -0.000711
    13    -0.001281
    14     0.000171
    15     0.000183
    16     0.000566
    17     0.000002
    18     0.000027
    19     0.000009
    20    -0.001316
    21    -0.004584
    22     0.000049
    23     0.000117
    24     0.670371
    25     0.111660
    26    -0.149252
    27     0.029590
    28     0.004770
    29    -0.006100
    30    -0.002705
    31    -0.000407
    32     0.000403
    33     0.000031
    34     0.000042
    35    -0.000237
    36     0.000001
    37    -0.000031
    38    -0.000004
Sym=    11a
Ene=   -0.727726E+00
Spin= Alpha
Occup= 1.988259
     1     0.001025
     2     0.001105
     3    -0.019856
     4    -0.037670
     5    -0.000001
     6     0.000051
     7    -0.042030
     8    -0.000004
     9    -0.000006
    10     0.059092
    11    -0.000007
    12    -0.000019
    13     0.024619
    14    -0.010668
    15    -0.010655
    16     0.014670
    17    -0.000020
    18    -0.000003
    19    -0.000007
    20     0.075719
    21     0.468125
    22     0.672421
    23     0.365634
    24    -0.000022
    25    -0.000014
    26    -0.049406
    27    -0.000007
    28    -0.000012
    29     0.093917
    30    -0.000008
    31    -0.000016
    32     0.141077
    33     0.023733
    34     0.023731
    35     0.033193
    36    -0.000062
    37     0.000002
    38     0.000006
Sym=    12a
Ene=   -0.727530E+00
Spin= Alpha
Occup= 1.988233
     1     0.075715
     2     0.468098
     3     0.672278
     4     0.365617
     5     0.000006
     6    -0.000043
     7     0.049474
     8     0.000004
     9     0.000009
    10    -0.093874
    11     0.000002
    12     0.000011
    13    -0.141336
    14     0.023731
    15     0.023776
    16     0.033069
    17     0.000052
    18     0.000001
    19     0.000004
    20     0.000986
    21     0.000859
    22    -0.020299
    23    -0.037543
    24     0.000005
    25     0.000030
    26     0.042021
    27     0.000002
    28     0.000010
    29    -0.059024
    30    -0.000001
    31     0.000012
    32    -0.024999
    33    -0.010643
    34    -0.010608
    35     0.014578
    36     0.000037
    37    -0.000000
    38    -0.000006
Sym=    13a
Ene=   -0.482116E+00
Spin= Alpha
Occup= 1.970485
     1    -0.007259
     2    -0.040220
     3    -0.063344
     4     0.170815
     5     0.000014
     6     0.000041
     7     0.206508
     8    -0.000016
     9    -0.000052
    10    -0.367946
    11    -0.000020
    12    -0.000079
    13    -0.339182
    14     0.024974
    15     0.025072
    16    -0.059964
    17     0.000018
    18    -0.000004
    19    -0.000015
    20    -0.007244
    21    -0.040129
    22    -0.063246
    23     0.171797
    24     0.000003
    25     0.000051
    26    -0.206535
    27    -0.000024
    28    -0.000050
    29     0.368030
    30    -0.000028
    31    -0.000064
    32     0.338117
    33     0.025076
    34     0.025181
    35    -0.060141
    36     0.000034
    37     0.000003
    38     0.000012
Sym=    14a
Ene=   -0.377586E+00
Spin= Alpha
Occup= 1.959952
     1    -0.000002
     2    -0.000012
     3    -0.000017
     4     0.000018
     5     0.103461
     6    -0.133119
     7     0.000019
     8    -0.180113
     9     0.231798
    10    -0.000032
    11    -0.244421
    12     0.314579
    13    -0.000019
    14     0.000005
    15    -0.000000
    16    -0.000006
    17    -0.000001
    18    -0.041176
    19     0.052968
    20     0.000001
    21     0.000006
    22     0.000012
    23     0.000010
    24     0.103589
    25    -0.133172
    26    -0.000006
    27    -0.180308
    28     0.231896
    29     0.000045
    30    -0.244744
    31     0.314762
    32     0.000051
    33     0.000005
    34    -0.000001
    35    -0.000004
    36    -0.000001
    37     0.041147
    38    -0.052944
Sym=    15a
Ene=   -0.377570E+00
Spin= Alpha
Occup= 1.959909
     1    -0.000002
     2    -0.000015
     3    -0.000019
     4     0.000009
     5    -0.133227
     6    -0.103561
     7     0.000023
     8     0.231883
     9     0.180295
    10    -0.000054
    11     0.314719
    12     0.244716
    13    -0.000050
    14     0.000006
    15     0.000002
    16    -0.000006
    17     0.000000
    18     0.052962
    19     0.041159
    20     0.000002
    21     0.000015
    22     0.000028
    23     0.000032
    24    -0.133187
    25    -0.103447
    26    -0.000030
    27     0.231802
    28     0.180113
    29     0.000063
    30     0.314624
    31     0.244458
    32     0.000064
    33     0.000007
    34     0.000004
    35    -0.000008
    36     0.000000
    37    -0.052956
    38    -0.041167
Sym=    16a
Ene=   -0.400908E-01
Spin= Alpha
Occup= 0.040091
     1     0.000005
     2     0.000039
     3     0.000095
     4    -0.000003
     5     0.214466
     6     0.166694
     7    -0.000046
     8    -0.538711
     9    -0.418740
    10     0.000133
    11    -0.120865
    12    -0.093889
    13     0.000002
    14    -0.000013
    15    -0.000014
    16     0.000003
    17     0.000003
    18     0.007851
    19     0.006194
    20    -0.000003
    21    -0.000020
    22    -0.000036
    23    -0.000012
    24    -0.214480
    25    -0.166684
    26    -0.000050
    27     0.538702
    28     0.418597
    29     0.000142
    30     0.120970
    31     0.094230
    32    -0.000004
    33     0.000000
    34     0.000002
    35    -0.000022
    36     0.000004
    37     0.007798
    38     0.006035
Sym=    17a
Ene=   -0.400753E-01
Spin= Alpha
Occup= 0.040048
     1     0.000003
     2     0.000025
     3     0.000075
     4     0.000002
     5    -0.166694
     6     0.214453
     7    -0.000056
     8     0.418639
     9    -0.538616
    10     0.000172
    11     0.094144
    12    -0.121054
    13    -0.000070
    14    -0.000011
    15    -0.000008
    16     0.000002
    17    -0.000003
    18    -0.006098
    19     0.007965
    20    -0.000004
    21    -0.000023
    22    -0.000037
    23     0.000005
    24     0.166696
    25    -0.214436
    26    -0.000013
    27    -0.418768
    28     0.538621
    29     0.000022
    30    -0.093790
    31     0.120925
    32     0.000067
    33     0.000004
    34     0.000007
    35    -0.000009
    36     0.000000
    37    -0.006368
    38     0.008157
Sym=    18a
Ene=   -0.353435E-01
Spin= Alpha
Occup= 0.029515
     1    -0.042988
     2    -0.350722
     3    -0.918967
     4     0.002248
     5     0.000038
     6     0.000006
     7     0.280321
     8    -0.000116
     9     0.000013
    10    -0.791661
    11     0.000047
    12    -0.000115
    13    -0.126720
    14     0.166521
    15     0.165875
    16     0.182820
    17    -0.001630
    18    -0.000001
    19    -0.000060
    20     0.042832
    21     0.349467
    22     0.915920
    23     0.000298
    24     0.000013
    25    -0.000074
    26     0.281886
    27    -0.000054
    28     0.000208
    29    -0.797807
    30     0.000073
    31    -0.000007
    32    -0.120748
    33    -0.165538
    34    -0.166188
    35    -0.181795
    36    -0.001641
    37     0.000008
    38     0.000076
Sym=    19a
Ene=   -0.191046E-01
Spin= Alpha
Occup= 0.011767
     1    -0.131211
     2    -1.346207
     3    -4.234301
     4     0.864045
     5    -0.000026
     6     0.000041
     7    -0.120461
     8     0.000094
     9    -0.000126
    10     0.406218
    11    -0.000072
    12     0.000032
    13    -0.193246
    14     1.403800
    15     1.407168
    16     1.319998
    17     0.002682
    18     0.000002
    19     0.000392
    20    -0.005476
    21    -0.034975
    22    -0.055194
    23    -0.060510
    24    -0.000028
    25     0.000048
    26    -0.048686
    27     0.000098
    28    -0.000136
    29     0.186767
    30    -0.000069
    31    -0.000018
    32    -0.028038
    33    -0.012930
    34    -0.009835
    35    -0.065387
    36     0.002504
    37    -0.000012
    38    -0.000341
Sym=    20a
Ene=   -0.190908E-01
Spin= Alpha
Occup= 0.011741
     1    -0.004826
     2    -0.028587
     3    -0.033636
     4    -0.066015
     5    -0.000035
     6    -0.000124
     7     0.045832
     8     0.000115
     9     0.000418
    10    -0.175082
    11    -0.000051
    12    -0.000226
    13     0.018259
    14    -0.022584
    15    -0.020968
    16    -0.060895
    17    -0.001245
    18    -0.000196
    19    -0.000351
    20    -0.131252
    21    -1.346221
    22    -4.232551
    23     0.866368
    24    -0.000038
    25    -0.000125
    26     0.120442
    27     0.000118
    28     0.000413
    29    -0.406737
    30    -0.000016
    31    -0.000192
    32     0.197610
    33     1.405665
    34     1.407416
    35     1.314187
    36    -0.001369
    37     0.000219
    38     0.000401
Sym=    21a
Ene=   -0.322241E-02
Spin= Alpha
Occup= 0.000567
     1    -0.006583
     2    -0.078290
     3    -0.192831
     4    -0.055606
     5     0.131530
     6     0.034186
     7    -0.009474
     8    -0.440221
     9    -0.114925
    10     0.031857
    11     0.204956
    12     0.055291
    13    -0.103578
    14    -0.036227
    15    -0.036137
    16     0.362267
    17     0.001222
    18     0.475177
    19     0.117686
    20    -0.006252
    21    -0.073810
    22    -0.179260
    23    -0.054129
    24     0.131510
    25     0.034319
    26     0.007348
    27    -0.440186
    28    -0.115299
    29    -0.023717
    30     0.205037
    31     0.055283
    32     0.102087
    33    -0.039857
    34    -0.039046
    35     0.345660
    36     0.001451
    37    -0.475155
    38    -0.117232
Sym=    22a
Ene=   -0.320866E-02
Spin= Alpha
Occup= 0.000564
     1     0.008389
     2     0.099778
     3     0.246256
     4     0.070576
     5     0.013732
     6     0.125017
     7     0.012091
     8    -0.045948
     9    -0.418808
    10    -0.040628
    11     0.021298
    12     0.196365
    13     0.130884
    14     0.051150
    15     0.037893
    16    -0.458917
    17    -0.001090
    18     0.050386
    19     0.446943
    20     0.007716
    21     0.091127
    22     0.220303
    23     0.067808
    24     0.013835
    25     0.125009
    26    -0.009134
    27    -0.046233
    28    -0.418765
    29     0.029462
    30     0.021316
    31     0.196255
    32    -0.128820
    33     0.059726
    34     0.045736
    35    -0.434176
    36    -0.001576
    37    -0.050374
    38    -0.446791
Sym=    23a
Ene=   -0.319229E-02
Spin= Alpha
Occup= 0.000561
     1    -0.010043
     2    -0.119484
     3    -0.294610
     4    -0.085205
     5    -0.075180
     6     0.084603
     7    -0.014076
     8     0.251742
     9    -0.284449
    10     0.047030
    11    -0.117641
    12     0.137055
    13    -0.156610
    14    -0.058412
    15    -0.051663
    16     0.552696
    17    -0.001939
    18    -0.269214
    19     0.287909
    20    -0.009485
    21    -0.112076
    22    -0.272279
    23    -0.082625
    24    -0.075080
    25     0.084529
    26     0.010892
    27     0.251481
    28    -0.284238
    29    -0.034816
    30    -0.117758
    31     0.137088
    32     0.154184
    33    -0.064568
    34    -0.057128
    35     0.527053
    36    -0.001580
    37     0.269745
    38    -0.288370
Sym=    24a
Ene=   -0.241036E-02
Spin= Alpha
Occup= 0.000426
     1    -0.000024
     2    -0.000296
     3    -0.000753
     4    -0.000133
     5     0.208328
     6    -0.011884
     7    -0.000108
     8    -0.776778
     9     0.044400
    10     0.000391
    11     0.647017
    12    -0.037284
    13    -0.000437
    14    -0.004996
    15     0.004808
    16     0.001404
    17     0.000485
    18    -0.313120
    19     0.018968
    20    -0.000008
    21    -0.000073
    22    -0.000058
    23    -0.000143
    24     0.208371
    25    -0.012078
    26     0.000004
    27    -0.776982
    28     0.045208
    29    -0.000029
    30     0.647371
    31    -0.038199
    32     0.000469
    33    -0.005477
    34     0.004800
    35     0.000747
    36     0.000580
    37     0.313143
    38    -0.020506
Sym=    25a
Ene=   -0.240779E-02
Spin= Alpha
Occup= 0.000426
     1    -0.000021
     2    -0.000382
     3    -0.002614
     4    -0.000273
     5     0.012800
     6     0.206223
     7     0.001281
     8    -0.047629
     9    -0.769718
    10    -0.005263
    11     0.039382
    12     0.643668
    13     0.006792
    14     0.025952
    15    -0.019108
    16    -0.004279
    17    -0.000684
    18    -0.017575
    19    -0.320070
    20     0.000002
    21    -0.000097
    22    -0.001817
    23    -0.000086
    24     0.012695
    25     0.206226
    26    -0.001302
    27    -0.047156
    28    -0.769678
    29     0.005373
    30     0.038691
    31     0.643531
    32    -0.006797
    33     0.025745
    34    -0.019509
    35    -0.004950
    36    -0.000894
    37     0.017050
    38     0.319700
Sym=    26a
Ene=   -0.200859E-02
Spin= Alpha
Occup= 0.000357
     1    -0.004410
     2    -0.056812
     3    -0.185710
     4    -0.045399
     5     0.000719
     6    -0.008856
     7     0.032620
     8    -0.002891
     9     0.032713
    10    -0.139425
    11     0.003082
    12    -0.026272
    13     0.129826
    14     0.648243
    15    -0.528421
    16     0.121459
    17    -0.005584
    18    -0.003835
    19     0.008308
    20    -0.004351
    21    -0.055755
    22    -0.182473
    23    -0.045127
    24     0.000727
    25    -0.008969
    26    -0.033601
    27    -0.002915
    28     0.033116
    29     0.143405
    30     0.003090
    31    -0.026467
    32    -0.130124
    33     0.648708
    34    -0.528053
    35     0.113090
    36    -0.005639
    37     0.003888
    38    -0.009717
Sym=    27a
Ene=   -0.155300E-02
Spin= Alpha
Occup= 0.000205
     1    -0.017769
     2    -0.229872
     3    -0.762596
     4    -0.201393
     5     0.000375
     6    -0.000246
     7     0.156889
     8    -0.001248
     9     0.000835
    10    -0.668591
    11     0.000541
    12    -0.000427
    13     0.603797
    14     0.201583
    15     0.339549
    16     0.427509
    17    -0.484069
    18     0.001491
    19    -0.000974
    20    -0.017865
    21    -0.235117
    22    -0.779584
    23    -0.202706
    24     0.000349
    25    -0.000276
    26    -0.144806
    27    -0.001127
    28     0.000922
    29     0.618156
    30     0.000379
    31    -0.000421
    32    -0.596526
    33     0.182159
    34     0.320236
    35     0.526667
    36    -0.484447
    37    -0.001828
    38     0.000803
Sym=    28a
Ene=   -0.154513E-02
Spin= Alpha
Occup= 0.000203
     1     0.016415
     2     0.202865
     3     0.675416
     4     0.191920
     5     0.000407
     6    -0.000532
     7    -0.179905
     8    -0.001445
     9     0.001866
    10     0.763355
    11     0.000978
    12    -0.001177
    13    -0.592297
    14    -0.238781
    15    -0.357021
    16    -0.165840
    17    -0.480359
    18     0.000382
    19    -0.000641
    20     0.017653
    21     0.241929
    22     0.800283
    23     0.195776
    24     0.000420
    25    -0.000525
    26     0.109533
    27    -0.001516
    28     0.001869
    29    -0.471208
    30     0.001081
    31    -0.001262
    32     0.558832
    33    -0.140845
    34    -0.258907
    35    -0.750258
    36    -0.479918
    37    -0.000069
    38     0.000571
Sym=    29a
Ene=   -0.158039E-03
Spin= Alpha
Occup= 0.000002
     1     0.005489
     2     0.125582
     3     0.419811
     4    -0.023137
     5     0.000128
     6    -0.000087
     7     0.099001
     8    -0.000460
     9     0.000310
    10    -0.411555
    11     0.000327
    12    -0.000210
    13    -0.188968
    14     0.182974
    15     0.146073
    16    -1.363681
    17    -0.093301
    18     0.000014
    19    -0.000084
    20     0.002579
    21    -0.016654
    22    -0.052797
    23     0.134681
    24     0.000125
    25    -0.000086
    26     0.180295
    27    -0.000463
    28     0.000299
    29    -0.757986
    30     0.000358
    31    -0.000183
    32     0.137506
    33    -0.274416
    34    -0.311403
    35     1.135119
    36    -0.093357
    37     0.000035
    38     0.000146
Sym=    30a
Ene=   -0.125875E-03
Spin= Alpha
Occup= 0.000002
     1     0.000001
     2    -0.000001
     3     0.000010
     4    -0.000029
     5     0.034901
     6    -0.053856
     7    -0.000015
     8    -0.129439
     9     0.199677
    10     0.000055
    11     0.078153
    12    -0.120257
    13    -0.000043
    14     0.000462
    15    -0.000610
    16     0.000203
    17    -0.000021
    18    -0.436091
    19     0.674473
    20     0.000000
    21     0.000004
    22     0.000027
    23    -0.000015
    24    -0.034654
    25     0.053859
    26    -0.000007
    27     0.128436
    28    -0.199654
    29     0.000031
    30    -0.077101
    31     0.120153
    32     0.000049
    33     0.000298
    34    -0.000409
    35     0.000049
    36    -0.000097
    37    -0.435083
    38     0.674280
Sym=    31a
Ene=    0.000000E+00
Spin= Alpha
Occup= 0.000000
     1     0.006823
     2     0.121376
     3     0.100971
     4     0.299705
     5     0.049048
     6     0.036343
     7     0.034629
     8    -0.199089
     9    -0.150416
    10    -0.208383
    11     0.215866
    12     0.177995
    13     0.309649
    14    -0.489624
    15    -0.286807
    16     0.008560
    17     0.124434
    18    -0.358504
    19    -0.221515
    20     0.028550
    21     0.481944
    22     0.918982
    23     1.283190
    24    -0.049104
    25    -0.036358
    26    -0.022913
    27     0.199326
    28     0.150521
    29     0.161043
    30    -0.216161
    31    -0.178226
    32    -0.154338
    33    -0.958710
    34    -1.162156
    35    -0.824312
    36    -0.125311
    37    -0.358973
    38    -0.221996
Sym=    32a
Ene=    0.000000E+00
Spin= Alpha
Occup= 0.000000
     1    -0.000609
     2    -0.011877
     3     0.015666
     4    -0.153974
     5     0.020797
     6    -0.060063
     7    -0.006268
     8    -0.105496
     9     0.276535
    10     0.038155
    11     0.222051
    12    -0.467157
    13    -0.135863
    14    -0.091205
    15     0.199359
    16    -0.028010
    17     0.624493
    18     0.163633
    19    -0.051657
    20    -0.004094
    21    -0.068479
    22    -0.151003
    23    -0.057721
    24    -0.020693
    25     0.059971
    26     0.001488
    27     0.105077
    28    -0.276198
    29    -0.011500
    30    -0.221646
    31     0.466914
    32    -0.073430
    33     0.284178
    34    -0.006286
    35     0.137216
    36    -0.624278
    37     0.163822
    38    -0.051580
Sym=    33a
Ene=    0.000000E+00
Spin= Alpha
Occup= 0.000000
     1     0.002532
     2     0.046160
     3     0.012015
     4     0.201032
     5    -0.046763
     6    -0.009397
     7     0.017000
     8     0.205800
     9     0.035378
    10    -0.102323
    11    -0.304816
    12    -0.024228
    13     0.209936
    14     0.356269
    15    -0.689657
    16     0.036358
    17     0.196310
    18     0.102514
    19     0.110516
    20     0.013507
    21     0.227342
    22     0.450443
    23     0.516352
    24     0.046742
    25     0.009496
    26    -0.009080
    27    -0.205720
    28    -0.035761
    29     0.065081
    30     0.304753
    31     0.024560
    32    -0.000456
    33    -1.012115
    34     0.032859
    35    -0.406664
    36    -0.196807
    37     0.102529
    38     0.110570
Sym=    34a
Ene=    0.000000E+00
Spin= Alpha
Occup= 0.000000
     1     0.006870
     2     0.115788
     3     0.220197
     4     0.366369
     5     0.102993
     6    -0.083640
     7     0.004537
     8    -0.481196
     9     0.393592
    10    -0.033299
    11     0.844253
    12    -0.703095
    13     0.062981
    14    -0.083915
    15    -0.419907
    16    -0.203368
    17    -0.231013
    18     0.191759
    19    -0.197958
    20    -0.000027
    21     0.000960
    22    -0.023247
    23    -0.059778
    24    -0.102943
    25     0.083630
    26    -0.006838
    27     0.480965
    28    -0.393516
    29     0.039278
    30    -0.843980
    31     0.702949
    32    -0.027889
    33    -0.196676
    34     0.139203
    35     0.045829
    36     0.231095
    37     0.191781
    38    -0.198016
Sym=    35a
Ene=    0.000000E+00
Spin= Alpha
Occup= 0.000000
     1     0.005594
     2     0.093278
     3     0.210862
     4     0.054483
     5     0.069286
     6     0.087324
     7     0.001628
     8    -0.344777
     9    -0.422389
    10    -0.012842
    11     0.698545
    12     0.805161
    13    -0.119767
    14    -0.192378
    15    -0.179880
    16    -0.191782
    17     0.068384
    18     0.444976
    19     0.378657
    20     0.000552
    21     0.011550
    22    -0.034054
    23     0.220564
    24    -0.069227
    25    -0.087337
    26    -0.008709
    27     0.344580
    28     0.422449
    29     0.052858
    30    -0.698425
    31    -0.805223
    32    -0.201782
    33    -0.059551
    34    -0.072475
    35     0.050778
    36    -0.068122
    37     0.445073
    38     0.378805
Sym=    36a
Ene=    0.000000E+00
Spin= Alpha
Occup= 0.000000
     1    -0.002284
     2    -0.019101
     3    -0.679190
     4     4.254400
     5     0.012322
     6     0.012276
     7     0.045264
     8    -0.053418
     9    -0.054756
    10    -0.301139
    11     0.075285
    12     0.084541
    13     3.143522
    14    -0.279039
    15    -0.322440
    16     0.611813
    17     0.042099
    18    -0.039348
    19    -0.016162
    20    -0.001529
    21    -0.046053
    22     0.572776
    23    -4.426826
    24    -0.012349
    25    -0.012312
    26     0.054037
    27     0.053516
    28     0.054892
    29    -0.352443
    30    -0.075361
    31    -0.084651
    32     3.205077
    33     0.438534
    34     0.480068
    35    -0.526091
    36    -0.047007
    37    -0.039351
    38    -0.016146
Sym=    37a
Ene=    0.000000E+00
Spin= Alpha
Occup= 0.000000
     1     0.022455
     2     0.382222
     3     0.624278
     4     1.592906
     5    -0.063960
     6    -0.049300
     7     0.028946
     8     0.270727
     9     0.212295
    10    -0.194752
    11    -0.350256
    12    -0.292477
    13     0.586400
    14    -1.135111
    15    -0.673098
    16    -0.544321
    17    -0.127682
    18     0.302242
    19     0.178040
    20     0.008907
    21     0.152695
    22     0.279336
    23    -0.189270
    24     0.064137
    25     0.049406
    26    -0.022593
    27    -0.271393
    28    -0.212733
    29     0.135162
    30     0.350806
    31     0.292947
    32     0.173029
    33    -0.149774
    34    -0.613315
    35    -0.176984
    36     0.126924
    37     0.302422
    38     0.178424
Sym=    38a
Ene=    0.000000E+00
Spin= Alpha
Occup= 0.000000
     1     0.033955
     2     0.563071
     3     1.290419
     4     1.198814
     5     0.004900
     6     0.028263
     7    -0.012886
     8    -0.005792
     9    -0.121520
    10     0.046815
    11    -0.065783
    12     0.166412
    13    -0.402763
    14    -0.957654
    15    -1.157676
    16    -1.281167
    17     0.095459
    18    -0.247412
    19    -0.106205
    20    -0.026401
    21    -0.434340
    22    -1.074248
    23    -0.861348
    24    -0.005000
    25    -0.028399
    26    -0.026503
    27     0.006163
    28     0.121980
    29     0.131677
    30     0.065486
    31    -0.166635
    32    -0.506994
    33     0.645669
    34     0.846496
    35     1.111556
    36    -0.093623
    37    -0.247436
    38    -0.105742
