[Molden Format]
p30-5 set                                                                       
[Atoms] AU
 N        1     7       -4.7711        0.5192       -0.0223
 N        2     7       -2.1960        1.6074       -0.0619
 H        3     1       -3.0407       -2.0576       -2.0669
 F        4     9       -0.0929       -2.4700       -3.0344
 H        5     1       -0.5981       -1.9851        1.7612
 H        6     1        4.6955        1.0048        2.0228
 H        7     1       -1.5827        1.7174       -1.9056
 B        8     5        2.9842        1.4188        0.5760
 H        9     1        2.6922        3.5993        0.0060
 B       10     5       -0.0314        0.3218        1.7522
 H       11     1       -0.3275        1.0264        3.8720
 AL      12    13        2.0655       -2.2667       -0.5945
 H       13     1        3.6558       -4.6694        0.0624
 O       14     8       -4.7601       -1.6405       -1.3775
 H       15     1        3.7461        0.4505       -1.5456
 H       16     1       -2.4387        3.4236        0.5561
[GTO]
    1 0
s    5 1.00
    1712.841585300000 -0.544779958049E-02
     257.648126770000 -0.406271746324E-01
      58.458245853000 -0.181119622506E+00
      16.198367905000 -0.468439755632E+00
       5.005260080900 -0.446168462892E+00
s    1 1.00
       0.587318565710  0.100000000000E+01
s    1 1.00
       0.187645922530  0.100000000000E+01
p    3 1.00
      13.571470233000 -0.588481169695E-01
       2.925737287400 -0.320246247625E+00
       0.799277507540 -0.753282265204E+00
p    1 1.00
       0.219543480340  0.100000000000E+01
d    1 1.00
       1.000000000000  0.100000000000E+01

    2 0
s    5 1.00
    1712.841585300000 -0.544779958049E-02
     257.648126770000 -0.406271746324E-01
      58.458245853000 -0.181119622506E+00
      16.198367905000 -0.468439755632E+00
       5.005260080900 -0.446168462892E+00
s    1 1.00
       0.587318565710  0.100000000000E+01
s    1 1.00
       0.187645922530  0.100000000000E+01
p    3 1.00
      13.571470233000 -0.588481169695E-01
       2.925737287400 -0.320246247625E+00
       0.799277507540 -0.753282265204E+00
p    1 1.00
       0.219543480340  0.100000000000E+01
d    1 1.00
       1.000000000000  0.100000000000E+01

    3 0
s    3 1.00
      13.010701000000  0.334854848130E-01
       1.962257200000  0.234721870881E+00
       0.444537960000  0.813770285260E+00
s    1 1.00
       0.121949620000  0.100000000000E+01
p    1 1.00
       0.800000000000  0.100000000000E+01

    4 0
s    5 1.00
    2894.832599000000 -0.534932117607E-02
     435.419391200000 -0.399677343716E-01
      98.843328866000 -0.179412617888E+00
      27.485198001000 -0.468324686869E+00
       8.540549817100 -0.447241605328E+00
s    1 1.00
       1.065457803800  0.100000000000E+01
s    1 1.00
       0.332473467480  0.100000000000E+01
p    3 1.00
      22.696633924000 -0.647821482412E-01
       4.987233925700 -0.340357853553E+00
       1.349161395400 -0.734858153660E+00
p    1 1.00
       0.348298819770  0.100000000000E+01
d    1 1.00
       1.400000000000  0.100000000000E+01

    5 0
s    3 1.00
      13.010701000000  0.334854848130E-01
       1.962257200000  0.234721870881E+00
       0.444537960000  0.813770285260E+00
s    1 1.00
       0.121949620000  0.100000000000E+01
p    1 1.00
       0.800000000000  0.100000000000E+01

    6 0
s    3 1.00
      13.010701000000  0.334854848130E-01
       1.962257200000  0.234721870881E+00
       0.444537960000  0.813770285260E+00
s    1 1.00
       0.121949620000  0.100000000000E+01
p    1 1.00
       0.800000000000  0.100000000000E+01

    7 0
s    3 1.00
      13.010701000000  0.334854848130E-01
       1.962257200000  0.234721870881E+00
       0.444537960000  0.813770285260E+00
s    1 1.00
       0.121949620000  0.100000000000E+01
p    1 1.00
       0.800000000000  0.100000000000E+01

    8 0
s    5 1.00
     839.318300860000 -0.562888359825E-02
     126.264648430000 -0.418327946095E-01
      28.620600763000 -0.184174881258E+00
       7.879372271000 -0.468396550281E+00
       2.408885717200 -0.444579308833E+00
s    1 1.00
       0.251051090360  0.100000000000E+01
s    1 1.00
       0.083648866069  0.100000000000E+01
p    3 1.00
       6.033222361900 -0.540325003228E-01
       1.249915786600 -0.301940343932E+00
       0.338716763500 -0.771707916582E+00
p    1 1.00
       0.096415632351  0.100000000000E+01
d    1 1.00
       0.500000000000  0.100000000000E+01

    9 0
s    3 1.00
      13.010701000000  0.334854848130E-01
       1.962257200000  0.234721870881E+00
       0.444537960000  0.813770285260E+00
s    1 1.00
       0.121949620000  0.100000000000E+01
p    1 1.00
       0.800000000000  0.100000000000E+01

   10 0
s    5 1.00
     839.318300860000 -0.562888359825E-02
     126.264648430000 -0.418327946095E-01
      28.620600763000 -0.184174881258E+00
       7.879372271000 -0.468396550281E+00
       2.408885717200 -0.444579308833E+00
s    1 1.00
       0.251051090360  0.100000000000E+01
s    1 1.00
       0.083648866069  0.100000000000E+01
p    3 1.00
       6.033222361900 -0.540325003228E-01
       1.249915786600 -0.301940343932E+00
       0.338716763500 -0.771707916582E+00
p    1 1.00
       0.096415632351  0.100000000000E+01
d    1 1.00
       0.500000000000  0.100000000000E+01

   11 0
s    3 1.00
      13.010701000000  0.334854848130E-01
       1.962257200000  0.234721870881E+00
       0.444537960000  0.813770285260E+00
s    1 1.00
       0.121949620000  0.100000000000E+01
p    1 1.00
       0.800000000000  0.100000000000E+01

   12 0
s    5 1.00
    5887.572703000000  0.565197896170E-02
     885.612259960000  0.422182534268E-01
     201.136048990000  0.189187196726E+00
      56.284974674000  0.480435911881E+00
      17.229551243000  0.425872684294E+00
s    3 1.00
      29.340249922000  0.885686032394E-01
       3.043963042000 -0.543157066723E+00
       1.128553951800 -0.529385510294E+00
s    1 1.00
       0.142341751600  0.100000000000E+01
s    1 1.00
       0.054400192313  0.100000000000E+01
p    5 1.00
     145.119188090000  0.107263778593E-01
      33.717894833000  0.741036235460E-01
      10.369863083000  0.261296213060E+00
       3.513561603600  0.480201235327E+00
       1.198005027300  0.384382240624E+00
p    1 1.00
       0.265830059130  0.100000000000E+01
p    1 1.00
       0.071003361994  0.100000000000E+01
d    1 1.00
       0.300000000000  0.100000000000E+01

   13 0
s    3 1.00
      13.010701000000  0.334854848130E-01
       1.962257200000  0.234721870881E+00
       0.444537960000  0.813770285260E+00
s    1 1.00
       0.121949620000  0.100000000000E+01
p    1 1.00
       0.800000000000  0.100000000000E+01

   14 0
s    5 1.00
    2266.176778500000 -0.538935039217E-02
     340.870101910000 -0.402347213890E-01
      77.363135167000 -0.180081842055E+00
      21.479644940000 -0.468288576577E+00
       6.658943312400 -0.446926171602E+00
s    1 1.00
       0.809759756680  0.100000000000E+01
s    1 1.00
       0.255307722340  0.100000000000E+01
p    3 1.00
      17.721504317000  0.626302487632E-01
       3.863550544000  0.333311384824E+00
       1.048092088300  0.741486383081E+00
p    1 1.00
       0.276415444110  0.100000000000E+01
d    1 1.00
       1.200000000000  0.100000000000E+01

   15 0
s    3 1.00
      13.010701000000  0.334854848130E-01
       1.962257200000  0.234721870881E+00
       0.444537960000  0.813770285260E+00
s    1 1.00
       0.121949620000  0.100000000000E+01
p    1 1.00
       0.800000000000  0.100000000000E+01

   16 0
s    3 1.00
      13.010701000000  0.334854848130E-01
       1.962257200000  0.234721870881E+00
       0.444537960000  0.813770285260E+00
s    1 1.00
       0.121949620000  0.100000000000E+01
p    1 1.00
       0.800000000000  0.100000000000E+01

[MO]
Sym=     1a
Ene=   -0.585208E+02
Spin= Alpha
Occup= 1.999998
     1    -0.000002
     2     0.000097
     3    -0.000713
     4    -0.000016
     5     0.000011
     6     0.000003
     7    -0.000374
     8     0.000088
     9     0.000097
    10    -0.000013
    11     0.000024
    12     0.000040
    13     0.000010
    14     0.000000
    15    -0.000024
    16     0.000011
    17    -0.000147
    18     0.000528
    19     0.000029
    20    -0.000046
    21     0.000020
    22    -0.000217
    23    -0.000289
    24     0.000072
    25    -0.000049
    26    -0.000055
    27    -0.000092
    28    -0.000018
    29     0.000009
    30     0.000005
    31     0.000061
    32    -0.000632
    33     0.000173
    34    -0.000043
    35     0.000050
    36     0.000054
    37    -0.000195
    38     0.001139
    39     0.000095
    40    -0.000014
    41     0.000074
    42     0.000056
    43    -0.000052
    44     0.000009
    45    -0.000171
    46    -0.000158
    47    -0.000181
    48    -0.000002
    49    -0.000026
    50    -0.000016
    51     0.000012
    52     0.000906
    53    -0.000151
    54    -0.000005
    55     0.000164
    56     0.000000
    57    -0.001066
    58     0.000003
    59    -0.000079
    60    -0.000056
    61     0.000016
    62    -0.000139
    63     0.000068
    64    -0.000063
    65     0.000046
    66     0.000025
    67     0.000216
    68     0.000528
    69    -0.000060
    70    -0.000193
    71    -0.000010
    72     0.000213
    73    -0.002141
    74     0.001253
    75     0.000027
    76    -0.000544
    77    -0.000030
    78    -0.000078
    79     0.000018
    80    -0.000094
    81     0.000089
    82     0.001339
    83     0.000075
    84    -0.000098
    85     0.000069
    86     0.000036
    87     0.000229
    88    -0.000815
    89     0.000012
    90    -0.000054
    91    -0.000112
    92     0.000324
    93    -0.000396
    94    -0.001834
    95    -0.000206
    96    -0.000186
    97    -0.000307
    98     0.000133
    99     0.000227
   100    -0.000293
   101     0.000158
   102     0.001198
   103    -0.000084
   104     0.000010
   105    -0.000145
   106     0.994738
   107    -0.026614
   108    -0.042517
   109     0.005116
   110    -0.000050
   111     0.000012
   112    -0.000028
   113     0.000195
   114    -0.000131
   115     0.000030
   116    -0.000256
   117    -0.000532
   118    -0.000496
   119     0.013214
   120     0.013533
   121     0.013249
   122    -0.000030
   123    -0.000188
   124    -0.000014
   125    -0.000077
   126     0.000957
   127     0.000168
   128    -0.000181
   129     0.000093
   130     0.000003
   131    -0.000028
   132     0.000433
   133     0.000015
   134    -0.000005
   135     0.000004
   136     0.000098
   137     0.000094
   138    -0.000075
   139    -0.000007
   140    -0.000015
   141    -0.000001
   142     0.000002
   143    -0.000037
   144     0.000017
   145    -0.000074
   146     0.001156
   147     0.000121
   148     0.000261
   149    -0.000100
   150    -0.000014
   151     0.000139
   152     0.000018
   153    -0.000007
   154     0.000007
Sym=     2a
Ene=   -0.236675E+02
Spin= Alpha
Occup= 1.999978
     1    -0.010785
     2     0.000713
     3     0.003479
     4     0.000101
     5    -0.000522
     6    -0.000326
     7     0.000307
     8    -0.001338
     9    -0.000901
    10    -0.000150
    11    -0.000637
    12    -0.000376
    13     0.000018
    14    -0.000027
    15    -0.000309
    16    -0.002370
    17     0.000034
    18    -0.000065
    19    -0.000066
    20    -0.000015
    21     0.000055
    22     0.000102
    23    -0.000203
    24     0.000236
    25    -0.000087
    26    -0.000112
    27    -0.000067
    28    -0.000038
    29    -0.000003
    30     0.000036
    31    -0.000893
    32     0.002557
    33     0.000746
    34    -0.000005
    35    -0.000204
    36     0.718603
    37    -0.029513
    38     0.006612
    39     0.000219
    40     0.000102
    41     0.000319
    42     0.001237
    43     0.000215
    44     0.000829
    45     0.004311
    46     0.004272
    47     0.004400
    48     0.000023
    49     0.000154
    50     0.000007
    51    -0.000048
    52     0.001073
    53     0.000030
    54     0.000050
    55    -0.000055
    56     0.000015
    57     0.000532
    58    -0.000002
    59     0.000001
    60    -0.000013
    61     0.000093
    62     0.000098
    63     0.000069
    64     0.000039
    65     0.000022
    66    -0.000003
    67    -0.000188
    68     0.001596
    69    -0.000051
    70     0.000006
    71    -0.000079
    72    -0.001219
    73     0.000398
    74    -0.000326
    75     0.000011
    76    -0.000029
    77    -0.000037
    78     0.000012
    79    -0.000009
    80    -0.000032
    81    -0.000021
    82    -0.000702
    83     0.000039
    84     0.000021
    85     0.000027
    86    -0.000008
    87     0.000049
    88    -0.001331
    89    -0.000038
    90    -0.000044
    91    -0.000036
    92     0.000229
    93    -0.000495
    94    -0.000371
    95    -0.000096
    96    -0.000034
    97     0.000084
    98    -0.000053
    99    -0.000025
   100     0.000025
   101    -0.000019
   102     0.000736
   103    -0.000035
   104     0.000020
   105     0.000009
   106     0.000020
   107     0.000112
   108     0.000005
   109    -0.002613
   110     0.000105
   111     0.000012
   112     0.000125
   113     0.000407
   114     0.000057
   115     0.000521
   116     0.001700
   117    -0.001520
   118     0.000418
   119    -0.000284
   120     0.000214
   121    -0.000288
   122    -0.000042
   123    -0.000368
   124    -0.000050
   125    -0.000052
   126    -0.000599
   127     0.000003
   128    -0.000043
   129     0.000006
   130    -0.677762
   131     0.029345
   132    -0.011174
   133     0.000904
   134     0.000764
   135     0.000232
   136    -0.000959
   137    -0.001750
   138    -0.000787
   139    -0.002943
   140    -0.003250
   141    -0.003150
   142    -0.000123
   143    -0.000131
   144    -0.000045
   145    -0.000119
   146     0.000792
   147    -0.000063
   148    -0.000018
   149    -0.000007
   150     0.000015
   151     0.000267
   152    -0.000012
   153    -0.000054
   154    -0.000019
Sym=     3a
Ene=   -0.233362E+02
Spin= Alpha
Occup= 1.999977
     1     0.012469
     2    -0.000858
     3    -0.003493
     4    -0.000088
     5     0.000546
     6     0.000363
     7    -0.000318
     8     0.001366
     9     0.000946
    10     0.000105
    11     0.000664
    12     0.000365
    13     0.000008
    14     0.000033
    15     0.000338
    16     0.002782
    17    -0.000207
    18     0.001273
    19     0.000118
    20    -0.000033
    21    -0.000004
    22     0.000166
    23    -0.000233
    24     0.000032
    25     0.000053
    26     0.000116
    27     0.000033
    28     0.000013
    29     0.000011
    30    -0.000020
    31     0.000657
    32    -0.003064
    33    -0.001306
    34     0.000074
    35     0.000362
    36     0.677747
    37    -0.028255
    38     0.007942
    39    -0.000337
    40     0.000141
    41     0.000460
    42    -0.000029
    43     0.000272
    44     0.001037
    45     0.003892
    46     0.003653
    47     0.003794
    48    -0.000011
    49     0.000074
    50     0.000020
    51     0.000101
    52     0.001005
    53    -0.000088
    54    -0.000035
    55    -0.000163
    56    -0.000039
    57    -0.000188
    58     0.000023
    59     0.000013
    60     0.000017
    61     0.000008
    62     0.000427
    63    -0.000018
    64    -0.000121
    65    -0.000058
    66    -0.000000
    67    -0.000082
    68     0.002978
    69     0.000034
    70     0.000004
    71    -0.000045
    72    -0.000910
    73    -0.000534
    74    -0.000046
    75     0.000045
    76    -0.000007
    77    -0.000013
    78     0.000010
    79     0.000059
    80    -0.000022
    81    -0.000005
    82    -0.000300
    83     0.000013
    84     0.000015
    85     0.000020
    86    -0.000025
    87     0.000352
    88    -0.003213
    89     0.000002
    90     0.000070
    91     0.000035
    92    -0.000758
    93     0.000403
    94     0.001503
    95     0.000062
    96     0.000044
    97     0.000255
    98     0.000076
    99     0.000048
   100     0.000102
   101    -0.000108
   102    -0.000438
   103    -0.000019
   104     0.000046
   105     0.000083
   106     0.000020
   107     0.000092
   108    -0.000068
   109    -0.000681
   110     0.000116
   111    -0.000004
   112     0.000131
   113     0.000235
   114     0.000190
   115     0.000514
   116     0.000298
   117    -0.000793
   118     0.000270
   119    -0.000135
   120     0.000176
   121    -0.000093
   122    -0.000155
   123    -0.000415
   124    -0.000014
   125    -0.000028
   126    -0.000418
   127     0.000024
   128    -0.000030
   129     0.000006
   130     0.718643
   131    -0.031292
   132     0.012703
   133    -0.001214
   134    -0.000726
   135    -0.000164
   136     0.001285
   137     0.001733
   138     0.000818
   139     0.002889
   140     0.003292
   141     0.003169
   142     0.000170
   143     0.000207
   144     0.000031
   145    -0.000068
   146     0.000033
   147    -0.000044
   148    -0.000006
   149    -0.000014
   150    -0.000001
   151    -0.000107
   152     0.000005
   153     0.000068
   154     0.000019
Sym=     4a
Ene=   -0.157275E+02
Spin= Alpha
Occup= 1.999946
     1     0.702592
     2    -0.027971
     3     0.012075
     4     0.001225
     5    -0.001324
     6    -0.000851
     7     0.001680
     8    -0.000777
     9    -0.000366
    10     0.002833
    11     0.001996
    12     0.001967
    13     0.000504
    14     0.000015
    15    -0.000300
    16     0.696664
    17    -0.031615
    18     0.019964
    19     0.000747
    20     0.000823
    21    -0.000424
    22     0.001655
    23    -0.003262
    24     0.000974
    25     0.002477
    26     0.000674
    27     0.000704
    28     0.000451
    29     0.000277
    30    -0.000279
    31     0.000028
    32     0.000056
    33     0.000111
    34    -0.000461
    35    -0.000184
    36    -0.000619
    37    -0.000061
    38     0.000434
    39    -0.000043
    40     0.000085
    41     0.000096
    42    -0.000290
    43     0.000224
    44     0.000392
    45    -0.000084
    46    -0.000033
    47    -0.000062
    48    -0.000040
    49    -0.000033
    50     0.000022
    51     0.000533
    52     0.007129
    53    -0.000158
    54     0.000193
    55    -0.000119
    56    -0.000018
    57     0.000270
    58     0.000049
    59     0.000021
    60     0.000012
    61     0.001701
    62    -0.002228
    63    -0.000132
    64     0.000224
    65     0.001387
    66     0.000033
    67     0.000026
    68     0.009672
    69     0.000307
    70     0.000124
    71    -0.000117
    72    -0.003325
    73    -0.001067
    74    -0.002355
    75     0.000238
    76    -0.000035
    77     0.000048
    78     0.000078
    79    -0.000008
    80     0.000006
    81    -0.000090
    82    -0.001304
    83    -0.000080
    84    -0.000005
    85     0.000137
    86     0.000115
    87     0.001541
    88    -0.025057
    89    -0.000375
    90     0.000244
    91     0.000106
    92     0.001756
    93     0.003561
    94     0.008902
    95     0.000188
    96     0.000307
    97     0.000680
    98    -0.000295
    99     0.000291
   100    -0.000324
   101    -0.000016
   102     0.000326
   103    -0.000293
   104     0.000008
   105    -0.000076
   106    -0.000001
   107    -0.000073
   108     0.001572
   109     0.002447
   110     0.000098
   111    -0.000078
   112    -0.000039
   113    -0.001031
   114     0.000837
   115     0.000557
   116    -0.001233
   117     0.002389
   118    -0.000183
   119     0.000556
   120     0.000464
   121     0.000169
   122    -0.000506
   123    -0.000175
   124     0.000182
   125    -0.000143
   126     0.000830
   127    -0.000027
   128    -0.000061
   129     0.000043
   130    -0.014438
   131     0.000513
   132    -0.002863
   133     0.000125
   134     0.001117
   135     0.000619
   136    -0.000247
   137    -0.000061
   138     0.000297
   139     0.000069
   140     0.000985
   141     0.000468
   142    -0.000106
   143    -0.000043
   144     0.000669
   145     0.000051
   146    -0.003937
   147     0.000095
   148    -0.000082
   149    -0.000043
   150     0.002156
   151    -0.000691
   152     0.000454
   153    -0.001533
   154    -0.000748
Sym=     5a
Ene=   -0.157267E+02
Spin= Alpha
Occup= 1.999945
     1    -0.697510
     2     0.026471
     3    -0.016237
     4    -0.002591
     5     0.000748
     6     0.001211
     7    -0.003451
     8    -0.000222
     9     0.000318
    10    -0.001316
    11    -0.001559
    12    -0.002012
    13     0.000495
    14    -0.000102
    15     0.000266
    16     0.702003
    17    -0.030825
    18     0.022250
    19    -0.000821
    20     0.000179
    21    -0.000627
    22    -0.000232
    23    -0.003554
    24     0.000138
    25     0.000622
    26     0.000503
    27     0.000689
    28    -0.000214
    29     0.000396
    30    -0.000306
    31     0.000098
    32     0.000299
    33    -0.000119
    34     0.000106
    35     0.000156
    36     0.000356
    37    -0.000054
    38     0.000155
    39     0.000017
    40    -0.000013
    41     0.000001
    42    -0.000003
    43     0.000002
    44     0.000103
    45     0.000017
    46     0.000038
    47     0.000043
    48    -0.000001
    49    -0.000009
    50    -0.000003
    51     0.000221
    52     0.002808
    53     0.000043
    54     0.000091
    55    -0.000148
    56     0.000014
    57    -0.001359
    58     0.000078
    59    -0.000003
    60    -0.000002
    61     0.001319
    62    -0.000935
    63    -0.000683
    64     0.000048
    65     0.001675
    66    -0.000019
    67     0.000026
    68     0.009948
    69     0.000254
    70     0.000067
    71    -0.000030
    72    -0.002540
    73    -0.001626
    74     0.000783
    75     0.000252
    76    -0.000061
    77     0.000091
    78     0.000093
    79    -0.000035
    80    -0.000013
    81     0.000012
    82    -0.000613
    83    -0.000092
    84    -0.000024
    85     0.000005
    86     0.000167
    87    -0.000179
    88    -0.014491
    89    -0.000524
    90     0.000104
    91     0.000115
    92    -0.003078
    93     0.000462
    94     0.006915
    95     0.000249
    96     0.000247
    97     0.000159
    98    -0.000310
    99     0.000538
   100    -0.000456
   101     0.000351
   102    -0.001950
   103     0.000111
   104     0.000071
   105    -0.000113
   106    -0.000007
   107    -0.000073
   108     0.001386
   109     0.000153
   110     0.000058
   111    -0.000033
   112    -0.000032
   113    -0.000810
   114     0.000586
   115     0.000427
   116    -0.000666
   117     0.000694
   118    -0.000077
   119     0.000150
   120     0.000299
   121     0.000168
   122    -0.000263
   123    -0.000184
   124     0.000117
   125    -0.000064
   126     0.000454
   127    -0.000008
   128     0.000010
   129     0.000016
   130     0.009123
   131     0.000125
   132     0.001971
   133    -0.000241
   134    -0.001067
   135    -0.000635
   136    -0.000313
   137    -0.000898
   138    -0.000257
   139    -0.000013
   140    -0.000915
   141    -0.000168
   142    -0.000009
   143     0.000085
   144    -0.000844
   145    -0.000070
   146    -0.001004
   147    -0.000024
   148     0.000002
   149    -0.000031
   150     0.002471
   151    -0.000460
   152     0.000069
   153    -0.001912
   154    -0.000752
Sym=     6a
Ene=   -0.758673E+01
Spin= Alpha
Occup= 1.999790
     1    -0.000026
     2     0.000435
     3    -0.003059
     4    -0.000048
     5     0.000117
     6    -0.000080
     7    -0.001871
     8     0.000080
     9    -0.001340
    10    -0.000099
    11     0.000183
    12     0.000178
    13    -0.000029
    14    -0.000228
    15    -0.000057
    16    -0.000207
    17    -0.000693
    18     0.003350
    19    -0.000702
    20     0.000336
    21    -0.000356
    22    -0.000493
    23    -0.000757
    24     0.002891
    25     0.000330
    26     0.000203
    27     0.000222
    28    -0.000209
    29     0.000287
    30    -0.000050
    31    -0.000045
    32     0.000717
    33    -0.000091
    34    -0.000084
    35    -0.000207
    36    -0.000025
    37    -0.000029
    38     0.000256
    39     0.000107
    40    -0.000035
    41    -0.000106
    42     0.000520
    43    -0.000300
    44    -0.000508
    45     0.000155
    46    -0.000002
    47     0.000096
    48     0.000068
    49     0.000097
    50    -0.000061
    51     0.001844
    52    -0.003095
    53     0.000021
    54     0.000278
    55     0.000240
    56     0.001807
    57    -0.007502
    58     0.000699
    59    -0.000003
    60     0.000275
    61    -0.000383
    62    -0.001134
    63    -0.000604
    64     0.000245
    65    -0.000212
    66     0.683277
    67    -0.031446
    68     0.029850
    69     0.000399
    70    -0.001327
    71    -0.001669
    72     0.001075
    73    -0.004482
    74    -0.000669
    75     0.001243
    76    -0.000304
    77     0.000544
    78     0.000080
    79    -0.000313
    80    -0.000329
    81     0.002287
    82    -0.005220
    83     0.000293
    84     0.000499
    85    -0.000130
    86     0.716007
    87    -0.033295
    88     0.025895
    89    -0.001936
    90    -0.001258
    91    -0.002018
    92     0.000567
    93    -0.002758
    94    -0.004457
    95     0.000236
    96    -0.000306
    97    -0.000083
    98     0.000648
    99    -0.000142
   100    -0.000464
   101     0.002550
   102    -0.004376
   103    -0.000442
   104     0.000091
   105     0.000528
   106    -0.002067
   107    -0.007637
   108    -0.004690
   109    -0.012277
   110     0.000161
   111    -0.000797
   112    -0.000431
   113    -0.000163
   114     0.001756
   115     0.000830
   116     0.001550
   117    -0.006106
   118    -0.003348
   119     0.000575
   120     0.002440
   121     0.000759
   122     0.000370
   123    -0.000979
   124     0.001431
   125     0.000175
   126     0.000242
   127    -0.000099
   128     0.000369
   129     0.000289
   130    -0.000021
   131     0.000231
   132    -0.000979
   133     0.000065
   134     0.000035
   135     0.000047
   136    -0.000249
   137    -0.000181
   138    -0.000065
   139     0.000121
   140     0.000111
   141     0.000158
   142     0.000037
   143    -0.000008
   144    -0.000027
   145     0.001566
   146    -0.003993
   147     0.000020
   148     0.000404
   149     0.000304
   150    -0.001067
   151    -0.002283
   152    -0.000265
   153     0.000383
   154    -0.000339
Sym=     7a
Ene=   -0.627193E+01
Spin= Alpha
Occup= 1.999680
     1    -0.000019
     2    -0.000023
     3    -0.000294
     4     0.000218
     5    -0.000031
     6     0.000040
     7    -0.000400
     8     0.000024
     9    -0.000723
    10    -0.000102
    11     0.000092
    12     0.000007
    13     0.000037
    14    -0.000097
    15    -0.000009
    16    -0.000054
    17    -0.000979
    18     0.005789
    19    -0.000403
    20     0.000136
    21    -0.000199
    22     0.002688
    23    -0.001820
    24     0.001990
    25     0.000217
    26    -0.000010
    27    -0.000007
    28    -0.000235
    29     0.000246
    30    -0.000096
    31     0.000003
    32     0.000795
    33     0.000079
    34    -0.000092
    35    -0.000064
    36     0.000210
    37     0.000459
    38    -0.002813
    39    -0.000019
    40    -0.000117
    41    -0.000085
    42    -0.000423
    43    -0.000138
    44    -0.000989
    45     0.000305
    46     0.000053
    47     0.000289
    48     0.000050
    49     0.000393
    50    -0.000013
    51     0.001243
    52    -0.003092
    53    -0.000613
    54     0.000498
    55     0.000359
    56    -0.001470
    57     0.009372
    58    -0.000333
    59    -0.000098
    60    -0.000176
    61    -0.000436
    62     0.001614
    63     0.000041
    64     0.000150
    65    -0.000001
    66    -0.512487
    67     0.024729
    68    -0.039429
    69     0.001930
    70     0.000667
    71    -0.000219
    72     0.003128
    73     0.008970
    74    -0.003868
    75     0.000626
    76    -0.000172
    77     0.000134
    78     0.000153
    79    -0.000597
    80    -0.000019
    81    -0.001472
    82     0.002060
    83    -0.000008
    84    -0.000290
    85     0.000029
    86     0.482440
    87    -0.020486
    88     0.024153
    89     0.000459
    90     0.000098
    91    -0.002115
    92     0.004690
    93     0.003976
    94     0.007718
    95    -0.000945
    96    -0.000474
    97    -0.000380
    98     0.000007
    99     0.000537
   100    -0.000101
   101     0.001946
   102    -0.009182
   103     0.000027
   104     0.000121
   105     0.000201
   106    -0.200945
   107    -0.721001
   108     0.025040
   109    -0.003413
   110     0.002662
   111     0.001377
   112    -0.001950
   113    -0.002261
   114     0.001707
   115     0.000738
   116     0.001117
   117     0.002951
   118     0.001370
   119     0.003368
   120     0.002033
   121     0.002690
   122    -0.001127
   123     0.000210
   124     0.000850
   125    -0.001139
   126    -0.000343
   127    -0.000422
   128     0.000448
   129    -0.000036
   130    -0.000018
   131     0.000056
   132    -0.000587
   133    -0.000012
   134     0.000070
   135    -0.000070
   136     0.000083
   137    -0.000447
   138     0.000258
   139     0.000099
   140     0.000001
   141     0.000070
   142    -0.000030
   143    -0.000006
   144    -0.000013
   145    -0.002516
   146     0.004036
   147     0.000195
   148    -0.000138
   149    -0.000316
   150    -0.000486
   151    -0.001799
   152    -0.000329
   153     0.000204
   154    -0.000361
Sym=     8a
Ene=   -0.624158E+01
Spin= Alpha
Occup= 1.999674
     1    -0.000024
     2     0.000484
     3    -0.002478
     4    -0.000035
     5     0.000092
     6     0.000014
     7    -0.001469
     8     0.000074
     9    -0.000836
    10    -0.000016
    11     0.000223
    12     0.000190
    13    -0.000000
    14    -0.000153
    15    -0.000022
    16    -0.000086
    17    -0.000332
    18    -0.000310
    19    -0.000395
    20     0.000160
    21    -0.000229
    22    -0.000264
    23    -0.000305
    24     0.002087
    25     0.000316
    26     0.000025
    27     0.000088
    28    -0.000089
    29     0.000260
    30    -0.000077
    31    -0.000061
    32    -0.002300
    33    -0.000178
    34    -0.000154
    35    -0.000227
    36    -0.000256
    37    -0.000131
    38     0.000965
    39     0.000055
    40    -0.000073
    41     0.000036
    42     0.000449
    43    -0.000737
    44     0.000014
    45    -0.000074
    46     0.000184
    47    -0.000224
    48    -0.000045
    49    -0.000421
    50    -0.000123
    51     0.002410
    52    -0.004511
    53     0.000438
    54     0.000183
    55    -0.000023
    56    -0.002035
    57     0.001051
    58    -0.000085
    59     0.000239
    60    -0.000163
    61    -0.000345
    62     0.000280
    63    -0.000215
    64     0.000313
    65     0.000087
    66    -0.499641
    67     0.023042
    68    -0.035385
    69     0.001703
    70     0.002052
    71     0.000509
    72     0.007475
    73    -0.001831
    74     0.003800
    75     0.000401
    76     0.000582
    77    -0.000143
    78     0.000251
    79    -0.000352
    80     0.000022
    81    -0.002202
    82     0.008773
    83     0.000142
    84    -0.000139
    85    -0.000035
    86     0.484150
    87    -0.023665
    88     0.033693
    89    -0.000160
    90     0.000679
    91    -0.001517
    92     0.005475
    93    -0.001562
    94    -0.010525
    95    -0.000852
    96    -0.000271
    97     0.000035
    98    -0.000605
    99     0.000085
   100     0.000112
   101     0.001528
   102     0.000507
   103     0.000032
   104     0.000152
   105     0.000316
   106     0.203257
   107     0.729128
   108    -0.024426
   109     0.006200
   110    -0.001822
   111    -0.001492
   112     0.001813
   113     0.000754
   114    -0.002318
   115    -0.000226
   116    -0.000251
   117     0.000120
   118    -0.001526
   119    -0.001993
   120    -0.003013
   121    -0.001670
   122    -0.000853
   123    -0.000596
   124    -0.000654
   125     0.000730
   126     0.001444
   127     0.000365
   128    -0.000607
   129     0.000154
   130    -0.000011
   131     0.000154
   132    -0.000094
   133     0.000127
   134     0.000114
   135     0.000097
   136    -0.000310
   137    -0.000352
   138    -0.000476
   139     0.000062
   140     0.000058
   141     0.000104
   142     0.000030
   143    -0.000006
   144    -0.000048
   145    -0.000538
   146     0.007494
   147    -0.000312
   148    -0.000621
   149    -0.000416
   150    -0.000495
   151    -0.001318
   152    -0.000096
   153     0.000141
   154    -0.000288
Sym=     9a
Ene=   -0.324676E+01
Spin= Alpha
Occup= 1.999130
     1     0.000005
     2    -0.000036
     3     0.000130
     4     0.000007
     5    -0.000056
     6    -0.000063
     7     0.000063
     8     0.000300
     9     0.000071
    10    -0.000015
    11     0.000001
    12    -0.000028
    13     0.000057
    14     0.000019
    15     0.000001
    16     0.000028
    17    -0.000669
    18     0.005408
    19     0.000182
    20    -0.000053
    21    -0.000084
    22     0.002325
    23    -0.001548
    24    -0.000536
    25    -0.000099
    26    -0.000194
    27    -0.000120
    28    -0.000052
    29    -0.000007
    30    -0.000009
    31     0.000068
    32     0.001293
    33     0.000289
    34    -0.000019
    35     0.000042
    36     0.000152
    37     0.000246
    38    -0.000139
    39     0.000263
    40     0.000159
    41    -0.000221
    42     0.000777
    43     0.000779
    44    -0.000618
    45    -0.000044
    46     0.000009
    47     0.000133
    48    -0.000043
    49     0.000076
    50    -0.000041
    51    -0.001245
    52     0.003424
    53    -0.000820
    54     0.000358
    55     0.000633
    56    -0.000512
    57    -0.002592
    58     0.000245
    59     0.000155
    60     0.000064
    61    -0.000333
    62    -0.000007
    63     0.000092
    64    -0.000069
    65    -0.000129
    66    -0.000268
    67     0.000113
    68     0.019410
    69    -0.000042
    70     0.000755
    71     0.000695
    72    -0.005547
    73    -0.005977
    74     0.000992
    75     0.000243
    76     0.000035
    77     0.000096
    78    -0.000224
    79     0.000173
    80     0.000177
    81    -0.000210
    82    -0.000302
    83     0.000130
    84     0.000056
    85     0.000071
    86     0.000186
    87     0.001640
    88    -0.020906
    89    -0.000001
    90    -0.000771
    91    -0.000284
    92    -0.006156
    93     0.002108
    94     0.011166
    95    -0.000105
    96    -0.000167
    97     0.000066
    98     0.000061
    99    -0.000010
   100     0.000032
   101     0.000246
   102    -0.003583
   103     0.000099
   104     0.000128
   105     0.000043
   106    -0.001247
   107    -0.004406
   108     0.002386
   109    -0.001166
   110    -0.683655
   111    -0.422739
   112     0.570963
   113    -0.033067
   114    -0.018914
   115     0.026224
   116     0.002615
   117     0.002380
   118    -0.003672
   119     0.001522
   120    -0.001550
   121     0.000821
   122    -0.002562
   123    -0.001113
   124     0.001005
   125    -0.000204
   126     0.000514
   127    -0.000223
   128     0.000078
   129     0.000035
   130     0.000010
   131    -0.000095
   132     0.000484
   133     0.000027
   134    -0.000034
   135    -0.000107
   136     0.000362
   137     0.000067
   138     0.000471
   139     0.000022
   140    -0.000059
   141    -0.000041
   142    -0.000025
   143    -0.000042
   144     0.000030
   145     0.001514
   146    -0.002522
   147    -0.000148
   148    -0.000401
   149    -0.000154
   150     0.000123
   151     0.000476
   152    -0.000088
   153    -0.000041
   154     0.000019
Sym=    10a
Ene=   -0.324594E+01
Spin= Alpha
Occup= 1.999111
     1     0.000001
     2    -0.000219
     3     0.000983
     4     0.000135
     5    -0.000037
     6     0.000040
     7     0.000494
     8     0.000241
     9     0.000171
    10    -0.000057
    11    -0.000049
    12    -0.000069
    13     0.000018
    14     0.000015
    15    -0.000017
    16     0.000045
    17    -0.000450
    18     0.003942
    19     0.000061
    20     0.000001
    21     0.000003
    22     0.002039
    23    -0.001116
    24     0.000077
    25    -0.000102
    26    -0.000102
    27    -0.000086
    28    -0.000083
    29     0.000035
    30    -0.000002
    31     0.000061
    32     0.000875
    33     0.000011
    34     0.000070
    35     0.000090
    36    -0.001033
    37    -0.001816
    38     0.003354
    39     0.000970
    40    -0.000020
    41     0.000999
    42     0.001182
    43    -0.000491
    44     0.000921
    45    -0.000479
    46     0.000066
    47    -0.000593
    48     0.000000
    49    -0.000693
    50     0.000015
    51    -0.000731
    52     0.003648
    53    -0.000621
    54    -0.000040
    55     0.000075
    56     0.000312
    57     0.005635
    58    -0.000232
    59    -0.000187
    60    -0.000141
    61    -0.000097
    62     0.001130
    63     0.000141
    64    -0.000078
    65    -0.000019
    66     0.000433
    67    -0.000438
    68    -0.006244
    69    -0.000194
    70    -0.001323
    71    -0.000373
    72    -0.002061
    73     0.003993
    74    -0.002775
    75     0.000186
    76    -0.000607
    77     0.000367
    78    -0.000174
    79    -0.000289
    80     0.000120
    81     0.000970
    82    -0.000871
    83    -0.000137
    84    -0.000192
    85    -0.000017
    86     0.000715
    87     0.000966
    88    -0.004449
    89     0.000696
    90    -0.000839
    91    -0.000920
    92     0.000729
    93     0.004031
    94     0.009030
    95    -0.000342
    96    -0.000088
    97    -0.000437
    98     0.000572
    99     0.000453
   100    -0.000190
   101     0.000269
   102    -0.004732
   103    -0.000004
   104     0.000001
   105    -0.000117
   106     0.000050
   107    -0.000051
   108     0.002794
   109    -0.000663
   110    -0.017857
   111     0.801832
   112     0.572389
   113    -0.000449
   114     0.039388
   115     0.028975
   116     0.000360
   117    -0.003826
   118    -0.002863
   119     0.000129
   120     0.004629
   121    -0.000598
   122    -0.000654
   123    -0.002999
   124     0.002096
   125    -0.000135
   126    -0.000189
   127     0.000727
   128    -0.000877
   129     0.000528
   130     0.000009
   131    -0.000009
   132    -0.000015
   133     0.000008
   134    -0.000020
   135    -0.000093
   136     0.000113
   137     0.000085
   138     0.000413
   139    -0.000031
   140    -0.000010
   141    -0.000006
   142    -0.000009
   143     0.000005
   144     0.000003
   145    -0.001328
   146     0.001836
   147     0.000277
   148     0.000148
   149    -0.000190
   150    -0.000001
   151    -0.000415
   152    -0.000172
   153     0.000051
   154    -0.000034
Sym=    11a
Ene=   -0.324627E+01
Spin= Alpha
Occup= 1.999081
     1     0.000001
     2    -0.000303
     3     0.001166
     4     0.000121
     5    -0.000082
     6    -0.000006
     7     0.000549
     8     0.000020
     9     0.000246
    10    -0.000061
    11    -0.000070
    12    -0.000109
    13     0.000043
    14     0.000011
    15     0.000013
    16     0.000009
    17    -0.000730
    18     0.005987
    19     0.000195
    20    -0.000196
    21     0.000100
    22     0.002612
    23    -0.001829
    24     0.000448
    25    -0.000100
    26    -0.000059
    27    -0.000198
    28    -0.000111
    29     0.000006
    30    -0.000018
    31     0.000288
    32     0.001988
    33     0.000403
    34     0.000072
    35     0.000134
    36     0.002060
    37     0.002890
    38    -0.002272
    39    -0.001402
    40    -0.000266
    41    -0.001724
    42    -0.000608
    43    -0.000207
    44    -0.000701
    45     0.000620
    46    -0.000388
    47     0.001007
    48     0.000155
    49     0.001421
    50     0.000200
    51     0.000191
    52     0.007603
    53    -0.000083
    54    -0.000037
    55    -0.000001
    56     0.000026
    57    -0.004670
    58     0.000174
    59     0.000251
    60     0.000131
    61    -0.000041
    62     0.002260
    63     0.000229
    64    -0.000228
    65    -0.000031
    66    -0.000153
    67    -0.000899
    68     0.022937
    69     0.000095
    70     0.000263
    71    -0.000168
    72    -0.003465
    73    -0.006588
    74     0.000068
    75     0.000060
    76     0.000636
    77    -0.000194
    78    -0.000153
    79     0.000201
    80    -0.000147
    81    -0.000296
    82     0.000073
    83    -0.000097
    84     0.000178
    85    -0.000029
    86     0.000351
    87     0.002739
    88    -0.024712
    89    -0.000423
    90     0.000128
    91    -0.000002
    92    -0.003878
    93     0.003986
    94     0.012949
    95     0.000314
    96     0.000467
    97    -0.000125
    98     0.000061
    99    -0.000134
   100    -0.000048
   101     0.000332
   102    -0.004223
   103    -0.000012
   104     0.000002
   105     0.000007
   106     0.000174
   107     0.001148
   108     0.006171
   109    -0.005072
   110    -0.709154
   111     0.386798
   112    -0.563428
   113    -0.036667
   114     0.018518
   115    -0.027181
   116     0.003450
   117    -0.003087
   118     0.002198
   119     0.001406
   120    -0.001671
   121     0.000839
   122    -0.001227
   123     0.002382
   124    -0.000015
   125     0.000583
   126     0.000030
   127     0.000764
   128    -0.001524
   129     0.000314
   130    -0.000000
   131    -0.000115
   132     0.000130
   133    -0.000074
   134    -0.000070
   135    -0.000110
   136     0.000359
   137     0.000116
   138     0.000386
   139     0.000030
   140    -0.000044
   141    -0.000043
   142    -0.000041
   143    -0.000041
   144     0.000043
   145     0.000106
   146    -0.003662
   147     0.000056
   148    -0.000243
   149     0.000196
   150     0.000135
   151     0.000593
   152    -0.000095
   153     0.000005
   154    -0.000011
Sym=    12a
Ene=   -0.154768E+01
Spin= Alpha
Occup= 1.992698
     1     0.000015
     2     0.000384
     3    -0.003132
     4     0.000098
     5     0.001389
     6     0.000866
     7     0.000444
     8     0.000230
     9     0.000952
    10     0.000112
    11     0.000118
    12    -0.000077
    13     0.000228
    14     0.000164
    15    -0.000031
    16     0.000205
    17    -0.000760
    18     0.006657
    19     0.001693
    20     0.000402
    21    -0.000845
    22     0.001936
    23    -0.002642
    24     0.000038
    25    -0.000268
    26    -0.000015
    27    -0.000110
    28    -0.000156
    29    -0.000078
    30     0.000119
    31     0.023348
    32     0.024066
    33     0.004428
    34    -0.000291
    35    -0.001934
    36     0.300797
    37     0.598524
    38     0.445262
    39     0.093064
    40    -0.003485
    41     0.012465
    42    -0.070108
    43     0.004514
    44    -0.006652
    45     0.008493
    46     0.004593
    47     0.008228
    48    -0.000553
    49     0.001638
    50     0.000568
    51     0.001105
    52    -0.002059
    53     0.000142
    54    -0.000285
    55    -0.000335
    56     0.000116
    57    -0.002760
    58     0.000098
    59    -0.000176
    60     0.000185
    61    -0.000070
    62     0.000735
    63     0.000387
    64    -0.000994
    65    -0.000434
    66     0.000197
    67     0.003062
    68    -0.000705
    69     0.000791
    70     0.001189
    71     0.000916
    72     0.005374
    73    -0.001415
    74    -0.004586
    75     0.000682
    76     0.001386
    77     0.000757
    78     0.000461
    79     0.000381
    80     0.000645
    81    -0.000004
    82     0.000433
    83    -0.000350
    84     0.000154
    85    -0.000083
    86    -0.000016
    87     0.003631
    88    -0.013799
    89    -0.001010
    90     0.000789
    91     0.000393
    92     0.000440
    93     0.010914
    94     0.023890
    95     0.000640
    96     0.000829
    97     0.001203
    98    -0.000216
    99    -0.000758
   100     0.000851
   101    -0.000312
   102    -0.014432
   103    -0.000071
   104     0.000103
   105     0.000581
   106     0.004608
   107     0.023146
   108     0.017109
   109     0.022726
   110     0.024486
   111     0.001666
   112     0.023172
   113    -0.016457
   114     0.000312
   115    -0.010156
   116    -0.013495
   117     0.015857
   118    -0.004144
   119     0.004633
   120    -0.009585
   121     0.002428
   122     0.001137
   123     0.013073
   124     0.001154
   125     0.001381
   126     0.006455
   127    -0.001033
   128     0.000769
   129    -0.000595
   130    -0.000825
   131    -0.000479
   132    -0.017710
   133    -0.004373
   134     0.000116
   135     0.001408
   136    -0.009444
   137     0.003409
   138     0.004735
   139     0.001286
   140     0.000499
   141     0.000551
   142    -0.000426
   143    -0.000479
   144     0.000212
   145     0.001360
   146    -0.014255
   147     0.000072
   148    -0.000755
   149     0.000125
   150     0.000920
   151    -0.000263
   152    -0.000242
   153    -0.000071
   154    -0.000014
Sym=    13a
Ene=   -0.130982E+01
Spin= Alpha
Occup= 1.987769
     1     0.017160
     2     0.021131
     3    -0.015937
     4     0.009744
     5     0.056260
     6     0.033235
     7     0.007377
     8    -0.008757
     9    -0.007840
    10    -0.005742
    11     0.008897
    12    -0.000973
    13     0.002512
    14     0.001302
    15     0.010432
    16     0.000871
    17     0.005322
    18     0.003817
    19     0.005639
    20     0.003689
    21     0.000806
    22    -0.002760
    23     0.003308
    24     0.004284
    25    -0.000274
    26     0.000606
    27     0.001022
    28    -0.000984
    29    -0.000097
    30    -0.000050
    31     0.090291
    32     0.009550
    33    -0.019654
    34     0.001056
    35     0.005860
    36    -0.003763
    37    -0.005304
    38    -0.012556
    39    -0.002689
    40    -0.000426
    41     0.000142
    42     0.008350
    43    -0.000498
    44    -0.002568
    45     0.000362
    46     0.000977
    47     0.000768
    48     0.000229
    49     0.000292
    50    -0.000101
    51    -0.000498
    52     0.003065
    53     0.000178
    54     0.000098
    55     0.000026
    56    -0.000539
    57    -0.002601
    58     0.000037
    59     0.000050
    60     0.000053
    61     0.002373
    62    -0.001050
    63    -0.000206
    64    -0.000384
    65     0.000049
    66     0.000364
    67    -0.000429
    68     0.033337
    69     0.001020
    70     0.000002
    71    -0.000353
    72    -0.010237
    73    -0.001259
    74    -0.002000
    75     0.000001
    76     0.000092
    77    -0.000141
    78     0.000131
    79    -0.000023
    80    -0.000104
    81     0.000801
    82    -0.007252
    83     0.000098
    84     0.000160
    85     0.000081
    86     0.000034
    87     0.005426
    88    -0.030987
    89    -0.000221
    90     0.001321
    91     0.000457
    92    -0.006140
    93    -0.002551
    94     0.011091
    95     0.001027
    96    -0.000405
    97     0.001289
    98     0.000051
    99     0.000415
   100     0.000461
   101    -0.000323
   102    -0.000384
   103    -0.000080
   104     0.000250
   105     0.000286
   106    -0.000045
   107    -0.000393
   108     0.002057
   109    -0.003387
   110    -0.000072
   111    -0.000351
   112    -0.000384
   113    -0.001985
   114     0.001297
   115     0.000660
   116     0.002594
   117    -0.003039
   118     0.002382
   119     0.001054
   120     0.001340
   121     0.000269
   122    -0.001138
   123     0.000248
   124    -0.000193
   125    -0.000219
   126    -0.002485
   127     0.000096
   128    -0.000242
   129     0.000038
   130     0.289176
   131     0.591989
   132     0.376484
   133    -0.115339
   134    -0.086507
   135    -0.023946
   136    -0.114226
   137    -0.068535
   138    -0.013476
   139     0.011690
   140     0.015552
   141     0.015217
   142    -0.006103
   143    -0.003596
   144     0.003736
   145    -0.000511
   146    -0.004435
   147     0.000019
   148    -0.000039
   149    -0.000014
   150    -0.004413
   151    -0.003470
   152    -0.001422
   153    -0.000108
   154     0.000053
Sym=    14a
Ene=   -0.119382E+01
Spin= Alpha
Occup= 1.987613
     1     0.020008
     2     0.032536
     3     0.019496
     4    -0.041635
     5    -0.000863
     6    -0.018008
     7     0.013872
     8    -0.000034
     9     0.004962
    10     0.010886
    11    -0.003288
    12    -0.003223
    13     0.001863
    14     0.001814
    15     0.000835
    16     0.246355
    17     0.506111
    18     0.208901
    19    -0.155002
    20     0.076352
    21    -0.092773
    22     0.098582
    23    -0.074480
    24     0.066652
    25     0.021607
    26     0.022042
    27     0.023089
    28     0.000128
    29    -0.000375
    30     0.000198
    31     0.002684
    32     0.001983
    33     0.000315
    34     0.001277
    35     0.000474
    36    -0.003261
    37    -0.007410
    38    -0.003709
    39    -0.001735
    40     0.002603
    41     0.001285
    42     0.001588
    43    -0.001264
    44    -0.000636
    45    -0.000413
    46    -0.000057
    47    -0.000390
    48    -0.000210
    49    -0.000189
    50     0.000267
    51    -0.001185
    52    -0.013317
    53    -0.000398
    54     0.002816
    55     0.000104
    56     0.006640
    57     0.012200
    58    -0.000273
    59     0.000159
    60    -0.000611
    61     0.126814
    62    -0.007980
    63     0.000459
    64    -0.001956
    65     0.016759
    66     0.001275
    67    -0.002361
    68    -0.000146
    69    -0.001100
    70     0.000061
    71     0.000172
    72    -0.002260
    73     0.001492
    74    -0.003620
    75     0.001639
    76    -0.002344
    77    -0.001222
    78     0.000418
    79    -0.000389
    80     0.000353
    81    -0.005332
    82    -0.005931
    83    -0.000252
    84    -0.000527
    85     0.000338
    86     0.068486
    87     0.108714
    88    -0.001110
    89     0.107330
    90    -0.065968
    91     0.087397
    92    -0.012419
    93     0.006781
    94    -0.017655
    95     0.015285
    96     0.001045
    97     0.012548
    98    -0.014771
    99     0.021157
   100    -0.012162
   101     0.009568
   102     0.006405
   103    -0.000786
   104    -0.000297
   105    -0.002941
   106    -0.000297
   107    -0.002353
   108    -0.008129
   109     0.003778
   110     0.000560
   111    -0.001197
   112     0.002691
   113     0.002114
   114    -0.001787
   115    -0.006465
   116     0.004214
   117    -0.003536
   118     0.000147
   119     0.000868
   120     0.000717
   121    -0.003873
   122    -0.002342
   123     0.001614
   124    -0.001150
   125     0.002322
   126    -0.000956
   127     0.000212
   128    -0.000382
   129     0.000080
   130    -0.001828
   131    -0.005478
   132    -0.008750
   133    -0.002288
   134     0.001410
   135    -0.006063
   136    -0.004358
   137     0.000350
   138    -0.005941
   139    -0.000136
   140    -0.000883
   141    -0.000403
   142     0.000485
   143     0.000207
   144     0.000200
   145     0.000577
   146     0.000545
   147     0.000336
   148    -0.000266
   149     0.000225
   150     0.115391
   151    -0.003810
   152     0.007356
   153    -0.014498
   154    -0.001841
Sym=    15a
Ene=   -0.103272E+01
Spin= Alpha
Occup= 1.984547
     1     0.276411
     2     0.591632
     3     0.394486
     4     0.092439
     5    -0.088115
     6    -0.073860
     7    -0.078333
     8     0.073282
     9     0.061684
    10     0.020836
    11     0.024551
    12     0.018562
    13     0.007560
    14     0.002502
    15     0.002176
    16    -0.007946
    17    -0.025263
    18    -0.068703
    19     0.112078
    20     0.017145
    21     0.015920
    22    -0.034720
    23     0.009676
    24    -0.016013
    25     0.011991
    26    -0.007020
    27    -0.005903
    28     0.004693
    29    -0.002250
    30    -0.001361
    31    -0.010828
    32     0.009661
    33     0.003666
    34    -0.000688
    35    -0.001455
    36     0.000106
    37     0.000016
    38    -0.001170
    39    -0.000811
    40     0.000112
    41     0.000020
    42     0.000182
    43    -0.000580
    44    -0.000317
    45     0.000218
    46    -0.000112
    47    -0.000078
    48     0.000004
    49    -0.000059
    50    -0.000064
    51    -0.001829
    52    -0.012445
    53     0.000237
    54    -0.001244
    55     0.000224
    56    -0.000297
    57     0.000066
    58     0.000025
    59     0.000048
    60     0.000100
    61    -0.017327
    62     0.008303
    63     0.000224
    64     0.000259
    65    -0.003369
    66    -0.000392
    67    -0.003195
    68     0.029388
    69     0.000023
    70     0.000059
    71    -0.000716
    72    -0.010251
    73     0.001487
    74    -0.004371
    75    -0.000064
    76    -0.000003
    77    -0.000569
    78    -0.000145
    79     0.000296
    80    -0.000023
    81    -0.000274
    82    -0.009470
    83     0.000203
    84     0.000203
    85     0.000088
    86    -0.013970
    87    -0.023208
    88     0.012581
    89    -0.020879
    90     0.011421
    91    -0.014433
    92    -0.011393
    93    -0.008991
    94     0.002962
    95    -0.003586
    96    -0.000420
    97    -0.002156
    98     0.003349
    99    -0.004365
   100     0.002015
   101    -0.003276
   102    -0.005813
   103     0.000103
   104     0.000289
   105     0.000751
   106     0.000035
   107     0.000325
   108    -0.000996
   109     0.000071
   110    -0.000118
   111     0.000442
   112     0.000112
   113    -0.000122
   114    -0.001092
   115    -0.000124
   116     0.001726
   117    -0.004650
   118     0.000130
   119    -0.000440
   120    -0.000491
   121     0.000923
   122     0.000590
   123    -0.000506
   124    -0.000264
   125     0.000104
   126    -0.003679
   127     0.000011
   128     0.000013
   129    -0.000033
   130    -0.020445
   131    -0.049202
   132    -0.090013
   133     0.018789
   134     0.078167
   135     0.044154
   136     0.025776
   137     0.022476
   138     0.008475
   139    -0.004303
   140     0.004124
   141    -0.000788
   142    -0.000729
   143    -0.000495
   144     0.006250
   145    -0.000922
   146    -0.006766
   147     0.000245
   148    -0.000040
   149     0.000051
   150    -0.031688
   151    -0.001194
   152    -0.003498
   153     0.001446
   154     0.000207
Sym=    16a
Ene=   -0.709225E+00
Spin= Alpha
Occup= 1.981992
     1     0.000399
     2    -0.004377
     3     0.042887
     4    -0.002278
     5    -0.003308
     6    -0.002377
     7     0.017995
     8    -0.002211
     9    -0.002961
    10    -0.000183
    11    -0.000792
    12    -0.000926
    13    -0.000989
    14    -0.000767
    15     0.000475
    16     0.004118
    17     0.011618
    18     0.012418
    19    -0.009879
    20     0.002591
    21     0.003494
    22     0.026637
    23     0.010302
    24     0.001055
    25     0.000789
    26     0.000359
    27     0.000921
    28     0.000069
    29     0.000195
    30    -0.001008
    31    -0.046078
    32    -0.044608
    33    -0.006236
    34    -0.000440
    35    -0.001085
    36     0.033533
    37     0.077059
    38     0.024212
    39    -0.441903
    40     0.191417
    41     0.411839
    42     0.323800
    43    -0.141873
    44    -0.305643
    45     0.010422
    46     0.003858
    47    -0.006701
    48    -0.000027
    49     0.004649
    50    -0.004482
    51     0.013803
    52     0.028787
    53     0.001079
    54     0.000152
    55     0.000810
    56    -0.000478
    57    -0.003797
    58     0.000262
    59    -0.000120
    60     0.000635
    61     0.002927
    62    -0.007432
    63    -0.001346
    64     0.003359
    65     0.001179
    66     0.000074
    67     0.003246
    68     0.075623
    69     0.004984
    70    -0.000551
    71    -0.003352
    72    -0.019009
    73    -0.013390
    74    -0.014740
    75     0.001681
    76    -0.000912
    77     0.000030
    78     0.000014
    79     0.001115
    80     0.000136
    81     0.000634
    82    -0.006739
    83    -0.000322
    84    -0.000236
    85     0.000483
    86     0.003868
    87     0.032169
    88    -0.093592
    89     0.001522
    90     0.010152
    91     0.008662
    92    -0.012563
    93     0.016135
    94     0.089625
    95     0.003663
    96     0.002842
    97     0.002722
    98     0.000640
    99    -0.000330
   100    -0.000413
   101    -0.007604
   102    -0.051145
   103    -0.000270
   104     0.000632
   105     0.001442
   106    -0.000030
   107    -0.000727
   108    -0.000798
   109     0.064214
   110    -0.019103
   111     0.006960
   112     0.017525
   113     0.024653
   114    -0.006167
   115    -0.020810
   116    -0.005575
   117     0.017613
   118    -0.043033
   119    -0.032200
   120    -0.000018
   121     0.037965
   122     0.005503
   123    -0.003834
   124     0.011988
   125    -0.004375
   126    -0.009358
   127    -0.000051
   128     0.001426
   129     0.000274
   130     0.009062
   131     0.021436
   132     0.026134
   133     0.027162
   134    -0.004330
   135    -0.008378
   136     0.024804
   137    -0.012266
   138    -0.013403
   139     0.000210
   140     0.000765
   141     0.000834
   142     0.000688
   143     0.000784
   144    -0.000555
   145    -0.001452
   146    -0.054828
   147     0.000788
   148    -0.000160
   149    -0.000586
   150    -0.006069
   151     0.001004
   152    -0.000441
   153     0.000448
   154    -0.000315
Sym=    17a
Ene=   -0.646173E+00
Spin= Alpha
Occup= 1.977105
     1     0.001117
     2     0.004670
     3    -0.002298
     4    -0.042166
     5     0.093121
     6    -0.153615
     7     0.022148
     8    -0.057642
     9     0.089231
    10     0.003159
    11     0.020570
    12    -0.022218
    13    -0.007638
    14     0.001846
    15    -0.010215
    16    -0.001648
    17    -0.002749
    18    -0.003217
    19     0.008348
    20    -0.005663
    21     0.015222
    22    -0.011142
    23     0.013381
    24    -0.018826
    25    -0.001596
    26     0.002372
    27    -0.000279
    28     0.001676
    29    -0.004033
    30    -0.001847
    31    -0.000814
    32    -0.021662
    33     0.005645
    34    -0.012440
    35     0.018580
    36     0.000162
    37     0.000370
    38    -0.000096
    39     0.000462
    40    -0.002325
    41     0.002629
    42    -0.000230
    43    -0.000033
    44     0.001161
    45    -0.000094
    46    -0.000076
    47     0.000346
    48     0.000413
    49    -0.000488
    50    -0.000002
    51    -0.010771
    52     0.026144
    53    -0.001722
    54     0.000806
    55    -0.000843
    56    -0.001116
    57    -0.017497
    58    -0.000397
    59     0.000260
    60    -0.000365
    61     0.012940
    62    -0.032637
    63     0.001398
    64     0.002610
    65    -0.000279
    66     0.001123
    67    -0.007450
    68     0.056595
    69     0.003626
    70     0.001632
    71    -0.001676
    72    -0.008929
    73    -0.015074
    74     0.020114
    75    -0.001045
    76    -0.000362
    77    -0.000681
    78     0.000450
    79    -0.001372
    80     0.000160
    81    -0.000717
    82    -0.000398
    83     0.000025
    84    -0.000382
    85    -0.000170
    86    -0.004820
    87    -0.021246
    88    -0.049293
    89    -0.012885
    90    -0.004229
    91    -0.010166
    92    -0.011460
    93    -0.018155
    94    -0.053961
    95    -0.000944
    96    -0.002354
    97    -0.003051
    98     0.001225
    99    -0.000370
   100     0.000577
   101     0.003820
   102     0.049779
   103     0.000804
   104    -0.000248
   105    -0.001052
   106    -0.000222
   107    -0.001057
   108    -0.030463
   109     0.011995
   110    -0.001610
   111    -0.000085
   112     0.000450
   113     0.011047
   114    -0.004836
   115    -0.004009
   116    -0.013534
   117     0.004359
   118    -0.006317
   119    -0.003789
   120    -0.003299
   121    -0.003658
   122     0.001010
   123     0.001258
   124    -0.000107
   125     0.001361
   126     0.005854
   127    -0.000098
   128     0.000332
   129    -0.000021
   130    -0.000299
   131    -0.001051
   132     0.007510
   133     0.120256
   134    -0.312617
   135     0.495110
   136     0.091641
   137    -0.233889
   138     0.361987
   139     0.005244
   140    -0.016469
   141     0.010630
   142    -0.003783
   143     0.013398
   144     0.011038
   145    -0.000766
   146    -0.003947
   147    -0.000002
   148    -0.000135
   149     0.000043
   150     0.000549
   151     0.011698
   152    -0.000342
   153     0.000209
   154    -0.001449
Sym=    18a
Ene=   -0.690534E+00
Spin= Alpha
Occup= 1.976731
     1     0.000576
     2     0.000503
     3     0.012989
     4     0.000413
     5     0.000679
     6     0.003050
     7     0.004987
     8    -0.002676
     9    -0.006112
    10     0.000406
    11    -0.000374
    12     0.000172
    13     0.000071
    14    -0.000285
    15     0.000293
    16     0.004593
    17     0.012737
    18     0.009152
    19    -0.006020
    20     0.003791
    21     0.007741
    22     0.007664
    23     0.011440
    24    -0.007073
    25     0.000877
    26     0.000688
    27     0.001114
    28     0.000299
    29     0.000313
    30    -0.000151
    31     0.004705
    32     0.038549
    33    -0.000516
    34    -0.004774
    35     0.002365
    36    -0.002754
    37    -0.006334
    38    -0.003624
    39     0.073406
    40     0.604816
    41    -0.201070
    42    -0.053637
    43    -0.443823
    44     0.145202
    45    -0.001520
    46    -0.003952
    47     0.005466
    48    -0.005240
    49     0.000546
    50    -0.009701
    51    -0.001765
    52    -0.007972
    53    -0.000294
    54    -0.000269
    55    -0.000912
    56    -0.003681
    57     0.007033
    58    -0.000335
    59    -0.000691
    60    -0.000573
    61     0.001731
    62    -0.027571
    63    -0.001509
    64     0.004425
    65     0.001229
    66     0.002932
    67    -0.000059
    68     0.088911
    69     0.002603
    70     0.005489
    71     0.006663
    72    -0.025420
    73    -0.020182
    74    -0.012367
    75     0.000404
    76    -0.003133
    77     0.000490
    78     0.001077
    79    -0.000306
    80     0.001516
    81    -0.001033
    82    -0.005395
    83     0.000141
    84    -0.001345
    85     0.000359
    86     0.000580
    87     0.003943
    88     0.030727
    89    -0.001395
    90    -0.005795
    91     0.002829
    92    -0.000313
    93    -0.023164
    94    -0.026012
    95     0.001383
    96    -0.000257
    97     0.001309
    98    -0.000597
    99     0.000378
   100     0.000192
   101    -0.000130
   102     0.017662
   103     0.000175
   104     0.000330
   105     0.000141
   106     0.001975
   107     0.011802
   108     0.037700
   109    -0.106704
   110     0.012855
   111     0.025213
   112     0.000396
   113    -0.020379
   114    -0.033066
   115    -0.000005
   116     0.029202
   117    -0.159410
   118     0.001954
   119     0.012217
   120    -0.000454
   121    -0.011693
   122     0.030643
   123     0.004738
   124     0.029683
   125    -0.004639
   126    -0.076750
   127     0.000049
   128     0.001882
   129     0.000930
   130    -0.001548
   131     0.000037
   132    -0.028042
   133    -0.002427
   134     0.001794
   135    -0.002174
   136    -0.006510
   137    -0.001535
   138     0.001331
   139     0.000548
   140     0.000889
   141     0.000809
   142    -0.000173
   143     0.000041
   144    -0.000080
   145     0.008418
   146     0.043545
   147    -0.000413
   148    -0.000728
   149     0.000688
   150    -0.007765
   151     0.000975
   152     0.000212
   153     0.000583
   154    -0.000022
Sym=    19a
Ene=   -0.758810E+00
Spin= Alpha
Occup= 1.975921
     1     0.000144
     2     0.000704
     3     0.004635
     4    -0.000028
     5     0.004232
     6     0.000788
     7     0.004596
     8    -0.004114
     9    -0.001593
    10     0.000680
    11     0.000412
    12    -0.000246
    13     0.000332
    14     0.000131
    15     0.000006
    16     0.002554
    17     0.007927
    18    -0.001117
    19    -0.000902
    20     0.003580
    21    -0.000263
    22     0.005136
    23     0.007691
    24     0.002903
    25     0.000510
    26     0.000699
    27     0.000684
    28     0.000254
    29     0.000071
    30    -0.000250
    31     0.021109
    32     0.041797
    33     0.000761
    34    -0.000871
    35    -0.004428
    36    -0.018015
    37    -0.027598
    38     0.000350
    39     0.423291
    40     0.095879
    41     0.430475
    42    -0.290889
    43    -0.071491
    44    -0.295472
    45    -0.001213
    46     0.005460
    47    -0.008413
    48    -0.002334
    49    -0.012928
    50    -0.003143
    51     0.010006
    52    -0.005977
    53    -0.000050
    54    -0.000074
    55     0.002878
    56    -0.005414
    57    -0.045757
    58     0.000833
    59     0.000576
    60     0.000618
    61     0.001149
    62    -0.004664
    63    -0.001357
    64     0.000764
    65     0.000066
    66     0.003561
    67     0.008164
    68     0.059839
    69     0.003521
    70     0.005062
    71     0.007466
    72     0.017735
    73    -0.044063
    74     0.007153
    75     0.000435
    76    -0.002374
    77     0.000173
    78    -0.002390
    79    -0.000629
    80    -0.001702
    81    -0.000493
    82     0.017833
    83    -0.000202
    84    -0.000619
    85     0.000098
    86     0.003349
    87     0.019192
    88    -0.049811
    89    -0.001170
    90     0.007082
    91     0.003689
    92    -0.013579
    93     0.010280
    94     0.031268
    95     0.001499
    96     0.000943
    97    -0.003104
    98     0.001630
    99     0.001279
   100    -0.004121
   101    -0.003330
   102    -0.022254
   103    -0.000157
   104    -0.000109
   105    -0.000819
   106    -0.019926
   107    -0.116869
   108    -0.198238
   109     0.091690
   110    -0.068652
   111    -0.003332
   112    -0.079866
   113     0.089643
   114     0.000058
   115     0.104632
   116    -0.022571
   117     0.034185
   118     0.001341
   119    -0.016094
   120     0.029459
   121    -0.023666
   122    -0.002171
   123    -0.051323
   124     0.000152
   125     0.010565
   126     0.025161
   127     0.003392
   128    -0.001370
   129     0.002938
   130    -0.005047
   131    -0.007108
   132    -0.040969
   133    -0.010909
   134     0.000450
   135     0.007010
   136    -0.018471
   137     0.002963
   138     0.005892
   139     0.000850
   140     0.000816
   141     0.001066
   142    -0.000420
   143    -0.000340
   144     0.000158
   145     0.008961
   146    -0.039717
   147     0.002624
   148     0.002930
   149     0.000097
   150    -0.002906
   151    -0.000705
   152    -0.000165
   153     0.000366
   154    -0.000037
Sym=    20a
Ene=   -0.797249E+00
Spin= Alpha
Occup= 1.974288
     1    -0.005348
     2    -0.016376
     3     0.014861
     4     0.029756
     5    -0.013960
     6     0.040494
     7    -0.013943
     8    -0.001143
     9    -0.018299
    10    -0.003606
    11    -0.000260
    12     0.000752
    13     0.002200
    14    -0.012134
    15    -0.005159
    16     0.039014
    17     0.072589
    18    -0.040335
    19    -0.001465
    20    -0.074124
    21     0.484440
    22    -0.029425
    23     0.061828
    24    -0.255767
    25    -0.004638
    26    -0.006438
    27     0.017118
    28     0.000723
    29    -0.003718
    30    -0.002461
    31    -0.001483
    32    -0.000584
    33     0.001004
    34     0.001126
    35    -0.000027
    36    -0.003378
    37    -0.007657
    38    -0.006160
    39    -0.005507
    40     0.010070
    41     0.002348
    42     0.004426
    43    -0.006425
    44    -0.002242
    45    -0.000338
    46     0.000359
    47    -0.000559
    48    -0.000409
    49    -0.000030
    50    -0.000045
    51     0.010079
    52    -0.003778
    53     0.001193
    54    -0.002207
    55     0.000983
    56    -0.001365
    57     0.001045
    58     0.000023
    59     0.000098
    60     0.000055
    61     0.395297
    62     0.066226
    63    -0.017602
    64    -0.000113
    65     0.031746
    66    -0.002761
    67    -0.009528
    68     0.002952
    69    -0.007449
    70    -0.002266
    71    -0.000517
    72    -0.003661
    73     0.004119
    74    -0.004488
    75    -0.003321
    76    -0.000339
    77     0.000422
    78    -0.000886
    79     0.000615
    80    -0.000657
    81    -0.000116
    82    -0.001288
    83     0.000537
    84     0.000354
    85    -0.000273
    86    -0.038952
    87    -0.063954
    88     0.036005
    89    -0.074510
    90     0.048877
    91    -0.067833
    92     0.002164
    93    -0.020659
    94     0.005406
    95    -0.014830
    96    -0.000994
    97     0.004249
    98     0.010815
    99    -0.010614
   100     0.004856
   101     0.018288
   102     0.019378
   103     0.000271
   104     0.000448
   105     0.001846
   106     0.000106
   107     0.000637
   108    -0.006216
   109    -0.000980
   110     0.000525
   111     0.001814
   112    -0.001443
   113     0.001135
   114    -0.005644
   115     0.001838
   116     0.000798
   117    -0.008146
   118    -0.000139
   119    -0.001348
   120    -0.002573
   121     0.002873
   122     0.002880
   123    -0.001236
   124    -0.001027
   125    -0.001775
   126    -0.006794
   127     0.000092
   128     0.000017
   129    -0.000132
   130    -0.004059
   131    -0.009236
   132    -0.017060
   133    -0.002570
   134    -0.021382
   135     0.021185
   136     0.000886
   137    -0.021743
   138     0.014804
   139    -0.000240
   140    -0.000413
   141    -0.000647
   142    -0.000433
   143    -0.000423
   144    -0.000534
   145    -0.000559
   146     0.003234
   147     0.000162
   148     0.000048
   149    -0.000018
   150    -0.053424
   151    -0.006139
   152    -0.000219
   153     0.006938
   154    -0.014378
Sym=    21a
Ene=   -0.621497E+00
Spin= Alpha
Occup= 1.973766
     1     0.004987
     2     0.015347
     3     0.012894
     4    -0.014812
     5    -0.000325
     6    -0.002924
     7     0.011468
     8     0.006939
     9     0.002757
    10     0.002266
    11     0.000736
    12     0.000543
    13     0.000377
    14    -0.000879
    15     0.000456
    16     0.016530
    17     0.039421
    18     0.032172
    19    -0.027109
    20     0.008173
    21    -0.014359
    22     0.029662
    23    -0.008965
    24     0.012153
    25     0.005818
    26    -0.003129
    27     0.002864
    28     0.004566
    29     0.000104
    30     0.003382
    31     0.003322
    32    -0.000961
    33    -0.001105
    34    -0.000020
    35    -0.001391
    36     0.008209
    37     0.016132
    38     0.027316
    39     0.002747
    40    -0.003050
    41    -0.032604
    42    -0.006499
    43     0.003279
    44     0.031170
    45     0.000096
    46     0.000035
    47    -0.000989
    48    -0.000034
    49     0.000217
    50    -0.000089
    51    -0.438610
    52    -0.239682
    53    -0.013022
    54    -0.011764
    55     0.011709
    56    -0.000337
    57    -0.008756
    58    -0.000573
    59    -0.000461
    60     0.000543
    61     0.007560
    62    -0.004877
    63     0.001340
    64    -0.002495
    65     0.001311
    66     0.014623
    67     0.030253
    68     0.050910
    69     0.047160
    70     0.022488
    71    -0.020953
    72    -0.028292
    73    -0.036490
    74    -0.003624
    75     0.005649
    76     0.000133
    77     0.002594
    78    -0.000612
    79    -0.000385
    80     0.000690
    81    -0.015680
    82    -0.026619
    83    -0.001435
    84     0.000124
    85     0.001054
    86    -0.091475
    87    -0.166746
    88     0.041996
    89    -0.079193
    90    -0.301500
    91    -0.012858
    92     0.023082
    93     0.077368
    94     0.020076
    95     0.000567
    96    -0.037156
    97     0.003893
    98    -0.010378
    99    -0.001285
   100    -0.010366
   101     0.011754
   102    -0.003558
   103     0.001915
   104     0.006534
   105     0.001669
   106    -0.010868
   107    -0.063193
   108    -0.087026
   109    -0.005216
   110    -0.050568
   111     0.007871
   112     0.046267
   113     0.081949
   114    -0.009444
   115    -0.073846
   116     0.017844
   117    -0.011761
   118    -0.015020
   119    -0.024481
   120     0.023705
   121    -0.018329
   122     0.003978
   123     0.044550
   124    -0.006650
   125     0.019573
   126     0.025265
   127     0.002269
   128    -0.001551
   129    -0.000071
   130     0.002996
   131     0.006523
   132     0.011866
   133     0.009387
   134    -0.008552
   135     0.008082
   136     0.006914
   137    -0.006295
   138     0.006948
   139     0.000227
   140     0.000214
   141     0.000012
   142     0.000487
   143    -0.000264
   144     0.000656
   145     0.000559
   146    -0.020044
   147     0.000246
   148    -0.000626
   149    -0.000469
   150    -0.009257
   151    -0.033002
   152     0.001691
   153    -0.001201
   154     0.002577
Sym=    22a
Ene=   -0.797579E+00
Spin= Alpha
Occup= 1.973599
     1    -0.017449
     2    -0.038134
     3    -0.043363
     4     0.017590
     5    -0.014744
     6     0.021048
     7     0.003308
     8     0.010744
     9    -0.007219
    10    -0.009432
    11     0.008263
    12    -0.001411
    13     0.008717
    14     0.000823
    15     0.001820
    16     0.044368
    17     0.090318
    18    -0.063383
    19     0.161770
    20    -0.458330
    21    -0.067001
    22    -0.101057
    23     0.248989
    24     0.011184
    25    -0.003381
    26     0.017933
    27    -0.004695
    28    -0.006677
    29    -0.000652
    30     0.006012
    31     0.003668
    32    -0.004746
    33    -0.000930
    34    -0.000299
    35     0.000601
    36     0.002916
    37     0.006402
    38     0.005349
    39     0.005211
    40    -0.009749
    41    -0.004449
    42    -0.003974
    43     0.006395
    44     0.001387
    45     0.000137
    46    -0.000271
    47     0.000359
    48     0.000428
    49     0.000234
    50    -0.000298
    51     0.026530
    52     0.028937
    53     0.001050
    54    -0.001605
    55    -0.000818
    56    -0.004971
    57     0.001934
    58    -0.000354
    59    -0.000204
    60    -0.000012
    61    -0.052751
    62    -0.000226
    63    -0.004468
    64     0.015293
    65    -0.001660
    66    -0.000107
    67     0.002863
    68    -0.062747
    69     0.000492
    70     0.005472
    71     0.000602
    72     0.009892
    73     0.003109
    74     0.003844
    75    -0.002634
    76     0.002217
    77    -0.000035
    78     0.000159
    79    -0.000279
    80    -0.000444
    81     0.001305
    82     0.019329
    83    -0.000068
    84     0.000159
    85    -0.000236
    86    -0.034618
    87    -0.057923
    88     0.058094
    89    -0.063717
    90     0.038336
    91    -0.053471
    92     0.020420
    93    -0.004365
    94    -0.018574
    95    -0.006559
    96     0.009588
    97    -0.013160
    98    -0.000447
    99    -0.013307
   100     0.003269
   101    -0.015031
   102    -0.008441
   103     0.001301
   104    -0.000752
   105     0.002129
   106     0.001397
   107     0.008933
   108     0.016722
   109    -0.013336
   110     0.002720
   111    -0.001073
   112    -0.006448
   113    -0.004961
   114     0.003676
   115     0.011493
   116     0.004428
   117    -0.008290
   118     0.006019
   119     0.000305
   120    -0.002999
   121     0.005273
   122     0.004043
   123    -0.003463
   124     0.001171
   125    -0.004478
   126    -0.010857
   127    -0.000300
   128     0.000441
   129    -0.000085
   130     0.009494
   131     0.021893
   132     0.031844
   133     0.013094
   134     0.011603
   135     0.018183
   136     0.010084
   137     0.015597
   138     0.021171
   139     0.000553
   140     0.001217
   141     0.000756
   142    -0.000519
   143    -0.000097
   144     0.000099
   145     0.001685
   146     0.016657
   147    -0.000501
   148     0.000127
   149     0.000314
   150     0.405882
   151     0.063155
   152     0.000585
   153    -0.032549
   154    -0.016150
Sym=    23a
Ene=   -0.549882E+00
Spin= Alpha
Occup= 1.973462
     1    -0.009787
     2    -0.022945
     3    -0.048753
     4     0.013448
     5     0.017762
     6    -0.012517
     7    -0.031187
     8    -0.021884
     9     0.004619
    10    -0.000224
    11    -0.001984
    12    -0.000400
    13    -0.001587
    14     0.001792
    15     0.000002
    16     0.023888
    17     0.054757
    18     0.051220
    19    -0.012700
    20     0.023687
    21    -0.016399
    22    -0.008069
    23    -0.033578
    24     0.026505
    25    -0.006471
    26     0.005268
    27     0.008559
    28     0.000987
    29    -0.001578
    30    -0.002201
    31     0.003091
    32     0.002396
    33     0.000993
    34     0.000347
    35     0.000051
    36     0.004112
    37     0.008260
    38     0.013387
    39    -0.008379
    40    -0.011149
    41    -0.016301
    42     0.006703
    43     0.011791
    44     0.012782
    45     0.000266
    46    -0.000081
    47    -0.000714
    48    -0.000336
    49    -0.000719
    50    -0.000693
    51     0.037231
    52     0.096635
    53    -0.004216
    54    -0.001027
    55     0.001640
    56     0.023100
    57     0.031403
    58     0.005521
    59     0.003565
    60    -0.002486
    61     0.028900
    62     0.037209
    63    -0.002595
    64     0.001381
    65     0.000764
    66    -0.105938
    67    -0.206098
    68    -0.077205
    69    -0.272950
    70    -0.155762
    71     0.081999
    72     0.096535
    73     0.031919
    74    -0.002593
    75    -0.025639
    76    -0.018376
    77    -0.001005
    78    -0.020595
    79     0.001304
    80     0.003604
    81     0.024555
    82     0.060750
    83     0.006823
    84     0.001406
    85    -0.002441
    86    -0.114133
    87    -0.241427
    88    -0.074326
    89     0.309418
    90     0.055944
    91    -0.158640
    92    -0.105670
    93    -0.021507
    94     0.038303
    95    -0.026231
    96    -0.007546
    97    -0.020948
    98     0.002367
    99     0.021168
   100    -0.001731
   101     0.028013
   102     0.040984
   103    -0.006079
   104    -0.003334
   105    -0.000438
   106    -0.016859
   107    -0.099751
   108    -0.162368
   109     0.001639
   110    -0.017118
   111     0.071754
   112     0.047037
   113     0.030270
   114    -0.119567
   115    -0.079491
   116     0.011751
   117    -0.028702
   118    -0.018298
   119     0.019393
   120    -0.046716
   121    -0.007256
   122     0.022737
   123     0.007252
   124    -0.041999
   125     0.014438
   126     0.018467
   127    -0.000508
   128    -0.000914
   129    -0.001837
   130    -0.001306
   131    -0.002981
   132    -0.006233
   133    -0.004516
   134     0.005426
   135    -0.007912
   136    -0.001773
   137     0.006224
   138    -0.008371
   139     0.000325
   140    -0.000589
   141     0.000299
   142    -0.000373
   143    -0.000286
   144    -0.000274
   145     0.040420
   146     0.113619
   147     0.004000
   148     0.000510
   149    -0.001511
   150     0.006989
   151    -0.001308
   152     0.002449
   153    -0.000590
   154    -0.000678
Sym=    24a
Ene=   -0.548993E+00
Spin= Alpha
Occup= 1.972406
     1    -0.002690
     2    -0.004463
     3    -0.023080
     4     0.007697
     5     0.004202
     6    -0.001433
     7    -0.016392
     8    -0.002161
     9     0.003205
    10    -0.000537
    11    -0.000040
    12     0.000143
    13    -0.000304
    14     0.000255
    15     0.000004
    16     0.012388
    17     0.029078
    18     0.040180
    19    -0.011938
    20     0.002077
    21    -0.003991
    22    -0.004063
    23    -0.009906
    24     0.003387
    25    -0.000253
    26     0.001687
    27     0.002398
    28    -0.001027
    29    -0.000336
    30     0.000491
    31     0.001041
    32     0.000180
    33    -0.000118
    34    -0.000025
    35    -0.000270
    36    -0.000677
    37    -0.001166
    38    -0.005223
    39     0.003207
    40     0.002168
    41     0.001135
    42    -0.003797
    43    -0.001546
    44    -0.000603
    45     0.000275
    46     0.000009
    47     0.000081
    48     0.000198
    49     0.000176
    50     0.000275
    51    -0.022246
    52    -0.045707
    53     0.000218
    54     0.000918
    55     0.001148
    56     0.014947
    57    -0.019723
    58     0.001876
    59    -0.006091
    60     0.001980
    61     0.007817
    62    -0.003533
    63    -0.000107
    64    -0.000597
    65     0.001034
    66    -0.120980
    67    -0.208783
    68    -0.032253
    69    -0.049876
    70     0.308131
    71    -0.079996
    72     0.045492
    73    -0.124824
    74     0.064892
    75    -0.006404
    76    -0.024069
    77    -0.006038
    78     0.005408
    79    -0.000954
    80     0.009919
    81    -0.420602
    82    -0.203108
    83     0.000728
    84     0.019450
    85    -0.004240
    86     0.000286
    87     0.015733
    88    -0.013452
    89    -0.006846
    90     0.012407
    91    -0.005573
    92    -0.007030
    93    -0.005489
    94     0.002470
    95     0.003823
    96    -0.005315
    97     0.004537
    98    -0.010174
    99     0.002579
   100     0.004099
   101     0.010759
   102     0.015865
   103     0.000075
   104     0.000283
   105     0.000701
   106     0.005469
   107     0.033654
   108     0.055315
   109    -0.000544
   110    -0.011610
   111    -0.021799
   112    -0.007304
   113     0.018889
   114     0.045130
   115     0.011558
   116    -0.004698
   117     0.022760
   118    -0.003016
   119     0.000766
   120     0.011144
   121     0.003523
   122     0.009125
   123     0.001462
   124     0.008712
   125    -0.011731
   126    -0.011920
   127     0.000038
   128     0.001058
   129     0.000039
   130     0.000271
   131     0.000073
   132     0.006097
   133     0.001199
   134     0.000587
   135     0.001248
   136     0.002787
   137     0.003235
   138     0.002176
   139     0.000004
   140    -0.000116
   141    -0.000104
   142    -0.000081
   143    -0.000182
   144     0.000179
   145    -0.004114
   146     0.018819
   147     0.002278
   148    -0.008536
   149    -0.001349
   150     0.007583
   151    -0.003982
   152     0.000764
   153    -0.001050
   154     0.000288
Sym=    25a
Ene=   -0.540678E+00
Spin= Alpha
Occup= 1.972379
     1    -0.002446
     2    -0.005982
     3    -0.011365
     4     0.007557
     5     0.005855
     6    -0.004989
     7    -0.011363
     8    -0.006775
     9     0.003252
    10    -0.000077
    11    -0.000572
    12    -0.000299
    13    -0.000412
    14     0.000491
    15     0.000093
    16     0.009043
    17     0.022041
    18     0.030403
    19    -0.007245
    20     0.007731
    21    -0.003544
    22     0.004177
    23    -0.011203
    24     0.005931
    25    -0.001453
    26     0.001977
    27     0.002332
    28     0.000033
    29    -0.000550
    30    -0.000095
    31     0.001093
    32    -0.000286
    33     0.000144
    34     0.000223
    35     0.000109
    36     0.002979
    37     0.006502
    38     0.008274
    39    -0.008072
    40    -0.006070
    41    -0.006495
    42     0.006336
    43     0.008962
    44     0.004039
    45    -0.000101
    46    -0.000099
    47    -0.000060
    48    -0.000059
    49    -0.000224
    50     0.000069
    51     0.001747
    52     0.010176
    53    -0.000295
    54     0.000088
    55     0.000132
    56     0.421085
    57     0.170293
    58    -0.015071
    59     0.001388
    60    -0.012672
    61     0.005297
    62     0.005682
    63    -0.001170
    64     0.000132
    65     0.000213
    66     0.119003
    67     0.206089
    68     0.089409
    69    -0.247994
    70     0.058861
    71    -0.207113
    72     0.120212
    73    -0.081693
    74     0.091741
    75     0.017936
    76     0.011022
    77     0.010931
    78    -0.009506
    79     0.013154
    80    -0.008612
    81    -0.014770
    82     0.021887
    83     0.004642
    84    -0.000681
    85     0.003515
    86    -0.010213
    87    -0.030496
    88    -0.020452
    89     0.013156
    90     0.013616
    91    -0.021632
    92    -0.019392
    93     0.004466
    94     0.006758
    95     0.005134
    96    -0.003782
    97    -0.008987
    98    -0.000038
    99     0.006626
   100     0.000207
   101    -0.011323
   102    -0.019124
   103     0.000207
   104    -0.000823
   105    -0.000508
   106    -0.000890
   107    -0.007041
   108    -0.036366
   109     0.006895
   110    -0.010311
   111     0.001645
   112    -0.012395
   113     0.010827
   114    -0.015893
   115     0.014124
   116    -0.001231
   117     0.003063
   118     0.007093
   119     0.005186
   120    -0.019119
   121     0.006160
   122     0.014443
   123     0.014889
   124     0.013921
   125    -0.006852
   126    -0.009565
   127    -0.000956
   128     0.000595
   129    -0.000265
   130    -0.000252
   131    -0.000703
   132    -0.000824
   133     0.000100
   134     0.001697
   135    -0.002333
   136     0.001084
   137     0.002029
   138    -0.002274
   139     0.000100
   140    -0.000252
   141     0.000041
   142    -0.000162
   143    -0.000167
   144    -0.000014
   145    -0.013880
   146    -0.055472
   147     0.005389
   148     0.000912
   149     0.006774
   150     0.002410
   151    -0.001605
   152     0.000598
   153    -0.000274
   154    -0.000185
Sym=    26a
Ene=   -0.779689E+00
Spin= Alpha
Occup= 1.971966
     1     0.004006
     2     0.001727
     3     0.067996
     4    -0.013213
     5    -0.047563
     6    -0.029724
     7     0.009011
     8     0.032206
     9     0.019402
    10     0.000771
    11    -0.006020
    12     0.002264
    13    -0.016081
    14    -0.010038
    15    -0.001310
    16    -0.017202
    17    -0.045153
    18    -0.055891
    19    -0.024775
    20    -0.023621
    21    -0.004002
    22     0.039235
    23     0.003675
    24    -0.007504
    25    -0.004361
    26    -0.001895
    27    -0.003561
    28     0.000261
    29    -0.000219
    30     0.001572
    31     0.383986
    32     0.012677
    33    -0.038896
    34     0.020875
    35     0.023048
    36    -0.015807
    37    -0.033901
    38    -0.034689
    39    -0.040255
    40     0.008345
    41     0.016167
    42     0.031780
    43    -0.007105
    44    -0.014096
    45     0.001850
    46    -0.001017
    47    -0.001496
    48    -0.000618
    49    -0.000883
    50     0.000016
    51    -0.003342
    52     0.011506
    53    -0.001770
    54     0.000156
    55    -0.001428
    56     0.001054
    57    -0.001019
    58     0.000119
    59    -0.000090
    60     0.000177
    61    -0.008991
    62     0.009907
    63    -0.000669
    64    -0.000871
    65    -0.001427
    66    -0.000650
    67     0.003197
    68    -0.046929
    69     0.000792
    70     0.000353
    71    -0.001162
    72     0.018426
    73    -0.005951
    74     0.011743
    75     0.000823
    76    -0.000020
    77     0.000827
    78    -0.000172
    79     0.000350
    80     0.000033
    81    -0.001743
    82     0.015568
    83    -0.000476
    84    -0.000184
    85    -0.000209
    86    -0.002689
    87    -0.011387
    88     0.012632
    89    -0.005125
    90    -0.005769
    91    -0.003590
    92     0.005308
    93     0.012242
    94    -0.008260
    95    -0.001612
    96     0.000551
    97    -0.002210
    98     0.000251
    99    -0.001089
   100     0.000267
   101     0.000728
   102     0.002378
   103     0.000082
   104    -0.000332
   105    -0.000404
   106     0.000130
   107     0.000623
   108    -0.004489
   109     0.015214
   110    -0.001049
   111     0.000812
   112     0.003482
   113     0.003158
   114    -0.001243
   115    -0.007254
   116    -0.009689
   117     0.008332
   118    -0.009149
   119    -0.000013
   120    -0.000606
   121     0.003717
   122     0.000491
   123     0.000579
   124     0.001291
   125    -0.001260
   126     0.002999
   127    -0.000155
   128     0.000154
   129    -0.000037
   130     0.017423
   131     0.022233
   132    -0.066129
   133     0.537045
   134     0.008739
   135    -0.126194
   136     0.309265
   137     0.037526
   138    -0.052431
   139     0.019594
   140    -0.009312
   141    -0.009494
   142     0.009224
   143    -0.002584
   144    -0.002581
   145    -0.000141
   146     0.006804
   147    -0.000379
   148     0.000000
   149    -0.000304
   150     0.015011
   151     0.016302
   152     0.001100
   153    -0.000996
   154    -0.000107
Sym=    27a
Ene=   -0.595396E+00
Spin= Alpha
Occup= 1.970495
     1     0.001530
     2     0.003115
     3     0.012894
     4    -0.002420
     5    -0.003945
     6     0.002442
     7     0.006793
     8     0.003755
     9    -0.001618
    10     0.000180
    11     0.000049
    12    -0.000063
    13     0.000059
    14    -0.000457
    15    -0.000075
    16     0.000725
    17     0.001536
    18    -0.009463
    19    -0.006011
    20     0.000562
    21     0.004355
    22     0.006686
    23     0.002957
    24    -0.007429
    25     0.001312
    26    -0.000217
    27    -0.001132
    28     0.000318
    29     0.000504
    30     0.000392
    31    -0.001928
    32    -0.011509
    33     0.000166
    34     0.000326
    35     0.000343
    36     0.007062
    37     0.014463
    38     0.021536
    39    -0.022078
    40    -0.015961
    41    -0.008862
    42     0.019633
    43     0.017715
    44     0.004313
    45    -0.001008
    46    -0.000194
    47     0.000079
    48    -0.000683
    49    -0.000432
    50    -0.000124
    51     0.009155
    52    -0.003314
    53     0.001143
    54    -0.000976
    55    -0.000865
    56     0.030477
    57     0.021441
    58    -0.000745
    59     0.002246
    60     0.005879
    61    -0.005231
    62    -0.010924
    63    -0.000744
    64    -0.000167
    65    -0.000000
    66    -0.072348
    67    -0.121683
    68     0.007403
    69     0.076295
    70    -0.128617
    71    -0.240073
    72     0.008567
    73     0.004231
    74     0.059103
    75     0.005478
    76    -0.004687
    77    -0.022604
    78     0.004957
    79     0.008425
    80    -0.023685
    81     0.021079
    82     0.046473
    83    -0.002970
    84     0.004050
    85     0.004745
    86     0.015966
    87     0.032632
    88     0.075994
    89    -0.050275
    90    -0.012139
    91     0.023243
    92     0.048110
    93     0.007685
    94    -0.039514
    95     0.003878
    96     0.005974
    97    -0.000827
    98     0.001940
    99     0.003073
   100    -0.001137
   101    -0.017389
   102    -0.026381
   103     0.001314
   104     0.000553
   105    -0.000108
   106    -0.016002
   107    -0.094336
   108    -0.148546
   109    -0.005126
   110     0.047868
   111     0.073400
   112    -0.024732
   113    -0.077543
   114    -0.119856
   115     0.042988
   116    -0.020759
   117    -0.032113
   118     0.010064
   119    -0.005331
   120    -0.042453
   121     0.018292
   122    -0.045024
   123     0.014782
   124     0.023603
   125     0.019903
   126     0.030837
   127    -0.000531
   128    -0.002288
   129     0.001132
   130     0.000425
   131     0.000552
   132     0.004340
   133     0.001774
   134    -0.002035
   135     0.000214
   136     0.001845
   137    -0.002576
   138    -0.001274
   139    -0.000085
   140    -0.000026
   141    -0.000173
   142     0.000070
   143     0.000039
   144    -0.000035
   145    -0.437332
   146    -0.247040
   147     0.012094
   148     0.009943
   149    -0.013648
   150    -0.001869
   151     0.000923
   152     0.000224
   153     0.000056
   154    -0.000027
Sym=    28a
Ene=   -0.562313E+00
Spin= Alpha
Occup= 1.970330
     1     0.000814
     2     0.002691
     3    -0.006315
     4     0.000836
     5    -0.003218
     6     0.006476
     7    -0.004262
     8    -0.002340
     9    -0.007653
    10    -0.001179
    11     0.000437
    12     0.001456
    13     0.000065
    14    -0.001178
    15    -0.000650
    16    -0.024455
    17    -0.058692
    18    -0.040357
    19     0.029701
    20    -0.017412
    21     0.027256
    22    -0.030413
    23     0.013495
    24    -0.023563
    25    -0.005150
    26    -0.007842
    27     0.003676
    28     0.002187
    29     0.003221
    30    -0.001366
    31     0.000252
    32    -0.000108
    33     0.000177
    34     0.000035
    35    -0.000334
    36     0.003064
    37     0.005759
    38     0.013163
    39     0.000130
    40    -0.003341
    41    -0.013010
    42    -0.001643
    43     0.004374
    44     0.014622
    45     0.000093
    46    -0.000202
    47    -0.000553
    48    -0.000014
    49     0.000075
    50    -0.000252
    51    -0.012027
    52    -0.018231
    53    -0.001180
    54     0.004519
    55     0.007027
    56    -0.014827
    57    -0.019654
    58    -0.000120
    59    -0.000021
    60     0.000385
    61     0.017828
    62     0.040923
    63    -0.002762
    64     0.000734
    65    -0.001669
    66    -0.000613
    67    -0.003732
    68     0.011326
    69     0.009236
    70    -0.002350
    71    -0.010781
    72    -0.004236
    73    -0.010297
    74    -0.004254
    75    -0.000287
    76    -0.003794
    77     0.004437
    78    -0.001772
    79    -0.007282
    80     0.000362
    81    -0.009444
    82    -0.012450
    83    -0.000195
    84     0.000078
    85     0.000185
    86     0.122580
    87     0.234455
    88     0.051995
    89     0.029872
    90    -0.119494
    91    -0.319023
    92    -0.039965
    93     0.065015
    94     0.143602
    95     0.007420
    96     0.008084
    97     0.027374
    98    -0.001239
    99    -0.010629
   100     0.009225
   101     0.421871
   102     0.159990
   103     0.001860
   104    -0.005382
   105    -0.019691
   106    -0.004057
   107    -0.024656
   108    -0.023804
   109     0.007988
   110    -0.015410
   111     0.008847
   112     0.013505
   113     0.025589
   114    -0.013306
   115    -0.024825
   116     0.003119
   117     0.002390
   118    -0.006283
   119    -0.006485
   120    -0.002582
   121    -0.001563
   122     0.007338
   123     0.007914
   124    -0.006716
   125     0.004726
   126     0.008135
   127     0.000508
   128    -0.000124
   129    -0.000766
   130     0.000364
   131     0.000856
   132    -0.000251
   133     0.003076
   134    -0.002086
   135     0.003251
   136     0.004461
   137    -0.003856
   138     0.002168
   139     0.000036
   140     0.000220
   141    -0.000020
   142     0.000131
   143    -0.000135
   144    -0.000048
   145     0.019021
   146     0.029463
   147     0.000018
   148    -0.000973
   149    -0.000865
   150    -0.023161
   151    -0.020178
   152     0.000989
   153     0.000533
   154     0.001184
Sym=    29a
Ene=   -0.506312E+00
Spin= Alpha
Occup= 1.969164
     1     0.000289
     2     0.000284
     3     0.002433
     4    -0.000682
     5     0.001186
     6    -0.000772
     7     0.002105
     8    -0.000342
     9     0.002281
    10     0.000120
    11    -0.000237
    12    -0.000205
    13     0.000125
    14     0.000098
    15    -0.000008
    16     0.001967
    17     0.002780
    18     0.024806
    19    -0.002962
    20     0.003306
    21    -0.002941
    22     0.011979
    23    -0.011435
    24     0.005946
    25    -0.000047
    26    -0.000412
    27     0.000225
    28     0.000405
    29    -0.000006
    30     0.000222
    31     0.002599
    32     0.017525
    33     0.000422
    34     0.000458
    35    -0.000341
    36    -0.009267
    37    -0.020418
    38    -0.026446
    39     0.023472
    40    -0.014934
    41     0.018358
    42    -0.022436
    43     0.017831
    44    -0.016893
    45     0.000588
    46    -0.000389
    47    -0.000158
    48    -0.000926
    49     0.000904
    50    -0.000784
    51    -0.012668
    52    -0.000291
    53     0.000660
    54    -0.001952
    55    -0.000566
    56    -0.006675
    57     0.008278
    58     0.000229
    59    -0.000331
    60     0.000649
    61     0.001285
    62     0.019215
    63     0.000572
    64    -0.001005
    65    -0.000014
    66    -0.008639
    67    -0.016561
    68    -0.004463
    69     0.002929
    70    -0.016230
    71    -0.011912
    72    -0.020381
    73     0.034105
    74    -0.015472
    75    -0.001912
    76     0.003890
    77    -0.003319
    78    -0.002072
    79    -0.000543
    80    -0.002228
    81     0.009951
    82    -0.003683
    83    -0.000586
    84     0.001154
    85    -0.000069
    86    -0.008251
    87    -0.009034
    88    -0.064817
    89     0.001986
    90    -0.017727
    91    -0.008601
    92    -0.007963
    93     0.034917
    94     0.060689
    95    -0.000551
    96    -0.000465
    97    -0.003226
    98    -0.001303
    99     0.001169
   100    -0.000828
   101     0.004198
   102    -0.025076
   103     0.000040
   104     0.000164
   105    -0.000475
   106     0.032439
   107     0.194201
   108     0.318427
   109     0.064437
   110    -0.070344
   111     0.102899
   112    -0.031827
   113     0.110026
   114    -0.161965
   115     0.055854
   116     0.056754
   117    -0.059094
   118     0.037855
   119     0.023128
   120     0.056012
   121    -0.000886
   122    -0.050636
   123     0.006105
   124    -0.022199
   125     0.420758
   126     0.276015
   127    -0.009297
   128     0.013206
   129    -0.004000
   130    -0.000566
   131    -0.001150
   132    -0.004511
   133    -0.002197
   134    -0.000415
   135     0.000617
   136    -0.001435
   137     0.001289
   138     0.003110
   139    -0.000015
   140     0.000034
   141    -0.000009
   142    -0.000088
   143    -0.000079
   144     0.000145
   145    -0.020877
   146    -0.032523
   147     0.001341
   148    -0.002164
   149    -0.000130
   150    -0.001420
   151    -0.006347
   152    -0.000029
   153    -0.000003
   154     0.000278
Sym=    30a
Ene=   -0.785034E+00
Spin= Alpha
Occup= 1.966295
     1     0.019269
     2     0.042369
     3    -0.134993
     4    -0.104594
     5     0.353604
     6     0.248476
     7     0.086283
     8    -0.143874
     9    -0.110099
    10    -0.010721
    11     0.022496
    12     0.005823
    13    -0.016914
    14    -0.011595
    15     0.030642
    16    -0.010311
    17    -0.024267
    18     0.002376
    19    -0.041664
    20    -0.031982
    21    -0.006746
    22     0.036482
    23     0.008245
    24    -0.001106
    25    -0.010348
    26     0.005429
    27    -0.001657
    28     0.004254
    29     0.005429
    30     0.003063
    31    -0.083457
    32    -0.040117
    33     0.015833
    34     0.006588
    35     0.000616
    36     0.003149
    37     0.005278
    38     0.014547
    39     0.009333
    40     0.000835
    41    -0.001698
    42    -0.012291
    43     0.001272
    44     0.003440
    45    -0.000861
    46    -0.000349
    47    -0.000236
    48    -0.000321
    49    -0.000222
    50     0.000120
    51     0.004113
    52     0.016939
    53    -0.001216
    54    -0.000048
    55    -0.000865
    56    -0.000680
    57     0.001305
    58     0.000170
    59    -0.000108
    60     0.000139
    61    -0.021622
    62    -0.013157
    63    -0.000579
    64     0.001722
    65    -0.001319
    66    -0.000474
    67     0.003785
    68    -0.032067
    69    -0.000572
    70     0.001464
    71     0.000989
    72     0.010727
    73    -0.003662
    74    -0.001734
    75     0.000297
    76     0.000335
    77     0.000727
    78    -0.000146
    79     0.000249
    80     0.000060
    81    -0.000968
    82     0.010361
    83    -0.000344
    84    -0.000027
    85    -0.000013
    86    -0.000312
    87     0.001354
    88    -0.018843
    89    -0.001149
    90    -0.000727
    91    -0.004165
    92     0.013425
    93     0.020348
    94     0.022528
    95     0.000201
    96     0.002072
    97    -0.002226
    98    -0.000455
    99    -0.000828
   100     0.000393
   101     0.000375
   102    -0.012649
   103     0.000174
   104    -0.000375
   105     0.000003
   106    -0.000083
   107    -0.000725
   108     0.005153
   109     0.008489
   110    -0.000001
   111     0.000043
   112    -0.001074
   113    -0.002491
   114     0.002459
   115     0.003341
   116    -0.007928
   117     0.009890
   118    -0.000018
   119     0.003400
   120     0.001048
   121    -0.000222
   122    -0.000241
   123    -0.000536
   124     0.000456
   125    -0.000362
   126     0.005194
   127    -0.000044
   128    -0.000013
   129     0.000069
   130     0.019714
   131     0.035297
   132    -0.010287
   133     0.100077
   134     0.408134
   135     0.234596
   136     0.103313
   137     0.245612
   138     0.131394
   139    -0.006589
   140     0.020145
   141    -0.002810
   142     0.014741
   143     0.007915
   144     0.018987
   145     0.002242
   146     0.001997
   147    -0.000108
   148     0.000001
   149    -0.000017
   150     0.046570
   151     0.025883
   152     0.002749
   153    -0.002324
   154    -0.000883
Sym=    31a
Ene=   -0.714272E+00
Spin= Alpha
Occup= 1.965275
     1     0.017050
     2     0.043712
     3     0.179284
     4     0.436266
     5     0.076776
     6    -0.088777
     7    -0.216455
     8     0.019214
     9     0.075116
    10    -0.033370
    11     0.012780
    12     0.014198
    13    -0.011423
    14     0.011368
    15     0.001455
    16    -0.059534
    17    -0.123245
    18    -0.119257
    19    -0.414821
    20    -0.147210
    21    -0.024700
    22     0.272012
    23     0.091285
    24     0.027017
    25    -0.026977
    26    -0.003171
    27     0.004181
    28    -0.016410
    29    -0.004837
    30    -0.002734
    31     0.036111
    32     0.018266
    33     0.000173
    34     0.001098
    35     0.000199
    36    -0.002692
    37    -0.005655
    38    -0.010812
    39    -0.004307
    40     0.003377
    41     0.003105
    42     0.005255
    43    -0.003004
    44    -0.002353
    45     0.000482
    46     0.000064
    47    -0.000172
    48    -0.000134
    49    -0.000209
    50    -0.000002
    51     0.012254
    52    -0.024114
    53     0.000287
    54     0.001538
    55    -0.000313
    56     0.013242
    57    -0.006828
    58     0.000860
    59     0.000070
    60    -0.000501
    61     0.077647
    62     0.040977
    63     0.004697
    64     0.000927
    65     0.009352
    66    -0.008342
    67    -0.015182
    68     0.007616
    69    -0.022214
    70    -0.003826
    71     0.003524
    72     0.019098
    73    -0.010152
    74     0.033775
    75     0.000373
    76    -0.003889
    77     0.000448
    78    -0.001840
    79     0.000790
    80     0.000794
    81    -0.011012
    82     0.004603
    83    -0.001103
    84    -0.000067
    85    -0.000703
    86     0.021180
    87     0.021650
    88     0.001480
    89     0.058225
    90    -0.029291
    91     0.040214
    92    -0.059704
    93    -0.034381
    94    -0.014273
    95     0.002005
    96     0.001729
    97     0.006284
    98    -0.005946
    99     0.010385
   100    -0.006904
   101    -0.001524
   102     0.004842
   103     0.000091
   104     0.000845
   105    -0.001469
   106    -0.000787
   107    -0.004949
   108    -0.016198
   109     0.005935
   110     0.000611
   111     0.003709
   112     0.003788
   113     0.000915
   114    -0.008948
   115    -0.007312
   116    -0.007086
   117    -0.000160
   118    -0.002186
   119     0.001020
   120    -0.002838
   121    -0.001968
   122    -0.000627
   123    -0.001228
   124    -0.003355
   125     0.000492
   126     0.003759
   127     0.000170
   128    -0.000130
   129    -0.000137
   130    -0.005766
   131    -0.013568
   132    -0.028960
   133     0.029607
   134     0.047478
   135     0.015261
   136     0.042859
   137     0.042847
   138     0.008648
   139     0.000008
   140    -0.000248
   141     0.001421
   142    -0.007643
   143    -0.005347
   144     0.003503
   145     0.001115
   146     0.026693
   147     0.000019
   148     0.000011
   149    -0.000278
   150     0.039702
   151     0.024710
   152     0.007650
   153    -0.003476
   154    -0.001479
Sym=    32a
Ene=   -0.267566E+00
Spin= Alpha
Occup= 1.000000
     1     0.000600
     2     0.004923
     3    -0.016189
     4    -0.162167
     5     0.342173
     6    -0.554027
     7     0.109729
     8    -0.231420
     9     0.388908
    10     0.007692
    11    -0.000961
    12    -0.005085
    13    -0.007808
    14     0.013219
    15     0.004312
    16    -0.007146
    17    -0.020608
    18    -0.022484
    19     0.038538
    20    -0.045393
    21     0.056624
    22    -0.015507
    23     0.023437
    24    -0.022069
    25    -0.009996
    26     0.003864
    27     0.000899
    28     0.008596
    29    -0.017517
    30    -0.005610
    31    -0.005674
    32     0.012724
    33    -0.002953
    34     0.007220
    35    -0.011234
    36    -0.000134
    37    -0.001082
    38     0.003487
    39     0.000068
    40     0.006639
    41    -0.006928
    42    -0.000691
    43    -0.003332
    44     0.003556
    45    -0.000319
    46    -0.000110
    47    -0.000385
    48    -0.000306
    49     0.000483
    50    -0.000072
    51     0.001485
    52    -0.015683
    53     0.000563
    54    -0.001275
    55     0.001019
    56    -0.009848
    57    -0.001791
    58    -0.000063
    59    -0.000353
    60     0.000709
    61     0.083038
    62     0.077746
    63    -0.004090
    64     0.002912
    65     0.003976
    66     0.003973
    67     0.010937
    68     0.057980
    69     0.022661
    70     0.009035
    71    -0.006662
    72    -0.034627
    73    -0.002825
    74    -0.015512
    75     0.000650
    76     0.002049
    77     0.000463
    78     0.001643
    79    -0.000052
    80    -0.001145
    81     0.002414
    82    -0.008671
    83    -0.000583
    84     0.000313
    85     0.000341
    86    -0.016235
    87    -0.028647
    88    -0.038261
    89    -0.066725
    90     0.030902
    91    -0.035232
    92     0.007430
    93    -0.014879
    94     0.073336
    95    -0.006030
    96    -0.002590
    97    -0.004324
    98     0.006291
    99    -0.010540
   100     0.003532
   101    -0.000031
   102    -0.026570
   103     0.000330
   104     0.000199
   105     0.000681
   106     0.001028
   107     0.006023
   108     0.033683
   109    -0.027138
   110     0.001705
   111    -0.003333
   112    -0.004000
   113    -0.010574
   114     0.010149
   115     0.010556
   116     0.013256
   117    -0.011099
   118     0.002324
   119    -0.000490
   120     0.005479
   121     0.006056
   122    -0.000947
   123    -0.001197
   124     0.003971
   125    -0.003899
   126    -0.009475
   127     0.000072
   128    -0.000014
   129     0.000268
   130     0.001340
   131     0.002254
   132     0.010851
   133    -0.057270
   134     0.136715
   135    -0.214239
   136    -0.055804
   137     0.137496
   138    -0.202627
   139    -0.002868
   140    -0.007634
   141     0.010286
   142     0.005787
   143    -0.003442
   144     0.003643
   145    -0.008066
   146    -0.019894
   147    -0.000227
   148     0.000072
   149    -0.000313
   150     0.027722
   151     0.011936
   152    -0.001005
   153    -0.000063
   154    -0.006013
Sym=    33a
Ene=   -0.496719E-01
Spin= Alpha
Occup= 0.032667
     1    -0.121813
     2    -0.384103
     3    -0.057573
     4     0.665599
     5     0.276466
     6    -0.013912
     7    -0.126911
     8    -0.069761
     9    -0.012514
    10     0.061937
    11     0.035773
    12     0.027619
    13     0.015822
    14     0.000985
    15     0.003588
    16     0.168791
    17     0.581356
    18     0.002076
    19     0.580198
    20     0.271545
    21    -0.004771
    22    -0.088969
    23    -0.064857
    24     0.008649
    25    -0.099683
    26    -0.058129
    27    -0.059818
    28    -0.018729
    29     0.012001
    30     0.001718
    31     0.067890
    32     0.005752
    33    -0.006515
    34     0.000988
    35     0.002223
    36    -0.003883
    37    -0.010861
    38    -0.004037
    39    -0.021164
    40     0.004059
    41     0.009584
    42     0.002479
    43    -0.000954
    44     0.000615
    45     0.003048
    46     0.001713
    47     0.002117
    48    -0.000137
    49    -0.000055
    50     0.000150
    51    -0.027115
    52    -0.002306
    53    -0.000197
    54    -0.002587
    55     0.000166
    56    -0.012849
    57     0.001424
    58     0.000057
    59    -0.000190
    60     0.001796
    61    -0.032374
    62     0.016141
    63    -0.019933
    64    -0.009197
    65    -0.004346
    66     0.012134
    67     0.046139
    68    -0.050406
    69     0.046541
    70    -0.001960
    71     0.000177
    72     0.008981
    73     0.005178
    74     0.010653
    75    -0.002035
    76    -0.002708
    77    -0.006306
    78     0.004494
    79    -0.001371
    80    -0.000731
    81     0.016575
    82     0.008540
    83    -0.001109
    84    -0.003081
    85     0.000158
    86    -0.004931
    87    -0.008114
    88     0.005776
    89    -0.039783
    90    -0.001057
    91    -0.013606
    92     0.001698
    93     0.007125
    94     0.004093
    95     0.023349
    96    -0.005327
    97    -0.003813
    98     0.005378
    99    -0.002191
   100     0.015549
   101     0.001083
   102    -0.004450
   103     0.001816
   104     0.001139
   105    -0.000742
   106     0.000919
   107     0.006936
   108     0.028367
   109    -0.002177
   110     0.001974
   111    -0.004355
   112    -0.001815
   113    -0.006454
   114     0.012548
   115     0.005112
   116    -0.003783
   117     0.004881
   118     0.004079
   119    -0.005698
   120    -0.000145
   121    -0.004085
   122    -0.002993
   123     0.000167
   124     0.003058
   125     0.000905
   126     0.003830
   127    -0.000187
   128     0.000156
   129     0.000263
   130    -0.023412
   131    -0.073200
   132    -0.043470
   133     0.087897
   134     0.039797
   135    -0.000347
   136    -0.001953
   137     0.002900
   138     0.002734
   139     0.015602
   140     0.005403
   141     0.013952
   142    -0.027396
   143    -0.020055
   144     0.007462
   145    -0.007043
   146     0.013407
   147    -0.001878
   148     0.001270
   149    -0.000643
   150     0.005273
   151     0.008275
   152    -0.016506
   153    -0.009387
   154    -0.000771
Sym=    34a
Ene=   -0.536585E-01
Spin= Alpha
Occup= 0.032130
     1    -0.164068
     2    -0.538544
     3    -0.063207
     4     0.056415
     5    -0.580127
     6    -0.372496
     7    -0.000885
     8     0.134002
     9     0.084267
    10     0.055986
    11     0.075898
    12     0.054386
    13     0.011608
    14     0.004438
    15     0.017644
    16     0.015022
    17     0.047773
    18    -0.000572
    19     0.031337
    20     0.059348
    21     0.018812
    22    -0.024982
    23     0.015204
    24     0.013798
    25     0.011415
    26    -0.025163
    27    -0.002024
    28    -0.016022
    29    -0.015093
    30    -0.009099
    31    -0.062090
    32     0.009711
    33     0.010217
    34     0.012631
    35     0.004903
    36     0.003948
    37     0.012441
    38    -0.001441
    39     0.017407
    40     0.002776
    41    -0.005947
    42     0.000441
    43    -0.000901
    44    -0.000516
    45    -0.002476
    46    -0.000935
    47    -0.001214
    48    -0.000005
    49     0.000243
    50    -0.000078
    51    -0.004361
    52    -0.005345
    53     0.000372
    54     0.000446
    55     0.001148
    56    -0.000031
    57     0.000133
    58    -0.000334
    59    -0.000106
    60    -0.000190
    61     0.029114
    62    -0.004018
    63     0.000984
    64    -0.002876
    65     0.002699
    66     0.000769
    67    -0.001461
    68    -0.002619
    69    -0.000138
    70    -0.001767
    71    -0.000413
    72    -0.001414
    73     0.006374
    74     0.001867
    75    -0.001139
    76    -0.000454
    77    -0.000825
    78    -0.000155
    79    -0.000569
    80    -0.000123
    81     0.002200
    82    -0.003630
    83     0.000431
    84    -0.000365
    85    -0.000011
    86     0.001999
    87     0.005171
    88     0.009576
    89     0.004277
    90    -0.000091
    91     0.004910
    92     0.011131
    93    -0.018799
    94    -0.034630
    95    -0.001412
    96    -0.004968
    97     0.002584
    98     0.002022
    99     0.002100
   100    -0.000138
   101     0.001363
   102     0.026028
   103    -0.000714
   104     0.000460
   105    -0.000411
   106    -0.000269
   107    -0.002103
   108    -0.017146
   109    -0.002406
   110    -0.001548
   111     0.000499
   112    -0.000419
   113     0.007328
   114    -0.004274
   115    -0.000675
   116     0.004696
   117    -0.000756
   118    -0.001875
   119    -0.000824
   120     0.001973
   121     0.000314
   122     0.000649
   123     0.000093
   124    -0.000222
   125     0.001200
   126     0.000222
   127     0.000019
   128    -0.000058
   129    -0.000016
   130     0.157409
   131     0.489532
   132     0.124605
   133     0.061763
   134     0.579832
   135     0.351131
   136    -0.010106
   137     0.100896
   138     0.064879
   139    -0.048267
   140    -0.083454
   141    -0.056680
   142     0.010100
   143     0.010737
   144    -0.039959
   145    -0.001340
   146     0.000686
   147     0.000290
   148     0.000016
   149     0.000024
   150    -0.067220
   151    -0.006370
   152    -0.005398
   153     0.006261
   154     0.001989
Sym=    35a
Ene=   -0.221757E-01
Spin= Alpha
Occup= 0.022766
     1     0.001548
     2    -0.001376
     3     0.053564
     4     0.003441
     5    -0.003272
     6     0.007262
     7     0.030351
     8    -0.016417
     9    -0.008662
    10    -0.000158
    11    -0.001820
    12    -0.002616
    13    -0.000989
    14     0.000650
    15     0.001604
    16     0.019757
    17     0.098428
    18    -0.119209
    19    -0.047882
    20     0.043830
    21    -0.019691
    22    -0.019881
    23     0.067221
    24     0.004261
    25    -0.007365
    26    -0.008543
    27    -0.001407
    28     0.003550
    29     0.000468
    30    -0.001274
    31     0.006825
    32     0.037352
    33    -0.009283
    34     0.002092
    35    -0.007540
    36    -0.007098
    37    -0.031259
    38     0.053708
    39     0.053867
    40    -0.085573
    41    -0.013989
    42     0.057346
    43    -0.007917
    44     0.013485
    45     0.007708
    46    -0.007325
    47    -0.001120
    48    -0.013756
    49     0.007931
    50    -0.014747
    51    -0.105195
    52    -0.097883
    53     0.019366
    54    -0.023042
    55    -0.001383
    56    -0.016799
    57     0.102385
    58     0.003752
    59     0.003394
    60     0.004319
    61     0.013328
    62    -0.007324
    63    -0.003268
    64     0.001153
    65    -0.000664
    66    -0.021737
    67    -0.078288
    68    -0.197589
    69     0.037407
    70    -0.123920
    71     0.013343
    72     0.018722
    73     0.142597
    74    -0.068456
    75    -0.001127
    76     0.068447
    77     0.001267
    78    -0.007138
    79    -0.006116
    80    -0.002702
    81    -0.007505
    82    -0.085436
    83    -0.005327
    84     0.002672
    85    -0.004150
    86    -0.036181
    87    -0.154493
    88     0.277089
    89     0.023505
    90    -0.027035
    91    -0.036901
    92     0.026167
    93    -0.011788
    94     0.010015
    95     0.033209
    96     0.037752
    97     0.028487
    98    -0.028971
    99    -0.003349
   100     0.010996
   101     0.000370
   102    -0.048459
   103     0.001759
   104    -0.000763
   105     0.006755
   106     0.075714
   107     0.664529
   108     2.336086
   109    -0.252666
   110    -0.128417
   111     0.149680
   112    -0.092021
   113     0.473898
   114    -0.534649
   115     0.328817
   116     0.019751
   117     0.044334
   118     0.031940
   119    -0.522535
   120    -0.449258
   121    -0.558978
   122    -0.077908
   123    -0.031516
   124    -0.042755
   125    -0.814279
   126    -0.200760
   127    -0.002894
   128     0.020264
   129     0.008549
   130    -0.002580
   131    -0.004067
   132    -0.042244
   133    -0.001206
   134    -0.001192
   135     0.009606
   136    -0.011175
   137    -0.007979
   138    -0.005102
   139     0.002203
   140     0.002753
   141     0.002182
   142    -0.000359
   143    -0.000845
   144     0.000230
   145    -0.077995
   146    -0.020802
   147     0.001638
   148    -0.026441
   149    -0.001793
   150    -0.027478
   151    -0.008027
   152     0.002491
   153     0.004304
   154     0.003179
Sym=    36a
Ene=   -0.149093E-01
Spin= Alpha
Occup= 0.012313
     1     0.001297
     2    -0.009534
     3     0.102227
     4     0.010571
     5    -0.026481
     6     0.018393
     7     0.041041
     8     0.003000
     9     0.015362
    10     0.013879
    11    -0.005435
    12    -0.006065
    13    -0.002018
    14    -0.002069
    15    -0.000071
    16     0.072197
    17     0.266930
    18     0.030367
    19    -0.148320
    20     0.090858
    21    -0.095923
    22     0.110551
    23    -0.023413
    24     0.002298
    25    -0.045185
    26    -0.048400
    27    -0.033622
    28     0.018254
    29    -0.001283
    30     0.009700
    31     0.038819
    32    -0.010033
    33    -0.004170
    34     0.002331
    35     0.003048
    36    -0.004087
    37    -0.009810
    38    -0.025034
    39     0.043919
    40     0.005382
    41     0.025245
    42    -0.009920
    43     0.023304
    44     0.044720
    45     0.009475
    46    -0.001195
    47    -0.001885
    48     0.001790
    49     0.007106
    50    -0.000783
    51    -0.070023
    52     0.036663
    53     0.008601
    54     0.030808
    55     0.040821
    56     0.071514
    57    -0.003380
    58     0.001879
    59    -0.001179
    60    -0.001954
    61    -0.027783
    62    -0.006800
    63     0.000624
    64    -0.005957
    65    -0.000793
    66    -0.016544
    67    -0.120412
    68     0.437272
    69     0.065930
    70    -0.008320
    71     0.172373
    72    -0.142274
    73    -0.015682
    74     0.014704
    75     0.016105
    76     0.014276
    77     0.040663
    78     0.005698
    79    -0.023793
    80    -0.018455
    81    -0.024926
    82    -0.065506
    83    -0.005533
    84    -0.001666
    85    -0.016413
    86     0.248515
    87     1.218761
    88    -0.753015
    89    -0.183086
    90     0.045213
    91    -0.868064
    92    -0.000950
    93    -0.195061
    94    -0.024595
    95    -0.244918
    96    -0.268795
    97    -0.158382
    98     0.054573
    99     0.004511
   100    -0.035862
   101    -0.791926
   102     0.115268
   103     0.061158
   104    -0.078223
   105     0.027314
   106    -0.003453
   107    -0.021611
   108    -0.082418
   109     0.013008
   110    -0.026911
   111     0.024063
   112     0.066734
   113     0.073676
   114    -0.075915
   115    -0.207926
   116    -0.002032
   117    -0.005359
   118     0.022521
   119    -0.014949
   120     0.000131
   121     0.017603
   122     0.009576
   123     0.060653
   124    -0.019540
   125     0.008704
   126    -0.017278
   127     0.002037
   128    -0.002601
   129    -0.006825
   130    -0.005686
   131    -0.022011
   132    -0.005029
   133    -0.018560
   134     0.005601
   135     0.005573
   136     0.001861
   137    -0.006943
   138     0.006422
   139     0.007645
   140     0.002189
   141     0.000436
   142    -0.001730
   143    -0.003727
   144     0.001235
   145    -0.046630
   146    -0.056231
   147    -0.010639
   148     0.007755
   149    -0.001865
   150     0.016608
   151     0.087921
   152     0.001757
   153    -0.010447
   154     0.003357
Sym=    37a
Ene=   -0.477016E-02
Spin= Alpha
Occup= 0.003623
     1     0.007856
     2     0.032545
     3    -0.010671
     4    -0.011555
     5     0.005322
     6    -0.023622
     7    -0.005043
     8     0.026174
     9    -0.011993
    10    -0.019093
    11    -0.001012
    12    -0.013826
    13     0.006511
    14    -0.008766
    15    -0.007572
    16     0.014960
    17     0.044344
    18     0.150450
    19    -0.001773
    20     0.009167
    21     0.012450
    22     0.075615
    23    -0.049019
    24    -0.046165
    25    -0.006463
    26    -0.023202
    27    -0.038398
    28    -0.010414
    29     0.003001
    30     0.013019
    31     0.001594
    32     0.067071
    33    -0.000249
    34    -0.002033
    35     0.004163
    36     0.009020
    37     0.032045
    38     0.009932
    39    -0.007836
    40    -0.049368
    41     0.017836
    42    -0.015730
    43    -0.096676
    44     0.033865
    45    -0.013465
    46    -0.011565
    47    -0.018027
    48     0.002331
    49     0.009338
    50    -0.004244
    51    -0.016831
    52     0.118024
    53    -0.005141
    54     0.007146
    55    -0.013719
    56    -0.096521
    57     0.008261
    58     0.028753
    59    -0.060460
    60    -0.047510
    61    -0.063075
    62     0.019992
    63     0.020570
    64    -0.001370
    65    -0.014971
    66     0.030948
    67     0.081969
    68     0.345792
    69     0.151270
    70    -0.066307
    71    -0.181250
    72    -0.073814
    73    -0.238667
    74    -0.214972
    75     0.144045
    76    -0.170620
    77    -0.051520
    78     0.016193
    79    -0.071584
    80    -0.395241
    81    -0.172242
    82     0.106155
    83     0.009198
    84     0.009077
    85    -0.114449
    86    -0.075822
    87    -0.284528
    88    -0.414419
    89     0.158674
    90    -0.031969
    91    -0.156199
    92    -0.077677
    93     0.061481
    94     0.251648
    95     0.093572
    96     0.071040
    97     0.091258
    98    -0.041370
    99    -0.007295
   100     0.024891
   101    -0.080100
   102     0.002105
   103    -0.004483
   104     0.021043
   105     0.021317
   106     0.001886
   107     0.005788
   108    -0.077833
   109    -0.238410
   110     0.014327
   111    -0.069972
   112    -0.027633
   113    -0.116663
   114     0.256882
   115     0.130896
   116     0.000714
   117    -0.153582
   118    -0.037475
   119     0.141899
   120    -0.116116
   121     0.100485
   122    -0.059996
   123    -0.089346
   124     0.102498
   125     0.096952
   126     0.010560
   127     0.044877
   128     0.036490
   129    -0.027799
   130    -0.000024
   131     0.000096
   132    -0.004708
   133    -0.001168
   134    -0.000041
   135    -0.006107
   136    -0.000822
   137     0.011413
   138     0.030382
   139    -0.000531
   140     0.001080
   141     0.001857
   142     0.000228
   143     0.002167
   144    -0.001582
   145    -0.376824
   146     0.620119
   147     0.265248
   148     0.166544
   149    -0.307250
   150     0.016572
   151     0.011828
   152    -0.004801
   153    -0.010774
   154    -0.000831
Sym=    38a
Ene=   -0.727966E-02
Spin= Alpha
Occup= 0.003204
     1     0.023125
     2     0.054566
     3    -0.170745
     4    -0.000270
     5     0.015909
     6     0.026052
     7     0.020672
     8     0.043965
     9     0.053423
    10     0.045880
    11    -0.098041
    12    -0.053177
    13    -0.022381
    14    -0.048850
    15    -0.013327
    16     0.010164
    17     0.003042
    18     0.168219
    19    -0.052444
    20    -0.027014
    21    -0.010836
    22    -0.067741
    23    -0.104649
    24    -0.060556
    25    -0.027952
    26    -0.061553
    27    -0.010623
    28    -0.023453
    29    -0.019384
    30    -0.038127
    31     0.158879
    32     0.041284
    33     0.052133
    34     0.155042
    35     0.088601
    36    -0.024704
    37    -0.082807
    38    -0.013041
    39    -0.024448
    40    -0.020256
    41    -0.006859
    42    -0.043798
    43    -0.034335
    44    -0.020448
    45     0.036181
    46     0.044361
    47     0.040962
    48     0.002323
    49     0.003032
    50    -0.005650
    51     0.023121
    52     0.051456
    53     0.002176
    54     0.003204
    55     0.002997
    56     0.007403
    57     0.027462
    58    -0.004558
    59    -0.000483
    60     0.000784
    61    -0.043534
    62    -0.014846
    63     0.011376
    64     0.026652
    65    -0.005848
    66    -0.001549
    67    -0.006574
    68     0.027051
    69    -0.005040
    70    -0.012948
    71     0.001064
    72    -0.037616
    73     0.011946
    74    -0.053537
    75     0.001668
    76    -0.002839
    77     0.001781
    78    -0.001415
    79     0.007398
    80    -0.000937
    81    -0.007082
    82    -0.016964
    83    -0.000780
    84     0.001772
    85    -0.000754
    86     0.008389
    87     0.059599
    88    -0.101884
    89    -0.025322
    90    -0.014310
    91     0.004857
    92     0.010302
    93     0.058278
    94     0.099800
    95    -0.011680
    96    -0.014825
    97    -0.034107
    98    -0.005292
    99    -0.025871
   100    -0.003601
   101     0.001684
   102    -0.039907
   103    -0.006924
   104     0.004279
   105    -0.000434
   106    -0.000036
   107    -0.001494
   108     0.037990
   109    -0.005137
   110    -0.001519
   111    -0.004215
   112    -0.001089
   113    -0.011788
   114     0.022924
   115    -0.005963
   116     0.011702
   117     0.003374
   118     0.010100
   119     0.020288
   120     0.013092
   121    -0.001470
   122     0.005198
   123     0.007766
   124    -0.001017
   125    -0.002991
   126    -0.000580
   127     0.000357
   128     0.001737
   129    -0.002695
   130    -0.038938
   131    -0.126170
   132    -0.036813
   133     0.217733
   134    -0.134480
   135    -0.136986
   136    -0.464391
   137     0.223752
   138     0.250666
   139     0.786585
   140    -0.242210
   141    -0.337695
   142     0.381853
   143    -0.077408
   144    -0.030876
   145    -0.007524
   146    -0.022904
   147     0.000739
   148    -0.001855
   149    -0.000572
   150     0.030281
   151     0.016970
   152    -0.014723
   153    -0.001246
   154    -0.002535
Sym=    39a
Ene=   -0.188338E-01
Spin= Alpha
Occup= 0.018433
     1    -0.004582
     2    -0.013025
     3     0.017037
     4    -0.019068
     5     0.013049
     6    -0.006397
     7     0.004011
     8     0.011120
     9     0.000811
    10     0.007640
    11     0.003779
    12    -0.001639
    13     0.008845
    14    -0.001639
    15     0.000478
    16    -0.038390
    17    -0.150209
    18     0.079333
    19     0.128637
    20    -0.016188
    21     0.036608
    22     0.062317
    23     0.019633
    24    -0.003666
    25     0.040772
    26     0.015412
    27     0.007249
    28     0.004835
    29     0.001220
    30     0.000327
    31    -0.003132
    32     0.005662
    33     0.000182
    34    -0.000927
    35    -0.001763
    36     0.002439
    37     0.016146
    38    -0.014507
    39    -0.001644
    40     0.012237
    41    -0.019609
    42    -0.018924
    43    -0.023565
    44    -0.024269
    45    -0.002234
    46     0.003151
    47    -0.006843
    48     0.001935
    49    -0.003841
    50     0.001680
    51     0.046850
    52     0.039475
    53     0.003704
    54     0.002693
    55     0.000299
    56     0.928524
    57     0.044589
    58    -0.004222
    59    -0.007793
    60    -0.004753
    61    -0.030038
    62    -0.018242
    63     0.003257
    64    -0.000241
    65    -0.006589
    66    -0.286819
    67    -1.367414
    68     0.770426
    69     0.568512
    70    -0.119205
    71     0.510530
    72    -0.161098
    73    -0.078670
    74    -0.078234
    75     0.238236
    76     0.169571
    77     0.235159
    78     0.000078
    79     0.029322
    80     0.021738
    81     0.018716
    82    -0.096921
    83    -0.030646
    84     0.007272
    85    -0.030750
    86     0.026024
    87     0.086923
    88    -0.344946
    89     0.030592
    90    -0.073422
    91     0.045805
    92    -0.084632
    93    -0.050887
    94     0.054583
    95    -0.073090
    96    -0.022111
    97     0.026063
    98     0.004931
    99    -0.023367
   100    -0.018265
   101     0.036528
   102     0.012135
   103    -0.001024
   104    -0.002666
   105    -0.000383
   106     0.002329
   107     0.020812
   108     0.046523
   109    -0.080972
   110    -0.008585
   111    -0.002430
   112     0.011990
   113     0.033184
   114     0.003969
   115    -0.027090
   116    -0.018314
   117    -0.037009
   118    -0.029293
   119    -0.026534
   120     0.032653
   121    -0.034697
   122    -0.030481
   123    -0.013206
   124    -0.036948
   125    -0.027492
   126    -0.008948
   127     0.002340
   128     0.001300
   129    -0.000872
   130     0.002136
   131     0.007117
   132     0.004471
   133     0.003127
   134     0.001295
   135    -0.001720
   136    -0.002642
   137     0.003027
   138     0.001194
   139    -0.002338
   140    -0.002227
   141     0.000448
   142    -0.001372
   143    -0.000322
   144     0.000298
   145    -0.013524
   146    -0.119145
   147    -0.022832
   148     0.002642
   149    -0.039535
   150    -0.006280
   151     0.006770
   152    -0.006746
   153     0.002904
   154    -0.000030
Sym=    40a
Ene=   -0.206259E-01
Spin= Alpha
Occup= 0.019549
     1     0.005500
     2     0.020890
     3    -0.022770
     4     0.013354
     5    -0.010793
     6     0.008678
     7    -0.003230
     8    -0.002210
     9     0.002301
    10    -0.002014
    11    -0.005430
    12    -0.002748
    13    -0.002998
    14     0.000531
    15     0.000740
    16     0.048126
    17     0.176167
    18     0.025749
    19    -0.106717
    20     0.040139
    21    -0.037012
    22    -0.019463
    23    -0.015392
    24     0.004437
    25    -0.039432
    26    -0.034130
    27    -0.021330
    28     0.006124
    29    -0.001466
    30     0.002990
    31     0.008969
    32     0.029013
    33    -0.002385
    34     0.001000
    35     0.001772
    36     0.000223
    37    -0.005117
    38     0.024372
    39    -0.009519
    40     0.022735
    41     0.006056
    42     0.002175
    43     0.005806
    44     0.011350
    45    -0.002784
    46    -0.002207
    47     0.002096
    48     0.005018
    49     0.001949
    50     0.004563
    51    -0.058228
    52     0.050743
    53    -0.000353
    54    -0.007666
    55     0.002710
    56     0.000169
    57    -0.048855
    58     0.013818
    59    -0.039153
    60     0.013457
    61    -0.015451
    62    -0.002180
    63    -0.002569
    64    -0.001154
    65    -0.000923
    66    -0.298502
    67    -1.372724
    68     0.492600
    69    -0.123441
    70     0.664880
    71    -0.183810
    72    -0.039176
    73    -0.095948
    74    -0.009840
    75     0.187741
    76     0.249916
    77     0.229084
    78    -0.005359
    79    -0.012343
    80    -0.009003
    81     0.888613
    82     0.081889
    83    -0.004179
    84     0.003429
    85    -0.000818
    86    -0.039436
    87    -0.112859
    88    -0.149066
    89    -0.038804
    90     0.013283
    91    -0.105722
    92    -0.044303
    93     0.044588
    94     0.109444
    95     0.022953
    96     0.010396
    97     0.009051
    98    -0.043994
    99     0.014077
   100     0.027043
   101     0.021828
   102    -0.073214
   103    -0.002710
   104     0.003117
   105    -0.002555
   106     0.008970
   107     0.062572
   108     0.172632
   109    -0.115572
   110     0.007472
   111    -0.096896
   112    -0.033271
   113    -0.054503
   114     0.294189
   115     0.087644
   116     0.009239
   117    -0.048339
   118    -0.004721
   119    -0.029111
   120    -0.017568
   121    -0.015881
   122     0.041095
   123    -0.019810
   124     0.048092
   125     0.049212
   126     0.023962
   127     0.000048
   128     0.007418
   129     0.004248
   130    -0.001050
   131    -0.002831
   132    -0.006003
   133     0.001902
   134    -0.002349
   135     0.006700
   136    -0.002330
   137     0.004923
   138     0.005250
   139     0.001037
   140     0.001676
   141    -0.000058
   142    -0.000875
   143    -0.001053
   144     0.000476
   145    -0.031735
   146    -0.078034
   147     0.017233
   148    -0.025288
   149    -0.014600
   150    -0.024470
   151    -0.002410
   152     0.003491
   153     0.000746
   154     0.003183
Sym=    41a
Ene=   -0.389437E-02
Spin= Alpha
Occup= 0.001723
     1     0.026471
     2     0.114931
     3    -0.002621
     4    -0.071743
     5    -0.000024
     6    -0.060438
     7    -0.088189
     8     0.008924
     9    -0.102381
    10    -0.089998
    11    -0.010995
    12    -0.032534
    13     0.012451
    14    -0.076234
    15    -0.061645
    16     0.066556
    17     0.261870
    18     0.025340
    19     0.036396
    20     0.045158
    21    -0.049131
    22     0.102029
    23     0.083623
    24    -0.053879
    25    -0.080357
    26    -0.066357
    27    -0.211854
    28    -0.093082
    29     0.025370
    30    -0.008134
    31    -0.006811
    32    -0.050539
    33    -0.014394
    34    -0.000607
    35    -0.001845
    36    -0.010484
    37    -0.008240
    38    -0.111880
    39    -0.026288
    40     0.014697
    41     0.011526
    42    -0.076437
    43     0.035312
    44     0.016579
    45    -0.008663
    46     0.013786
    47     0.086443
    48     0.026470
    49    -0.046032
    50     0.039657
    51     0.102830
    52    -0.490640
    53    -0.045963
    54     0.129014
    55    -0.004268
    56    -0.023751
    57    -0.381229
    58    -0.011550
    59    -0.016703
    60    -0.061765
    61    -0.021215
    62    -0.096434
    63     0.013716
    64    -0.002457
    65     0.009637
    66    -0.491333
    67    -2.347868
    68     0.726928
    69    -0.166261
    70    -0.171889
    71    -0.003590
    72     0.129334
    73    -0.163046
    74     0.007905
    75     0.919813
    76     1.077023
    77     0.861224
    78     0.020432
    79     0.022196
    80    -0.120062
    81    -0.076536
    82    -0.284816
    83     0.042259
    84    -0.067447
    85    -0.028334
    86    -0.422987
    87    -2.098743
    88     0.862212
    89    -0.124962
    90     0.127812
    91    -0.134232
    92    -0.178102
    93    -0.004081
    94    -0.174011
    95     0.925964
    96     0.867602
    97     0.708076
    98     0.044986
    99    -0.223298
   100     0.107993
   101    -0.117881
   102    -0.127139
   103    -0.112237
   104     0.070467
   105    -0.026191
   106     0.008836
   107     0.144156
   108     0.588365
   109    -0.140483
   110    -0.014136
   111     0.061177
   112     0.035133
   113     0.054066
   114    -0.223161
   115    -0.136773
   116    -0.095303
   117     0.004887
   118     0.020893
   119    -0.450309
   120    -0.169358
   121    -0.231068
   122     0.114551
   123     0.136190
   124    -0.063030
   125    -0.056077
   126     0.098827
   127    -0.073553
   128    -0.099576
   129     0.099401
   130    -0.006383
   131    -0.027381
   132    -0.015210
   133    -0.007700
   134     0.011660
   135    -0.009319
   136     0.022957
   137    -0.021886
   138     0.023197
   139     0.007401
   140     0.027993
   141     0.006076
   142    -0.010920
   143     0.010893
   144     0.010480
   145     0.048565
   146    -0.196246
   147    -0.029095
   148     0.007866
   149     0.044445
   150    -0.042746
   151    -0.099757
   152    -0.016657
   153    -0.000131
   154    -0.023372
Sym=    42a
Ene=   -0.269045E-01
Spin= Alpha
Occup= 0.019276
     1     0.003677
     2     0.016068
     3     0.042286
     4    -0.009800
     5     0.035701
     6     0.010070
     7     0.005293
     8    -0.018589
     9    -0.014556
    10    -0.006493
    11     0.003590
    12    -0.000962
    13     0.022261
    14     0.007560
    15    -0.002966
    16     0.224684
    17     0.922817
    18    -0.063272
    19     0.137798
    20    -0.796001
    21    -0.234728
    22     0.025547
    23     0.017451
    24     0.041491
    25    -0.103447
    26    -0.189232
    27    -0.106087
    28     0.009197
    29     0.022553
    30    -0.046687
    31     0.047506
    32     0.008520
    33    -0.005377
    34     0.001025
    35     0.003098
    36    -0.002191
    37    -0.007453
    38    -0.000797
    39     0.002545
    40    -0.008640
    41    -0.001281
    42     0.000005
    43     0.001012
    44     0.002948
    45     0.002715
    46     0.000312
    47     0.001507
    48     0.000694
    49     0.000301
    50    -0.000078
    51     0.025894
    52    -0.001823
    53     0.003634
    54     0.008635
    55    -0.003350
    56     0.000808
    57    -0.010410
    58     0.001062
    59     0.000854
    60     0.000145
    61     0.020008
    62     0.014452
    63    -0.004873
    64     0.014282
    65     0.010520
    66     0.000996
    67     0.001975
    68     0.110472
    69     0.003498
    70    -0.010603
    71    -0.000306
    72    -0.020907
    73    -0.003031
    74    -0.007492
    75     0.004903
    76    -0.002162
    77    -0.000701
    78     0.002623
    79     0.003076
    80     0.000030
    81     0.013754
    82    -0.035072
    83     0.003152
    84    -0.001661
    85     0.000594
    86     0.020842
    87     0.099379
    88    -0.136017
    89     0.034273
    90    -0.009654
    91     0.028676
    92    -0.021163
    93    -0.003509
    94     0.057651
    95    -0.009386
    96    -0.012671
    97    -0.012949
    98    -0.013371
    99    -0.002022
   100    -0.013077
   101    -0.002331
   102    -0.012762
   103     0.001911
   104    -0.003389
   105    -0.000403
   106     0.000982
   107     0.009051
   108     0.046966
   109     0.000585
   110     0.003051
   111    -0.001749
   112     0.002489
   113    -0.013179
   114     0.008856
   115    -0.004178
   116    -0.006486
   117     0.005538
   118    -0.000150
   119    -0.007858
   120    -0.005270
   121    -0.009237
   122    -0.007226
   123    -0.001656
   124     0.001372
   125     0.000026
   126     0.002008
   127    -0.000108
   128    -0.000668
   129     0.000053
   130    -0.009918
   131    -0.027503
   132    -0.047322
   133     0.021130
   134     0.024121
   135     0.009432
   136    -0.018679
   137    -0.025959
   138    -0.008770
   139     0.007936
   140     0.008066
   141     0.009106
   142    -0.007017
   143    -0.005306
   144     0.005110
   145    -0.002755
   146    -0.021490
   147     0.000442
   148     0.000166
   149    -0.000957
   150    -0.920116
   151    -0.031427
   152    -0.009614
   153     0.121978
   154     0.051318
Sym=    43a
Ene=   -0.359776E-02
Spin= Alpha
Occup= 0.002394
     1     0.018836
     2     0.105680
     3    -0.108542
     4    -0.004303
     5     0.086411
     6    -0.070600
     7    -0.073517
     8     0.057918
     9    -0.121705
    10    -0.012148
    11    -0.015333
    12    -0.076556
    13     0.086731
    14    -0.086623
    15     0.019358
    16     0.037414
    17     0.158436
    18    -0.109072
    19    -0.105244
    20    -0.028861
    21    -0.062869
    22    -0.172636
    23     0.118865
    24     0.034952
    25    -0.035477
    26    -0.204006
    27     0.025638
    28     0.148221
    29     0.071876
    30     0.025042
    31    -0.039733
    32     0.059166
    33     0.011375
    34    -0.008341
    35    -0.011819
    36     0.014316
    37     0.088651
    38    -0.109001
    39     0.040726
    40    -0.026841
    41    -0.133084
    42     0.138116
    43    -0.059938
    44    -0.269517
    45     0.071661
    46     0.000995
    47    -0.093201
    48    -0.002813
    49     0.010961
    50    -0.030477
    51    -0.252763
    52     0.185601
    53    -0.446456
    54    -0.060644
    55    -0.256159
    56    -0.035324
    57    -0.055927
    58    -0.012802
    59    -0.023701
    60    -0.000740
    61    -0.015703
    62    -0.086194
    63    -0.043094
    64     0.047918
    65    -0.000369
    66    -0.096637
    67    -0.527374
    68    -0.014292
    69    -0.108523
    70    -0.095634
    71     0.000777
    72     0.015544
    73    -0.085634
    74     0.226966
    75     0.124001
    76     0.176657
    77     0.177908
    78    -0.036246
    79     0.011052
    80    -0.052480
    81    -0.033799
    82     0.084853
    83    -0.017152
    84    -0.013424
    85    -0.022583
    86     0.017202
    87    -0.047336
    88     0.399442
    89    -0.073334
    90    -0.077546
    91    -0.173909
    92    -0.050006
    93    -0.325610
    94    -0.771341
    95     0.061632
    96    -0.311324
    97     0.098161
    98     0.365581
    99     0.091735
   100     0.173803
   101    -0.014030
   102     0.304454
   103     0.093254
   104    -0.082183
   105     0.001392
   106    -0.002815
   107    -0.053224
   108    -0.464600
   109    -0.233789
   110     0.022548
   111    -0.006709
   112    -0.041068
   113    -0.042863
   114    -0.015540
   115     0.088420
   116     0.056973
   117    -0.129333
   118    -0.079685
   119     0.236281
   120     0.174100
   121    -0.043533
   122     0.000753
   123    -0.029179
   124    -0.012514
   125    -0.049617
   126     0.020162
   127    -0.020507
   128    -0.002888
   129     0.009172
   130     0.014743
   131     0.089752
   132    -0.110732
   133     0.048590
   134     0.006604
   135     0.053502
   136    -0.066466
   137    -0.029169
   138    -0.098607
   139     0.010252
   140    -0.035052
   141    -0.014953
   142     0.001090
   143    -0.046214
   144     0.036550
   145    -0.048020
   146     0.225238
   147    -0.002869
   148    -0.013794
   149     0.006709
   150    -0.012348
   151     0.033451
   152     0.050144
   153     0.030732
   154     0.050894
Sym=    44a
Ene=   -0.277305E-01
Spin= Alpha
Occup= 0.020069
     1    -0.014181
     2    -0.055585
     3    -0.016915
     4    -0.001190
     5    -0.007083
     6     0.089522
     7    -0.012113
     8    -0.017612
     9     0.012933
    10     0.002056
    11     0.007783
    12     0.013330
    13    -0.001096
    14     0.025471
    15     0.010150
    16    -0.207288
    17    -0.857821
    18     0.110242
    19     0.204689
    20     0.067179
    21    -0.807493
    22    -0.057597
    23     0.014101
    24     0.036132
    25     0.085929
    26     0.083477
    27     0.186971
    28     0.015140
    29    -0.046209
    30     0.002114
    31    -0.033488
    32     0.003907
    33     0.006259
    34     0.003937
    35    -0.002521
    36    -0.005813
    37    -0.023013
    38     0.017674
    39    -0.019563
    40     0.045966
    41     0.000934
    42    -0.005313
    43     0.004765
    44     0.006107
    45    -0.003234
    46     0.005570
    47    -0.001934
    48    -0.003434
    49    -0.000568
    50     0.000851
    51    -0.006757
    52     0.000981
    53     0.001381
    54    -0.005074
    55     0.002277
    56    -0.003034
    57     0.004010
    58    -0.000121
    59    -0.000414
    60     0.002799
    61     0.902796
    62     0.056865
    63    -0.050357
    64    -0.004609
    65     0.116272
    66    -0.001335
    67    -0.008515
    68     0.038783
    69     0.004537
    70    -0.000567
    71    -0.018602
    72    -0.022086
    73    -0.008651
    74    -0.013681
    75     0.000618
    76    -0.001464
    77     0.003643
    78     0.001468
    79     0.005880
    80    -0.004051
    81    -0.013159
    82     0.002346
    83    -0.001378
    84     0.001676
    85     0.000001
    86    -0.029285
    87    -0.107645
    88    -0.017555
    89    -0.050828
    90     0.031328
    91    -0.026633
    92    -0.013907
    93     0.004519
    94     0.048850
    95     0.036687
    96     0.017248
    97    -0.002659
    98    -0.006949
    99    -0.017792
   100     0.010099
   101    -0.032710
   102    -0.006188
   103     0.001922
   104     0.003120
   105     0.011487
   106    -0.000465
   107    -0.007336
   108    -0.034154
   109     0.014327
   110     0.003816
   111    -0.003728
   112    -0.009284
   113    -0.010229
   114     0.010699
   115     0.030035
   116    -0.005914
   117     0.005050
   118    -0.002656
   119     0.010497
   120     0.018752
   121     0.010974
   122    -0.006667
   123    -0.007726
   124     0.003466
   125    -0.005256
   126     0.003665
   127     0.001386
   128    -0.000869
   129     0.000694
   130    -0.000569
   131     0.000178
   132     0.000207
   133     0.015432
   134    -0.025217
   135     0.026970
   136    -0.002880
   137    -0.001051
   138    -0.010331
   139    -0.005574
   140     0.007765
   141    -0.003666
   142     0.003076
   143     0.001023
   144    -0.002496
   145    -0.013354
   146    -0.005715
   147     0.001407
   148     0.000762
   149    -0.002764
   150    -0.030781
   151    -0.018742
   152    -0.005948
   153     0.005292
   154     0.018526
Sym=    45a
Ene=   -0.342400E-01
Spin= Alpha
Occup= 0.020225
     1     0.000799
     2     0.004143
     3     0.017342
     4    -0.001847
     5     0.001437
     6     0.006054
     7     0.005992
     8    -0.010786
     9    -0.006940
    10    -0.000140
    11     0.001606
    12    -0.000126
    13     0.000711
    14     0.000340
    15    -0.000633
    16     0.005150
    17     0.029203
    18    -0.091323
    19    -0.018840
    20     0.025379
    21     0.000150
    22    -0.025399
    23     0.056643
    24     0.006445
    25     0.002999
    26    -0.002565
    27     0.004504
    28     0.000782
    29     0.002722
    30    -0.005202
    31     0.030025
    32    -0.025210
    33    -0.012825
    34    -0.000592
    35    -0.006248
    36     0.158669
    37     0.541821
    38     0.047519
    39    -0.450104
    40    -0.134569
    41    -0.573879
    42    -0.177621
    43    -0.093980
    44    -0.254494
    45    -0.100209
    46    -0.075853
    47    -0.130314
    48    -0.007521
    49    -0.046358
    50    -0.011701
    51     0.051818
    52    -0.061581
    53     0.005882
    54     0.008262
    55     0.015593
    56    -0.010386
    57    -0.006822
    58     0.001604
    59    -0.006703
    60    -0.000656
    61     0.020431
    62    -0.021766
    63    -0.005873
    64     0.003568
    65     0.003659
    66    -0.000337
    67    -0.011307
    68    -0.175339
    69     0.045979
    70    -0.005850
    71     0.053488
    72     0.058421
    73    -0.031327
    74     0.034595
    75     0.004811
    76    -0.013385
    77     0.002202
    78    -0.008929
    79    -0.010979
    80    -0.011271
    81     0.003741
    82     0.054300
    83    -0.000912
    84    -0.005981
    85    -0.001939
    86     0.032889
    87     0.113405
    88     0.145202
    89    -0.009391
    90     0.049440
    91     0.042463
    92     0.022087
    93    -0.027004
    94    -0.122144
    95    -0.017334
    96    -0.023187
    97    -0.048130
    98    -0.000315
    99     0.004927
   100    -0.024829
   101    -0.019818
   102     0.042226
   103    -0.001653
   104    -0.001973
   105    -0.004727
   106    -0.042694
   107    -0.338771
   108    -1.088103
   109     0.285715
   110    -0.173871
   111     0.013478
   112    -0.170881
   113     0.487094
   114    -0.066548
   115     0.446038
   116    -0.045379
   117     0.035053
   118    -0.019508
   119     0.148217
   120     0.320879
   121     0.151309
   122    -0.001247
   123    -0.144846
   124     0.000188
   125    -0.037375
   126     0.011609
   127     0.020006
   128    -0.009852
   129     0.014923
   130    -0.008103
   131    -0.026019
   132    -0.019588
   133    -0.005745
   134     0.007591
   135     0.022937
   136    -0.010878
   137    -0.008670
   138    -0.014464
   139     0.001587
   140     0.004098
   141     0.005834
   142    -0.001294
   143    -0.003144
   144     0.000750
   145     0.049681
   146     0.024061
   147     0.010500
   148     0.013191
   149     0.003592
   150    -0.018347
   151    -0.006269
   152     0.001009
   153     0.002407
   154     0.000662
Sym=    46a
Ene=   -0.199852E-01
Spin= Alpha
Occup= 0.011449
     1     0.000338
     2    -0.001467
     3     0.042016
     4    -0.005785
     5     0.009214
     6    -0.005395
     7     0.016681
     8    -0.007311
     9    -0.015258
    10    -0.000674
    11    -0.003167
    12     0.004735
    13     0.000103
    14     0.002471
    15     0.003295
    16    -0.014678
    17    -0.065707
    18    -0.017548
    19     0.000855
    20     0.037078
    21    -0.027016
    22     0.008118
    23     0.045692
    24     0.015225
    25     0.011442
    26     0.006105
    27     0.027909
    28     0.003449
    29    -0.005086
    30    -0.010644
    31    -0.003124
    32     0.024042
    33    -0.001286
    34    -0.012878
    35     0.004479
    36     0.007939
    37     0.041526
    38    -0.049783
    39    -0.098464
    40    -0.874757
    41     0.275336
    42    -0.120112
    43    -0.868985
    44     0.250789
    45    -0.008609
    46    -0.019807
    47     0.012744
    48    -0.014580
    49     0.004802
    50    -0.030768
    51    -0.048121
    52     0.021650
    53    -0.008302
    54     0.002885
    55    -0.002159
    56     0.033728
    57    -0.024176
    58    -0.000504
    59     0.000676
    60    -0.000983
    61     0.101126
    62    -0.024994
    63    -0.015790
    64     0.016944
    65     0.024286
    66    -0.015594
    67    -0.090239
    68     0.076455
    69     0.050898
    70     0.021243
    71     0.016173
    72     0.013157
    73    -0.055526
    74     0.019476
    75     0.023925
    76     0.020969
    77     0.011728
    78     0.006893
    79     0.003443
    80     0.008382
    81     0.019554
    82     0.037481
    83    -0.003060
    84    -0.000943
    85    -0.002465
    86     0.022057
    87     0.105438
    88    -0.006942
    89     0.001511
    90     0.046045
    91     0.034020
    92     0.002753
    93    -0.010994
    94    -0.043732
    95    -0.017078
    96    -0.023788
    97    -0.022966
    98     0.004335
    99    -0.005853
   100    -0.003923
   101     0.016088
   102     0.032496
   103     0.001030
   104    -0.004994
   105    -0.001913
   106    -0.007137
   107    -0.071955
   108    -0.272586
   109    -0.074803
   110     0.035779
   111     0.012181
   112     0.022634
   113    -0.097012
   114     0.033571
   115    -0.081166
   116     0.015136
   117    -0.144351
   118    -0.013228
   119     0.088489
   120     0.084736
   121     0.046972
   122     0.091386
   123     0.004048
   124     0.079594
   125     0.057246
   126    -0.016697
   127    -0.002476
   128    -0.008980
   129    -0.010076
   130    -0.000445
   131     0.003850
   132    -0.031202
   133     0.005280
   134     0.014385
   135     0.006665
   136    -0.005354
   137    -0.007191
   138    -0.021617
   139    -0.005288
   140     0.003658
   141     0.000531
   142    -0.004970
   143     0.003582
   144    -0.000318
   145     0.064853
   146     0.041368
   147     0.001473
   148    -0.010939
   149     0.008345
   150    -0.010506
   151    -0.000429
   152    -0.000809
   153     0.000408
   154    -0.001674
Sym=    47a
Ene=   -0.159621E-01
Spin= Alpha
Occup= 0.011557
     1     0.000459
     2     0.001100
     3     0.001238
     4    -0.050351
     5     0.122239
     6    -0.201508
     7     0.000269
     8     0.016473
     9    -0.015449
    10    -0.002805
    11    -0.076243
    12     0.077285
    13     0.020727
    14     0.002256
    15     0.040757
    16     0.011802
    17     0.051994
    18    -0.007584
    19    -0.018888
    20     0.014636
    21     0.015474
    22     0.012934
    23    -0.002597
    24     0.010060
    25    -0.011074
    26    -0.016974
    27    -0.000366
    28     0.007397
    29     0.008187
    30     0.010057
    31     0.011429
    32     0.022688
    33    -0.017678
    34     0.036980
    35    -0.056973
    36    -0.000376
    37     0.008070
    38    -0.033743
    39     0.001703
    40     0.000324
    41    -0.003034
    42    -0.019583
    43    -0.008353
    44    -0.003450
    45     0.007031
    46    -0.000741
    47    -0.001731
    48    -0.005790
    49     0.012936
    50    -0.001417
    51     0.067972
    52    -0.067975
    53     0.020224
    54     0.008758
    55     0.007203
    56     0.004548
    57     0.014845
    58     0.000062
    59     0.000767
    60     0.000047
    61    -0.055420
    62     0.067355
    63    -0.007441
    64    -0.011110
    65    -0.013381
    66     0.005897
    67     0.044426
    68    -0.042947
    69     0.011781
    70     0.000160
    71    -0.001847
    72     0.004051
    73     0.009994
    74    -0.039474
    75    -0.000030
    76    -0.003806
    77    -0.005907
    78    -0.000068
    79     0.002276
    80     0.001911
    81    -0.000086
    82    -0.005901
    83    -0.000187
    84    -0.000618
    85     0.000426
    86     0.004209
    87     0.036294
    88     0.056846
    89     0.024188
    90     0.031060
    91     0.017970
    92    -0.010627
    93     0.058856
    94     0.154251
    95    -0.011857
    96     0.010423
    97    -0.005956
    98    -0.008185
    99    -0.008011
   100    -0.007733
   101    -0.007987
   102    -0.117970
   103    -0.003213
   104     0.000646
   105     0.003897
   106     0.002489
   107     0.022989
   108     0.148881
   109    -0.018711
   110     0.013166
   111    -0.000092
   112     0.009990
   113    -0.062015
   114     0.012008
   115    -0.032592
   116     0.015143
   117    -0.002327
   118     0.020775
   119    -0.018856
   120    -0.023762
   121    -0.006164
   122     0.004220
   123     0.010177
   124     0.006455
   125     0.006834
   126    -0.007351
   127    -0.001171
   128     0.000287
   129    -0.002514
   130    -0.003470
   131    -0.015453
   132     0.004842
   133     0.184848
   134    -0.480356
   135     0.772896
   136    -0.198937
   137     0.510299
   138    -0.797076
   139    -0.014574
   140     0.017788
   141     0.002877
   142     0.020674
   143    -0.042892
   144    -0.014242
   145     0.002972
   146    -0.011708
   147    -0.000585
   148    -0.002523
   149     0.001055
   150     0.010869
   151    -0.027972
   152     0.003492
   153    -0.001697
   154     0.004167
Sym=    48a
Ene=   -0.956431E-02
Spin= Alpha
Occup= 0.003955
     1     0.009342
     2     0.067759
     3    -0.157452
     4    -0.028181
     5     0.017679
     6    -0.005138
     7    -0.078747
     8     0.023969
     9     0.014533
    10    -0.018976
    11    -0.002500
    12    -0.004899
    13     0.006116
    14     0.002803
    15    -0.001441
    16     0.016522
    17     0.074523
    18    -0.090984
    19    -0.000855
    20     0.003521
    21     0.009292
    22    -0.107237
    23     0.032431
    24    -0.017085
    25    -0.033438
    26    -0.034716
    27    -0.016156
    28     0.001194
    29     0.008526
    30    -0.009627
    31    -0.023393
    32    -0.015940
    33     0.113381
    34    -0.013546
    35    -0.030876
    36    -0.050017
    37    -0.293125
    38     0.452033
    39     0.193676
    40     0.020361
    41     0.227306
    42     0.465961
    43     0.022264
    44     0.480595
    45     0.312698
    46    -0.192327
    47     0.000187
    48    -0.258402
    49    -0.606791
    50     0.267928
    51    -0.082963
    52    -0.077289
    53     0.005554
    54    -0.019248
    55     0.007144
    56     0.005555
    57    -0.054268
    58    -0.004808
    59     0.003628
    60    -0.007512
    61    -0.027644
    62    -0.071986
    63     0.002710
    64     0.005386
    65    -0.006465
    66    -0.012168
    67    -0.057316
    68    -0.386632
    69    -0.027851
    70    -0.062996
    71     0.007594
    72     0.114938
    73    -0.070658
    74     0.135342
    75     0.011488
    76    -0.015193
    77     0.016612
    78     0.005207
    79     0.025781
    80     0.003631
    81    -0.012529
    82     0.137164
    83     0.005830
    84    -0.002027
    85     0.006702
    86    -0.032932
    87    -0.262476
    88     0.647182
    89     0.049663
    90    -0.037733
    91    -0.105954
    92     0.119544
    93    -0.162802
    94    -0.562299
    95     0.028091
    96     0.035519
    97     0.047693
    98    -0.025217
    99     0.007710
   100     0.004343
   101    -0.043588
   102     0.233766
   103    -0.008606
   104     0.009811
   105    -0.004591
   106    -0.055166
   107    -0.641224
   108    -2.931824
   109     0.372333
   110    -0.069931
   111     0.007847
   112    -0.064908
   113     0.431810
   114    -0.062391
   115     0.371750
   116     0.003538
   117    -0.067518
   118    -0.080865
   119     0.785066
   120     0.967181
   121     0.770662
   122    -0.054508
   123    -0.185835
   124    -0.003075
   125    -0.149602
   126     0.033582
   127     0.026587
   128    -0.019344
   129     0.013005
   130     0.007948
   131     0.051696
   132     0.017957
   133     0.086213
   134    -0.020770
   135     0.005655
   136    -0.062619
   137     0.029485
   138    -0.041804
   139     0.005734
   140    -0.004910
   141     0.011204
   142     0.001634
   143    -0.011226
   144     0.009933
   145    -0.030588
   146     0.167718
   147    -0.006884
   148     0.009608
   149    -0.023356
   150    -0.015670
   151     0.002271
   152     0.007514
   153     0.001295
   154     0.001961
Sym=    49a
Ene=   -0.759024E-02
Spin= Alpha
Occup= 0.003978
     1     0.013649
     2     0.179652
     3    -0.361550
     4    -0.025812
     5     0.183463
     6     0.125916
     7    -0.256961
     8     0.417203
     9     0.347289
    10     0.054676
    11     0.016234
    12    -0.115945
    13    -0.363903
    14    -0.417197
    15     0.436060
    16     0.039162
    17     0.080113
    18     0.425035
    19     0.111229
    20    -0.046681
    21    -0.049332
    22     0.096641
    23    -0.271889
    24    -0.172021
    25    -0.122994
    26    -0.004866
    27    -0.054841
    28     0.032996
    29     0.065226
    30     0.023798
    31    -0.117098
    32    -0.024865
    33     0.003871
    34     0.010455
    35     0.010452
    36     0.009382
    37     0.029189
    38     0.014206
    39     0.006432
    40    -0.007372
    41    -0.002835
    42    -0.008976
    43    -0.008090
    44     0.001265
    45    -0.013445
    46    -0.013397
    47    -0.015282
    48     0.000231
    49    -0.000710
    50     0.000604
    51     0.031014
    52     0.165570
    53    -0.000252
    54     0.004387
    55    -0.001564
    56    -0.014594
    57     0.018388
    58     0.003469
    59    -0.002222
    60     0.005590
    61    -0.093245
    62     0.005815
    63    -0.007438
    64     0.030063
    65    -0.002649
    66    -0.001533
    67     0.017706
    68     0.073580
    69     0.002738
    70     0.006848
    71    -0.005059
    72    -0.028551
    73    -0.047950
    74    -0.035020
    75     0.010123
    76     0.004591
    77     0.004564
    78    -0.000386
    79     0.006230
    80    -0.000514
    81     0.000071
    82     0.019226
    83     0.000679
    84    -0.000142
    85     0.001643
    86    -0.001284
    87     0.013641
    88    -0.359028
    89    -0.012744
    90    -0.001834
    91    -0.022973
    92    -0.000830
    93     0.153588
    94     0.269452
    95    -0.000482
    96     0.016252
    97    -0.012406
    98    -0.016753
    99    -0.015459
   100    -0.015912
   101    -0.001990
   102    -0.105746
   103    -0.005608
   104    -0.004940
   105     0.002680
   106    -0.000742
   107    -0.009180
   108     0.047722
   109     0.016769
   110     0.002802
   111    -0.000260
   112    -0.002040
   113    -0.033899
   114     0.022632
   115     0.018052
   116    -0.014653
   117     0.028126
   118    -0.007137
   119     0.019404
   120     0.020560
   121     0.019663
   122    -0.008466
   123     0.001230
   124     0.000024
   125    -0.005805
   126     0.009736
   127    -0.000335
   128     0.001514
   129    -0.000048
   130    -0.041157
   131    -0.164262
   132     0.390500
   133    -0.120959
   134     0.092348
   135     0.080119
   136     0.162448
   137    -0.144685
   138    -0.115817
   139     0.026431
   140     0.197766
   141    -0.064607
   142     0.283287
   143     0.136120
   144     0.142962
   145     0.000569
   146    -0.038193
   147     0.001466
   148    -0.002748
   149     0.000659
   150    -0.001365
   151     0.024152
   152     0.005222
   153     0.012550
   154     0.004519
Sym=    50a
Ene=   -0.828517E-02
Spin= Alpha
Occup= 0.002871
     1     0.037489
     2     0.131120
     3     0.246662
     4    -0.310379
     5    -0.066383
     6     0.012409
     7    -0.091347
     8     0.087325
     9     0.099200
    10    -0.107919
    11    -0.025731
    12     0.022993
    13    -0.040090
    14    -0.005252
    15    -0.051297
    16     0.581184
    17     2.637335
    18    -1.416294
    19     0.143726
    20     0.280022
    21    -0.227989
    22     0.172536
    23     0.303167
    24    -0.261917
    25    -0.863381
    26    -0.904796
    27    -1.058958
    28    -0.017509
    29    -0.066486
    30     0.218012
    31     0.011462
    32     0.024900
    33    -0.002010
    34     0.013939
    35     0.008790
    36     0.000265
    37    -0.005927
    38     0.027269
    39     0.028875
    40     0.003946
    41     0.009157
    42     0.079395
    43     0.009839
    44     0.031313
    45     0.007899
    46    -0.011434
    47    -0.000089
    48     0.004856
    49     0.009697
    50     0.011630
    51    -0.050285
    52    -0.102552
    53    -0.046551
    54     0.009709
    55     0.027416
    56    -0.059614
    57    -0.005766
    58    -0.003025
    59    -0.025338
    60     0.034849
    61     0.327399
    62     0.082938
    63    -0.001281
    64    -0.053956
    65     0.092088
    66    -0.016428
    67    -0.112241
    68    -0.034658
    69     0.006575
    70    -0.005368
    71    -0.071233
    72     0.064072
    73    -0.085058
    74     0.086889
    75     0.040173
    76     0.065447
    77     0.033653
    78    -0.009637
    79    -0.017634
    80    -0.012381
    81    -0.035946
    82     0.085647
    83    -0.000788
    84     0.006920
    85     0.007876
    86     0.289694
    87     1.416820
    88     0.239823
    89     0.315070
    90    -0.066718
    91     0.172040
    92    -0.179019
    93     0.007668
    94    -0.093822
    95    -0.520696
    96    -0.445466
    97    -0.478929
    98     0.056338
    99    -0.093903
   100    -0.000373
   101    -0.000253
   102    -0.005492
   103    -0.044821
   104     0.039823
   105    -0.012961
   106     0.001416
   107     0.012635
   108    -0.020425
   109    -0.004229
   110     0.011856
   111    -0.002180
   112    -0.027840
   113    -0.008926
   114    -0.009905
   115     0.103788
   116    -0.016194
   117    -0.025716
   118    -0.003309
   119    -0.039686
   120     0.008827
   121    -0.037450
   122     0.010470
   123    -0.011977
   124     0.026739
   125     0.015329
   126    -0.016580
   127    -0.009171
   128    -0.005063
   129    -0.009514
   130    -0.006775
   131    -0.063556
   132     0.116792
   133    -0.043930
   134    -0.047529
   135    -0.034935
   136     0.095658
   137     0.146468
   138     0.081500
   139     0.010194
   140    -0.020393
   141     0.018022
   142    -0.008068
   143     0.019728
   144    -0.056740
   145     0.020041
   146     0.068758
   147     0.009371
   148     0.005894
   149     0.007763
   150     0.297800
   151     0.032459
   152     0.005125
   153    -0.083024
   154    -0.011049
Sym=    51a
Ene=   -0.590256E-02
Spin= Alpha
Occup= 0.002047
     1     0.294169
     2     1.252501
     3    -0.148393
     4    -0.195627
     5     0.410953
     6     0.312468
     7    -0.367087
     8     0.279876
     9     0.265784
    10    -0.247451
    11    -0.616902
    12    -0.513786
    13    -0.035520
    14    -0.128006
    15    -0.062240
    16    -0.058878
    17    -0.265110
    18     0.178671
    19    -0.023406
    20    -0.001679
    21     0.032322
    22    -0.138021
    23    -0.081724
    24     0.003372
    25     0.100820
    26     0.108036
    27     0.141121
    28    -0.035112
    29    -0.002791
    30     0.001279
    31     0.163606
    32    -0.039633
    33    -0.030750
    34     0.021101
    35     0.019834
    36     0.020304
    37     0.072767
    38    -0.001051
    39     0.021800
    40    -0.000012
    41    -0.006684
    42     0.047126
    43    -0.009160
    44    -0.020825
    45    -0.057156
    46    -0.022520
    47    -0.025286
    48     0.004619
    49     0.008777
    50    -0.004144
    51    -0.026406
    52     0.044333
    53     0.010063
    54     0.001575
    55    -0.008387
    56     0.003484
    57     0.027400
    58    -0.001282
    59     0.004720
    60    -0.001320
    61    -0.045156
    62     0.058526
    63    -0.001669
    64     0.004170
    65    -0.003811
    66     0.015840
    67     0.082230
    68    -0.271721
    69     0.000846
    70     0.008275
    71     0.008956
    72     0.058632
    73     0.025261
    74     0.043753
    75    -0.031865
    76    -0.035592
    77    -0.022621
    78    -0.008102
    79    -0.002263
    80     0.011819
    81    -0.000273
    82     0.066227
    83    -0.010868
    84     0.003826
    85    -0.000837
    86    -0.018604
    87    -0.149761
    88     0.271951
    89    -0.050407
    90     0.018768
    91    -0.026303
    92     0.020990
    93     0.014079
    94    -0.174001
    95     0.046016
    96     0.026185
    97     0.011933
    98    -0.015495
    99    -0.008936
   100     0.013560
   101    -0.007763
   102     0.051117
   103    -0.004886
   104    -0.001796
   105     0.002271
   106     0.001083
   107     0.016332
   108     0.051055
   109    -0.058938
   110    -0.003636
   111     0.002577
   112     0.006898
   113     0.028177
   114    -0.014804
   115    -0.025891
   116     0.029874
   117    -0.024845
   118     0.000781
   119    -0.032976
   120    -0.050237
   121    -0.024623
   122     0.008155
   123     0.013436
   124    -0.007505
   125     0.007997
   126    -0.006576
   127     0.004286
   128     0.004022
   129     0.002815
   130     0.166636
   131     0.636376
   132     0.108939
   133     0.042068
   134     0.290057
   135     0.176619
   136    -0.111825
   137    -0.339872
   138    -0.195546
   139    -0.267295
   140    -0.567209
   141    -0.049525
   142    -0.065118
   143     0.123019
   144    -0.607246
   145     0.000050
   146     0.074635
   147    -0.003885
   148     0.001688
   149     0.003498
   150    -0.048654
   151    -0.071062
   152    -0.019611
   153     0.009306
   154     0.011940
Sym=    52a
Ene=   -0.911179E-02
Spin= Alpha
Occup= 0.003129
     1     0.002181
     2     0.025170
     3    -0.085518
     4    -0.006124
     5     0.004579
     6     0.006359
     7    -0.044987
     8     0.014441
     9     0.009512
    10    -0.006507
    11     0.003236
    12     0.000732
    13     0.004438
    14     0.006247
    15    -0.000082
    16     0.010438
    17     0.046467
    18    -0.058791
    19    -0.009329
    20    -0.002658
    21     0.006688
    22    -0.056397
    23    -0.027258
    24     0.000216
    25    -0.016968
    26    -0.026407
    27    -0.009047
    28     0.004655
    29     0.008578
    30    -0.015078
    31     0.000397
    32    -0.018149
    33    -0.020822
    34     0.026487
    35    -0.005173
    36    -0.003507
    37    -0.017606
    38     0.022471
    39    -0.016393
    40    -0.008580
    41     0.006519
    42    -0.036567
    43    -0.014520
    44    -0.000459
    45    -0.106389
    46     0.448557
    47    -0.331884
    48    -0.662328
    49     0.353834
    50     0.451334
    51     0.026383
    52    -0.098293
    53     0.002369
    54    -0.001689
    55     0.002385
    56     0.004232
    57     0.017512
    58     0.000453
    59    -0.002239
    60    -0.004971
    61    -0.037410
    62     0.080293
    63    -0.000673
    64     0.000842
    65    -0.000978
    66    -0.005980
    67    -0.024612
    68    -0.174047
    69    -0.016454
    70    -0.020520
    71    -0.012067
    72     0.045914
    73     0.037702
    74    -0.001325
    75     0.004145
    76    -0.002999
    77     0.000144
    78    -0.003295
    79     0.000749
    80    -0.006473
    81     0.006163
    82    -0.001650
    83     0.001092
    84    -0.002904
    85     0.000165
    86    -0.006715
    87    -0.083583
    88     0.422688
    89    -0.008510
    90    -0.019290
    91    -0.015700
    92     0.037498
    93    -0.057854
    94    -0.169028
    95     0.006277
    96     0.002197
    97    -0.008653
    98    -0.001870
    99    -0.008026
   100    -0.004805
   101    -0.000813
   102     0.031656
   103    -0.000966
   104     0.001180
   105    -0.001433
   106    -0.001779
   107    -0.021066
   108    -0.077118
   109    -0.112295
   110    -0.003580
   111    -0.003077
   112     0.000787
   113     0.018010
   114     0.008686
   115    -0.012216
   116     0.083154
   117    -0.150279
   118     0.017390
   119    -0.002360
   120     0.057408
   121     0.043852
   122    -0.014908
   123     0.032894
   124     0.020929
   125    -0.010900
   126    -0.073379
   127     0.008270
   128    -0.003596
   129     0.021778
   130    -0.002622
   131    -0.013508
   132     0.025713
   133    -0.006259
   134     0.013822
   135    -0.004396
   136     0.002747
   137    -0.022245
   138     0.018181
   139    -0.001000
   140     0.013001
   141    -0.005897
   142    -0.016321
   143     0.006546
   144     0.001802
   145     0.021342
   146     0.088127
   147    -0.003092
   148    -0.001848
   149    -0.001079
   150     0.018988
   151    -0.021674
   152     0.002203
   153    -0.001928
   154    -0.002152
Sym=    53a
Ene=   -0.183516E-02
Spin= Alpha
Occup= 0.000348
     1    -0.179635
     2    -0.697679
     3    -0.063858
     4     0.145335
     5     0.199337
     6     0.057264
     7     0.233221
     8     0.082258
     9    -0.065628
    10     0.361408
    11     0.587063
    12     0.353021
    13     0.200556
    14     0.014597
    15     0.142851
    16     0.220193
    17     0.922854
    18    -0.409179
    19    -0.058881
    20    -0.105780
    21     0.052980
    22    -0.358753
    23    -0.173489
    24     0.015514
    25    -0.597594
    26    -0.403881
    27    -0.607989
    28     0.229834
    29    -0.045579
    30     0.013073
    31     0.149242
    32    -0.091718
    33    -0.056809
    34     0.026912
    35     0.046732
    36    -0.154627
    37    -0.232582
    38    -1.017445
    39    -0.028997
    40    -0.021410
    41    -0.067294
    42    -0.176370
    43    -0.070567
    44    -0.283859
    45     0.438860
    46     0.517707
    47     0.369397
    48    -0.011775
    49    -0.073946
    50    -0.027324
    51    -0.204025
    52     0.064534
    53     0.177394
    54    -0.142772
    55     0.009710
    56     0.012206
    57    -0.100962
    58    -0.067448
    59     0.099772
    60    -0.070751
    61     0.295538
    62    -0.023109
    63    -0.016800
    64    -0.007455
    65     0.038349
    66    -0.207648
    67    -1.030446
    68    -0.081948
    69     0.110264
    70     0.272489
    71     0.102081
    72     0.118488
    73     0.080354
    74    -0.042926
    75     0.523082
    76     0.522048
    77     0.457981
    78     0.113480
    79     0.020390
    80     0.109103
    81     0.092365
    82    -0.134323
    83     0.061882
    84    -0.125893
    85     0.038117
    86    -0.133765
    87    -0.724562
    88     0.620982
    89     0.337321
    90    -0.105226
    91     0.063356
    92     0.284160
    93    -0.086994
    94    -0.363327
    95     0.261928
    96     0.337281
    97     0.470182
    98    -0.197463
    99     0.209598
   100    -0.046295
   101    -0.148259
   102     0.168532
   103     0.089497
   104    -0.064597
   105     0.057562
   106     0.006024
   107     0.113412
   108     0.506640
   109    -0.164374
   110     0.019579
   111     0.056683
   112     0.058331
   113    -0.175396
   114    -0.274929
   115    -0.384229
   116     0.026454
   117     0.030614
   118    -0.022325
   119     0.064432
   120    -0.622479
   121    -0.073593
   122    -0.020234
   123     0.056189
   124    -0.066201
   125     0.053443
   126     0.043619
   127     0.193844
   128     0.036470
   129    -0.006283
   130     0.030972
   131     0.198647
   132    -0.209418
   133    -0.016194
   134     0.053858
   135     0.034957
   136    -0.122762
   137    -0.296162
   138    -0.154580
   139    -0.011617
   140    -0.202922
   141    -0.023710
   142     0.039543
   143     0.050501
   144    -0.234019
   145    -0.027763
   146    -0.054610
   147    -0.014060
   148    -0.110049
   149    -0.015932
   150     0.246695
   151    -0.000034
   152     0.053204
   153    -0.034763
   154     0.012927
Sym=    54a
Ene=   -0.168259E-02
Spin= Alpha
Occup= 0.000330
     1    -0.084500
     2    -0.287427
     3    -0.424713
     4     0.000835
     5    -0.068295
     6    -0.067711
     7     0.044095
     8     0.098916
     9    -0.067483
    10     0.117524
    11     0.190602
    12     0.281766
    13    -0.214587
    14    -0.110938
    15     0.052772
    16     0.011488
    17    -0.082229
    18     0.597208
    19     0.135706
    20    -0.060526
    21     0.069310
    22     0.443852
    23    -0.229730
    24     0.170413
    25     0.154858
    26    -0.180025
    27    -0.082011
    28    -0.117212
    29     0.062774
    30    -0.082548
    31    -0.007933
    32     0.106477
    33     0.139055
    34    -0.065567
    35    -0.082915
    36     0.170541
    37     0.235600
    38     1.196091
    39     0.128504
    40     0.026734
    41     0.081806
    42     0.470882
    43     0.091523
    44     0.351817
    45    -0.502673
    46    -0.522260
    47    -0.457385
    48     0.057497
    49     0.157217
    50     0.036131
    51     0.048979
    52     0.105839
    53    -0.042344
    54    -0.065272
    55    -0.072048
    56     0.273571
    57    -0.064794
    58    -0.140849
    59     0.166760
    60    -0.171432
    61    -0.066278
    62     0.060586
    63     0.054661
    64     0.006790
    65    -0.031643
    66    -0.169186
    67    -0.716265
    68    -0.036230
    69     0.319581
    70     0.092736
    71     0.068498
    72    -0.045108
    73     0.269653
    74    -0.003072
    75     0.411300
    76     0.359243
    77     0.338581
    78     0.132390
    79    -0.052312
    80     0.051308
    81     0.066772
    82    -0.179780
    83    -0.012043
    84    -0.086692
    85     0.011359
    86     0.157323
    87     0.793313
    88    -0.752041
    89    -0.156738
    90     0.171756
    91    -0.153640
    92    -0.118787
    93     0.049068
    94     0.414211
    95    -0.265575
    96    -0.413131
    97    -0.541348
    98    -0.068755
    99     0.090570
   100     0.020278
   101     0.118119
   102    -0.070760
   103    -0.042498
   104     0.033063
   105     0.040109
   106     0.007989
   107     0.125020
   108     0.616148
   109     0.062832
   110    -0.051809
   111    -0.002802
   112    -0.068809
   113     0.347642
   114     0.078945
   115     0.504471
   116    -0.034354
   117     0.069447
   118     0.023930
   119    -0.158191
   120    -0.414241
   121    -0.354049
   122    -0.033956
   123    -0.195281
   124     0.136876
   125     0.006986
   126     0.069070
   127     0.255027
   128    -0.032730
   129    -0.073032
   130     0.163477
   131     0.450860
   132     0.665505
   133     0.166969
   134    -0.062403
   135    -0.075266
   136    -0.233560
   137     0.161682
   138     0.186687
   139    -0.371279
   140    -0.449831
   141    -0.376425
   142    -0.108930
   143    -0.091757
   144     0.029624
   145     0.146848
   146     0.009748
   147    -0.039170
   148     0.024739
   149     0.098773
   150     0.051989
   151     0.056613
   152    -0.029756
   153     0.035874
   154     0.020015
Sym=    55a
Ene=   -0.194527E-02
Spin= Alpha
Occup= 0.000364
     1     0.230032
     2     0.898811
     3     0.394336
     4    -0.127376
     5    -0.083042
     6    -0.007843
     7    -0.304937
     8    -0.072876
     9     0.021380
    10    -0.442066
    11    -0.708441
    12    -0.476430
    13    -0.026522
    14     0.069889
    15    -0.200308
    16    -0.124631
    17    -0.544882
    18     0.281307
    19     0.069020
    20     0.025677
    21     0.025782
    22     0.268771
    23     0.152438
    24     0.145947
    25     0.400245
    26     0.331605
    27     0.178876
    28    -0.172281
    29     0.091076
    30     0.070052
    31    -0.213198
    32    -0.056862
    33    -0.054138
    34     0.023438
    35     0.046306
    36    -0.093548
    37    -0.053696
    38    -0.961128
    39    -0.088728
    40    -0.018008
    41    -0.099615
    42    -0.385202
    43    -0.075534
    44    -0.439279
    45     0.336740
    46     0.377625
    47     0.162451
    48    -0.040273
    49    -0.151678
    50    -0.038410
    51    -0.206161
    52     0.164996
    53    -0.020213
    54    -0.192587
    55    -0.054033
    56    -0.021086
    57    -0.216993
    58    -0.058370
    59     0.083132
    60    -0.039129
    61    -0.079757
    62     0.070761
    63     0.025004
    64    -0.008762
    65    -0.057297
    66    -0.220816
    67    -1.058690
    68     0.388549
    69     0.153265
    70     0.121174
    71     0.134121
    72     0.044049
    73    -0.120655
    74     0.179273
    75     0.503263
    76     0.700555
    77     0.524750
    78     0.064914
    79     0.018818
    80     0.089700
    81    -0.140240
    82     0.033769
    83    -0.027350
    84    -0.007424
    85     0.020109
    86     0.201160
    87     0.994997
    88    -0.520085
    89    -0.096484
    90     0.288504
    91    -0.242485
    92    -0.144391
    93    -0.034092
    94    -0.043429
    95    -0.412935
    96    -0.391184
    97    -0.599381
    98    -0.105360
    99    -0.045239
   100     0.131232
   101    -0.063311
   102     0.216625
   103    -0.083688
   104     0.095032
   105     0.096271
   106    -0.002775
   107    -0.032164
   108    -0.000975
   109    -0.021798
   110     0.070050
   111     0.042587
   112     0.073831
   113    -0.431413
   114    -0.212496
   115    -0.490934
   116    -0.015360
   117     0.034679
   118     0.029959
   119     0.383827
   120    -0.285664
   121     0.182644
   122    -0.041184
   123     0.155310
   124    -0.097666
   125     0.044208
   126    -0.001760
   127     0.124176
   128     0.122272
   129    -0.016459
   130    -0.176775
   131    -0.600162
   132    -0.323540
   133    -0.144920
   134     0.039510
   135     0.068140
   136     0.388243
   137     0.039733
   138    -0.087900
   139     0.385691
   140     0.537545
   141     0.378607
   142     0.033510
   143    -0.038637
   144     0.210929
   145    -0.165565
   146     0.123622
   147    -0.022225
   148    -0.102726
   149    -0.041738
   150    -0.297883
   151     0.009889
   152    -0.020670
   153     0.061130
   154     0.015803
Sym=    56a
Ene=   -0.780055E-03
Spin= Alpha
Occup= 0.000114
     1    -0.061838
     2    -0.138800
     3    -0.362963
     4    -0.037846
     5     0.000970
     6     0.056374
     7    -0.119119
     8    -0.000354
     9     0.203550
    10     0.235264
    11     0.186248
    12     0.123125
    13     0.043186
    14     0.077443
    15    -0.003996
    16    -0.007285
    17    -0.136728
    18     0.667043
    19     0.018383
    20    -0.078566
    21    -0.195759
    22     0.170322
    23    -0.006193
    24    -0.531085
    25    -0.163997
    26    -0.088394
    27     0.340763
    28    -0.110909
    29    -0.043176
    30    -0.035505
    31    -0.095957
    32    -0.081541
    33     0.023333
    34     0.003658
    35    -0.027426
    36    -0.009631
    37    -0.024067
    38     0.004806
    39     0.010551
    40    -0.055497
    41    -0.014923
    42     0.082820
    43    -0.154814
    44     0.034776
    45     0.042023
    46    -0.006809
    47     0.059816
    48    -0.013953
    49     0.040439
    50    -0.053955
    51    -0.176708
    52     0.021627
    53     0.012946
    54    -0.222006
    55     0.040693
    56    -0.226690
    57     0.158823
    58     0.150581
    59     0.076800
    60     0.218743
    61    -0.638358
    62    -0.058379
    63    -0.018551
    64    -0.032087
    65    -0.006145
    66    -0.024501
    67    -0.061365
    68    -1.009458
    69    -0.036134
    70     0.447907
    71    -0.472792
    72     0.389974
    73     0.242323
    74    -0.058373
    75     0.344642
    76    -0.497808
    77     0.137064
    78     0.121791
    79    -0.058130
    80    -0.022828
    81     0.715391
    82    -0.272789
    83     0.063840
    84    -0.530107
    85    -0.043943
    86     0.064207
    87     0.265695
    88     0.845488
    89     0.153211
    90     0.145808
    91    -0.515267
    92     0.212571
    93     0.161582
    94    -0.320091
    95    -0.566863
    96    -0.038628
    97     0.228766
    98    -0.034339
    99    -0.194872
   100     0.242933
   101    -0.586971
   102     0.213813
   103    -0.030925
   104     0.294117
   105     0.335246
   106     0.002664
   107     0.034411
   108     0.079348
   109     0.186952
   110    -0.066454
   111    -0.029863
   112     0.020206
   113     0.336369
   114     0.124786
   115    -0.061729
   116    -0.120571
   117     0.158350
   118     0.071106
   119    -0.114855
   120     0.102685
   121    -0.127771
   122    -0.107820
   123    -0.044338
   124    -0.103422
   125    -0.168033
   126     0.150086
   127    -0.045189
   128    -0.103433
   129     0.085055
   130    -0.016558
   131    -0.018223
   132     0.036663
   133     0.017229
   134     0.027114
   135     0.034753
   136     0.021116
   137    -0.049990
   138    -0.116068
   139     0.086091
   140     0.045984
   141     0.031805
   142    -0.022754
   143    -0.013015
   144    -0.043877
   145     0.162066
   146    -0.064519
   147     0.135242
   148     0.204581
   149     0.261808
   150    -0.132475
   151    -0.045335
   152     0.008070
   153     0.235330
   154    -0.029005
Sym=    57a
Ene=   -0.762844E-03
Spin= Alpha
Occup= 0.000111
     1     0.015576
     2     0.048505
     3     0.046978
     4     0.011159
     5    -0.004741
     6    -0.027355
     7    -0.014203
     8     0.003311
     9    -0.111876
    10    -0.108008
    11    -0.021048
    12    -0.004760
    13    -0.022364
    14    -0.037377
    15     0.008167
    16    -0.013070
    17     0.041423
    18    -0.640437
    19    -0.033276
    20     0.116212
    21     0.127650
    22    -0.120029
    23    -0.056855
    24     0.274098
    25     0.178039
    26     0.019922
    27    -0.099778
    28     0.055135
    29     0.093713
    30    -0.129609
    31    -0.063727
    32    -0.035765
    33    -0.027997
    34    -0.007478
    35    -0.002191
    36     0.011546
    37    -0.056960
    38     0.364056
    39     0.001419
    40    -0.019694
    41     0.034858
    42     0.109861
    43    -0.053603
    44     0.207224
    45    -0.051673
    46    -0.099961
    47    -0.008980
    48    -0.018009
    49     0.061959
    50    -0.007589
    51     0.324392
    52    -0.510312
    53     0.164911
    54     0.274920
    55    -0.325972
    56    -0.294586
    57     0.189406
    58     0.075760
    59     0.152815
    60     0.324370
    61     0.293398
    62     0.053275
    63     0.017344
    64     0.034223
    65    -0.037619
    66    -0.020104
    67    -0.167589
    68    -0.167805
    69    -0.408217
    70     0.576557
    71     0.154922
    72    -0.091738
    73     0.183998
    74     0.175913
    75     0.099794
    76    -0.262718
    77     0.342787
    78    -0.056835
    79     0.064914
    80     0.342689
    81     0.558167
    82    -0.276947
    83    -0.140477
    84    -0.393038
    85     0.291047
    86     0.011000
    87     0.025719
    88     0.467829
    89    -0.120388
    90    -0.409636
    91    -0.245137
    92    -0.051912
    93    -0.344622
    94    -0.400099
    95     0.053872
    96    -0.247544
    97     0.187802
    98    -0.040094
    99    -0.147270
   100     0.012314
   101    -0.392318
   102     0.372828
   103    -0.140607
   104    -0.172578
   105     0.409279
   106     0.003094
   107     0.056939
   108     0.092686
   109    -0.079768
   110    -0.039481
   111     0.006052
   112    -0.019338
   113     0.245039
   114    -0.061310
   115     0.142398
   116    -0.005819
   117    -0.079528
   118    -0.006379
   119    -0.223233
   120    -0.071439
   121    -0.173163
   122    -0.032338
   123    -0.170508
   124    -0.128975
   125    -0.012380
   126    -0.039481
   127    -0.136763
   128    -0.145780
   129     0.087856
   130     0.013115
   131     0.002941
   132     0.100184
   133    -0.020154
   134    -0.014341
   135    -0.009104
   136     0.062072
   137     0.006424
   138     0.015671
   139    -0.030172
   140    -0.063881
   141    -0.047188
   142     0.006833
   143    -0.011249
   144     0.010482
   145    -0.496958
   146     0.473867
   147     0.239617
   148     0.033593
   149    -0.399025
   150     0.249553
   151    -0.024294
   152     0.006404
   153    -0.246933
   154    -0.000396
Sym=    58a
Ene=   -0.631588E-03
Spin= Alpha
Occup= 0.000078
     1     0.001537
     2    -0.000206
     3     0.009643
     4     0.014396
     5    -0.010615
     6    -0.048748
     7     0.064139
     8    -0.019732
     9    -0.247386
    10    -0.009339
    11    -0.060807
    12     0.027275
    13    -0.054887
    14    -0.151276
    15    -0.077116
    16     0.007481
    17    -0.051794
    18     0.252404
    19    -0.064780
    20     0.069525
    21     0.207198
    22     0.005156
    23     0.012342
    24     0.842267
    25     0.024498
    26     0.130441
    27    -0.228733
    28    -0.043284
    29     0.189164
    30    -0.095940
    31     0.348427
    32     0.265321
    33     0.074582
    34     0.000782
    35     0.009899
    36     0.000415
    37    -0.030468
    38     0.162020
    39     0.055199
    40    -0.010540
    41     0.006965
    42     0.256463
    43    -0.027861
    44     0.086981
    45    -0.005911
    46    -0.012302
    47    -0.003019
    48    -0.021956
    49     0.068101
    50    -0.011649
    51    -0.516698
    52     0.325026
    53    -0.114409
    54    -0.380045
    55     0.221293
    56    -0.528316
    57     0.352114
    58     0.330605
    59    -0.076780
    60     0.258372
    61     0.489788
    62     0.047311
    63     0.002918
    64     0.103694
    65    -0.087053
    66    -0.028995
    67    -0.174445
    68     0.419036
    69    -0.291641
    70     0.525948
    71    -0.357987
    72    -0.245246
    73     0.186606
    74    -0.129449
    75     0.312403
    76    -0.381042
    77     0.324962
    78    -0.082615
    79     0.143468
    80     0.111397
    81     0.530821
    82    -0.405488
    83     0.145013
    84    -0.452434
    85     0.068699
    86    -0.004998
    87    -0.125634
    88    -0.558162
    89    -0.172617
    90     0.598899
    91     0.270163
    92     0.033777
    93    -0.096831
    94     0.028288
    95    -0.258606
    96     0.402867
    97    -0.275053
    98     0.311382
    99     0.036337
   100    -0.122702
   101     0.502079
   102    -0.059603
   103     0.047576
   104     0.071790
   105    -0.529824
   106     0.000415
   107     0.000769
   108    -0.015200
   109    -0.203225
   110     0.001878
   111    -0.020903
   112    -0.039172
   113     0.045483
   114     0.096500
   115     0.210933
   116     0.134642
   117    -0.150295
   118    -0.036900
   119     0.047868
   120     0.057838
   121    -0.121397
   122    -0.023415
   123    -0.146198
   124    -0.141426
   125    -0.024645
   126    -0.048944
   127     0.037537
   128    -0.021386
   129    -0.155923
   130    -0.036211
   131     0.010074
   132    -0.603484
   133     0.081829
   134    -0.035505
   135    -0.035014
   136    -0.329421
   137     0.098039
   138     0.153568
   139     0.014552
   140     0.188588
   141     0.195379
   142     0.024976
   143     0.032934
   144     0.020118
   145    -0.183084
   146     0.064813
   147    -0.131946
   148     0.079291
   149    -0.147931
   150    -0.148957
   151     0.003453
   152    -0.051370
   153    -0.185364
   154     0.146279
Sym=    59a
Ene=   -0.289255E-03
Spin= Alpha
Occup= 0.000020
     1     0.022403
     2    -0.050831
     3     0.474321
     4     0.057235
     5    -0.010119
     6    -0.016565
     7     0.399240
     8     0.096745
     9    -0.051842
    10     0.039848
    11    -0.151324
    12    -0.132730
    13     0.072600
    14     0.008861
    15    -0.018118
    16     0.011065
    17     0.072089
    18    -0.243886
    19     0.114789
    20    -0.250772
    21    -0.374326
    22     0.064336
    23     0.465656
    24     0.624224
    25    -0.197334
    26     0.585491
    27    -0.495378
    28    -0.152040
    29     0.404489
    30     0.237374
    31    -0.014442
    32     0.053643
    33     0.047622
    34    -0.089585
    35    -0.050577
    36     0.015940
    37    -0.016558
    38     0.232321
    39    -0.007876
    40     0.049159
    41     0.029143
    42    -0.009699
    43     0.137654
    44     0.104550
    45    -0.103654
    46    -0.050296
    47    -0.038069
    48    -0.006343
    49     0.000720
    50     0.024431
    51     0.012272
    52     0.219808
    53     0.058074
    54    -0.144654
    55    -0.215246
    56    -0.219043
    57     0.079796
    58    -0.057900
    59    -0.208286
    60     0.271836
    61     0.897085
    62    -0.192930
    63     0.033162
    64    -0.112747
    65     0.806884
    66     0.016784
    67     0.085042
    68     0.019673
    69    -0.240772
    70    -0.016729
    71    -0.053749
    72    -0.099407
    73    -0.006097
    74    -0.067427
    75     0.296374
    76    -0.287814
    77    -0.181965
    78     0.130327
    79     0.205420
    80    -0.044093
    81     0.174308
    82    -0.100683
    83    -0.015203
    84    -0.037800
    85     0.089905
    86     0.006733
    87     0.092772
    88    -0.422250
    89     0.128236
    90     0.180681
    91    -0.016444
    92     0.261884
    93     0.211326
    94     0.091204
    95     0.095840
    96    -0.055882
    97    -0.074434
    98     0.133841
    99    -0.181461
   100    -0.097475
   101     0.050968
   102    -0.022096
   103     0.265739
   104     0.006956
   105     0.039597
   106    -0.000204
   107    -0.008360
   108    -0.026553
   109     0.090866
   110    -0.004451
   111    -0.015774
   112     0.001902
   113     0.036208
   114     0.088816
   115     0.025380
   116     0.045336
   117     0.006293
   118    -0.000374
   119    -0.069950
   120     0.089414
   121     0.039290
   122     0.007359
   123    -0.019535
   124     0.078197
   125     0.020915
   126    -0.040655
   127     0.032740
   128     0.059588
   129     0.026304
   130     0.005668
   131    -0.047460
   132     0.187548
   133     0.015927
   134    -0.031869
   135    -0.018137
   136     0.037141
   137     0.146445
   138     0.072049
   139     0.002982
   140    -0.016519
   141    -0.050198
   142     0.041748
   143    -0.008275
   144     0.034808
   145     0.202110
   146    -0.212140
   147     0.017725
   148     0.015809
   149     0.042144
   150    -0.741818
   151     0.109208
   152    -0.184240
   153     0.651380
   154     0.201688
Sym=    60a
Ene=   -0.264666E-03
Spin= Alpha
Occup= 0.000018
     1     0.007417
     2    -0.035861
     3     0.438446
     4     0.009139
     5     0.030258
     6     0.014562
     7     0.121419
     8    -0.080349
     9    -0.101985
    10    -0.019952
    11    -0.029735
    12    -0.032614
    13    -0.038678
    14    -0.081466
    15     0.038326
    16    -0.007877
    17    -0.030891
    18    -0.025784
    19    -0.081235
    20     0.076932
    21     0.165344
    22     0.110788
    23    -0.068754
    24    -0.074824
    25     0.198844
    26    -0.162730
    27     0.075228
    28    -0.240327
    29    -0.285854
    30    -0.338069
    31     0.056010
    32    -0.014902
    33    -0.021178
    34     0.079064
    35    -0.014500
    36    -0.015303
    37     0.034228
    38    -0.311522
    39    -0.037969
    40     0.019379
    41    -0.009897
    42    -0.197024
    43     0.081118
    44    -0.105351
    45     0.017514
    46     0.092025
    47     0.078764
    48     0.040495
    49    -0.056497
    50     0.040779
    51    -0.278063
    52     0.122750
    53     0.053647
    54    -0.325413
    55    -0.256396
    56     0.058398
    57    -0.019737
    58    -0.110323
    59    -0.071705
    60     0.226964
    61    -0.264378
    62     0.003171
    63    -0.217101
    64    -0.260658
    65    -0.450814
    66     0.040980
    67     0.159743
    68     0.194546
    69    -0.217602
    70    -0.075730
    71    -0.057899
    72    -0.168794
    73     0.160723
    74    -0.170912
    75     0.055972
    76    -0.173499
    77    -0.402668
    78     0.220632
    79     0.038272
    80    -0.092373
    81     0.100348
    82    -0.315012
    83    -0.092969
    84    -0.015911
    85     0.063499
    86     0.008015
    87    -0.009193
    88    -0.042531
    89     0.165470
    90     0.267652
    91    -0.041750
    92     0.179230
    93     0.132998
    94    -0.106404
    95    -0.014698
    96     0.249322
    97    -0.284303
    98     0.295529
    99    -0.245976
   100    -0.225166
   101     0.220319
   102    -0.018644
   103     0.270436
   104     0.011147
   105    -0.083074
   106    -0.002676
   107    -0.054173
   108    -0.216672
   109     0.210597
   110     0.003393
   111    -0.028994
   112     0.032496
   113    -0.077228
   114     0.137952
   115    -0.212383
   116     0.128538
   117    -0.016183
   118     0.087242
   119     0.025400
   120     0.080869
   121     0.313710
   122     0.270788
   123     0.059835
   124     0.251082
   125     0.213994
   126    -0.161165
   127    -0.000028
   128     0.211077
   129     0.038706
   130    -0.006256
   131     0.045388
   132    -0.354808
   133     0.001314
   134     0.026473
   135    -0.008251
   136    -0.084266
   137    -0.201658
   138    -0.027582
   139     0.023581
   140     0.018696
   141     0.038068
   142    -0.053881
   143     0.014897
   144    -0.017446
   145     0.260192
   146    -0.351048
   147    -0.032732
   148     0.179595
   149     0.046906
   150     0.233359
   151    -0.072949
   152     0.453469
   153    -0.213048
   154     0.053221
Sym=    61a
Ene=   -0.170752E-03
Spin= Alpha
Occup= 0.000008
     1     0.028784
     2    -0.064479
     3     0.758337
     4     0.124861
     5     0.080332
     6     0.028857
     7     0.708404
     8     0.168236
     9     0.024477
    10     0.091760
    11    -0.211094
    12    -0.215181
    13    -0.037423
    14    -0.066144
    15    -0.027778
    16     0.037692
    17     0.146821
    18    -0.981467
    19    -0.051940
    20     0.131671
    21    -0.090121
    22    -0.199422
    23     0.294313
    24     0.153877
    25    -0.129816
    26    -0.126765
    27    -0.223416
    28    -0.258144
    29     0.161611
    30    -0.108191
    31     0.400894
    32    -0.101153
    33    -0.070904
    34     0.248228
    35     0.596055
    36     0.018830
    37    -0.040460
    38     0.359468
    39    -0.017926
    40    -0.033452
    41    -0.017794
    42     0.033270
    43    -0.112935
    44     0.029130
    45    -0.009350
    46    -0.121564
    47    -0.109242
    48    -0.022918
    49     0.048886
    50    -0.040415
    51    -0.046454
    52    -0.060252
    53    -0.013806
    54     0.045015
    55     0.141179
    56     0.286285
    57    -0.034326
    58     0.013392
    59     0.122563
    60    -0.104654
    61     0.418527
    62    -0.113246
    63     0.150245
    64    -0.136302
    65     0.377483
    66    -0.020350
    67    -0.147706
    68    -0.622531
    69     0.024722
    70     0.017040
    71     0.104837
    72     0.125913
    73     0.116521
    74     0.021902
    75    -0.186540
    76     0.414323
    77     0.057565
    78    -0.007976
    79    -0.374592
    80    -0.088194
    81    -0.300052
    82     0.202352
    83    -0.131101
    84     0.019843
    85    -0.103170
    86     0.017297
    87    -0.014173
    88     0.894648
    89     0.118902
    90    -0.092657
    91     0.125862
    92     0.306308
    93    -0.144977
    94    -0.639430
    95    -0.177003
    96     0.070231
    97    -0.124436
    98    -0.108023
    99    -0.154102
   100     0.107693
   101     0.035066
   102     0.254643
   103     0.178924
   104    -0.237030
   105     0.034504
   106     0.001106
   107     0.030162
   108    -0.076225
   109    -0.091589
   110    -0.015576
   111     0.039247
   112    -0.005327
   113     0.176406
   114    -0.257267
   115     0.021021
   116     0.017727
   117     0.038024
   118    -0.048317
   119    -0.041015
   120    -0.001016
   121    -0.268215
   122    -0.262317
   123    -0.062498
   124    -0.189797
   125    -0.206482
   126     0.073093
   127     0.089277
   128    -0.157971
   129     0.090293
   130     0.021583
   131     0.070859
   132    -0.231204
   133    -0.027595
   134     0.023699
   135     0.072051
   136    -0.544051
   137    -0.008108
   138    -0.138573
   139    -0.414354
   140     0.069006
   141     0.119685
   142    -0.054746
   143    -0.107606
   144     0.084042
   145    -0.071194
   146     0.111913
   147    -0.039579
   148    -0.171398
   149    -0.076494
   150     0.066920
   151    -0.064432
   152     0.459694
   153    -0.148223
   154    -0.065975
Sym=    62a
Ene=   -0.164581E-03
Spin= Alpha
Occup= 0.000008
     1    -0.028415
     2     0.044360
     3    -0.532679
     4    -0.087135
     5    -0.035637
     6     0.046902
     7    -0.365597
     8    -0.128892
     9     0.173268
    10    -0.005855
    11     0.211149
    12     0.108394
    13    -0.031523
    14     0.002785
    15    -0.065592
    16    -0.017510
    17     0.027363
    18    -0.185824
    19     0.033802
    20    -0.071501
    21    -0.000153
    22    -0.123646
    23     0.017612
    24    -0.040312
    25     0.103698
    26     0.187812
    27    -0.054604
    28     0.171971
    29    -0.159672
    30     0.032432
    31    -0.107808
    32    -0.087420
    33     0.159475
    34    -0.316553
    35     0.536303
    36     0.000740
    37     0.015237
    38    -0.022525
    39     0.018275
    40    -0.028846
    41    -0.052085
    42     0.104578
    43    -0.132904
    44    -0.118646
    45     0.062818
    46    -0.015348
    47    -0.033454
    48    -0.038258
    49     0.055129
    50    -0.062653
    51    -0.116946
    52    -0.212204
    53    -0.028255
    54     0.061937
    55    -0.057393
    56     0.031161
    57    -0.070573
    58    -0.063867
    59    -0.008412
    60     0.150734
    61    -0.038577
    62    -0.077406
    63    -0.387607
    64     0.052095
    65    -0.130326
    66    -0.003077
    67    -0.004262
    68    -0.624519
    69    -0.064039
    70    -0.073295
    71     0.047038
    72     0.185207
    73     0.071944
    74     0.209572
    75     0.153809
    76     0.213114
    77    -0.209825
    78     0.227022
    79    -0.071791
    80    -0.296085
    81    -0.204724
    82     0.148462
    83    -0.214340
    84     0.137713
    85     0.099574
    86     0.030579
    87    -0.174541
    88     1.153290
    89     0.090082
    90     0.017268
    91    -0.073599
    92     0.155331
    93    -0.258220
    94    -0.895561
    95    -0.064732
    96    -0.000925
    97    -0.404272
    98    -0.100016
    99     0.217342
   100    -0.364211
   101     0.411501
   102     0.140184
   103    -0.073614
   104     0.133068
   105    -0.157458
   106     0.002179
   107     0.036362
   108    -0.099664
   109    -0.006921
   110    -0.008176
   111     0.008201
   112    -0.003157
   113     0.113240
   114    -0.108153
   115    -0.020925
   116    -0.008471
   117     0.016193
   118    -0.002249
   119     0.022630
   120    -0.005035
   121    -0.227110
   122    -0.271573
   123    -0.012341
   124    -0.159825
   125    -0.184230
   126     0.060380
   127    -0.004017
   128    -0.153433
   129     0.002757
   130    -0.001065
   131    -0.017509
   132     0.166735
   133     0.005906
   134    -0.025815
   135     0.068507
   136     0.059240
   137     0.185021
   138    -0.377276
   139    -0.069530
   140    -0.041826
   141     0.113540
   142     0.160112
   143    -0.221126
   144    -0.033989
   145     0.239056
   146     0.024008
   147     0.000852
   148    -0.092160
   149     0.086753
   150    -0.073353
   151     0.045299
   152    -0.302585
   153     0.092999
   154     0.112769
Sym=    63a
Ene=   -0.522663E-04
Spin= Alpha
Occup= 0.000001
     1     0.009775
     2     0.004761
     3    -0.024111
     4     0.029548
     5    -0.002353
     6    -0.017476
     7     0.074556
     8     0.011164
     9    -0.071930
    10     0.013195
    11    -0.077853
    12    -0.039687
    13     0.003464
    14    -0.034995
    15    -0.002167
    16     0.009576
    17     0.049441
    18    -0.318816
    19    -0.018102
    20     0.046589
    21     0.021144
    22    -0.239704
    23     0.260502
    24     0.262762
    25    -0.077162
    26     0.016029
    27    -0.049566
    28    -0.023780
    29     0.044591
    30    -0.029571
    31     0.066043
    32     0.095410
    33    -0.036523
    34    -0.025418
    35    -0.209852
    36     0.000903
    37     0.042066
    38    -0.156198
    39     0.076438
    40     0.008404
    41    -0.060748
    42     0.218208
    43     0.026530
    44    -0.272659
    45     0.093688
    46     0.041203
    47    -0.115347
    48     0.006448
    49     0.004221
    50     0.008330
    51     0.088819
    52    -0.345678
    53     0.143548
    54     0.333248
    55     0.112133
    56     0.078253
    57     0.201014
    58     0.063036
    59     0.002518
    60    -0.206620
    61     0.184662
    62     0.000276
    63     0.063582
    64    -0.115994
    65     0.057535
    66    -0.008453
    67    -0.028670
    68    -1.016043
    69     0.083043
    70    -0.084963
    71    -0.071305
    72     0.177675
    73     0.249364
    74     0.020047
    75    -0.159189
    76    -0.040157
    77     0.164500
    78     0.346382
    79    -0.082774
    80    -0.356594
    81    -0.012368
    82     0.041561
    83    -0.351545
    84     0.101053
    85     0.361073
    86    -0.005880
    87    -0.189968
    88     1.289387
    89     0.010871
    90    -0.199513
    91    -0.054834
    92     0.265314
    93    -0.378967
    94    -0.752512
    95    -0.087552
    96    -0.295446
    97     0.301329
    98    -0.105111
    99    -0.175681
   100    -0.136082
   101    -0.132825
   102     0.317415
   103     0.169116
   104     0.305330
   105     0.023337
   106    -0.000929
   107    -0.018762
   108    -0.172773
   109    -0.243274
   110    -0.003360
   111    -0.017368
   112    -0.002980
   113     0.031918
   114     0.073855
   115    -0.039005
   116     0.103770
   117    -0.274407
   118     0.030796
   119     0.648193
   120    -0.298302
   121    -0.255702
   122     0.319785
   123     0.057251
   124    -0.057566
   125     0.178060
   126    -0.130261
   127    -0.353629
   128    -0.104152
   129    -0.083403
   130    -0.000260
   131     0.008081
   132    -0.068208
   133     0.011591
   134    -0.016653
   135    -0.021358
   136    -0.031598
   137     0.070646
   138     0.131393
   139     0.043890
   140     0.019012
   141    -0.043235
   142     0.001201
   143     0.057827
   144     0.006926
   145     0.022509
   146     0.398520
   147    -0.227483
   148     0.126792
   149     0.165151
   150    -0.139560
   151    -0.003097
   152     0.114526
   153    -0.011627
   154    -0.067186
Sym=    64a
Ene=   -0.276553E-02
Spin= Alpha
Occup= 0.001091
     1    -0.118565
     2    -0.456750
     3    -0.249008
     4    -0.108227
     5    -0.326879
     6    -0.038036
     7    -0.270353
     8    -0.556817
     9    -0.031481
    10     1.010629
    11    -0.193907
    12    -0.093213
    13     0.069284
    14    -0.082818
    15    -0.025725
    16     0.064552
    17     0.533950
    18    -0.860526
    19    -0.236318
    20    -0.013804
    21    -0.013102
    22    -0.617272
    23    -0.073626
    24     0.014830
    25     0.013244
    26    -0.396900
    27    -0.028379
    28    -0.174296
    29    -0.018899
    30    -0.135127
    31    -0.065656
    32    -0.087049
    33    -0.021588
    34    -0.015973
    35    -0.012838
    36     0.000770
    37    -0.008668
    38     0.034869
    39    -0.018526
    40     0.004870
    41     0.006606
    42    -0.066018
    43     0.003092
    44    -0.001846
    45    -0.015658
    46    -0.002679
    47    -0.005595
    48    -0.009413
    49    -0.015609
    50    -0.002448
    51    -0.013900
    52    -0.064607
    53     0.035550
    54     0.012029
    55     0.020711
    56    -0.030036
    57     0.020353
    58     0.006445
    59     0.010407
    60    -0.029745
    61     0.344586
    62    -0.008203
    63    -0.043136
    64    -0.007737
    65     0.075116
    66    -0.080830
    67    -0.468582
    68     0.143048
    69    -0.041585
    70    -0.005566
    71    -0.016257
    72    -0.057355
    73     0.039813
    74    -0.145875
    75     0.223432
    76     0.090448
    77     0.172525
    78    -0.043128
    79    -0.005825
    80     0.019508
    81    -0.001929
    82    -0.090153
    83    -0.034543
    84     0.004970
    85     0.008854
    86    -0.038185
    87    -0.136322
    88     0.563822
    89     0.219270
    90    -0.121991
    91     0.149063
    92     0.130079
    93    -0.020705
    94    -0.202100
    95     0.107931
    96     0.091895
    97     0.140500
    98    -0.026625
    99     0.054147
   100    -0.037719
   101     0.008727
   102    -0.027776
   103     0.032424
   104    -0.025832
   105    -0.013365
   106    -0.003136
   107    -0.046520
   108    -0.283264
   109    -0.067205
   110    -0.003934
   111    -0.005298
   112     0.012211
   113     0.029149
   114    -0.000280
   115    -0.065048
   116     0.066674
   117    -0.113091
   118    -0.007604
   119     0.082960
   120     0.077785
   121     0.105169
   122    -0.031858
   123     0.009544
   124    -0.002443
   125    -0.026027
   126    -0.036250
   127     0.013034
   128     0.010057
   129     0.005537
   130     0.001510
   131    -0.059281
   132     0.034288
   133    -0.068682
   134     0.008043
   135     0.046414
   136     0.229457
   137     0.076095
   138    -0.091268
   139    -0.144059
   140     0.168464
   141    -0.022821
   142     0.020091
   143     0.025501
   144     0.141106
   145    -0.036514
   146    -0.088454
   147    -0.000806
   148     0.033680
   149    -0.001288
   150     0.450181
   151     0.054866
   152    -0.104089
   153    -0.096968
   154    -0.022959
Sym=    65a
Ene=   -0.225862E-02
Spin= Alpha
Occup= 0.000780
     1     0.002056
     2     0.000967
     3     0.049307
     4     0.029159
     5    -0.139977
     6     0.209193
     7     0.103836
     8    -0.297159
     9     0.461442
    10    -0.047235
    11     0.666312
    12    -0.628693
    13    -0.070644
    14    -0.159466
    15    -0.372371
    16    -0.016552
    17    -0.053614
    18    -0.020119
    19     0.014416
    20     0.009582
    21     0.038294
    22     0.034197
    23     0.031570
    24     0.024779
    25     0.021888
    26     0.035140
    27     0.058324
    28    -0.018992
    29     0.047390
    30     0.008667
    31     0.032210
    32     0.029493
    33    -0.004320
    34     0.027461
    35    -0.028060
    36     0.001158
    37     0.003032
    38     0.005318
    39     0.007047
    40    -0.006133
    41     0.011387
    42     0.018954
    43    -0.010747
    44     0.022803
    45    -0.011583
    46     0.000335
    47     0.004872
    48     0.005904
    49    -0.004409
    50     0.002638
    51     0.048397
    52     0.066907
    53     0.009681
    54    -0.000855
    55    -0.020743
    56    -0.002728
    57     0.021833
    58     0.002371
    59     0.007801
    60    -0.005239
    61     0.017491
    62     0.061339
    63     0.019899
    64    -0.002911
    65    -0.004349
    66    -0.000438
    67     0.001695
    68    -0.001004
    69     0.013839
    70    -0.018134
    71     0.000236
    72    -0.024800
    73     0.025443
    74    -0.001214
    75     0.014276
    76     0.002421
    77     0.002223
    78    -0.011335
    79     0.007186
    80     0.009440
    81    -0.023015
    82     0.014607
    83    -0.019303
    84     0.011375
    85    -0.001937
    86     0.031509
    87     0.201847
    88    -0.317394
    89    -0.023644
    90    -0.009361
    91     0.020331
    92     0.080634
    93    -0.045398
    94    -0.017780
    95    -0.031665
    96    -0.107690
    97    -0.091766
    98    -0.018305
    99     0.009942
   100     0.015882
   101     0.060186
   102     0.091845
   103     0.003408
   104    -0.022306
   105    -0.022805
   106    -0.000244
   107    -0.004388
   108    -0.009664
   109    -0.011104
   110    -0.001146
   111    -0.003138
   112     0.001119
   113     0.008353
   114     0.016067
   115    -0.000714
   116     0.019226
   117     0.000848
   118     0.004498
   119     0.010915
   120     0.001367
   121     0.007485
   122     0.005019
   123    -0.000171
   124     0.008519
   125     0.013232
   126    -0.008321
   127     0.003567
   128     0.007183
   129    -0.001260
   130     0.002877
   131     0.013573
   132    -0.029613
   133     0.027643
   134    -0.083893
   135     0.106905
   136    -0.096085
   137     0.250778
   138    -0.357068
   139    -0.000486
   140     0.480182
   141    -0.500805
   142    -0.111831
   143     0.002686
   144    -0.262876
   145    -0.000887
   146     0.003686
   147    -0.001169
   148     0.001448
   149     0.007157
   150    -0.003852
   151     0.052511
   152     0.012890
   153    -0.024335
   154     0.016115
Sym=    66a
Ene=   -0.416090E-02
Spin= Alpha
Occup= 0.003861
     1     0.008204
     2     0.040676
     3    -0.008539
     4    -0.017833
     5     0.005908
     6     0.001492
     7    -0.009167
     8     0.014223
     9     0.007494
    10    -0.021298
    11    -0.004483
    12    -0.007754
    13    -0.001179
    14     0.005233
    15    -0.002765
    16     0.010706
    17     0.071566
    18    -0.114410
    19     0.016065
    20     0.019415
    21     0.016330
    22    -0.010923
    23     0.032528
    24    -0.014165
    25    -0.009794
    26    -0.013934
    27    -0.024128
    28    -0.005227
    29     0.007301
    30    -0.001121
    31    -0.023701
    32     0.001176
    33    -0.004444
    34     0.001999
    35     0.003022
    36     0.013255
    37     0.043751
    38     0.091499
    39    -0.086794
    40     0.075316
    41    -0.072636
    42    -0.080092
    43     0.214281
    44    -0.028096
    45    -0.026178
    46     0.004258
    47    -0.007586
    48     0.010590
    49    -0.022510
    50     0.000122
    51     0.012418
    52     0.172456
    53     0.012049
    54    -0.011285
    55     0.007032
    56    -0.017344
    57    -0.067782
    58     0.010192
    59     0.001089
    60     0.014923
    61    -0.001214
    62     0.041633
    63     0.006501
    64    -0.006480
    65    -0.007790
    66    -0.047613
    67    -0.361573
    68     0.566830
    69    -0.061880
    70    -0.073449
    71    -0.033016
    72     0.028377
    73    -0.355593
    74     0.020381
    75     0.033036
    76     0.098376
    77     0.029166
    78    -0.021148
    79    -0.028892
    80    -0.001755
    81     0.019002
    82     0.062349
    83    -0.018903
    84    -0.007113
    85     0.022558
    86    -0.074677
    87    -0.476805
    88     0.462417
    89     0.115662
    90    -0.163870
    91    -0.129971
    92     0.104305
    93    -0.107095
    94    -0.116370
    95     0.099341
    96     0.058520
    97     0.104271
    98    -0.063030
    99     0.000385
   100    -0.003879
   101    -0.117481
   102     0.035772
   103    -0.002224
   104     0.004222
   105     0.030515
   106     0.002478
   107     0.011582
   108     0.033596
   109    -0.675059
   110     0.007342
   111     0.031862
   112     0.044822
   113    -0.029134
   114    -0.120593
   115    -0.108026
   116     0.086106
   117    -0.373421
   118    -0.324685
   119    -0.044803
   120     0.313492
   121    -0.232612
   122    -0.189670
   123    -0.330244
   124     0.437053
   125     0.100008
   126    -0.241241
   127    -0.061799
   128    -0.046900
   129    -0.499064
   130     0.001270
   131    -0.000110
   132     0.028489
   133     0.008942
   134     0.006458
   135    -0.004288
   136    -0.004429
   137    -0.006201
   138     0.001846
   139    -0.002797
   140     0.001838
   141    -0.004256
   142     0.002286
   143     0.002103
   144    -0.003722
   145     0.034498
   146    -0.001767
   147     0.034976
   148     0.005946
   149     0.017627
   150     0.009788
   151     0.007225
   152     0.003333
   153    -0.004420
   154    -0.005177
Sym=    67a
Ene=   -0.331637E-02
Spin= Alpha
Occup= 0.002229
     1     0.017125
     2     0.058930
     3     0.062461
     4    -0.030859
     5    -0.004350
     6    -0.001893
     7     0.000224
     8     0.025725
     9    -0.003128
    10    -0.024013
    11    -0.007390
    12    -0.061527
    13     0.003444
    14     0.003169
    15     0.007965
    16     0.051707
    17     0.282354
    18    -0.261605
    19     0.049068
    20    -0.048565
    21     0.082107
    22    -0.008058
    23     0.015726
    24     0.003498
    25    -0.068849
    26    -0.080965
    27    -0.153529
    28    -0.007693
    29    -0.022894
    30     0.038599
    31    -0.007317
    32     0.036608
    33     0.001668
    34     0.004657
    35     0.004591
    36     0.001242
    37    -0.015435
    38     0.090506
    39    -0.004829
    40    -0.008281
    41     0.030091
    42     0.027860
    43    -0.014517
    44     0.104947
    45    -0.005650
    46    -0.032889
    47     0.019381
    48    -0.009116
    49     0.015185
    50     0.012400
    51    -0.317814
    52     0.266515
    53    -0.092260
    54    -0.019596
    55     0.076813
    56     0.174897
    57    -0.072257
    58     0.018467
    59     0.027000
    60    -0.111664
    61     0.057384
    62     0.116744
    63     0.038678
    64    -0.013318
    65    -0.021464
    66     0.020774
    67     0.133583
    68    -0.564891
    69    -0.007637
    70     0.080119
    71     0.185656
    72     0.172684
    73     0.036200
    74    -0.120231
    75    -0.049083
    76    -0.082435
    77    -0.081113
    78     0.045227
    79    -0.015773
    80     0.004341
    81     0.091237
    82    -0.060081
    83     0.043198
    84    -0.041153
    85    -0.018323
    86    -0.040029
    87    -0.209290
    88     0.520407
    89     0.191147
    90     0.141957
    91    -0.036593
    92     0.291526
    93     0.416930
    94     0.218264
    95     0.161643
    96     0.319108
    97    -0.126010
    98     0.185755
    99     0.408060
   100     0.034154
   101    -0.467165
   102     0.344763
   103     0.242241
   104     0.277855
   105     0.340211
   106    -0.000475
   107    -0.027381
   108    -0.089821
   109    -0.096503
   110     0.019202
   111    -0.016983
   112    -0.036542
   113    -0.062919
   114     0.090351
   115     0.190533
   116     0.010731
   117    -0.012298
   118    -0.113052
   119    -0.042985
   120     0.249066
   121     0.046383
   122     0.018650
   123    -0.068879
   124    -0.050834
   125     0.016197
   126    -0.008515
   127    -0.078384
   128    -0.007839
   129    -0.012711
   130    -0.002654
   131    -0.018285
   132     0.018814
   133    -0.003595
   134    -0.009934
   135    -0.009740
   136     0.019518
   137     0.020502
   138     0.029416
   139     0.010253
   140     0.007957
   141    -0.011498
   142    -0.001000
   143     0.005089
   144    -0.007846
   145    -0.214079
   146     0.215399
   147    -0.023375
   148    -0.042010
   149    -0.105536
   150     0.004105
   151    -0.086899
   152     0.003506
   153     0.008040
   154     0.026701
Sym=    68a
Ene=   -0.116084E-01
Spin= Alpha
Occup= 0.009463
     1     0.001454
     2     0.012838
     3     0.031411
     4    -0.013537
     5     0.013081
     6    -0.004362
     7     0.014803
     8     0.014736
     9    -0.006141
    10     0.000548
    11    -0.001313
    12    -0.003194
    13     0.006078
    14     0.000899
    15     0.002927
    16    -0.002894
    17     0.005722
    18    -0.107498
    19     0.046574
    20     0.035026
    21    -0.014871
    22     0.043454
    23     0.067015
    24     0.015832
    25     0.022761
    26    -0.007426
    27    -0.006574
    28     0.006595
    29    -0.002445
    30     0.009134
    31    -0.009451
    32     0.012652
    33    -0.002608
    34    -0.006696
    35    -0.003991
    36     0.010452
    37     0.029071
    38     0.057056
    39    -0.030301
    40    -0.060451
    41    -0.008192
    42    -0.064934
    43    -0.153152
    44     0.084905
    45     0.003354
    46    -0.010463
    47    -0.027217
    48     0.017604
    49    -0.001131
    50     0.010381
    51     0.242927
    52     0.020445
    53     0.009027
    54     0.019990
    55    -0.001597
    56    -0.053431
    57     0.100974
    58     0.023065
    59     0.010612
    60    -0.029750
    61     0.017235
    62     0.028962
    63    -0.000255
    64    -0.000047
    65     0.007264
    66     0.009658
    67     0.141932
    68    -0.698960
    69    -0.281694
    70    -0.317167
    71     0.102034
    72     0.157064
    73     0.234570
    74    -0.061458
    75     0.042395
    76    -0.015668
    77    -0.095520
    78    -0.018270
    79     0.064289
    80     0.047888
    81    -0.063366
    82    -0.071881
    83     0.019327
    84    -0.021251
    85     0.011051
    86     0.017233
    87     0.040580
    88     0.448940
    89    -0.149752
    90    -0.138228
    91     0.041846
    92     0.137844
    93    -0.006275
    94    -0.184648
    95    -0.038681
    96    -0.038588
    97     0.006812
    98     0.043366
    99    -0.032077
   100    -0.041443
   101     0.010887
   102     0.079412
   103     0.009271
   104    -0.003705
   105     0.002169
   106     0.017307
   107     0.131843
   108     0.422467
   109    -0.066405
   110    -0.182674
   111    -0.227776
   112     0.105800
   113     0.599051
   114     0.787846
   115    -0.316667
   116     0.054349
   117    -0.052662
   118     0.040947
   119    -0.089865
   120     0.144941
   121    -0.186726
   122     0.201931
   123    -0.033273
   124    -0.026768
   125     0.051765
   126     0.024374
   127     0.030868
   128     0.022359
   129    -0.015175
   130     0.001214
   131     0.009721
   132    -0.015824
   133     0.004607
   134     0.004722
   135     0.003999
   136    -0.013939
   137     0.000222
   138    -0.007173
   139    -0.008250
   140     0.002037
   141     0.001930
   142    -0.001245
   143     0.005209
   144    -0.001636
   145    -0.678146
   146     0.166440
   147     0.045062
   148    -0.083612
   149    -0.059984
   150    -0.000913
   151    -0.018426
   152    -0.004662
   153    -0.000610
   154     0.001031
Sym=    69a
Ene=   -0.429897E-02
Spin= Alpha
Occup= 0.001695
     1     0.035140
     2     0.184309
     3    -0.914944
     4    -0.164085
     5    -0.082963
     6    -0.011108
     7    -0.306910
     8     0.275461
     9     0.242033
    10    -0.013018
    11     0.121378
    12    -0.234296
    13    -0.042244
    14    -0.190997
    15     0.475421
    16    -0.019635
    17    -0.090345
    18     0.377473
    19    -0.006603
    20    -0.029218
    21     0.001288
    22    -0.124346
    23    -0.089951
    24    -0.006603
    25    -0.079703
    26     0.132792
    27     0.079769
    28    -0.039381
    29     0.037704
    30    -0.005759
    31    -0.163121
    32     0.176917
    33     0.021750
    34    -0.027707
    35    -0.019320
    36    -0.018704
    37    -0.050367
    38    -0.059759
    39    -0.032676
    40    -0.006243
    41    -0.005486
    42    -0.063906
    43    -0.015352
    44    -0.031727
    45     0.058050
    46     0.034829
    47     0.016659
    48    -0.004563
    49    -0.020622
    50    -0.009455
    51    -0.028191
    52     0.057455
    53     0.002340
    54    -0.016959
    55     0.008688
    56     0.001501
    57     0.038722
    58    -0.005337
    59     0.002392
    60     0.005552
    61    -0.022386
    62    -0.014173
    63    -0.024746
    64     0.006157
    65    -0.013353
    66     0.012038
    67     0.058501
    68     0.114215
    69    -0.027628
    70    -0.002246
    71     0.014981
    72    -0.098655
    73     0.031893
    74    -0.054594
    75    -0.023775
    76    -0.043699
    77    -0.014075
    78    -0.021767
    79     0.011172
    80     0.015877
    81    -0.011163
    82    -0.028353
    83    -0.017664
    84     0.012947
    85     0.000557
    86    -0.036631
    87    -0.174728
    88    -0.061408
    89    -0.046642
    90     0.020875
    91    -0.004625
    92    -0.032511
    93     0.008518
    94     0.116400
    95     0.113169
    96     0.067829
    97     0.061650
    98    -0.000941
    99    -0.025587
   100     0.004890
   101    -0.021979
   102    -0.060092
   103    -0.021138
   104    -0.001862
   105     0.004792
   106     0.000299
   107     0.002152
   108     0.072836
   109    -0.075213
   110     0.001079
   111    -0.001069
   112     0.008253
   113    -0.029511
   114     0.010379
   115    -0.047228
   116     0.069540
   117    -0.038200
   118     0.013523
   119     0.037129
   120    -0.009269
   121     0.001794
   122    -0.008616
   123     0.013753
   124    -0.014538
   125    -0.016545
   126    -0.012801
   127     0.012779
   128     0.005954
   129     0.000412
   130    -0.150485
   131    -0.614025
   132     0.466615
   133     0.039351
   134    -0.386255
   135    -0.254116
   136     0.032234
   137     0.743538
   138     0.463357
   139     0.364606
   140     0.008463
   141     0.397027
   142    -0.488725
   143    -0.279650
   144    -0.185347
   145    -0.013192
   146    -0.026078
   147    -0.000702
   148    -0.004596
   149     0.003949
   150    -0.108713
   151     0.006994
   152    -0.019902
   153     0.032084
   154     0.001299
Sym=    70a
Ene=   -0.465672E-02
Spin= Alpha
Occup= 0.003627
     1     0.004948
     2     0.023624
     3    -0.034851
     4     0.001863
     5    -0.010264
     6     0.027664
     7    -0.017337
     8    -0.033246
     9     0.018353
    10    -0.015450
    11    -0.013992
    12     0.003723
    13    -0.026789
    14     0.022754
    15     0.006784
    16    -0.001843
    17     0.035964
    18    -0.145710
    19     0.057010
    20    -0.018251
    21     0.071191
    22    -0.116937
    23     0.048017
    24     0.074638
    25    -0.016457
    26    -0.022490
    27     0.002038
    28     0.015144
    29    -0.003911
    30     0.011136
    31    -0.018137
    32    -0.003571
    33    -0.002941
    34     0.003435
    35     0.001330
    36     0.003219
    37     0.016027
    38    -0.030563
    39    -0.021668
    40    -0.016946
    41     0.046833
    42    -0.064533
    43    -0.034691
    44     0.071079
    45    -0.018929
    46    -0.009053
    47     0.010812
    48     0.007133
    49     0.000352
    50     0.006117
    51     0.110683
    52    -0.130917
    53    -0.010560
    54    -0.002570
    55     0.008053
    56    -0.135649
    57    -0.012653
    58    -0.239286
    59    -0.121581
    60     0.301492
    61     0.050691
    62    -0.014917
    63     0.000530
    64    -0.000995
    65    -0.004799
    66    -0.073218
    67    -0.497142
    68     0.920641
    69    -0.327089
    70    -0.230219
    71     0.147885
    72    -0.407736
    73    -0.239639
    74     0.069010
    75    -0.364648
    76     0.146973
    77     0.576956
    78    -0.071559
    79     0.056603
    80    -0.246727
    81    -0.210302
    82    -0.035373
    83     0.006088
    84     0.022565
    85    -0.088633
    86     0.010118
    87    -0.072543
    88    -0.000374
    89    -0.022534
    90    -0.126193
    91     0.277308
    92    -0.028330
    93    -0.288031
    94    -0.008140
    95     0.065517
    96    -0.043489
    97    -0.037429
    98    -0.032998
    99     0.031653
   100    -0.040922
   101     0.042844
   102     0.024848
   103    -0.031658
   104    -0.009042
   105    -0.007942
   106     0.001044
   107     0.019735
   108    -0.113965
   109    -0.179690
   110    -0.070143
   111    -0.028274
   112     0.054100
   113     0.257433
   114     0.062643
   115    -0.220054
   116    -0.061397
   117    -0.077891
   118    -0.050025
   119    -0.034302
   120    -0.070728
   121    -0.024971
   122     0.025344
   123     0.072674
   124     0.037623
   125    -0.035954
   126     0.108507
   127     0.053702
   128     0.004162
   129    -0.015439
   130     0.001550
   131     0.001267
   132     0.012273
   133     0.002125
   134    -0.010661
   135     0.010778
   136     0.005825
   137     0.021849
   138    -0.025529
   139    -0.005135
   140    -0.000586
   141    -0.006999
   142     0.005335
   143     0.005048
   144    -0.006406
   145    -0.118694
   146    -0.192079
   147    -0.057903
   148     0.100475
   149    -0.014854
   150     0.001631
   151     0.028929
   152     0.019904
   153     0.004978
   154     0.010900
Sym=    71a
Ene=   -0.574747E-02
Spin= Alpha
Occup= 0.004725
     1    -0.002570
     2    -0.013860
     3     0.039254
     4    -0.007206
     5    -0.007735
     6     0.009190
     7     0.010637
     8     0.007275
     9     0.010979
    10     0.006205
    11     0.002357
    12     0.005357
    13    -0.001564
    14     0.004634
    15     0.001003
    16    -0.015728
    17    -0.078888
    18     0.021841
    19     0.008776
    20    -0.004922
    21     0.008955
    22     0.089644
    23    -0.033510
    24     0.018515
    25     0.007262
    26     0.008429
    27     0.038670
    28    -0.008041
    29    -0.001929
    30    -0.002725
    31     0.015869
    32    -0.003965
    33     0.001244
    34     0.001928
    35     0.004920
    36    -0.003659
    37    -0.015631
    38     0.000877
    39     0.037495
    40     0.027378
    41     0.020234
    42     0.036851
    43     0.059814
    44    -0.005576
    45     0.004842
    46    -0.000845
    47     0.000908
    48     0.005004
    49     0.008844
    50     0.003227
    51    -0.032545
    52     0.208333
    53     0.008274
    54    -0.002281
    55    -0.001209
    56     0.155403
    57    -0.208377
    58    -0.035386
    59    -0.102477
    60    -0.071166
    61     0.039587
    62     0.054571
    63    -0.011971
    64    -0.003780
    65     0.008792
    66     0.134575
    67     0.670745
    68    -0.117071
    69     0.022220
    70    -0.242030
    71     0.071428
    72     0.046542
    73    -0.617885
    74     0.154028
    75    -0.275142
    76    -0.084009
    77    -0.400526
    78    -0.421617
    79     0.009463
    80    -0.144366
    81     0.372862
    82    -0.190625
    83    -0.169779
    84    -0.280021
    85     0.067330
    86     0.056274
    87     0.278418
    88    -0.316257
    89    -0.106956
    90    -0.002927
    91     0.082815
    92    -0.055828
    93     0.227086
    94     0.155790
    95    -0.051815
    96    -0.063961
    97    -0.096088
    98    -0.010863
    99     0.016815
   100    -0.019894
   101     0.041846
   102    -0.067133
   103    -0.004840
   104    -0.017520
   105    -0.010459
   106    -0.011231
   107    -0.124610
   108    -0.537089
   109     0.021781
   110     0.039869
   111    -0.005884
   112    -0.008616
   113    -0.180813
   114     0.013540
   115     0.020883
   116     0.009067
   117     0.000355
   118    -0.042871
   119     0.203312
   120     0.095288
   121     0.178840
   122     0.057405
   123    -0.005604
   124     0.051621
   125     0.132503
   126    -0.047004
   127    -0.015666
   128     0.010382
   129    -0.013598
   130    -0.003065
   131    -0.015586
   132     0.013917
   133    -0.013503
   134    -0.000681
   135    -0.007100
   136     0.019219
   137     0.002387
   138     0.013331
   139     0.004408
   140     0.000637
   141     0.003235
   142    -0.002059
   143    -0.001905
   144    -0.001158
   145     0.161482
   146     0.011048
   147     0.039526
   148    -0.077845
   149     0.077323
   150     0.025167
   151     0.019701
   152    -0.010948
   153    -0.009433
   154    -0.002839
Sym=    72a
Ene=   -0.199974E-01
Spin= Alpha
Occup= 0.016077
     1     0.002868
     2     0.022583
     3    -0.045793
     4    -0.020336
     5     0.026627
     6    -0.036592
     7    -0.027670
     8     0.017683
     9     0.006039
    10     0.003282
    11     0.000517
    12    -0.004468
    13     0.010674
    14    -0.005432
    15     0.000686
    16    -0.010477
    17    -0.048744
    18     0.082371
    19     0.075423
    20     0.030934
    21    -0.027604
    22     0.014784
    23    -0.011789
    24    -0.012115
    25     0.044790
    26    -0.015192
    27    -0.002516
    28    -0.000642
    29     0.014859
    30     0.016768
    31    -0.002929
    32     0.011938
    33     0.002751
    34    -0.000436
    35     0.000209
    36     0.000247
    37    -0.003553
    38     0.019327
    39    -0.032778
    40     0.002193
    41     0.015758
    42    -0.010826
    43     0.010846
    44    -0.004977
    45    -0.006953
    46    -0.001198
    47     0.001909
    48    -0.000502
    49    -0.003496
    50     0.000751
    51    -0.043963
    52     0.100352
    53     0.035507
    54    -0.002248
    55    -0.013319
    56    -0.028655
    57    -0.092381
    58     0.034199
    59     0.008357
    60    -0.010948
    61     0.003411
    62     0.005175
    63    -0.002016
    64    -0.005358
    65    -0.001287
    66    -0.217606
    67    -0.954746
    68     0.549187
    69    -0.689030
    70    -0.297129
    71     0.227953
    72    -0.027838
    73    -0.071813
    74    -0.000035
    75     0.136502
    76     0.119578
    77     0.184395
    78    -0.055584
    79    -0.008073
    80     0.008129
    81    -0.010066
    82    -0.045612
    83     0.024293
    84     0.015794
    85    -0.012146
    86     0.233137
    87     1.065581
    88    -0.590916
    89    -0.661558
    90    -0.247352
    91     0.260914
    92    -0.060936
    93     0.049834
    94     0.076667
    95    -0.164106
    96    -0.175002
    97    -0.164458
    98    -0.038683
    99    -0.030700
   100     0.044437
   101     0.001725
   102     0.020203
   103     0.029751
   104     0.011259
   105    -0.020122
   106    -0.002161
   107    -0.021743
   108    -0.067035
   109     0.013996
   110     0.048186
   111     0.020251
   112    -0.040368
   113    -0.127144
   114    -0.039144
   115     0.113037
   116    -0.013951
   117    -0.010880
   118     0.009753
   119     0.058935
   120    -0.024891
   121     0.044865
   122    -0.029096
   123    -0.038863
   124     0.017110
   125    -0.000728
   126     0.000843
   127     0.000005
   128    -0.001463
   129     0.003693
   130     0.003527
   131     0.008664
   132     0.030070
   133     0.010432
   134    -0.001591
   135    -0.002127
   136     0.004225
   137     0.011275
   138     0.014937
   139    -0.004571
   140    -0.003815
   141    -0.001055
   142    -0.001265
   143    -0.002218
   144     0.002113
   145     0.093997
   146    -0.053031
   147     0.025581
   148     0.002778
   149     0.001561
   150    -0.003008
   151     0.022927
   152    -0.002525
   153    -0.000839
   154     0.006694
Sym=    73a
Ene=   -0.756689E-02
Spin= Alpha
Occup= 0.004106
     1    -0.040095
     2    -0.151405
     3     0.261859
     4    -0.020551
     5    -0.147311
     6     0.013163
     7     0.003163
     8    -0.195408
     9    -0.053781
    10     0.212958
    11    -0.059381
    12     0.017550
    13    -0.009162
    14    -0.053036
    15    -0.023864
    16     0.042354
    17     0.148379
    18     0.199657
    19     0.148568
    20     0.215202
    21     0.057413
    22     0.391784
    23     0.315457
    24     0.132510
    25    -0.157380
    26    -0.103886
    27     0.062783
    28     0.602445
    29     0.216692
    30    -0.120732
    31     0.008970
    32    -0.003478
    33     0.001858
    34    -0.005868
    35     0.004113
    36    -0.010666
    37    -0.043921
    38     0.009572
    39    -0.022118
    40     0.050729
    41     0.043623
    42    -0.056418
    43     0.089572
    44     0.059158
    45     0.010723
    46     0.009724
    47     0.015618
    48     0.000963
    49    -0.003293
    50     0.004827
    51    -0.093167
    52     0.116323
    53    -0.031474
    54    -0.008024
    55    -0.011119
    56     0.001222
    57    -0.038674
    58     0.000108
    59    -0.001198
    60     0.005779
    61    -0.063566
    62     0.067213
    63    -0.061339
    64     0.091996
    65    -0.030346
    66     0.011296
    67     0.116723
    68     0.061674
    69     0.000826
    70    -0.018168
    71     0.015626
    72     0.003136
    73    -0.099964
    74     0.042547
    75    -0.018142
    76     0.004649
    77    -0.027258
    78     0.003279
    79     0.014186
    80    -0.006576
    81    -0.041489
    82     0.074025
    83    -0.008823
    84     0.002881
    85    -0.001590
    86     0.003660
    87     0.062341
    88    -0.445498
    89    -0.107806
    90     0.292750
    91     0.111335
    92    -0.124077
    93     0.144804
    94     0.373115
    95     0.046553
    96     0.079872
    97    -0.145209
    98    -0.020177
    99    -0.113099
   100     0.001426
   101     0.068669
   102    -0.118569
   103    -0.020556
   104    -0.010339
   105     0.010613
   106    -0.001436
   107    -0.018493
   108     0.029778
   109     0.054689
   110     0.004926
   111     0.007633
   112     0.014306
   113    -0.035626
   114    -0.013617
   115    -0.038815
   116    -0.049470
   117     0.049525
   118     0.006945
   119     0.049444
   120     0.016418
   121     0.019752
   122    -0.012863
   123     0.026216
   124    -0.015923
   125    -0.017384
   126     0.024061
   127     0.001312
   128     0.002427
   129    -0.000215
   130     0.004514
   131     0.006256
   132    -0.091913
   133     0.005638
   134     0.039963
   135     0.005997
   136     0.033515
   137    -0.056298
   138    -0.020687
   139     0.006860
   140    -0.015015
   141    -0.003059
   142    -0.027636
   143    -0.021516
   144     0.001761
   145     0.013144
   146     0.005108
   147     0.002129
   148    -0.006303
   149     0.004261
   150    -0.103994
   151     0.017027
   152     0.221227
   153     0.051288
   154     0.000066
Sym=    74a
Ene=   -0.559731E-02
Spin= Alpha
Occup= 0.004226
     1     0.036445
     2     0.178598
     3    -0.077476
     4     0.024372
     5    -0.036312
     6     0.054654
     7     0.024152
     8    -0.033779
     9     0.036825
    10    -0.066725
    11    -0.062598
    12    -0.035913
    13    -0.026015
    14     0.035265
    15     0.008123
    16    -0.016011
    17    -0.039902
    18    -0.052248
    19     0.078478
    20    -0.033538
    21     0.096347
    22     0.021618
    23    -0.010555
    24     0.009935
    25     0.000578
    26    -0.002559
    27     0.010005
    28    -0.016929
    29     0.007418
    30    -0.016433
    31     0.003199
    32     0.032151
    33    -0.003320
    34     0.000019
    35    -0.001511
    36    -0.000283
    37    -0.015835
    38     0.074968
    39     0.017534
    40     0.004617
    41    -0.008480
    42     0.057203
    43     0.017356
    44    -0.001080
    45    -0.004516
    46    -0.010389
    47     0.002426
    48     0.004154
    49     0.001710
    50     0.006183
    51    -0.381526
    52     0.602757
    53    -0.148491
    54    -0.212610
    55     0.316312
    56    -0.045177
    57     0.051235
    58     0.003979
    59    -0.006325
    60     0.011774
    61    -0.003375
    62     0.121853
    63     0.005644
    64    -0.010099
    65    -0.017607
    66    -0.071788
    67    -0.311844
    68     0.369228
    69    -0.175003
    70    -0.170205
    71    -0.062193
    72    -0.153443
    73    -0.071347
    74    -0.077733
    75     0.080974
    76     0.080486
    77     0.040262
    78    -0.013414
    79     0.049411
    80    -0.013601
    81    -0.003000
    82    -0.028011
    83    -0.019387
    84    -0.002677
    85     0.020630
    86    -0.050047
    87    -0.245748
    88    -0.121446
    89    -0.049947
    90    -0.217877
    91     0.172338
    92    -0.177890
    93    -0.181783
    94     0.392345
    95     0.274608
    96    -0.134085
    97     0.168002
    98     0.024552
    99    -0.138509
   100    -0.403641
   101    -0.163375
   102    -0.012100
   103    -0.053040
   104    -0.077120
   105     0.097478
   106     0.003286
   107     0.014621
   108     0.049923
   109    -0.314870
   110     0.069860
   111    -0.043634
   112    -0.068097
   113    -0.225447
   114     0.203400
   115     0.232872
   116     0.122295
   117    -0.124193
   118    -0.131554
   119    -0.058239
   120     0.106495
   121     0.048872
   122     0.039357
   123    -0.063726
   124     0.019181
   125     0.098606
   126    -0.036809
   127    -0.034477
   128     0.006574
   129    -0.006927
   130     0.004813
   131     0.026905
   132    -0.028368
   133     0.004428
   134    -0.014223
   135     0.042881
   136    -0.026764
   137     0.037593
   138    -0.075522
   139    -0.002793
   140     0.001479
   141    -0.014614
   142     0.000256
   143     0.002426
   144     0.003397
   145     0.068498
   146    -0.013588
   147     0.012860
   148    -0.005523
   149     0.006390
   150     0.031088
   151     0.038108
   152    -0.004527
   153     0.004195
   154    -0.002111
Sym=    75a
Ene=   -0.731422E-02
Spin= Alpha
Occup= 0.003901
     1    -0.018944
     2    -0.112063
     3    -0.018337
     4    -0.060449
     5     0.091549
     6    -0.224672
     7    -0.127809
     8     0.013673
     9    -0.260588
    10    -0.008772
    11     0.046570
    12     0.032896
    13     0.043055
    14    -0.122027
    15    -0.101227
    16    -0.019495
    17    -0.072998
    18    -0.005835
    19    -0.241464
    20    -0.120960
    21    -0.037092
    22    -0.414769
    23    -0.224134
    24    -0.094839
    25    -0.119055
    26    -0.151007
    27     0.373911
    28    -0.030778
    29     0.372823
    30     0.458738
    31     0.006067
    32    -0.004963
    33    -0.000798
    34    -0.020272
    35    -0.005418
    36    -0.002372
    37    -0.008105
    38    -0.007624
    39    -0.015143
    40     0.005054
    41     0.022637
    42    -0.037235
    43     0.007255
    44     0.030221
    45    -0.000431
    46     0.002467
    47     0.004670
    48     0.000527
    49    -0.001176
    50     0.001393
    51    -0.014239
    52     0.014521
    53    -0.005459
    54    -0.005235
    55     0.016240
    56     0.048601
    57     0.093517
    58    -0.011516
    59     0.013299
    60    -0.003485
    61     0.034506
    62    -0.049000
    63    -0.153918
    64    -0.171706
    65    -0.053998
    66     0.010810
    67     0.056404
    68    -0.275120
    69     0.048285
    70     0.007732
    71     0.031195
    72     0.038803
    73     0.054113
    74    -0.162788
    75    -0.007881
    76    -0.024886
    77     0.000393
    78     0.023812
    79     0.009477
    80     0.009791
    81     0.005656
    82     0.003372
    83    -0.004245
    84     0.005006
    85    -0.001599
    86    -0.005534
    87     0.012914
    88     0.422995
    89    -0.023731
    90     0.067673
    91     0.129023
    92     0.008140
    93     0.259811
    94     0.217201
    95     0.016412
    96     0.078104
    97    -0.021481
    98    -0.081840
    99    -0.059942
   100    -0.049000
   101     0.004341
   102    -0.253197
   103    -0.006597
   104    -0.028489
   105     0.030157
   106    -0.001088
   107    -0.009796
   108     0.022325
   109     0.091409
   110    -0.011898
   111     0.006588
   112     0.020244
   113     0.041142
   114    -0.018795
   115    -0.063407
   116    -0.020205
   117     0.045065
   118     0.022637
   119     0.015446
   120     0.003257
   121     0.007258
   122    -0.004203
   123     0.023434
   124    -0.026814
   125    -0.027345
   126     0.012972
   127     0.008174
   128    -0.002703
   129     0.001084
   130     0.025621
   131     0.130792
   132    -0.162718
   133     0.051888
   134     0.106101
   135    -0.046907
   136    -0.083488
   137    -0.209154
   138     0.076072
   139    -0.004585
   140    -0.045858
   141    -0.045093
   142    -0.044204
   143    -0.054137
   144     0.064021
   145    -0.005197
   146    -0.073754
   147    -0.005519
   148     0.010127
   149    -0.003827
   150     0.100351
   151    -0.098063
   152     0.044694
   153    -0.049840
   154     0.132418
Sym=    76a
Ene=   -0.765494E-02
Spin= Alpha
Occup= 0.002845
     1     0.007758
     2     0.034041
     3    -0.047670
     4    -0.014996
     5     0.000005
     6    -0.002973
     7    -0.024821
     8     0.015862
     9     0.008815
    10    -0.030221
    11    -0.003891
    12    -0.001266
    13    -0.005189
    14     0.006781
    15    -0.010154
    16     0.029534
    17     0.123019
    18    -0.035654
    19     0.022412
    20    -0.002576
    21     0.012612
    22    -0.016368
    23     0.004217
    24    -0.009681
    25    -0.068899
    26    -0.046219
    27    -0.060297
    28    -0.012950
    29     0.004983
    30    -0.002796
    31     0.003620
    32    -0.001531
    33     0.002621
    34    -0.010505
    35    -0.003904
    36     0.009286
    37     0.032817
    38    -0.006569
    39     0.002285
    40    -0.023564
    41     0.044705
    42    -0.044728
    43    -0.072298
    44     0.008595
    45     0.250598
    46    -0.185031
    47    -0.117582
    48     0.470044
    49     0.434230
    50     0.422249
    51    -0.115690
    52     0.142036
    53     0.013100
    54    -0.043195
    55     0.004962
    56    -0.039151
    57    -0.127669
    58     0.010652
    59     0.006851
    60    -0.003222
    61    -0.000453
    62    -0.034918
    63     0.009916
    64    -0.005152
    65    -0.005995
    66    -0.035485
    67    -0.187014
    68     0.225564
    69    -0.055191
    70    -0.061405
    71     0.004588
    72    -0.026311
    73    -0.226219
    74     0.115682
    75     0.054603
    76     0.087493
    77     0.045155
    78     0.005475
    79     0.047697
    80     0.027619
    81    -0.038643
    82     0.085496
    83    -0.001099
    84     0.015603
    85     0.021316
    86    -0.075280
    87    -0.388076
    88     0.095713
    89     0.079118
    90    -0.023918
    91    -0.124468
    92     0.056595
    93    -0.081110
    94    -0.292978
    95     0.116097
    96     0.130139
    97     0.145746
    98    -0.059186
    99     0.002240
   100     0.024488
   101    -0.090326
   102     0.161487
   103    -0.012402
   104     0.022751
   105     0.008438
   106    -0.062545
   107    -0.767168
   108    -3.272799
   109     0.260932
   110    -0.018686
   111     0.031579
   112    -0.010741
   113     0.086124
   114    -0.160783
   115     0.023497
   116     0.049469
   117    -0.149482
   118    -0.062062
   119     1.118672
   120     1.181111
   121     1.158771
   122    -0.164323
   123     0.019947
   124    -0.067531
   125    -0.263504
   126     0.009594
   127     0.008606
   128     0.004163
   129    -0.025712
   130     0.005022
   131     0.019860
   132     0.006664
   133     0.004149
   134    -0.010267
   135     0.001236
   136    -0.010704
   137     0.035515
   138     0.002000
   139    -0.004871
   140    -0.011971
   141    -0.006772
   142     0.006688
   143     0.001192
   144    -0.006486
   145    -0.062613
   146     0.131421
   147    -0.002113
   148    -0.003502
   149    -0.017998
   150    -0.009859
   151     0.024055
   152     0.001061
   153     0.003480
   154     0.001352
Sym=    77a
Ene=   -0.159029E-01
Spin= Alpha
Occup= 0.008198
     1    -0.008498
     2    -0.047142
     3     0.069045
     4     0.031416
     5    -0.003334
     6    -0.000894
     7     0.023365
     8    -0.016038
     9    -0.010662
    10     0.012039
    11    -0.001012
    12     0.007642
    13    -0.007887
    14    -0.004713
    15    -0.009618
    16    -0.016914
    17    -0.066065
    18    -0.041388
    19     0.000450
    20     0.024026
    21    -0.014037
    22    -0.007047
    23     0.024336
    24     0.018603
    25     0.011195
    26     0.016144
    27     0.034168
    28     0.009761
    29     0.008508
    30    -0.000851
    31     0.312476
    32     0.028997
    33    -0.041545
    34     0.021923
    35     0.022019
    36     0.129271
    37     0.530131
    38    -0.260441
    39     0.743600
    40    -0.194575
    41    -0.411913
    42     0.805936
    43    -0.200736
    44    -0.446715
    45    -0.043398
    46    -0.148090
    47    -0.178206
    48    -0.009375
    49     0.017065
    50    -0.000933
    51     0.056692
    52     0.016433
    53     0.014360
    54     0.003637
    55     0.004550
    56     0.006042
    57     0.036081
    58    -0.000902
    59    -0.000516
    60    -0.001112
    61     0.068950
    62     0.018363
    63    -0.010629
    64     0.007821
    65     0.015414
    66    -0.001752
    67    -0.013064
    68     0.044574
    69    -0.054805
    70     0.027771
    71     0.043275
    72    -0.060701
    73     0.024925
    74    -0.028422
    75    -0.009507
    76     0.002385
    77     0.016031
    78     0.007836
    79    -0.000276
    80    -0.002895
    81     0.008015
    82    -0.025833
    83     0.002078
    84     0.000785
    85    -0.001429
    86     0.001379
    87     0.008343
    88    -0.004036
    89    -0.008812
    90    -0.003140
    91     0.084922
    92     0.002011
    93     0.014887
    94     0.060603
    95     0.018660
    96     0.016330
    97    -0.020411
    98    -0.030377
    99    -0.005436
   100     0.008819
   101     0.034136
   102    -0.042277
   103    -0.002931
   104     0.010107
   105    -0.005895
   106    -0.002085
   107    -0.023786
   108    -0.075843
   109    -0.062832
   110     0.017868
   111    -0.008755
   112     0.031088
   113    -0.098536
   114     0.055987
   115    -0.042318
   116     0.059738
   117    -0.065262
   118    -0.003016
   119    -0.059450
   120     0.025640
   121     0.115404
   122     0.003777
   123    -0.019871
   124     0.056707
   125     0.063910
   126    -0.016258
   127    -0.008276
   128    -0.007921
   129    -0.006417
   130    -0.062527
   131    -0.232916
   132    -0.078709
   133    -0.217838
   134     0.018779
   135     0.045290
   136     0.122113
   137     0.008093
   138     0.008247
   139     0.113972
   140     0.033812
   141     0.041152
   142    -0.020669
   143    -0.037788
   144     0.008628
   145    -0.038973
   146     0.017556
   147    -0.005086
   148     0.021067
   149    -0.002911
   150    -0.006069
   151    -0.004668
   152     0.003500
   153     0.000193
   154     0.001901
Sym=    78a
Ene=   -0.861665E-02
Spin= Alpha
Occup= 0.004576
     1     0.001856
     2     0.017460
     3    -0.019023
     4    -0.085592
     5     0.179147
     6    -0.285188
     7    -0.096625
     8     0.206978
     9    -0.325260
    10     0.023781
    11    -0.244459
    12     0.219977
    13     0.027133
    14     0.082056
    15     0.142824
    16    -0.002335
    17    -0.005600
    18    -0.043832
    19     0.017210
    20    -0.003383
    21     0.008356
    22     0.042480
    23    -0.030948
    24     0.088030
    25    -0.008696
    26     0.018350
    27    -0.001753
    28     0.012496
    29    -0.024184
    30    -0.023729
    31     0.004694
    32    -0.035036
    33     0.036777
    34    -0.093280
    35     0.143960
    36    -0.003125
    37    -0.010818
    38     0.000133
    39     0.004108
    40     0.013189
    41    -0.017078
    42     0.006743
    43     0.022380
    44    -0.029258
    45     0.003935
    46     0.004334
    47     0.005732
    48     0.004709
    49    -0.000666
    50    -0.001012
    51    -0.025505
    52    -0.067423
    53     0.002633
    54    -0.004471
    55     0.002622
    56    -0.004505
    57    -0.039241
    58    -0.000327
    59    -0.000582
    60     0.000539
    61     0.032087
    62    -0.026700
    63    -0.007681
    64     0.014165
    65     0.002959
    66     0.000630
    67    -0.008473
    68     0.092428
    69     0.005858
    70     0.005924
    71    -0.004632
    72    -0.003194
    73    -0.031792
    74     0.054986
    75    -0.000940
    76    -0.001018
    77     0.001109
    78     0.001446
    79    -0.003627
    80    -0.001102
    81     0.002516
    82     0.010874
    83     0.000142
    84    -0.001253
    85    -0.000039
    86     0.003663
    87    -0.046797
    88     0.125745
    89    -0.015880
    90     0.014963
    91    -0.019656
    92    -0.112517
    93    -0.052690
    94    -0.038826
    95    -0.019936
    96    -0.015377
    97    -0.008410
    98     0.005369
    99     0.007393
   100    -0.006095
   101     0.007920
   102    -0.036394
   103     0.005426
   104    -0.001671
   105    -0.000698
   106    -0.000708
   107    -0.004942
   108    -0.045953
   109     0.016337
   110    -0.004179
   111     0.002039
   112    -0.003564
   113     0.016880
   114    -0.015377
   115     0.007063
   116    -0.030003
   117    -0.011051
   118    -0.000097
   119    -0.002824
   120    -0.000975
   121     0.003446
   122     0.000121
   123    -0.004758
   124    -0.001631
   125    -0.001324
   126    -0.003455
   127    -0.000914
   128    -0.000613
   129    -0.000054
   130     0.002625
   131     0.008511
   132     0.013843
   133    -0.009663
   134     0.030815
   135    -0.042333
   136     0.032074
   137    -0.075636
   138     0.111822
   139     0.129373
   140     0.473851
   141    -0.614732
   142    -0.309346
   143     0.222486
   144    -0.219029
   145    -0.000626
   146     0.021545
   147    -0.001173
   148     0.001962
   149     0.000311
   150     0.006884
   151    -0.020018
   152    -0.001807
   153     0.009305
   154    -0.017694
Sym=    79a
Ene=   -0.235007E-01
Spin= Alpha
Occup= 0.010511
     1     0.003240
     2     0.025837
     3    -0.036665
     4    -0.012605
     5     0.006925
     6     0.013089
     7    -0.005683
     8     0.006434
     9     0.011165
    10    -0.003947
    11     0.004674
    12    -0.003611
    13     0.002214
    14     0.000448
    15     0.001824
    16     0.008450
    17     0.046802
    18    -0.062103
    19     0.001528
    20     0.022383
    21     0.013319
    22    -0.021802
    23     0.037892
    24    -0.003909
    25    -0.002097
    26    -0.013594
    27    -0.009102
    28     0.001721
    29     0.003840
    30    -0.003651
    31    -0.100708
    32     0.044740
    33     0.062513
    34    -0.020701
    35    -0.036306
    36    -0.469584
    37    -1.838138
    38     0.693318
    39     0.002193
    40    -0.138433
    41    -0.403360
    42    -0.040998
    43    -0.155524
    44    -0.463038
    45     0.440615
    46     0.452671
    47     0.406010
    48    -0.000245
    49    -0.009735
    50    -0.022728
    51     0.014247
    52    -0.073475
    53     0.009750
    54    -0.000145
    55     0.014950
    56    -0.003413
    57    -0.047350
    58     0.000628
    59    -0.004364
    60     0.001241
    61    -0.021105
    62    -0.003718
    63     0.001174
    64     0.000907
    65    -0.004664
    66     0.002147
    67     0.014384
    68    -0.104071
    69    -0.014580
    70     0.019066
    71     0.019725
    72     0.078350
    73    -0.047317
    74     0.026166
    75    -0.008520
    76     0.002033
    77    -0.000077
    78    -0.003242
    79    -0.003478
    80     0.000437
    81     0.013664
    82     0.050131
    83    -0.000018
    84    -0.000731
    85     0.001824
    86     0.002015
    87    -0.005942
    88     0.138756
    89    -0.003246
    90     0.009830
    91     0.030868
    92     0.012411
    93     0.018605
    94    -0.009253
    95     0.011877
    96     0.017352
    97    -0.011567
    98    -0.014665
    99    -0.003753
   100    -0.007885
   101     0.003199
   102    -0.037200
   103    -0.001796
   104     0.003323
   105    -0.003242
   106    -0.013006
   107    -0.132082
   108    -0.549676
   109     0.269464
   110    -0.003061
   111     0.005113
   112     0.019275
   113    -0.004199
   114    -0.020309
   115    -0.058588
   116    -0.080233
   117     0.098469
   118    -0.041999
   119     0.118008
   120     0.113323
   121     0.196393
   122     0.018487
   123     0.035192
   124     0.016255
   125     0.009320
   126     0.040075
   127     0.004627
   128     0.003871
   129     0.006127
   130     0.023514
   131     0.110083
   132    -0.030288
   133     0.074969
   134     0.001366
   135    -0.020471
   136    -0.036480
   137    -0.007831
   138     0.013355
   139    -0.033481
   140    -0.005104
   141    -0.005271
   142     0.002944
   143     0.006694
   144    -0.001687
   145    -0.021668
   146    -0.053378
   147     0.006359
   148     0.007535
   149    -0.003550
   150     0.002614
   151    -0.013605
   152     0.001146
   153    -0.002285
   154    -0.000315
Sym=    80a
Ene=   -0.165068E-01
Spin= Alpha
Occup= 0.008372
     1     0.581960
     2     2.598758
     3    -1.125776
     4     0.329629
     5    -0.274523
     6    -0.245553
     7     0.291730
     8    -0.228159
     9    -0.221145
    10    -0.674341
    11    -0.687371
    12    -0.698953
    13    -0.009639
    14    -0.014718
    15     0.029638
    16     0.023314
    17     0.101431
    18    -0.032612
    19     0.125319
    20    -0.014585
    21    -0.047337
    22     0.004953
    23    -0.085188
    24    -0.001641
    25    -0.074495
    26     0.011442
    27    -0.010534
    28     0.004944
    29     0.010427
    30     0.029059
    31     0.019596
    32    -0.038020
    33    -0.012626
    34     0.011079
    35     0.010456
    36    -0.002030
    37    -0.012894
    38     0.020739
    39    -0.006179
    40    -0.002043
    41     0.000674
    42    -0.009449
    43    -0.002368
    44     0.003135
    45     0.000088
    46     0.001756
    47     0.000244
    48    -0.001983
    49    -0.001586
    50     0.000642
    51     0.025912
    52    -0.049253
    53     0.002179
    54     0.003901
    55    -0.004352
    56     0.008812
    57    -0.031324
    58    -0.000075
    59    -0.000702
    60    -0.000718
    61     0.089778
    62    -0.013988
    63    -0.016978
    64    -0.009056
    65     0.025614
    66     0.002439
    67     0.018782
    68     0.000567
    69     0.018779
    70     0.000370
    71     0.008266
    72     0.019802
    73    -0.018591
    74     0.030557
    75     0.003789
    76     0.001998
    77    -0.001337
    78     0.000899
    79    -0.001258
    80     0.001491
    81     0.001028
    82     0.015093
    83     0.000498
    84     0.000333
    85    -0.000428
    86     0.015808
    87     0.065256
    88     0.005367
    89     0.043052
    90    -0.008864
    91     0.008809
    92    -0.032046
    93     0.006915
    94     0.041336
    95    -0.015438
    96    -0.008422
    97    -0.015485
    98    -0.006784
    99     0.011409
   100     0.007191
   101     0.013103
   102    -0.053135
   103     0.002176
   104     0.002670
   105    -0.003540
   106    -0.000377
   107    -0.003271
   108    -0.001353
   109     0.024895
   110    -0.002944
   111     0.002624
   112    -0.000160
   113     0.006145
   114    -0.007187
   115     0.003224
   116    -0.022207
   117     0.011473
   118     0.008066
   119     0.004857
   120     0.005316
   121    -0.000596
   122    -0.000646
   123    -0.002035
   124    -0.001120
   125    -0.005794
   126     0.002135
   127     0.000997
   128    -0.001054
   129     0.000189
   130     0.038141
   131     0.101009
   132     0.104459
   133    -0.067553
   134     0.034125
   135     0.037070
   136    -0.009456
   137     0.025423
   138     0.020559
   139    -0.026541
   140    -0.012092
   141    -0.040280
   142     0.028771
   143     0.013867
   144     0.016469
   145    -0.000580
   146     0.014118
   147    -0.000895
   148    -0.001634
   149    -0.000816
   150     0.119524
   151     0.045527
   152     0.014394
   153    -0.025122
   154    -0.004251
Sym=    81a
Ene=   -0.885388E-02
Spin= Alpha
Occup= 0.004386
     1    -0.056048
     2    -0.173637
     3     0.111694
     4    -0.047781
     5     0.010571
     6    -0.128970
     7    -0.053072
     8     0.156886
     9    -0.019861
    10     0.197754
    11     0.044195
    12    -0.002641
    13     0.093865
    14    -0.102304
    15    -0.033311
    16    -0.216123
    17    -0.935458
    18     0.440469
    19     0.461547
    20    -0.158726
    21    -0.137111
    22     0.781417
    23    -0.183645
    24    -0.309074
    25     0.648348
    26     0.326669
    27    -0.071459
    28     0.097755
    29     0.069267
    30     0.319700
    31    -0.023500
    32     0.024807
    33     0.007700
    34    -0.008998
    35    -0.007672
    36     0.013126
    37     0.050543
    38    -0.007436
    39     0.032071
    40    -0.055830
    41    -0.029175
    42     0.066854
    43    -0.080582
    44    -0.033548
    45    -0.019341
    46    -0.012940
    47    -0.018020
    48    -0.007058
    49     0.006197
    50    -0.002594
    51     0.018601
    52     0.006869
    53     0.000244
    54     0.006719
    55     0.017067
    56    -0.172219
    57    -0.043496
    58     0.025670
    59    -0.017700
    60     0.025892
    61    -0.176048
    62    -0.060196
    63     0.067000
    64    -0.071666
    65     0.010178
    66    -0.002266
    67     0.023206
    68     0.323072
    69    -0.033631
    70     0.087823
    71    -0.159770
    72    -0.019840
    73    -0.115105
    74     0.020074
    75     0.017585
    76     0.030508
    77     0.014890
    78    -0.019555
    79     0.002479
    80    -0.016584
    81     0.040189
    82    -0.023446
    83     0.008073
    84    -0.002501
    85     0.013606
    86    -0.073206
    87    -0.412697
    88    -0.323512
    89     0.197274
    90     0.017944
    91    -0.213735
    92    -0.019693
    93     0.034109
    94     0.293870
    95    -0.064405
    96     0.130411
    97     0.266770
    98     0.000258
    99     0.119139
   100    -0.120567
   101    -0.044931
   102    -0.161957
   103     0.033591
   104    -0.036425
   105     0.017664
   106    -0.001000
   107    -0.009778
   108     0.008983
   109     0.011561
   110     0.013524
   111     0.002109
   112    -0.031062
   113    -0.088331
   114     0.019822
   115     0.127897
   116    -0.055175
   117     0.045906
   118    -0.030336
   119     0.008892
   120     0.039068
   121     0.015745
   122    -0.019442
   123    -0.021611
   124     0.036464
   125    -0.009182
   126     0.032513
   127    -0.007836
   128    -0.005065
   129     0.002611
   130     0.009316
   131     0.014788
   132     0.107689
   133     0.046352
   134     0.008976
   135    -0.032140
   136    -0.025828
   137     0.039549
   138     0.091718
   139     0.008366
   140    -0.035517
   141    -0.009565
   142    -0.029465
   143    -0.031178
   144     0.005831
   145     0.050902
   146    -0.076669
   147     0.007405
   148    -0.009489
   149     0.012587
   150     0.028705
   151     0.001763
   152     0.023643
   153     0.011783
   154     0.043575
Sym=    82a
Ene=   -0.785545E-02
Spin= Alpha
Occup= 0.003082
     1     0.002826
     2     0.013328
     3    -0.027068
     4    -0.026606
     5     0.062016
     6    -0.099027
     7    -0.045102
     8     0.110969
     9    -0.138280
    10    -0.004010
    11    -0.107003
    12     0.097002
    13     0.026981
    14     0.023127
    15     0.056054
    16     0.001821
    17    -0.012990
    18     0.120303
    19     0.006393
    20    -0.014563
    21     0.011380
    22     0.054870
    23    -0.075060
    24     0.024367
    25    -0.026211
    26     0.009396
    27    -0.001104
    28     0.013469
    29    -0.050483
    30    -0.011540
    31     0.003370
    32     0.024992
    33    -0.027600
    34     0.069397
    35    -0.107611
    36     0.000309
    37    -0.005604
    38     0.023867
    39     0.002428
    40    -0.001836
    41     0.015041
    42     0.008646
    43     0.000353
    44     0.035449
    45    -0.004240
    46    -0.005334
    47     0.001729
    48     0.000192
    49    -0.005459
    50     0.003278
    51     0.031728
    52     0.003390
    53    -0.009200
    54    -0.005330
    55     0.004279
    56    -0.006430
    57    -0.000565
    58     0.000459
    59    -0.000487
    60     0.004433
    61    -0.029657
    62     0.036880
    63     0.009631
    64    -0.002116
    65     0.001114
    66    -0.006963
    67    -0.018932
    68     0.178517
    69    -0.004416
    70    -0.002340
    71    -0.001800
    72    -0.056236
    73    -0.028749
    74    -0.044055
    75     0.016049
    76     0.010272
    77     0.015409
    78    -0.001973
    79     0.008602
    80    -0.001737
    81     0.001284
    82    -0.025976
    83    -0.000800
    84     0.001682
    85     0.001208
    86     0.000027
    87     0.032570
    88    -0.184050
    89    -0.012424
    90     0.010746
    91     0.013241
    92    -0.075506
    93     0.081923
    94     0.285074
    95     0.012762
    96    -0.004409
    97     0.007933
    98     0.012771
    99    -0.008051
   100    -0.009066
   101    -0.008364
   102    -0.166415
   103    -0.004909
   104     0.000729
   105     0.006832
   106    -0.000795
   107    -0.013351
   108     0.008985
   109     0.029742
   110     0.003089
   111    -0.002564
   112    -0.003424
   113    -0.024377
   114     0.028013
   115     0.033270
   116    -0.012831
   117     0.000081
   118     0.008298
   119     0.032271
   120     0.040398
   121     0.018469
   122    -0.015501
   123    -0.009797
   124    -0.002489
   125    -0.011180
   126    -0.008339
   127     0.001024
   128    -0.001012
   129    -0.001429
   130    -0.000263
   131    -0.003290
   132     0.015935
   133    -0.019624
   134     0.050121
   135    -0.084847
   136     0.052177
   137    -0.122200
   138     0.235232
   139    -0.292516
   140     0.383439
   141    -0.091645
   142     0.333242
   143    -0.696607
   144    -0.325660
   145    -0.001511
   146    -0.048077
   147     0.000780
   148     0.000223
   149     0.000180
   150     0.011772
   151    -0.019741
   152    -0.004342
   153     0.003010
   154    -0.000646
Sym=    83a
Ene=   -0.838424E-02
Spin= Alpha
Occup= 0.002886
     1    -0.006119
     2    -0.027713
     3     0.022817
     4     0.009462
     5    -0.008873
     6    -0.003217
     7     0.014878
     8    -0.015106
     9    -0.006922
    10     0.022992
    11     0.002811
    12     0.000976
    13     0.003670
    14    -0.004788
    15     0.007103
    16    -0.025038
    17    -0.107942
    18     0.070633
    19    -0.004473
    20    -0.003175
    21    -0.012017
    22     0.041084
    23    -0.025457
    24    -0.008107
    25     0.059232
    26     0.032357
    27     0.038740
    28     0.010692
    29    -0.004553
    30     0.000652
    31    -0.028248
    32     0.020355
    33     0.021002
    34    -0.008181
    35    -0.007825
    36     0.015596
    37     0.103011
    38    -0.170524
    39    -0.087116
    40    -0.050751
    41    -0.092659
    42    -0.156564
    43    -0.084132
    44    -0.152284
    45     0.037467
    46     0.265331
    47    -0.339529
    48     0.381238
    49    -0.369154
    50     0.538502
    51     0.061010
    52    -0.037228
    53    -0.000697
    54     0.017448
    55    -0.010261
    56     0.009824
    57     0.042832
    58     0.005864
    59    -0.005832
    60     0.011378
    61     0.012461
    62     0.025970
    63    -0.005576
    64     0.005751
    65     0.003322
    66     0.070626
    67     0.316483
    68     0.154812
    69     0.055932
    70     0.131563
    71     0.009783
    72     0.024134
    73     0.005460
    74    -0.050858
    75    -0.128523
    76    -0.081741
    77    -0.122172
    78    -0.024434
    79    -0.078391
    80    -0.010042
    81     0.052823
    82    -0.024179
    83    -0.004398
    84    -0.009201
    85    -0.003313
    86     0.054893
    87     0.283223
    88    -0.254304
    89    -0.064846
    90     0.032144
    91     0.111232
    92    -0.108582
    93     0.084155
    94     0.309944
    95    -0.062826
    96    -0.082516
    97    -0.122594
    98     0.035242
    99    -0.004620
   100    -0.018879
   101     0.075287
   102    -0.144241
   103     0.008824
   104    -0.022084
   105    -0.008344
   106     0.062437
   107     0.756327
   108     3.237119
   109    -0.420526
   110     0.046816
   111     0.004028
   112     0.040667
   113    -0.243151
   114     0.004803
   115    -0.198730
   116    -0.034531
   117     0.039324
   118     0.020756
   119    -1.075498
   120    -1.181427
   121    -1.032449
   122    -0.031332
   123     0.021859
   124    -0.072789
   125     0.100073
   126     0.014800
   127    -0.014941
   128    -0.046477
   129    -0.013110
   130     0.005067
   131     0.015380
   132     0.018243
   133     0.018753
   134    -0.003429
   135    -0.010782
   136     0.003849
   137    -0.004249
   138     0.009003
   139    -0.004422
   140    -0.005832
   141    -0.007623
   142     0.007579
   143     0.002696
   144     0.000583
   145     0.091258
   146    -0.182557
   147     0.011742
   148     0.006922
   149     0.046326
   150     0.019714
   151    -0.003041
   152     0.000464
   153    -0.003189
   154    -0.001539
Sym=    84a
Ene=   -0.159960E-02
Spin= Alpha
Occup= 0.000309
     1     0.159052
     2     0.547291
     3     0.606638
     4     0.046254
     5     0.078878
     6     0.054550
     7     0.019526
     8    -0.012945
     9     0.074775
    10    -0.371377
    11    -0.409665
    12    -0.401383
    13     0.101554
    14     0.055106
    15    -0.124586
    16    -0.029303
    17    -0.060952
    18    -0.338097
    19    -0.105688
    20     0.038634
    21    -0.032196
    22    -0.270295
    23    -0.007142
    24    -0.165463
    25     0.016969
    26     0.094230
    27     0.077361
    28     0.225648
    29    -0.104091
    30    -0.002033
    31    -0.162855
    32     0.123735
    33    -0.041308
    34     0.032265
    35     0.011963
    36     0.163550
    37     0.215293
    38     1.124577
    39     0.027525
    40     0.019298
    41     0.069080
    42     0.163225
    43     0.055717
    44     0.256545
    45    -0.409179
    46    -0.537829
    47    -0.517805
    48     0.020333
    49     0.057909
    50     0.002697
    51     0.164846
    52    -0.054224
    53     0.022700
    54     0.253787
    55     0.081074
    56     0.117470
    57     0.114716
    58    -0.075932
    59     0.050583
    60    -0.050682
    61     0.050759
    62    -0.019863
    63    -0.025904
    64    -0.023476
    65     0.015198
    66    -0.025383
    67    -0.112124
    68    -0.088341
    69    -0.010063
    70     0.151155
    71    -0.075648
    72    -0.133691
    73     0.220317
    74    -0.249356
    75     0.070577
    76    -0.183598
    77     0.009905
    78     0.102827
    79     0.025512
    80     0.050509
    81     0.366141
    82    -0.333898
    83     0.108710
    84    -0.183167
    85     0.029752
    86    -0.079030
    87    -0.211963
    88     0.000639
    89     0.192755
    90    -0.346319
    91     0.135032
    92     0.123293
    93     0.137079
    94     0.337563
    95     0.100351
    96     0.150135
    97     0.276087
    98     0.186290
    99     0.051672
   100    -0.202309
   101    -0.020940
   102    -0.175843
   103     0.075842
   104    -0.060857
   105     0.050450
   106    -0.000338
   107    -0.022312
   108    -0.118996
   109     0.081454
   110    -0.001472
   111    -0.014141
   112    -0.084057
   113     0.104259
   114     0.098268
   115     0.505562
   116     0.093184
   117     0.048903
   118    -0.058084
   119     0.162791
   120     0.042538
   121    -0.051764
   122    -0.219846
   123    -0.084930
   124     0.160669
   125    -0.254648
   126     0.207938
   127     0.278365
   128    -0.037874
   129    -0.049915
   130    -0.225069
   131    -0.606370
   132    -0.871125
   133    -0.092472
   134     0.050633
   135     0.034966
   136     0.195880
   137    -0.119709
   138    -0.086078
   139     0.600898
   140     0.611625
   141     0.535208
   142     0.017972
   143     0.028402
   144     0.038018
   145     0.249241
   146    -0.205766
   147    -0.039748
   148     0.033097
   149     0.091193
   150     0.128293
   151    -0.033855
   152     0.002961
   153    -0.062136
   154    -0.027832
Sym=    85a
Ene=   -0.152951E-02
Spin= Alpha
Occup= 0.000300
     1     0.188785
     2     0.647170
     3     0.305732
     4     0.067674
     5     0.065357
     6    -0.012561
     7    -0.060379
     8     0.107008
     9    -0.016367
    10    -0.380706
    11    -0.559302
    12    -0.487676
    13     0.107923
    14    -0.051092
    15    -0.140224
    16     0.196979
    17     0.627607
    18     0.564371
    19    -0.017591
    20    -0.242028
    21     0.143965
    22    -0.147010
    23    -0.305637
    24     0.093077
    25    -0.458576
    26    -0.513119
    27    -0.487212
    28     0.195642
    29    -0.056662
    30    -0.043362
    31    -0.378352
    32     0.004758
    33     0.058409
    34    -0.021106
    35    -0.037387
    36     0.087329
    37     0.050754
    38     0.862236
    39    -0.001382
    40    -0.003111
    41     0.087082
    42     0.121219
    43     0.030031
    44     0.404671
    45    -0.317108
    46    -0.360704
    47    -0.146895
    48     0.025760
    49     0.091434
    50     0.046816
    51     0.065735
    52     0.127541
    53     0.140820
    54    -0.192991
    55    -0.054847
    56    -0.018367
    57     0.165065
    58     0.084436
    59     0.007337
    60    -0.061480
    61    -0.082405
    62    -0.055967
    63     0.058777
    64    -0.013858
    65    -0.123838
    66    -0.020577
    67    -0.116325
    68    -0.318909
    69     0.119537
    70    -0.042184
    71    -0.093895
    72     0.071890
    73     0.197971
    74    -0.150766
    75     0.122199
    76     0.089301
    77     0.000522
    78    -0.026279
    79    -0.062398
    80    -0.059820
    81    -0.130632
    82    -0.016501
    83    -0.077302
    84     0.039833
    85     0.028815
    86     0.009243
    87    -0.156119
    88     0.211950
    89     0.058168
    90     0.097035
    91     0.103376
    92     0.320381
    93    -0.080747
    94    -0.338403
    95     0.003510
    96    -0.110476
    97     0.046551
    98    -0.307301
    99     0.209534
   100     0.090313
   101     0.144246
   102     0.114365
   103     0.078010
   104    -0.064918
   105    -0.132246
   106     0.009734
   107     0.170570
   108     0.602545
   109    -0.036158
   110    -0.115512
   111    -0.003942
   112     0.017130
   113     0.616229
   114     0.017902
   115     0.052991
   116    -0.045145
   117     0.001696
   118     0.021064
   119    -0.725533
   120    -0.254695
   121    -0.319252
   122     0.227552
   123    -0.140787
   124    -0.020590
   125     0.253504
   126    -0.192614
   127    -0.166617
   128    -0.099427
   129     0.054175
   130    -0.136431
   131    -0.396319
   132    -0.323314
   133     0.011263
   134     0.052039
   135     0.042345
   136     0.151716
   137    -0.084285
   138    -0.098338
   139     0.405445
   140     0.382581
   141     0.332205
   142    -0.081222
   143    -0.120661
   144     0.158549
   145     0.003952
   146    -0.099586
   147     0.019077
   148     0.152092
   149    -0.000960
   150     0.047171
   151     0.037892
   152    -0.016770
   153     0.106643
   154     0.072138
Sym=    86a
Ene=   -0.136350E-02
Spin= Alpha
Occup= 0.000267
     1    -0.225931
     2    -0.717259
     3    -0.098241
     4    -0.034736
     5     0.120566
     6     0.056984
     7    -0.029615
     8    -0.051375
     9    -0.154024
    10     0.618459
    11     0.564304
    12     0.575200
    13     0.093012
    14     0.027430
    15    -0.031705
    16     0.014196
    17     0.048594
    18     0.098839
    19     0.061918
    20    -0.003397
    21     0.053064
    22     0.251094
    23    -0.098064
    24     0.298303
    25    -0.074870
    26     0.048005
    27    -0.116304
    28    -0.178776
    29     0.120541
    30     0.026866
    31     0.031453
    32     0.041790
    33    -0.127554
    34     0.030767
    35     0.062490
    36     0.101045
    37     0.113565
    38     0.778851
    39     0.006206
    40     0.040357
    41     0.014365
    42     0.069702
    43     0.128346
    44     0.093544
    45    -0.245406
    46    -0.341734
    47    -0.341085
    48     0.001305
    49     0.028754
    50     0.045081
    51    -0.138937
    52     0.060496
    53     0.051801
    54    -0.074566
    55    -0.125376
    56     0.172907
    57     0.000748
    58    -0.127027
    59     0.130994
    60     0.026358
    61     0.221141
    62     0.105454
    63     0.009332
    64    -0.019495
    65     0.041139
    66     0.011609
    67     0.109094
    68     0.005426
    69     0.134113
    70    -0.139465
    71     0.117041
    72    -0.063503
    73     0.075598
    74     0.064371
    75    -0.021055
    76    -0.177722
    77     0.106182
    78    -0.061194
    79    -0.197430
    80    -0.072094
    81    -0.080263
    82     0.089891
    83     0.025229
    84     0.072772
    85    -0.240689
    86     0.003622
    87     0.017770
    88    -0.300427
    89    -0.115127
    90     0.184057
    91     0.031050
    92    -0.092939
    93    -0.088435
    94     0.165639
    95     0.095900
    96     0.031671
    97    -0.227737
    98     0.087607
    99     0.039441
   100    -0.076439
   101     0.209200
   102    -0.073166
   103    -0.143948
   104    -0.087505
   105    -0.075441
   106    -0.006735
   107    -0.103785
   108    -0.310138
   109    -0.127265
   110     0.008421
   111    -0.043402
   112    -0.025654
   113     0.014438
   114     0.259048
   115     0.187861
   116     0.100752
   117    -0.226735
   118     0.007152
   119     0.208731
   120     0.208695
   121     0.059450
   122     0.283038
   123    -0.152067
   124    -0.001660
   125     0.276180
   126    -0.263116
   127    -0.224451
   128     0.096640
   129    -0.045933
   130    -0.179006
   131    -0.361871
   132    -0.997163
   133    -0.096485
   134     0.086706
   135     0.073562
   136     0.067248
   137    -0.342063
   138    -0.196972
   139     0.546618
   140     0.341954
   141     0.516850
   142     0.072604
   143     0.058669
   144    -0.206516
   145    -0.210568
   146     0.194296
   147     0.112807
   148    -0.215522
   149     0.156406
   150    -0.001020
   151     0.033071
   152     0.048457
   153    -0.025972
   154    -0.009127
Sym=    87a
Ene=   -0.743470E-03
Spin= Alpha
Occup= 0.000108
     1    -0.031119
     2    -0.112915
     3    -0.231341
     4    -0.031440
     5    -0.047021
     6    -0.019178
     7    -0.085249
     8    -0.151127
     9    -0.055990
    10     0.210361
    11     0.046024
    12     0.019450
    13     0.086836
    14    -0.012285
    15    -0.005075
    16     0.007763
    17    -0.001802
    18     0.474519
    19    -0.063999
    20     0.152152
    21     0.217307
    22    -0.152499
    23     0.692706
    24     0.363014
    25    -0.276053
    26     0.227695
    27     0.023372
    28    -0.193539
    29    -0.050567
    30     0.143679
    31    -0.410082
    32    -0.241924
    33    -0.127744
    34    -0.002625
    35     0.024595
    36     0.029041
    37    -0.048993
    38     0.495893
    39    -0.016444
    40    -0.012683
    41     0.034706
    42     0.027744
    43    -0.048957
    44     0.203119
    45    -0.054082
    46    -0.180607
    47    -0.107282
    48    -0.036276
    49     0.044182
    50    -0.021459
    51    -0.144908
    52    -0.163885
    53     0.086942
    54    -0.125566
    55    -0.230872
    56     0.350385
    57    -0.209808
    58    -0.153921
    59    -0.306140
    60    -0.218247
    61    -0.055392
    62    -0.025379
    63     0.060723
    64     0.201030
    65    -0.251857
    66    -0.020764
    67    -0.093045
    68    -0.540059
    69     0.241755
    70    -0.105482
    71    -0.062017
    72     0.278298
    73     0.117576
    74     0.093164
    75     0.034189
    76     0.008977
    77    -0.070959
    78    -0.023708
    79    -0.301299
    80    -0.063076
    81    -0.016957
    82     0.087076
    83     0.311185
    84     0.095293
    85     0.152381
    86     0.016634
    87     0.009228
    88     0.422283
    89     0.101009
    90     0.074597
    91    -0.159195
    92     0.175974
    93    -0.244313
    94    -0.518409
    95    -0.285492
    96     0.065978
    97     0.129970
    98     0.052176
    99     0.009438
   100    -0.056529
   101    -0.205718
   102     0.420498
   103    -0.061166
   104    -0.117739
   105     0.209751
   106     0.000907
   107     0.011992
   108    -0.184743
   109     0.213423
   110    -0.060147
   111    -0.032184
   112    -0.006595
   113     0.370877
   114     0.112079
   115     0.090118
   116    -0.148940
   117     0.149276
   118    -0.025081
   119    -0.077717
   120     0.113168
   121    -0.159437
   122    -0.104591
   123    -0.107428
   124    -0.095407
   125    -0.127236
   126     0.138519
   127    -0.001408
   128    -0.077150
   129     0.007077
   130     0.068190
   131     0.006553
   132     0.787653
   133    -0.127102
   134     0.012344
   135     0.055523
   136     0.436857
   137     0.005928
   138    -0.150801
   139    -0.124237
   140    -0.272237
   141    -0.302379
   142     0.016705
   143    -0.060971
   144     0.037180
   145     0.094407
   146    -0.061813
   147    -0.120470
   148     0.216039
   149     0.117291
   150    -0.647491
   151    -0.070523
   152     0.005951
   153    -0.071403
   154     0.115224
Sym=    88a
Ene=   -0.758869E-03
Spin= Alpha
Occup= 0.000108
     1    -0.008016
     2    -0.102712
     3     0.118820
     4    -0.006530
     5    -0.038233
     6    -0.027914
     7     0.037427
     8    -0.144521
     9    -0.057988
    10     0.113368
    11     0.000097
    12    -0.049331
    13     0.095884
    14     0.031311
    15     0.061700
    16     0.014250
    17     0.069892
    18     0.240958
    19    -0.029684
    20     0.148344
    21     0.195608
    22    -0.059621
    23     0.677121
    24     0.207766
    25    -0.216527
    26     0.172112
    27    -0.056092
    28    -0.119522
    29    -0.113334
    30     0.229308
    31    -0.517167
    32    -0.294442
    33    -0.219283
    34     0.003189
    35     0.046836
    36     0.036240
    37     0.018247
    38     0.274029
    39    -0.081330
    40     0.054115
    41     0.022920
    42    -0.316350
    43     0.146072
    44     0.005511
    45    -0.080998
    46    -0.137175
    47    -0.166859
    48     0.004329
    49    -0.087188
    50     0.040116
    51     0.240636
    52    -0.079535
    53    -0.126441
    54     0.127951
    55     0.013552
    56    -0.454448
    57     0.166342
    58     0.343880
    59     0.235193
    60     0.176689
    61    -0.002076
    62    -0.032676
    63     0.061407
    64     0.147921
    65    -0.197224
    66     0.036515
    67     0.167444
    68     0.460394
    69    -0.198924
    70     0.012063
    71    -0.385998
    72    -0.143073
    73    -0.056073
    74    -0.107397
    75     0.060773
    76    -0.165910
    77    -0.147895
    78     0.115495
    79     0.350505
    80    -0.137786
    81     0.104963
    82    -0.161820
    83    -0.247750
    84    -0.182544
    85    -0.274528
    86    -0.007922
    87    -0.012329
    88    -0.398923
    89     0.098336
    90    -0.076475
    91     0.174674
    92    -0.003193
    93    -0.127224
    94     0.007796
    95     0.141467
    96    -0.108224
    97     0.008947
    98    -0.167884
    99     0.090914
   100    -0.023481
   101     0.111776
   102     0.076737
   103     0.159610
   104    -0.037700
   105    -0.076146
   106    -0.000916
   107    -0.017416
   108    -0.117579
   109     0.117340
   110     0.020665
   111     0.018798
   112     0.015163
   113    -0.099403
   114    -0.089983
   115    -0.089898
   116    -0.007711
   117     0.020534
   118    -0.019964
   119     0.017475
   120     0.031303
   121     0.076406
   122     0.034465
   123     0.150140
   124     0.152329
   125     0.007673
   126    -0.014474
   127     0.049450
   128     0.048662
   129     0.055088
   130     0.106812
   131     0.040402
   132     1.066068
   133    -0.195551
   134     0.025059
   135     0.055047
   136     0.591573
   137    -0.057690
   138    -0.162069
   139    -0.206740
   140    -0.437327
   141    -0.453274
   142     0.014346
   143    -0.060179
   144     0.035901
   145     0.330445
   146    -0.287379
   147    -0.036528
   148    -0.043231
   149     0.196448
   150    -0.519908
   151    -0.040660
   152     0.000718
   153    -0.076451
   154     0.047595
Sym=    89a
Ene=   -0.586096E-03
Spin= Alpha
Occup= 0.000071
     1    -0.038773
     2    -0.073816
     3    -0.496808
     4    -0.018480
     5    -0.044802
     6     0.020361
     7     0.002431
     8    -0.078808
     9     0.199324
    10     0.305354
    11    -0.049828
    12     0.074935
    13    -0.075739
    14     0.033809
    15    -0.081713
    16     0.046329
    17    -0.082812
    18     1.803791
    19     0.045428
    20    -0.121918
    21    -0.024313
    22     0.070237
    23     0.519972
    24    -0.454834
    25    -0.446775
    26     0.001159
    27     0.074939
    28    -0.164444
    29    -0.281815
    30     0.451253
    31     0.298956
    32     0.197378
    33     0.155168
    34     0.016570
    35    -0.055873
    36    -0.031345
    37     0.044098
    38    -0.507793
    39     0.002852
    40    -0.009697
    41    -0.005615
    42    -0.028276
    43    -0.034180
    44    -0.085964
    45     0.055061
    46     0.168759
    47     0.146462
    48    -0.007207
    49    -0.014659
    50    -0.009847
    51     0.007328
    52     0.109642
    53    -0.046391
    54     0.025774
    55    -0.010466
    56     0.399308
    57    -0.200092
    58    -0.099713
    59     0.247320
    60    -0.085222
    61    -0.719652
    62    -0.090492
    63     0.079424
    64     0.120561
    65    -0.189199
    66    -0.005369
    67     0.005820
    68     0.120662
    69    -0.017946
    70     0.285729
    71     0.309554
    72    -0.043425
    73     0.097550
    74     0.055321
    75    -0.212898
    76    -0.041798
    77     0.137461
    78     0.086574
    79    -0.356679
    80     0.141547
    81     0.250648
    82    -0.187606
    83    -0.130129
    84    -0.212228
    85     0.243415
    86    -0.025496
    87    -0.092201
    88    -0.560715
    89     0.039805
    90     0.061046
    91     0.407498
    92    -0.071080
    93     0.222273
    94     0.681557
    95     0.287281
    96     0.083628
    97    -0.388481
    98     0.129246
    99     0.241928
   100    -0.257436
   101     0.592181
   102    -0.560803
   103     0.016430
   104    -0.262733
   105    -0.351565
   106    -0.004422
   107    -0.093518
   108    -0.247839
   109     0.259750
   110     0.029764
   111    -0.044208
   112     0.002588
   113    -0.228086
   114     0.237795
   115    -0.026595
   116    -0.086495
   117     0.195365
   118     0.014682
   119     0.230110
   120     0.192588
   121     0.346631
   122    -0.007309
   123    -0.017588
   124     0.020670
   125    -0.006420
   126     0.137623
   127    -0.048354
   128     0.096326
   129    -0.062237
   130    -0.049913
   131    -0.037509
   132    -0.363386
   133     0.122946
   134    -0.003338
   135    -0.039754
   136    -0.322404
   137     0.140560
   138     0.166501
   139     0.076949
   140     0.264702
   141     0.205133
   142    -0.035915
   143     0.053702
   144     0.026182
   145    -0.294068
   146     0.049432
   147     0.079003
   148     0.072818
   149    -0.280404
   150    -0.863924
   151    -0.024005
   152    -0.027344
   153     0.429196
   154     0.019175
Sym=    90a
Ene=   -0.250947E-03
Spin= Alpha
Occup= 0.000017
     1     0.005066
     2    -0.006021
     3     0.013271
     4     0.015870
     5    -0.021032
     6    -0.003576
     7     0.002595
     8    -0.145057
     9    -0.119305
    10     0.012520
    11    -0.043848
    12    -0.028822
    13    -0.046935
    14    -0.090561
    15    -0.027187
    16     0.014763
    17     0.002596
    18     0.387194
    19     0.024485
    20     0.019365
    21     0.056845
    22    -0.087839
    23     0.369628
    24     0.505406
    25     0.037305
    26     0.055000
    27    -0.266130
    28    -0.088604
    29    -0.276301
    30     0.055102
    31    -0.100164
    32     0.176542
    33     0.150672
    34    -0.169988
    35    -0.135814
    36     0.005261
    37    -0.039652
    38     0.228550
    39     0.066041
    40    -0.013018
    41     0.025627
    42     0.274824
    43    -0.059920
    44     0.140777
    45    -0.012540
    46    -0.042492
    47    -0.027300
    48    -0.052085
    49     0.049881
    50    -0.033053
    51     0.090446
    52     0.180099
    53    -0.333459
    54     0.048729
    55    -0.080317
    56    -0.358455
    57     0.130342
    58     0.061891
    59    -0.144485
    60     0.038320
    61     0.281928
    62     0.082414
    63    -0.225617
    64    -0.416604
    65    -0.059476
    66    -0.031509
    67    -0.119882
    68     0.371223
    69     0.085839
    70     0.155712
    71    -0.115378
    72    -0.043285
    73    -0.177707
    74     0.000771
    75     0.269306
    76    -0.134003
    77     0.261449
    78    -0.166603
    79     0.268531
    80     0.116775
    81     0.120569
    82     0.096194
    83     0.221079
    84    -0.085380
    85     0.021444
    86    -0.024807
    87     0.009755
    88    -0.866092
    89    -0.091291
    90     0.111237
    91     0.250291
    92    -0.125541
    93     0.125516
    94     0.617492
    95     0.135803
    96     0.194471
    97    -0.139000
    98    -0.446984
    99     0.079480
   100    -0.058449
   101     0.147355
   102    -0.197053
   103     0.186610
   104    -0.199195
   105    -0.121344
   106     0.002486
   107     0.041530
   108     0.277202
   109    -0.177036
   110     0.003277
   111     0.003562
   112    -0.022739
   113     0.020460
   114     0.007900
   115     0.196137
   116    -0.102987
   117     0.002077
   118    -0.072198
   119     0.034427
   120     0.020535
   121    -0.335182
   122    -0.297217
   123    -0.045205
   124    -0.273008
   125    -0.257579
   126     0.183139
   127    -0.037792
   128    -0.160693
   129    -0.030479
   130    -0.015338
   131    -0.038933
   132    -0.064892
   133     0.036722
   134    -0.037584
   135    -0.042001
   136     0.146244
   137     0.076273
   138     0.040278
   139     0.171742
   140     0.003631
   141     0.000167
   142     0.035608
   143    -0.021662
   144    -0.003411
   145    -0.101812
   146     0.089679
   147     0.103419
   148    -0.069504
   149     0.044962
   150    -0.379953
   151    -0.017117
   152     0.185929
   153     0.209838
   154    -0.391787
Sym=    91a
Ene=   -0.286758E-03
Spin= Alpha
Occup= 0.000019
     1    -0.018397
     2    -0.010896
     3    -0.173135
     4     0.023107
     5     0.067170
     6     0.017230
     7     0.023050
     8     0.339197
     9     0.164747
    10     0.155988
    11     0.020832
    12     0.012950
    13     0.128374
    14     0.045484
    15    -0.064260
    16     0.031499
    17     0.136890
    18    -0.745888
    19    -0.029641
    20     0.265643
    21     0.098576
    22     0.017549
    23    -0.137789
    24    -0.061527
    25    -0.231339
    26    -0.356413
    27     0.163876
    28     0.076556
    29     0.219157
    30    -0.154299
    31    -0.881477
    32     0.192240
    33     0.893907
    34    -0.233541
    35    -0.259724
    36    -0.052642
    37     0.120019
    38    -0.956945
    39     0.063110
    40    -0.016980
    41    -0.073143
    42     0.114644
    43    -0.065663
    44    -0.332952
    45     0.133263
    46     0.313792
    47     0.245201
    48     0.032905
    49     0.008747
    50    -0.015582
    51    -0.354729
    52    -0.165934
    53    -0.175049
    54    -0.019564
    55    -0.059390
    56     0.056261
    57     0.031943
    58    -0.025216
    59     0.059352
    60     0.026049
    61    -0.001560
    62     0.025269
    63     0.368918
    64    -0.018669
    65     0.101611
    66     0.020671
    67     0.100418
    68    -0.887565
    69     0.014755
    70    -0.018313
    71    -0.076293
    72     0.235173
    73     0.214828
    74     0.082405
    75    -0.094746
    76    -0.012222
    77    -0.163411
    78     0.017300
    79     0.041001
    80    -0.042345
    81    -0.003256
    82     0.059188
    83     0.031161
    84     0.005719
    85     0.000774
    86     0.013379
    87    -0.179340
    88     1.340393
    89    -0.011749
    90     0.037303
    91     0.034510
    92     0.186458
    93    -0.257023
    94    -0.820908
    95    -0.115143
    96     0.332408
    97    -0.437337
    98    -0.011486
    99    -0.034003
   100    -0.246482
   101     0.358468
   102     0.165281
   103     0.101341
   104    -0.056771
   105    -0.101143
   106    -0.002201
   107    -0.047304
   108    -0.319804
   109    -0.115004
   110     0.014217
   111    -0.018191
   112     0.029628
   113    -0.097395
   114     0.044219
   115    -0.254442
   116     0.103711
   117    -0.104986
   118     0.053410
   119     0.171561
   120     0.012938
   121     0.235361
   122     0.092325
   123     0.085965
   124     0.103422
   125     0.074175
   126    -0.022138
   127    -0.065025
   128     0.073372
   129     0.023501
   130    -0.052939
   131    -0.138476
   132     0.539144
   133     0.215616
   134    -0.040215
   135    -0.048606
   136     0.547914
   137    -0.011526
   138    -0.248317
   139     0.563538
   140     0.025806
   141     0.091717
   142    -0.130315
   143    -0.319390
   144     0.085906
   145     0.132248
   146     0.192499
   147     0.030137
   148     0.149839
   149     0.107212
   150     0.510363
   151    -0.078544
   152    -0.112642
   153    -0.536206
   154    -0.336402
Sym=    92a
Ene=   -0.165259E-03
Spin= Alpha
Occup= 0.000008
     1    -0.011149
     2    -0.058406
     3     0.341056
     4     0.013569
     5     0.056603
     6     0.037726
     7     0.332955
     8     0.389341
     9     0.066234
    10     0.103717
    11    -0.069153
    12     0.055389
    13     0.058673
    14    -0.009443
    15    -0.047686
    16     0.050964
    17     0.126467
    18    -0.430678
    19     0.075684
    20     0.097955
    21    -0.103861
    22     0.433025
    23    -0.109519
    24    -0.100212
    25    -0.202597
    26    -0.111269
    27    -0.345346
    28     0.064953
    29    -0.029232
    30    -0.097108
    31     0.032621
    32    -0.051468
    33    -0.018670
    34     0.683485
    35    -0.316603
    36     0.007987
    37    -0.015183
    38     0.139892
    39     0.004037
    40    -0.056502
    41     0.034152
    42     0.045833
    43    -0.173396
    44     0.130499
    45    -0.019786
    46    -0.062503
    47    -0.015913
    48    -0.003631
    49     0.007628
    50    -0.051763
    51     0.005675
    52     0.029113
    53    -0.314647
    54    -0.134394
    55    -0.145595
    56     0.003365
    57    -0.090064
    58    -0.070996
    59     0.056515
    60     0.035620
    61     0.167224
    62    -0.009263
    63    -0.300418
    64     0.038981
    65     0.293032
    66    -0.009639
    67     0.024580
    68    -0.094712
    69     0.034181
    70     0.034562
    71     0.175632
    72     0.114635
    73    -0.096499
    74     0.128671
    75     0.215340
    76     0.040712
    77     0.037379
    78     0.094725
    79    -0.174658
    80    -0.219667
    81    -0.067028
    82     0.099571
    83    -0.088004
    84     0.099939
    85     0.100981
    86     0.013320
    87     0.100991
    88    -0.170921
    89     0.124565
    90     0.204236
    91    -0.069603
    92     0.041737
    93     0.317489
    94     0.274646
    95    -0.129733
    96     0.157863
    97    -0.117796
    98    -0.253438
    99     0.169528
   100    -0.249897
   101     0.146471
   102    -0.296348
   103    -0.138964
   104     0.084642
   105    -0.051800
   106     0.001436
   107     0.025075
   108     0.135207
   109     0.198916
   110     0.003738
   111     0.005019
   112    -0.018951
   113     0.006279
   114    -0.009958
   115     0.130806
   116    -0.139148
   117     0.240919
   118    -0.036732
   119    -0.070018
   120     0.008491
   121    -0.087792
   122    -0.302714
   123    -0.008986
   124    -0.146691
   125    -0.203183
   126     0.190372
   127     0.004778
   128    -0.112638
   129    -0.052033
   130     0.005656
   131    -0.010550
   132     0.204162
   133    -0.006708
   134     0.063004
   135    -0.015136
   136    -0.078220
   137    -0.255540
   138     0.237637
   139    -0.061060
   140     0.093315
   141    -0.087682
   142    -0.292205
   143     0.147086
   144     0.101096
   145     0.086771
   146    -0.190934
   147    -0.034182
   148    -0.267306
   149    -0.065147
   150     0.277312
   151    -0.056384
   152    -0.124240
   153    -0.300004
   154     0.051754
Sym=    93a
Ene=   -0.150774E-03
Spin= Alpha
Occup= 0.000007
     1     0.057424
     2    -0.163559
     3     1.755755
     4     0.153027
     5    -0.043269
     6    -0.024289
     7     0.914372
     8    -0.083522
     9    -0.171641
    10    -0.112968
    11    -0.157475
    12    -0.360926
    13     0.105261
    14    -0.014672
    15     0.121782
    16     0.067303
    17     0.041567
    18     0.176973
    19     0.015827
    20     0.066860
    21     0.022558
    22     0.925786
    23    -0.280463
    24    -0.176292
    25    -0.347038
    26    -0.386919
    27    -0.083861
    28    -0.042516
    29     0.019466
    30    -0.155057
    31     0.447423
    32     0.045072
    33    -0.301923
    34    -0.497868
    35     0.068864
    36     0.003445
    37    -0.024091
    38     0.090670
    39    -0.042445
    40     0.057529
    41     0.045898
    42    -0.161402
    43     0.191980
    44     0.146590
    45    -0.069447
    46    -0.016732
    47     0.019467
    48    -0.006601
    49    -0.032151
    50     0.050029
    51     0.283881
    52     0.312586
    53    -0.371081
    54    -0.032253
    55    -0.121150
    56     0.167054
    57    -0.221548
    58    -0.120773
    59     0.109805
    60    -0.114961
    61    -0.141287
    62    -0.051781
    63     0.069356
    64     0.012782
    65     0.011479
    66    -0.002859
    67    -0.053847
    68     1.573008
    69     0.123966
    70     0.125842
    71     0.243758
    72    -0.339464
    73    -0.264712
    74    -0.021355
    75     0.211719
    76    -0.359577
    77     0.265400
    78     0.061128
    79    -0.525393
    80    -0.064358
    81     0.259578
    82    -0.303000
    83    -0.028337
    84    -0.039637
    85     0.157566
    86     0.025302
    87     0.493222
    88    -2.437668
    89     0.120232
    90     0.165895
    91    -0.239468
    92    -0.169084
    93     0.528577
    94     1.239873
    95    -0.441803
    96    -0.097376
    97     0.377343
    98    -0.263750
    99    -0.050202
   100     0.008978
   101    -0.301978
   102    -0.289907
   103    -0.128676
   104     0.159884
   105     0.163149
   106    -0.001443
   107    -0.026039
   108     0.180684
   109     0.315977
   110     0.027564
   111    -0.000204
   112    -0.025928
   113    -0.221294
   114     0.094460
   115     0.163197
   116    -0.137700
   117     0.138195
   118     0.002190
   119    -0.124094
   120     0.053005
   121     0.285731
   122     0.053596
   123    -0.037348
   124     0.192713
   125     0.076889
   126     0.000425
   127     0.058043
   128     0.123158
   129    -0.017798
   130    -0.010449
   131     0.099937
   132    -0.954536
   133     0.003934
   134    -0.021989
   135    -0.016132
   136    -0.431231
   137     0.026842
   138     0.039425
   139     0.008201
   140     0.014427
   141     0.087636
   142     0.203839
   143     0.061038
   144    -0.118530
   145    -0.185143
   146    -0.392373
   147    -0.189217
   148    -0.367779
   149    -0.237048
   150     0.401690
   151     0.028954
   152    -0.027936
   153    -0.357035
   154    -0.108064
Sym=    94a
Ene=   -0.503632E-04
Spin= Alpha
Occup= 0.000001
     1    -0.014803
     2     0.017480
     3    -0.437425
     4    -0.018274
     5    -0.009133
     6     0.008384
     7    -0.084704
     8     0.078141
     9     0.117603
    10     0.101403
    11    -0.019219
    12     0.055320
    13    -0.051249
    14    -0.018513
    15    -0.091891
    16    -0.034269
    17    -0.084336
    18     0.337749
    19    -0.041053
    20     0.045399
    21     0.093729
    22    -0.129766
    23     0.530256
    24     0.411789
    25     0.049565
    26     0.192171
    27     0.174722
    28     0.035395
    29     0.079724
    30    -0.014042
    31    -0.244220
    32    -0.048337
    33     0.272099
    34     0.036303
    35     0.123398
    36    -0.001638
    37     0.092740
    38    -0.456314
    39    -0.020103
    40    -0.025772
    41     0.016757
    42    -0.255643
    43    -0.095838
    44    -0.130428
    45    -0.043257
    46     0.080619
    47     0.033307
    48    -0.038488
    49    -0.076689
    50    -0.041972
    51     0.162061
    52     0.139129
    53     0.179742
    54    -0.163703
    55    -0.077012
    56    -0.142843
    57     0.129732
    58    -0.089503
    59     0.387226
    60    -0.093756
    61     0.146558
    62     0.130050
    63     0.144336
    64    -0.324502
    65    -0.156212
    66     0.003358
    67     0.111877
    68    -0.030513
    69     0.096404
    70    -0.033983
    71     0.275705
    72     0.105452
    73    -0.075277
    74     0.109748
    75     0.017206
    76     0.161979
    77    -0.163765
    78    -0.217199
    79     0.133558
    80    -0.325309
    81    -0.195082
    82     0.106729
    83     0.140909
    84     0.188472
    85     0.030070
    86    -0.005858
    87     0.186985
    88    -0.438699
    89     0.016091
    90     0.107876
    91    -0.007237
    92     0.081384
    93     0.297494
    94     0.480865
    95    -0.022048
    96    -0.248931
    97     0.502292
    98     0.379061
    99     0.020150
   100     0.154825
   101    -0.376065
   102    -0.117390
   103    -0.198270
   104     0.110818
   105     0.070729
   106     0.000525
   107     0.009992
   108     0.308928
   109     0.037224
   110     0.014107
   111    -0.029670
   112     0.008360
   113    -0.186093
   114     0.178164
   115    -0.110855
   116    -0.105681
   117     0.072490
   118    -0.109411
   119    -0.007775
   120    -0.310782
   121     0.377302
   122    -0.228175
   123     0.460882
   124    -0.048093
   125    -0.096838
   126     0.199476
   127    -0.229960
   128    -0.129621
   129    -0.313676
   130     0.008323
   131    -0.124797
   132     0.760618
   133     0.001347
   134    -0.026930
   135    -0.025581
   136     0.289170
   137     0.168958
   138     0.003245
   139    -0.022183
   140    -0.050564
   141    -0.045868
   142    -0.032304
   143    -0.107449
   144     0.082691
   145     0.383020
   146    -0.348173
   147    -0.098829
   148    -0.142215
   149    -0.065560
   150    -0.440470
   151    -0.103954
   152     0.016603
   153     0.125191
   154    -0.064142
Sym=    95a
Ene=   -0.246277E-02
Spin= Alpha
Occup= 0.000967
     1    -0.046593
     2    -0.155291
     3    -0.104686
     4    -0.153951
     5     0.056413
     6    -0.338712
     7    -0.238753
     8     0.150861
     9    -0.566472
    10     0.004543
    11     0.134654
    12     0.176742
    13     0.253580
    14    -0.618889
    15    -0.269320
    16    -0.070983
    17    -0.206016
    18    -0.249339
    19     0.033608
    20     0.019085
    21    -0.034597
    22    -0.039601
    23     0.002468
    24     0.038967
    25    -0.096571
    26     0.287197
    27     0.264611
    28     0.058805
    29    -0.478567
    30    -0.121008
    31    -0.017347
    32    -0.057067
    33    -0.006750
    34    -0.033701
    35     0.016565
    36     0.004597
    37     0.020071
    38    -0.026705
    39    -0.023930
    40     0.008703
    41    -0.010624
    42    -0.082201
    43     0.008648
    44    -0.049112
    45    -0.020384
    46     0.008668
    47    -0.022240
    48    -0.020361
    49    -0.013124
    50    -0.013517
    51    -0.063727
    52    -0.041417
    53     0.050363
    54    -0.076232
    55     0.069305
    56     0.012285
    57     0.021088
    58    -0.007377
    59     0.009311
    60     0.013574
    61    -0.030947
    62    -0.104040
    63     0.126855
    64     0.029276
    65     0.125666
    66     0.045481
    67     0.218305
    68    -0.185220
    69    -0.058494
    70     0.001957
    71     0.062260
    72     0.020988
    73     0.018897
    74     0.006121
    75    -0.112072
    76    -0.139989
    77    -0.057471
    78    -0.043159
    79     0.000858
    80     0.040937
    81     0.024399
    82     0.037399
    83    -0.041334
    84     0.015584
    85     0.015461
    86     0.011778
    87    -0.026480
    88     0.519212
    89     0.040920
    90    -0.025378
    91     0.074817
    92    -0.068421
    93     0.003255
    94    -0.028398
    95     0.167298
    96    -0.045517
    97    -0.053360
    98    -0.042820
    99    -0.013992
   100     0.002526
   101    -0.051516
   102    -0.069627
   103    -0.020645
   104     0.017327
   105     0.041161
   106    -0.001996
   107    -0.029127
   108    -0.137145
   109     0.029824
   110     0.000609
   111    -0.005578
   112     0.018736
   113    -0.007795
   114     0.010791
   115    -0.096130
   116     0.014589
   117    -0.012955
   118     0.002038
   119     0.075529
   120     0.003521
   121     0.092668
   122    -0.016635
   123     0.008096
   124    -0.023387
   125     0.008069
   126    -0.022693
   127     0.020873
   128     0.033571
   129    -0.012143
   130     0.002106
   131    -0.022315
   132     0.042011
   133    -0.030376
   134     0.033086
   135    -0.031251
   136     0.103164
   137    -0.051987
   138     0.135744
   139    -0.029029
   140    -0.034723
   141     0.053593
   142    -0.005045
   143     0.013700
   144     0.119253
   145    -0.026008
   146     0.005186
   147    -0.008023
   148     0.003090
   149    -0.003694
   150     0.005536
   151    -0.035398
   152     0.011266
   153    -0.025134
   154     0.015944
Sym=    96a
Ene=   -0.227770E-02
Spin= Alpha
Occup= 0.000796
     1    -0.096378
     2    -0.424151
     3     0.361413
     4     0.315453
     5     0.061987
     6     0.032670
     7     0.612705
     8    -0.135243
     9    -0.064041
    10     0.179036
    11    -0.000170
    12     0.357726
    13    -0.593305
    14    -0.222178
    15    -0.234145
    16     0.035769
    17     0.062264
    18     0.013062
    19    -0.061334
    20    -0.049467
    21    -0.057948
    22    -0.078633
    23    -0.012886
    24    -0.105030
    25     0.121224
    26    -0.259368
    27    -0.120606
    28     0.059633
    29    -0.094245
    30    -0.021412
    31    -0.239786
    32    -0.209000
    33    -0.110342
    34    -0.091974
    35    -0.032482
    36    -0.007248
    37    -0.013464
    38    -0.084680
    39    -0.103834
    40     0.009731
    41    -0.021021
    42    -0.335804
    43     0.012143
    44    -0.115905
    45     0.069647
    46     0.011345
    47    -0.051190
    48    -0.045318
    49    -0.107924
    50    -0.008595
    51     0.024151
    52     0.144692
    53     0.003357
    54     0.043514
    55     0.011512
    56    -0.072359
    57    -0.070308
    58     0.020047
    59    -0.039060
    60     0.030993
    61    -0.015948
    62    -0.060592
    63     0.050929
    64     0.037265
    65     0.030588
    66    -0.014945
    67    -0.117443
    68     0.433343
    69    -0.046156
    70     0.014283
    71    -0.013783
    72    -0.042594
    73    -0.196670
    74    -0.043956
    75     0.023687
    76     0.073121
    77     0.018244
    78     0.011062
    79     0.020313
    80    -0.006465
    81    -0.009284
    82    -0.005232
    83     0.049894
    84    -0.003675
    85     0.010810
    86    -0.005401
    87     0.067282
    88    -0.462805
    89     0.082972
    90    -0.060664
    91     0.014671
    92     0.065357
    93     0.146374
    94     0.171281
    95    -0.093208
    96     0.052421
    97     0.096512
    98     0.031143
    99    -0.021569
   100    -0.033468
   101    -0.052831
   102    -0.014825
   103     0.024852
   104     0.013690
   105     0.014505
   106    -0.005555
   107    -0.084922
   108    -0.348226
   109     0.098572
   110     0.041116
   111     0.011261
   112     0.025448
   113    -0.228228
   114    -0.060833
   115    -0.169524
   116    -0.042922
   117     0.042908
   118    -0.023159
   119     0.209850
   120     0.157203
   121     0.194356
   122    -0.045728
   123     0.080087
   124    -0.038795
   125    -0.038629
   126     0.013017
   127    -0.021178
   128     0.026777
   129     0.011848
   130    -0.048150
   131    -0.157862
   132    -0.114580
   133    -0.012365
   134     0.155171
   135     0.110472
   136    -0.073630
   137    -0.320942
   138    -0.234103
   139     0.335046
   140    -0.036223
   141     0.056410
   142    -0.387564
   143    -0.319904
   144    -0.004449
   145    -0.045334
   146    -0.117937
   147     0.009487
   148    -0.028634
   149    -0.035127
   150     0.063865
   151     0.032802
   152    -0.083674
   153     0.030841
   154     0.029356
Sym=    97a
Ene=   -0.446089E-02
Spin= Alpha
Occup= 0.004209
     1     0.000516
     2    -0.001056
     3     0.010302
     4     0.009143
     5     0.004895
     6    -0.004128
     7     0.023959
     8    -0.004806
     9    -0.007009
    10    -0.005313
    11    -0.000945
    12     0.000815
    13    -0.003507
    14    -0.000039
    15     0.003452
    16     0.007652
    17     0.053977
    18    -0.117422
    19    -0.011950
    20     0.024267
    21    -0.016523
    22    -0.051542
    23     0.074380
    24    -0.025918
    25    -0.010524
    26    -0.012865
    27    -0.007224
    28     0.006925
    29     0.004742
    30    -0.003272
    31     0.022670
    32     0.054502
    33    -0.004319
    34    -0.001636
    35    -0.000606
    36    -0.033440
    37    -0.172937
    38     0.164407
    39     0.091440
    40    -0.099864
    41     0.063031
    42     0.227610
    43    -0.240971
    44     0.134192
    45     0.047771
    46     0.005498
    47     0.040409
    48     0.000937
    49     0.034201
    50    -0.003421
    51     0.160621
    52    -0.139986
    53    -0.014643
    54     0.025762
    55     0.014241
    56    -0.002948
    57     0.083620
    58     0.012336
    59    -0.001671
    60     0.002323
    61     0.020580
    62    -0.055019
    63    -0.005487
    64     0.007489
    65     0.004464
    66    -0.039628
    67    -0.159712
    68    -0.161687
    69    -0.063391
    70     0.040542
    71    -0.038259
    72    -0.015444
    73     0.228548
    74    -0.067255
    75     0.043082
    76     0.103500
    77     0.042140
    78     0.005442
    79    -0.000244
    80     0.021085
    81     0.075618
    82    -0.223132
    83    -0.003086
    84    -0.010632
    85     0.019224
    86    -0.060730
    87    -0.319093
    88     0.341064
    89    -0.043328
    90    -0.088301
    91    -0.016579
    92    -0.008061
    93    -0.067535
    94    -0.073723
    95     0.102332
    96     0.088363
    97     0.124641
    98    -0.016207
    99    -0.024380
   100    -0.002529
   101    -0.060133
   102     0.023819
   103     0.000867
   104     0.002879
   105     0.026411
   106     0.016580
   107     0.193368
   108     1.016144
   109    -0.010262
   110    -0.052804
   111    -0.000044
   112    -0.036853
   113     0.232314
   114    -0.014643
   115     0.186153
   116     0.066111
   117     0.130039
   118     0.043044
   119    -0.230376
   120    -0.360608
   121    -0.393626
   122    -0.254900
   123     0.158058
   124    -0.070821
   125     0.725461
   126    -1.031982
   127    -0.077048
   128     0.417782
   129    -0.013043
   130    -0.003576
   131    -0.005465
   132    -0.050251
   133    -0.011104
   134    -0.008742
   135     0.008746
   136    -0.007339
   137     0.016755
   138    -0.008284
   139     0.006775
   140     0.003122
   141     0.006156
   142    -0.002012
   143    -0.001676
   144    -0.001686
   145     0.131331
   146    -0.073416
   147    -0.005478
   148     0.006995
   149     0.002499
   150    -0.006857
   151    -0.015400
   152     0.001970
   153     0.000722
   154    -0.002937
Sym=    98a
Ene=   -0.187305E-01
Spin= Alpha
Occup= 0.015128
     1    -0.009408
     2    -0.037621
     3    -0.013301
     4    -0.012866
     5     0.028415
     6    -0.026865
     7    -0.012082
     8    -0.021975
     9    -0.019233
    10    -0.007659
    11     0.007332
    12     0.010105
    13     0.006724
    14    -0.008249
    15    -0.005963
    16    -0.156990
    17    -0.596313
    18     0.026032
    19     0.249198
    20    -0.090819
    21     0.280545
    22    -0.083778
    23     0.055454
    24     0.041115
    25     0.090535
    26     0.056368
    27     0.160704
    28     0.002631
    29     0.047100
    30    -0.031874
    31    -0.019784
    32     0.001497
    33     0.003728
    34     0.000609
    35    -0.001218
    36    -0.000723
    37    -0.008939
    38     0.019412
    39    -0.001668
    40    -0.001330
    41     0.001805
    42     0.011718
    43     0.014553
    44     0.000662
    45    -0.003819
    46    -0.002664
    47     0.004275
    48     0.000115
    49     0.000380
    50    -0.000569
    51     0.214960
    52     0.077869
    53    -0.002096
    54     0.021639
    55    -0.014856
    56    -0.071668
    57    -0.022967
    58    -0.000898
    59    -0.012573
    60    -0.000984
    61     0.098839
    62    -0.024491
    63    -0.022131
    64     0.008082
    65    -0.010556
    66    -0.018123
    67    -0.079275
    68    -0.043601
    69    -0.085960
    70     0.186550
    71    -0.079001
    72     0.018722
    73    -0.017087
    74     0.031160
    75     0.034630
    76     0.028496
    77     0.011597
    78    -0.026494
    79    -0.021999
    80     0.009247
    81     0.071161
    82     0.070952
    83    -0.006839
    84     0.010287
    85     0.003808
    86     0.205886
    87     0.892318
    88    -0.244190
    89     0.415527
    90    -0.636811
    91    -0.133817
    92    -0.086730
    93     0.164732
    94    -0.040603
    95    -0.113849
    96    -0.122833
    97    -0.224883
    98    -0.032306
    99    -0.028260
   100     0.069540
   101    -0.549612
   102     0.000042
   103    -0.072311
   104     0.106107
   105    -0.032877
   106     0.004875
   107     0.046515
   108     0.194254
   109     0.081876
   110     0.002513
   111    -0.003059
   112    -0.021270
   113    -0.020668
   114     0.024064
   115     0.083544
   116    -0.005592
   117     0.033219
   118     0.047463
   119    -0.033740
   120    -0.057505
   121    -0.035618
   122     0.019012
   123    -0.002893
   124     0.008610
   125    -0.019100
   126    -0.014387
   127    -0.001889
   128     0.001664
   129     0.004217
   130     0.003040
   131     0.008609
   132    -0.001594
   133     0.001711
   134    -0.006093
   135    -0.007114
   136     0.011297
   137     0.003943
   138    -0.006841
   139    -0.003844
   140    -0.004370
   141     0.000336
   142     0.000356
   143     0.001226
   144    -0.001668
   145    -0.003028
   146    -0.009959
   147     0.003648
   148    -0.007408
   149     0.009024
   150    -0.041829
   151    -0.002792
   152     0.000008
   153     0.013827
   154     0.004587
Sym=    99a
Ene=   -0.179154E-01
Spin= Alpha
Occup= 0.016420
     1    -0.001019
     2    -0.005821
     3     0.013083
     4     0.004537
     5     0.001624
     6    -0.002170
     7     0.010241
     8    -0.003016
     9    -0.002428
    10     0.000526
    11     0.000604
    12     0.000801
    13    -0.000391
    14     0.000450
    15     0.000439
    16    -0.010193
    17    -0.032971
    18    -0.061692
    19     0.011899
    20    -0.013898
    21    -0.000607
    22    -0.018347
    23     0.022530
    24    -0.005755
    25     0.007666
    26     0.017466
    27     0.003379
    28    -0.006271
    29     0.000029
    30    -0.006140
    31     0.001948
    32    -0.018975
    33     0.000384
    34    -0.000679
    35    -0.000790
    36     0.004407
    37     0.024366
    38    -0.025983
    39     0.038348
    40    -0.003176
    41    -0.033425
    42    -0.015015
    43    -0.025763
    44    -0.008756
    45     0.004178
    46    -0.001407
    47    -0.011118
    48     0.002515
    49    -0.004161
    50    -0.000076
    51     0.029318
    52    -0.051433
    53     0.004283
    54     0.008150
    55    -0.005480
    56     0.007599
    57    -0.046084
    58    -0.008237
    59     0.019572
    60     0.030971
    61     0.011075
    62    -0.001557
    63    -0.005002
    64     0.002585
    65     0.000452
    66    -0.187480
    67    -0.796154
    68    -0.039465
    69     0.216359
    70    -0.356300
    71    -0.721458
    72     0.041620
    73     0.016508
    74     0.122694
    75     0.147456
    76     0.097674
    77     0.085794
    78     0.004082
    79     0.005500
    80    -0.033068
    81     0.037938
    82     0.031321
    83    -0.008204
    84     0.016445
    85     0.041749
    86     0.039697
    87     0.122536
    88     0.172128
    89    -0.066627
    90     0.085686
    91     0.130558
    92     0.029834
    93    -0.034666
    94    -0.106821
    95    -0.004515
    96     0.002218
    97    -0.053557
    98     0.025029
    99     0.026164
   100     0.000668
   101    -0.057470
   102     0.053398
   103     0.005413
   104     0.000218
   105     0.012973
   106    -0.006459
   107    -0.059721
   108    -0.231122
   109     0.006618
   110    -0.061131
   111    -0.005911
   112     0.072925
   113     0.185024
   114     0.033261
   115    -0.198971
   116    -0.007571
   117    -0.013860
   118    -0.015252
   119     0.065859
   120     0.038348
   121     0.063464
   122     0.071499
   123    -0.021633
   124    -0.064713
   125    -0.005356
   126     0.017826
   127     0.005351
   128     0.000922
   129    -0.006947
   130    -0.001940
   131    -0.008009
   132     0.002926
   133    -0.010274
   134     0.001240
   135     0.001951
   136     0.003696
   137    -0.004048
   138    -0.008383
   139     0.001296
   140     0.000868
   141     0.001121
   142     0.000275
   143     0.000333
   144     0.000392
   145     0.714243
   146     0.139897
   147    -0.014033
   148    -0.098334
   149    -0.028404
   150    -0.001411
   151    -0.010413
   152    -0.002118
   153     0.002941
   154    -0.002535
Sym=   100a
Ene=   -0.363236E-01
Spin= Alpha
Occup= 0.023135
     1     0.021305
     2     0.084238
     3     0.004153
     4     0.031965
     5     0.019540
     6     0.006135
     7     0.011246
     8    -0.014008
     9    -0.008452
    10    -0.013026
    11    -0.009188
    12    -0.007051
    13    -0.009250
    14    -0.004297
    15     0.003835
    16     0.020961
    17     0.081394
    18    -0.030607
    19    -0.004873
    20     0.048560
    21     0.010230
    22    -0.003580
    23     0.039271
    24     0.019266
    25    -0.005499
    26    -0.021309
    27     0.000219
    28    -0.004197
    29    -0.003812
    30    -0.012544
    31    -0.793448
    32    -0.047406
    33     0.089679
    34    -0.051798
    35    -0.056866
    36     0.055142
    37     0.181987
    38    -0.021026
    39     0.212878
    40    -0.042535
    41    -0.093594
    42     0.038169
    43    -0.008914
    44    -0.017075
    45    -0.044524
    46    -0.008737
    47    -0.010686
    48     0.006735
    49     0.012055
    50    -0.002345
    51     0.028329
    52    -0.020585
    53     0.006077
    54     0.003825
    55     0.006148
    56     0.000900
    57     0.003078
    58     0.000324
    59    -0.000080
    60    -0.000464
    61     0.047060
    62    -0.003385
    63    -0.000151
    64     0.006712
    65     0.008877
    66    -0.000286
    67    -0.002972
    68     0.055995
    69    -0.004379
    70    -0.003733
    71     0.006849
    72    -0.025072
    73     0.006261
    74    -0.013294
    75     0.000089
    76    -0.001262
    77    -0.000462
    78    -0.000640
    79     0.000229
    80    -0.000911
    81     0.001391
    82    -0.018691
    83     0.000907
    84    -0.000100
    85    -0.000236
    86     0.008609
    87     0.049994
    88    -0.038068
    89     0.010314
    90     0.028721
    91     0.010756
    92    -0.009826
    93    -0.014826
    94     0.034152
    95    -0.001710
    96    -0.003915
    97    -0.006661
    98    -0.001285
    99     0.000294
   100    -0.004974
   101    -0.008824
   102    -0.013587
   103    -0.000468
   104    -0.000300
   105     0.000528
   106    -0.001386
   107    -0.011813
   108    -0.031764
   109     0.006341
   110    -0.004505
   111    -0.000875
   112    -0.005824
   113     0.007430
   114     0.004171
   115     0.017546
   116     0.006030
   117    -0.006342
   118     0.001092
   119     0.009477
   120     0.015439
   121     0.003929
   122    -0.000895
   123    -0.002134
   124    -0.001166
   125     0.004699
   126    -0.004893
   127     0.001253
   128    -0.001665
   129    -0.000467
   130     0.175568
   131     0.638237
   132     0.049290
   133     0.728516
   134    -0.146245
   135    -0.267052
   136    -0.074209
   137    -0.050809
   138    -0.017175
   139    -0.152353
   140    -0.059429
   141    -0.061865
   142     0.020201
   143     0.043151
   144    -0.017323
   145     0.000786
   146    -0.010110
   147     0.000631
   148     0.000210
   149     0.000474
   150    -0.022633
   151    -0.003972
   152    -0.001667
   153     0.000550
   154    -0.000581
Sym=   101a
Ene=   -0.631816E-02
Spin= Alpha
Occup= 0.005561
     1     0.001200
     2     0.007139
     3     0.005982
     4    -0.011927
     5    -0.005881
     6     0.000796
     7    -0.008105
     8     0.016735
     9     0.012272
    10     0.002871
    11    -0.000723
    12    -0.004132
    13     0.004578
    14    -0.000163
    15     0.003453
    16    -0.019171
    17    -0.093071
    18     0.087463
    19     0.011048
    20    -0.039109
    21     0.008254
    22     0.083226
    23    -0.047991
    24    -0.028709
    25     0.018280
    26     0.025613
    27     0.004680
    28    -0.004692
    29    -0.001885
    30    -0.000150
    31     0.018986
    32     0.000232
    33     0.001540
    34     0.002647
    35     0.003480
    36    -0.015260
    37    -0.059633
    38    -0.015937
    39     0.065224
    40     0.044486
    41     0.056985
    42     0.066643
    43     0.089590
    44     0.029463
    45     0.014510
    46     0.007794
    47     0.019671
    48     0.005410
    49     0.015553
    50     0.007389
    51    -0.007908
    52     0.270463
    53    -0.022144
    54     0.004713
    55     0.001336
    56    -0.386863
    57     0.143475
    58     0.233096
    59    -0.063277
    60     0.164832
    61     0.021613
    62     0.062597
    63     0.002103
    64    -0.003223
    65     0.005306
    66    -0.129603
    67    -0.713297
    68     0.960339
    69     0.289451
    70    -0.215567
    71     0.284981
    72     0.402309
    73    -0.679093
    74     0.367044
    75     0.167856
    76     0.392257
    77     0.133485
    78     0.022495
    79    -0.292749
    80     0.066030
    81    -0.234942
    82     0.314009
    83     0.033444
    84     0.068473
    85     0.045767
    86    -0.071406
    87    -0.310826
    88    -0.343326
    89     0.126974
    90     0.032660
    91     0.081674
    92    -0.113944
    93     0.198689
    94     0.213911
    95     0.116870
    96     0.095068
    97     0.056926
    98     0.014720
    99     0.061096
   100    -0.002742
   101    -0.009348
   102    -0.106755
   103    -0.003329
   104    -0.000082
   105     0.023827
   106    -0.006268
   107    -0.058505
   108    -0.261365
   109    -0.322892
   110     0.008821
   111    -0.030082
   112     0.005910
   113    -0.100702
   114     0.087273
   115    -0.048454
   116    -0.109225
   117    -0.065580
   118    -0.151608
   119     0.149845
   120    -0.121459
   121     0.085134
   122     0.024710
   123     0.089579
   124     0.116189
   125     0.055555
   126     0.170520
   127     0.034468
   128     0.022528
   129    -0.011455
   130    -0.000750
   131    -0.003215
   132     0.010449
   133     0.001914
   134    -0.001950
   135     0.002804
   136    -0.006838
   137     0.006879
   138     0.003051
   139     0.007322
   140    -0.002115
   141    -0.005057
   142    -0.005508
   143    -0.006513
   144     0.005469
   145    -0.073726
   146    -0.199717
   147     0.108002
   148     0.004305
   149     0.054166
   150     0.020089
   151    -0.008451
   152    -0.000393
   153     0.001827
   154    -0.002498
Sym=   102a
Ene=   -0.452847E-02
Spin= Alpha
Occup= 0.003319
     1    -0.013251
     2    -0.030625
     3    -0.045609
     4    -0.053737
     5    -0.017502
     6    -0.019639
     7    -0.098798
     8     0.007696
     9     0.005038
    10     0.085268
    11     0.018203
    12    -0.015245
    13     0.033965
    14    -0.038316
    15     0.018889
    16    -0.045546
    17    -0.174598
    18     0.022024
    19     0.035716
    20     0.011608
    21     0.010818
    22     0.143954
    23    -0.055092
    24     0.038882
    25     0.171495
    26     0.039561
    27     0.003060
    28     0.040754
    29    -0.005132
    30     0.009290
    31    -0.023298
    32    -0.101283
    33     0.007928
    34     0.001329
    35    -0.000616
    36     0.004845
    37     0.039668
    38    -0.096514
    39    -0.029578
    40     0.015588
    41     0.001100
    42    -0.083317
    43     0.021189
    44    -0.008518
    45    -0.014594
    46     0.002606
    47     0.007190
    48    -0.004924
    49    -0.007290
    50     0.006335
    51     0.232734
    52    -0.146109
    53     0.005496
    54     0.040908
    55    -0.017182
    56     0.330480
    57    -0.187766
    58    -0.048191
    59     0.016631
    60    -0.035817
    61     0.118217
    62     0.030494
    63     0.038241
    64     0.008540
    65     0.038711
    66     0.160781
    67     0.866693
    68    -0.463345
    69     0.375350
    70     0.050469
    71     0.034196
    72     0.356430
    73    -0.064630
    74     0.257482
    75    -0.482710
    76    -0.076577
    77    -0.378691
    78     0.459580
    79    -0.064304
    80    -0.125844
    81     0.401685
    82    -0.192628
    83     0.346719
    84    -0.198163
    85    -0.006126
    86     0.115044
    87     0.677973
    88    -0.699615
    89    -0.018433
    90    -0.245595
    91     0.037100
    92    -0.073504
    93    -0.175702
    94     0.072700
    95    -0.112086
    96    -0.265330
    97    -0.172407
    98    -0.099953
    99     0.014994
   100     0.051198
   101     0.060174
   102     0.166467
   103     0.016276
   104     0.037090
   105    -0.028848
   106    -0.007615
   107    -0.085671
   108    -0.303297
   109     0.358712
   110     0.017559
   111     0.036087
   112     0.017758
   113    -0.080984
   114    -0.148620
   115    -0.075284
   116    -0.221570
   117     0.283517
   118     0.031851
   119     0.024505
   120     0.156771
   121     0.134399
   122     0.016464
   123     0.006480
   124    -0.080957
   125     0.024650
   126     0.048734
   127    -0.054594
   128    -0.002991
   129     0.023763
   130    -0.001777
   131    -0.031939
   132     0.119572
   133    -0.004797
   134    -0.020235
   135    -0.014113
   136     0.067574
   137     0.047492
   138     0.021298
   139    -0.009194
   140    -0.001375
   141     0.008120
   142    -0.002501
   143     0.003425
   144    -0.008641
   145     0.159059
   146     0.171204
   147    -0.066543
   148    -0.051313
   149    -0.035723
   150     0.121317
   151     0.119120
   152     0.027602
   153    -0.027494
   154    -0.008361
Sym=   103a
Ene=   -0.120206E-01
Spin= Alpha
Occup= 0.008738
     1    -0.003658
     2     0.003213
     3    -0.071122
     4     0.002437
     5     0.000143
     6     0.009617
     7    -0.030209
     8    -0.010900
     9     0.006428
    10     0.003453
    11     0.000484
    12     0.004319
    13    -0.000901
    14     0.007651
    15     0.005127
    16    -0.045262
    17    -0.151428
    18    -0.139031
    19     0.089575
    20    -0.063841
    21    -0.005145
    22    -0.074180
    23     0.010245
    24     0.004314
    25     0.055287
    26     0.067453
    27     0.010129
    28    -0.018805
    29    -0.011468
    30    -0.005729
    31    -0.023079
    32    -0.046956
    33     0.005732
    34     0.000527
    35    -0.002807
    36     0.004521
    37     0.033547
    38    -0.095551
    39     0.042455
    40     0.053286
    41     0.074094
    42    -0.060450
    43     0.115984
    44     0.061849
    45     0.008597
    46    -0.008442
    47    -0.017069
    48    -0.007750
    49     0.006809
    50    -0.011476
    51     0.178616
    52    -0.036209
    53    -0.017166
    54     0.014837
    55     0.012598
    56    -0.058978
    57    -0.087875
    58     0.015030
    59    -0.028004
    60    -0.026240
    61     0.024257
    62     0.009125
    63    -0.000257
    64    -0.001153
    65     0.003553
    66     0.029028
    67     0.077612
    68    -0.074787
    69    -0.074025
    70     0.560647
    71     0.081091
    72     0.126246
    73    -0.111621
    74     0.027217
    75     0.044826
    76    -0.001063
    77    -0.084209
    78     0.004519
    79    -0.049234
    80    -0.017828
    81     0.247219
    82     0.148341
    83     0.000942
    84    -0.006321
    85    -0.027398
    86     0.108074
    87     0.341495
    88     0.286792
    89    -0.267728
    90     0.081529
    91     0.476731
    92    -0.011239
    93    -0.181866
    94    -0.358893
    95    -0.025779
    96    -0.151305
    97    -0.098017
    98     0.079482
    99    -0.074648
   100    -0.086877
   101     0.177714
   102     0.265831
   103     0.004530
   104    -0.031061
   105     0.003436
   106    -0.028921
   107    -0.237655
   108    -0.933208
   109     0.051713
   110    -0.114954
   111     0.208225
   112     0.176461
   113     0.399644
   114    -0.787085
   115    -0.609305
   116     0.026867
   117    -0.047564
   118     0.015081
   119     0.227462
   120    -0.015009
   121     0.152855
   122     0.053726
   123     0.182371
   124    -0.183920
   125    -0.181906
   126    -0.043387
   127     0.023173
   128    -0.028070
   129    -0.010249
   130     0.001221
   131     0.004337
   132     0.021910
   133     0.007822
   134    -0.011632
   135     0.010010
   136    -0.012073
   137     0.015577
   138    -0.036108
   139    -0.002779
   140    -0.000864
   141    -0.002328
   142     0.003988
   143     0.005021
   144    -0.000179
   145    -0.129977
   146     0.088396
   147     0.043494
   148    -0.012069
   149     0.000142
   150     0.019545
   151    -0.000062
   152    -0.001818
   153     0.006918
   154    -0.004983
Sym=   104a
Ene=   -0.607457E-02
Spin= Alpha
Occup= 0.003018
     1     0.035258
     2     0.176809
     3    -0.282657
     4     0.182328
     5     0.195202
     6    -0.081502
     7     0.162310
     8     0.199426
     9    -0.100207
    10    -0.140286
    11     0.070510
    12    -0.121270
    13     0.081259
    14    -0.048177
    15     0.098997
    16     0.020122
    17     0.025398
    18     0.223478
    19    -0.051168
    20     0.256289
    21     0.189768
    22    -0.054804
    23     0.606007
    24     0.338326
    25     0.450430
    26    -0.661003
    27     0.122848
    28     0.019739
    29    -0.129676
    30     0.034805
    31    -0.051089
    32     0.013224
    33     0.013297
    34     0.047912
    35     0.028085
    36    -0.002001
    37    -0.002283
    38    -0.035333
    39    -0.008322
    40     0.040289
    41     0.016271
    42    -0.030927
    43     0.064818
    44    -0.001821
    45    -0.002709
    46     0.011878
    47    -0.000594
    48    -0.001625
    49    -0.003908
    50     0.006914
    51    -0.122634
    52    -0.048576
    53    -0.047168
    54     0.000742
    55    -0.017193
    56    -0.020632
    57    -0.028692
    58     0.007409
    59    -0.003909
    60     0.009698
    61    -0.031292
    62    -0.099178
    63     0.068898
    64     0.006389
    65    -0.009305
    66     0.020296
    67     0.078090
    68    -0.024426
    69     0.012383
    70     0.013427
    71    -0.019240
    72     0.056384
    73    -0.021050
    74     0.047278
    75    -0.047524
    76     0.005051
    77    -0.043283
    78     0.016773
    79    -0.013014
    80    -0.003403
    81    -0.031986
    82     0.015230
    83     0.012228
    84     0.008768
    85     0.003011
    86    -0.023653
    87    -0.161304
    88     0.166808
    89     0.013930
    90     0.263712
    91     0.015004
    92     0.046784
    93    -0.088153
    94    -0.238598
    95    -0.034487
    96     0.092289
    97     0.055030
    98    -0.008108
    99    -0.050771
   100    -0.034866
   101    -0.009380
   102     0.151209
   103    -0.006006
   104    -0.011485
   105     0.017125
   106    -0.002400
   107    -0.022822
   108    -0.180131
   109     0.022394
   110     0.004534
   111     0.017321
   112     0.014942
   113    -0.000191
   114    -0.097737
   115    -0.076237
   116    -0.006552
   117     0.026705
   118    -0.016640
   119     0.041664
   120    -0.006595
   121     0.006356
   122     0.010145
   123     0.031143
   124    -0.021359
   125    -0.009300
   126     0.026214
   127    -0.000212
   128    -0.005260
   129     0.006738
   130    -0.056138
   131    -0.281674
   132     0.322085
   133    -0.142398
   134    -0.130819
   135    -0.082669
   136     0.229419
   137     0.222633
   138     0.149201
   139     0.037973
   140     0.059421
   141     0.099869
   142     0.117367
   143     0.111392
   144    -0.106141
   145     0.021283
   146    -0.010886
   147     0.008027
   148    -0.012331
   149     0.004193
   150    -0.280801
   151    -0.008165
   152    -0.071018
   153     0.050485
   154     0.138010
Sym=   105a
Ene=   -0.222193E-01
Spin= Alpha
Occup= 0.019614
     1     0.007101
     2     0.040955
     3    -0.043341
     4    -0.004995
     5    -0.006888
     6    -0.005495
     7    -0.020424
     8     0.002442
     9    -0.010207
    10     0.008490
    11    -0.009452
    12    -0.006374
    13     0.004017
    14    -0.000585
    15     0.003671
    16     0.113472
    17     0.448185
    18    -0.089311
    19    -0.133671
    20     0.174163
    21    -0.116103
    22    -0.009950
    23     0.041965
    24     0.024092
    25    -0.048073
    26    -0.101151
    27    -0.073081
    28     0.042357
    29    -0.008354
    30     0.035536
    31     0.002945
    32    -0.010367
    33    -0.000263
    34    -0.002984
    35    -0.000668
    36     0.000752
    37     0.008827
    38    -0.027578
    39    -0.006358
    40    -0.023314
    41     0.011289
    42    -0.005540
    43     0.002185
    44    -0.012561
    45     0.001625
    46     0.001315
    47     0.003759
    48     0.003183
    49    -0.000719
    50    -0.002570
    51     0.794351
    52     0.079060
    53     0.051011
    54    -0.041239
    55    -0.014809
    56     0.013059
    57    -0.008995
    58     0.000672
    59    -0.005887
    60     0.000124
    61    -0.022489
    62     0.003010
    63     0.004080
    64    -0.008489
    65     0.008703
    66     0.013370
    67     0.035500
    68    -0.192308
    69     0.075097
    70     0.089959
    71     0.025621
    72     0.074602
    73    -0.038380
    74    -0.024843
    75    -0.001892
    76    -0.019300
    77     0.004047
    78    -0.029333
    79    -0.011995
    80     0.009297
    81    -0.049368
    82     0.053639
    83    -0.007158
    84     0.006114
    85    -0.004630
    86    -0.282477
    87    -1.250657
    88     0.508183
    89    -0.347562
    90    -0.628839
    91    -0.180445
    92     0.121046
    93     0.074242
    94    -0.075669
    95     0.175794
    96     0.174010
    97     0.173873
    98     0.004927
    99     0.017695
   100    -0.035631
   101     0.023001
   102    -0.032798
   103     0.013521
   104     0.032533
   105     0.007720
   106    -0.010774
   107    -0.097003
   108    -0.378564
   109    -0.022072
   110     0.025771
   111     0.017527
   112     0.005125
   113    -0.089392
   114    -0.032265
   115    -0.024788
   116     0.013236
   117    -0.037239
   118    -0.024494
   119     0.110948
   120     0.033400
   121     0.114361
   122     0.048660
   123    -0.018913
   124    -0.031208
   125     0.017527
   126     0.035675
   127     0.001770
   128    -0.007037
   129    -0.000242
   130     0.002154
   131     0.007312
   132     0.008061
   133    -0.002351
   134     0.001880
   135    -0.004041
   136     0.004283
   137     0.007159
   138    -0.001197
   139    -0.001297
   140    -0.001530
   141    -0.001132
   142    -0.003516
   143    -0.002172
   144    -0.001285
   145     0.047578
   146     0.009313
   147    -0.006026
   148    -0.004619
   149     0.005855
   150    -0.073763
   151    -0.024599
   152     0.011684
   153    -0.002199
   154     0.012617
Sym=   106a
Ene=   -0.371292E-02
Spin= Alpha
Occup= 0.001742
     1     0.038802
     2     0.130910
     3     0.573808
     4    -0.368153
     5    -0.162053
     6     0.012864
     7    -0.079005
     8     0.024895
     9    -0.037890
    10    -0.216146
    11    -0.045005
    12     0.142719
    13    -0.169641
    14     0.025664
    15    -0.102791
    16     0.002023
    17     0.158582
    18    -0.630176
    19     0.556845
    20     0.136974
    21     0.189563
    22     0.954260
    23     0.155413
    24     0.407478
    25    -0.203393
    26    -0.210133
    27     0.423437
    28    -0.153762
    29     0.083821
    30    -0.157348
    31     0.051058
    32     0.013658
    33    -0.021351
    34     0.012948
    35     0.011841
    36    -0.010646
    37    -0.019300
    38    -0.064752
    39    -0.015040
    40     0.009256
    41    -0.022145
    42    -0.032405
    43     0.018540
    44    -0.044697
    45     0.026486
    46     0.046141
    47     0.012546
    48    -0.018531
    49    -0.026455
    50    -0.006880
    51     0.131817
    52    -0.206091
    53     0.044881
    54     0.020142
    55    -0.055632
    56    -0.111766
    57    -0.168306
    58     0.044789
    59     0.007988
    60    -0.017009
    61     0.163128
    62     0.039789
    63    -0.083654
    64     0.008795
    65     0.118042
    66    -0.050875
    67    -0.192333
    68     0.364109
    69     0.072160
    70     0.088036
    71    -0.092024
    72     0.051008
    73    -0.046872
    74     0.191366
    75     0.203743
    76     0.089570
    77     0.106854
    78     0.036367
    79     0.016050
    80    -0.012368
    81     0.076025
    82    -0.030129
    83     0.031216
    84    -0.023459
    85    -0.013695
    86    -0.155112
    87    -0.791183
    88    -0.414261
    89     0.092361
    90     0.014762
    91    -0.023168
    92    -0.006641
    93    -0.344528
    94     0.029938
    95     0.200840
    96     0.179347
    97     0.468291
    98    -0.037617
    99     0.312776
   100    -0.101465
   101     0.152531
   102    -0.017725
   103     0.152115
   104    -0.128707
   105    -0.031282
   106     0.002619
   107     0.036446
   108     0.186091
   109    -0.117159
   110     0.008078
   111     0.007959
   112     0.008195
   113    -0.066684
   114    -0.012422
   115    -0.033188
   116    -0.056884
   117    -0.020943
   118    -0.004778
   119    -0.034309
   120    -0.045836
   121    -0.061361
   122    -0.033927
   123     0.003653
   124    -0.026947
   125    -0.015333
   126     0.029280
   127    -0.008393
   128    -0.011395
   129     0.024008
   130    -0.025593
   131    -0.131007
   132    -0.010197
   133    -0.060497
   134    -0.070847
   135    -0.028315
   136     0.129070
   137     0.149005
   138     0.075066
   139     0.038543
   140     0.033051
   141     0.047809
   142     0.049777
   143     0.006549
   144     0.013297
   145     0.002262
   146     0.101397
   147     0.001283
   148    -0.000274
   149    -0.000159
   150     0.255079
   151     0.129282
   152     0.013345
   153    -0.090284
   154     0.024727
Sym=   107a
Ene=   -0.305375E-02
Spin= Alpha
Occup= 0.001009
     1    -0.057684
     2    -0.253304
     3    -0.005107
     4     0.100314
     5     0.056809
     6     0.049964
     7     0.199930
     8     0.082943
     9     0.113826
    10     0.068929
    11     0.189221
    12     0.099288
    13     0.065198
    14     0.030700
    15     0.125258
    16    -0.152601
    17    -0.578083
    18    -0.234376
    19    -0.133981
    20     0.037206
    21    -0.019497
    22    -0.188259
    23     0.056200
    24    -0.153690
    25     0.171913
    26     0.339661
    27     0.451702
    28     0.137611
    29    -0.089136
    30     0.004167
    31     0.097247
    32     0.054430
    33     0.071277
    34     0.002769
    35    -0.004595
    36     0.164179
    37     0.478279
    38     0.254257
    39    -0.053534
    40     0.007701
    41    -0.049231
    42    -0.195393
    43     0.009846
    44    -0.197054
    45    -0.437040
    46    -0.318093
    47    -0.381832
    48    -0.018463
    49    -0.107989
    50     0.011389
    51     0.212770
    52     0.044019
    53     0.102649
    54     0.011828
    55     0.040266
    56    -0.354151
    57    -0.115135
    58     0.071606
    59    -0.050980
    60     0.010309
    61    -0.086883
    62    -0.035932
    63    -0.023044
    64    -0.012404
    65    -0.000327
    66    -0.406633
    67    -2.124163
    68     1.357947
    69     0.020363
    70    -0.049703
    71    -0.178167
    72    -0.174210
    73    -0.335677
    74    -0.097557
    75     0.991036
    76     0.967285
    77     0.826002
    78    -0.025755
    79     0.048654
    80    -0.060964
    81    -0.245618
    82    -0.088895
    83     0.009003
    84     0.014010
    85     0.004148
    86     0.350223
    87     1.839670
    88    -0.748201
    89     0.359841
    90    -0.042477
    91     0.153237
    92     0.008712
    93     0.055910
    94     0.112013
    95    -0.898872
    96    -0.727321
    97    -0.737028
    98    -0.043091
    99     0.136187
   100    -0.112851
   101     0.281920
   102    -0.045896
   103     0.085812
   104    -0.039452
   105    -0.024797
   106    -0.013573
   107    -0.201212
   108    -0.891764
   109    -0.092681
   110     0.069192
   111     0.010265
   112     0.039640
   113    -0.306259
   114    -0.062172
   115    -0.200132
   116     0.024033
   117    -0.194604
   118     0.012177
   119     0.254162
   120     0.461221
   121     0.413847
   122     0.019044
   123     0.116028
   124    -0.046744
   125     0.082360
   126    -0.207060
   127    -0.134640
   128     0.060415
   129     0.021822
   130     0.034826
   131     0.132878
   132     0.081280
   133     0.060990
   134    -0.042536
   135    -0.063201
   136    -0.131618
   137     0.046481
   138     0.089587
   139    -0.075476
   140    -0.125664
   141    -0.041192
   142     0.018589
   143     0.054940
   144    -0.097313
   145    -0.252157
   146    -0.004877
   147     0.022737
   148     0.043380
   149    -0.071762
   150     0.020658
   151    -0.009148
   152     0.010046
   153    -0.037502
   154    -0.003336
Sym=   108a
Ene=   -0.907948E-02
Spin= Alpha
Occup= 0.003622
     1    -0.000181
     2     0.000030
     3    -0.017954
     4    -0.000382
     5    -0.009145
     6     0.002894
     7    -0.000879
     8     0.001334
     9     0.005782
    10     0.004858
    11     0.001676
    12    -0.004259
    13     0.003765
    14    -0.000035
    15     0.005766
    16    -0.009274
    17    -0.041327
    18     0.041830
    19     0.002916
    20     0.001538
    21    -0.012529
    22     0.016138
    23    -0.026155
    24    -0.007697
    25     0.021583
    26     0.011985
    27     0.008153
    28     0.002623
    29    -0.003391
    30     0.004816
    31    -0.041770
    32     0.076863
    33     0.083679
    34    -0.007743
    35    -0.023947
    36     0.044791
    37     0.280999
    38    -0.450095
    39    -0.165399
    40    -0.020255
    41    -0.208910
    42    -0.374649
    43    -0.038752
    44    -0.488786
    45     0.313634
    46    -0.777891
    47     0.355153
    48    -0.291185
    49     0.045253
    50     0.284876
    51     0.004373
    52     0.025394
    53    -0.001421
    54     0.011353
    55     0.004048
    56     0.012211
    57     0.102752
    58    -0.004214
    59    -0.001501
    60     0.003120
    61     0.022662
    62     0.029172
    63    -0.002382
    64     0.002033
    65     0.003761
    66     0.019436
    67     0.113031
    68    -0.121008
    69     0.028063
    70     0.072236
    71     0.012954
    72    -0.025028
    73     0.164327
    74    -0.092088
    75    -0.030367
    76     0.010525
    77    -0.021928
    78     0.005319
    79    -0.010884
    80     0.010388
    81     0.008220
    82    -0.076729
    83    -0.003461
    84     0.001451
    85    -0.007467
    86     0.017475
    87     0.089250
    88     0.046140
    89    -0.035961
    90     0.006941
    91     0.045354
    92     0.010836
    93     0.024633
    94     0.133807
    95    -0.017525
    96    -0.020760
    97    -0.031884
    98     0.009270
    99    -0.009802
   100    -0.006608
   101     0.021946
   102    -0.075292
   103     0.006219
   104    -0.008228
   105     0.001454
   106     0.040204
   107     0.464019
   108     2.142694
   109    -0.423028
   110     0.059031
   111    -0.004773
   112     0.062537
   113    -0.367823
   114     0.031533
   115    -0.367749
   116     0.141458
   117    -0.051451
   118     0.067934
   119    -0.499246
   120    -0.781717
   121    -0.501066
   122     0.031171
   123     0.161172
   124     0.015518
   125     0.121448
   126    -0.068032
   127    -0.020686
   128     0.026082
   129    -0.001082
   130     0.014544
   131     0.060690
   132     0.019529
   133     0.054621
   134    -0.002506
   135    -0.040645
   136    -0.016428
   137    -0.007161
   138     0.044137
   139    -0.016520
   140    -0.005740
   141    -0.019469
   142     0.002839
   143     0.009074
   144    -0.004613
   145     0.036247
   146    -0.015961
   147    -0.008327
   148    -0.022576
   149     0.014834
   150     0.014627
   151    -0.004472
   152    -0.000455
   153    -0.002405
   154    -0.000705
Sym=   109a
Ene=   -0.110094E-01
Spin= Alpha
Occup= 0.006762
     1     0.106247
     2     0.596555
     3    -0.183490
     4    -0.250372
     5     0.188199
     6     0.197100
     7    -0.238292
     8     0.028989
     9     0.083391
    10    -0.105054
    11    -0.012619
    12    -0.168133
    13     0.146773
    14     0.059961
    15     0.103760
    16     0.000092
    17    -0.003039
    18     0.089818
    19     0.003901
    20     0.162976
    21     0.088291
    22    -0.111678
    23     0.059935
    24     0.086865
    25     0.071828
    26    -0.072098
    27     0.012913
    28    -0.016032
    29    -0.047631
    30    -0.018648
    31     0.433783
    32     0.050945
    33    -0.103316
    34    -0.034181
    35     0.003169
    36     0.001602
    37     0.019314
    38    -0.049396
    39     0.007091
    40     0.029873
    41     0.014268
    42     0.016554
    43     0.045194
    44     0.003795
    45     0.003438
    46    -0.001617
    47     0.002588
    48     0.009628
    49     0.008114
    50    -0.000558
    51     0.019712
    52    -0.063913
    53     0.016568
    54     0.008592
    55     0.013467
    56    -0.019183
    57    -0.004248
    58     0.000567
    59    -0.000410
    60     0.001259
    61     0.088534
    62     0.002868
    63     0.016555
    64    -0.001443
    65     0.019218
    66     0.009464
    67     0.026394
    68     0.066592
    69    -0.002666
    70     0.016744
    71    -0.028831
    72    -0.026254
    73     0.005148
    74     0.003255
    75    -0.006687
    76    -0.007363
    77    -0.011776
    78    -0.001329
    79    -0.002790
    80     0.000862
    81     0.000748
    82    -0.018050
    83    -0.000120
    84     0.001646
    85     0.002162
    86     0.009909
    87     0.015844
    88     0.068050
    89     0.046824
    90     0.046054
    91     0.030605
    92    -0.010782
    93    -0.063636
    94    -0.070145
    95    -0.025605
    96    -0.003964
    97    -0.004441
    98    -0.010643
    99    -0.007361
   100    -0.022331
   101     0.003242
   102     0.046175
   103    -0.005967
   104    -0.003351
   105     0.002846
   106     0.000797
   107     0.009276
   108     0.017827
   109    -0.050781
   110     0.007309
   111     0.007180
   112     0.009260
   113    -0.020531
   114    -0.038176
   115    -0.036463
   116     0.032143
   117    -0.029689
   118     0.008314
   119    -0.014693
   120    -0.025555
   121    -0.008148
   122    -0.002054
   123     0.021346
   124    -0.012610
   125     0.000443
   126    -0.013202
   127    -0.000445
   128     0.000386
   129    -0.000130
   130     0.121722
   131     0.674801
   132    -0.721807
   133     0.222065
   134     0.297949
   135     0.124048
   136    -0.479475
   137    -0.416263
   138    -0.134160
   139     0.004953
   140    -0.094683
   141    -0.287160
   142    -0.153802
   143    -0.251821
   144     0.368147
   145     0.008367
   146     0.007927
   147     0.001659
   148    -0.000458
   149     0.002768
   150     0.004012
   151    -0.015960
   152    -0.001005
   153    -0.022709
   154    -0.001693
Sym=   110a
Ene=   -0.899568E-02
Spin= Alpha
Occup= 0.003541
     1    -0.002877
     2    -0.007324
     3     0.011781
     4    -0.001555
     5     0.007552
     6    -0.003308
     7    -0.023766
     8    -0.023201
     9    -0.015182
    10     0.000888
    11     0.004397
    12     0.009765
    13    -0.003040
    14    -0.000736
    15    -0.004230
    16     0.007465
    17     0.040192
    18    -0.095153
    19    -0.010058
    20     0.001844
    21    -0.004410
    22    -0.058251
    23     0.034866
    24     0.011332
    25    -0.019197
    26    -0.009364
    27    -0.002695
    28     0.000755
    29     0.010072
    30    -0.006199
    31     0.067827
    32    -0.124331
    33    -0.098640
    34     0.022660
    35     0.050597
    36    -0.005915
    37    -0.032051
    38     0.028915
    39     0.072493
    40    -0.032635
    41    -0.052793
    42     0.101735
    43    -0.068232
    44    -0.104227
    45    -0.775890
    46     0.067224
    47     0.721786
    48     0.052811
    49    -0.087087
    50     0.338609
    51    -0.046790
    52    -0.104961
    53    -0.006111
    54     0.001632
    55     0.015038
    56     0.002603
    57    -0.014152
    58    -0.007516
    59     0.001951
    60     0.001029
    61     0.001293
    62    -0.012125
    63    -0.005680
    64     0.003730
    65    -0.002271
    66     0.013995
    67     0.078384
    68    -0.391158
    69    -0.009560
    70     0.011246
    71     0.008846
    72     0.109805
    73     0.009489
    74     0.075446
    75    -0.029392
    76    -0.019013
    77    -0.021958
    78     0.006667
    79     0.008614
    80     0.003952
    81     0.000457
    82     0.096682
    83     0.008792
    84     0.001478
    85    -0.005374
    86     0.010007
    87    -0.025720
    88     0.466702
    89    -0.018708
    90    -0.005174
    91    -0.032171
    92     0.086734
    93    -0.105199
    94    -0.299290
    95    -0.016352
    96    -0.022111
    97    -0.049196
    98     0.009656
    99     0.003668
   100    -0.022212
   101     0.010745
   102     0.105416
   103    -0.000214
   104    -0.003923
   105    -0.011549
   106    -0.015709
   107    -0.187741
   108    -0.884170
   109     0.158654
   110    -0.016271
   111     0.011667
   112    -0.002335
   113     0.083580
   114    -0.070600
   115     0.002051
   116    -0.018673
   117    -0.008890
   118    -0.028510
   119     0.411851
   120     0.266610
   121     0.141191
   122    -0.050429
   123     0.014061
   124    -0.058593
   125    -0.133781
   126     0.050353
   127     0.023990
   128    -0.020965
   129    -0.008971
   130    -0.018953
   131    -0.084459
   132    -0.008208
   133    -0.087588
   134     0.010907
   135     0.050753
   136     0.050065
   137    -0.020181
   138    -0.069652
   139     0.014005
   140     0.008166
   141     0.024046
   142    -0.010766
   143    -0.019310
   144     0.012382
   145    -0.032146
   146     0.112252
   147    -0.005561
   148    -0.022340
   149    -0.008822
   150    -0.012738
   151    -0.002096
   152     0.003842
   153     0.002412
   154     0.000138
Sym=   111a
Ene=   -0.540940E-02
Spin= Alpha
Occup= 0.003104
     1     0.005276
     2     0.037739
     3    -0.028209
     4    -0.152141
     5     0.292022
     6    -0.475207
     7    -0.236276
     8     0.452547
     9    -0.752018
    10     0.230037
    11     0.239282
    12    -0.481428
    13    -0.365399
    14     0.361551
    15    -0.074331
    16     0.002708
    17     0.019292
    18    -0.063960
    19     0.031450
    20    -0.024879
    21     0.018623
    22     0.077688
    23    -0.111816
    24     0.227721
    25    -0.078559
    26     0.067615
    27    -0.002384
    28     0.066418
    29    -0.102414
    30    -0.049990
    31    -0.001052
    32    -0.011999
    33    -0.008304
    34     0.013989
    35    -0.025330
    36    -0.002370
    37    -0.011380
    38     0.015190
    39     0.001040
    40     0.004950
    41    -0.008408
    42     0.003368
    43     0.008972
    44    -0.014932
    45     0.003996
    46     0.002895
    47     0.001616
    48     0.000701
    49     0.004012
    50    -0.002209
    51    -0.028210
    52    -0.087603
    53     0.006829
    54    -0.012238
    55     0.023958
    56    -0.014750
    57    -0.038744
    58    -0.001937
    59    -0.004033
    60     0.005964
    61     0.079580
    62    -0.044344
    63    -0.005983
    64     0.018252
    65     0.010777
    66    -0.009908
    67    -0.074181
    68     0.223519
    69    -0.012697
    70     0.001753
    71    -0.008571
    72    -0.053393
    73    -0.010832
    74     0.067499
    75     0.014742
    76     0.015218
    77     0.019320
    78    -0.004755
    79    -0.004467
    80    -0.001184
    81     0.003369
    82    -0.029270
    83    -0.002450
    84    -0.001088
    85     0.000839
    86     0.011427
    87    -0.079140
    88     0.184013
    89    -0.023835
    90     0.010970
    91    -0.009975
    92    -0.142440
    93    -0.162006
    94    -0.089697
    95    -0.023773
    96    -0.025511
    97    -0.043624
    98     0.011559
    99    -0.017335
   100    -0.027111
   101     0.020244
   102     0.004734
   103    -0.004554
   104    -0.001980
   105     0.002538
   106     0.000932
   107     0.012801
   108     0.019760
   109    -0.100433
   110     0.000175
   111     0.001079
   112    -0.002244
   113     0.004994
   114    -0.013425
   115     0.000342
   116     0.036918
   117    -0.065924
   118    -0.017833
   119    -0.035157
   120    -0.017521
   121    -0.020600
   122     0.011494
   123     0.002294
   124    -0.003581
   125     0.007312
   126    -0.021532
   127    -0.002698
   128     0.002791
   129    -0.001712
   130     0.003546
   131     0.014505
   132    -0.006667
   133    -0.014018
   134     0.049591
   135    -0.049745
   136     0.050551
   137    -0.134606
   138     0.173261
   139    -0.009301
   140    -0.083743
   141     0.080261
   142     0.044343
   143    -0.014762
   144     0.042994
   145    -0.002259
   146     0.033829
   147     0.000894
   148     0.003817
   149     0.002225
   150    -0.009218
   151     0.013061
   152    -0.002385
   153     0.011998
   154    -0.017032
Sym=   112a
Ene=   -0.956780E-02
Spin= Alpha
Occup= 0.005130
     1     0.036676
     2     0.157102
     3    -0.030452
     4    -0.053341
     5     0.139838
     6    -0.236596
     7     0.010384
     8     0.025591
     9    -0.107043
    10    -0.120349
    11     0.017859
    12    -0.047927
    13     0.054284
    14    -0.114863
    15    -0.070711
    16     0.021327
    17     0.161416
    18    -0.330747
    19    -0.125677
    20     0.311943
    21    -0.378754
    22    -0.318521
    23     0.533332
    24    -0.627943
    25     0.115254
    26    -0.021163
    27    -0.175309
    28    -0.165929
    29     0.414073
    30    -0.330812
    31     0.025374
    32    -0.028315
    33    -0.008935
    34     0.000654
    35     0.002458
    36    -0.001020
    37     0.001726
    38    -0.028183
    39    -0.005016
    40     0.021440
    41     0.020086
    42    -0.017580
    43     0.032410
    44     0.025172
    45     0.003694
    46    -0.000275
    47     0.004658
    48     0.004167
    49     0.001875
    50    -0.000594
    51     0.014133
    52    -0.117569
    53     0.024067
    54    -0.009653
    55     0.011787
    56     0.004445
    57     0.006937
    58    -0.004691
    59    -0.001645
    60    -0.001435
    61    -0.089183
    62    -0.063260
    63    -0.061644
    64     0.085691
    65    -0.015008
    66     0.026564
    67     0.112574
    68    -0.213867
    69     0.021426
    70     0.025789
    71     0.002307
    72     0.061689
    73     0.023023
    74    -0.001576
    75    -0.047158
    76    -0.027357
    77    -0.030577
    78     0.001885
    79    -0.004285
    80    -0.003413
    81    -0.006143
    82     0.024937
    83     0.000278
    84    -0.001787
    85    -0.002470
    86     0.057150
    87     0.428625
    88     0.430631
    89     0.248604
    90    -0.083313
    91     0.124552
    92    -0.025720
    93     0.003306
    94    -0.096545
    95    -0.070414
    96    -0.103137
    97    -0.058873
    98    -0.034349
    99     0.114632
   100    -0.059660
   101     0.039260
   102    -0.063484
   103     0.029271
   104    -0.018865
   105    -0.002487
   106     0.000788
   107     0.008749
   108    -0.031299
   109     0.089225
   110     0.002229
   111    -0.002816
   112     0.007057
   113     0.009039
   114    -0.004451
   115    -0.030598
   116    -0.036034
   117     0.053816
   118     0.015414
   119    -0.021635
   120    -0.026457
   121     0.001710
   122     0.026223
   123     0.003837
   124    -0.002770
   125     0.029028
   126     0.009264
   127    -0.002931
   128     0.003140
   129    -0.002927
   130    -0.003209
   131    -0.015833
   132    -0.007129
   133    -0.027131
   134     0.035140
   135    -0.037060
   136     0.029576
   137    -0.040918
   138     0.066199
   139    -0.003911
   140    -0.001966
   141     0.021213
   142     0.006191
   143    -0.005022
   144    -0.004496
   145    -0.008552
   146    -0.005502
   147    -0.004580
   148    -0.002459
   149     0.000751
   150    -0.046875
   151    -0.033854
   152    -0.014213
   153     0.033071
   154    -0.100942
Sym=   113a
Ene=   -0.180729E-01
Spin= Alpha
Occup= 0.007101
     1     0.041410
     2     0.233356
     3    -0.206182
     4    -0.055137
     5    -0.113363
     6    -0.057018
     7     0.047056
     8    -0.000541
     9    -0.017756
    10    -0.079994
    11    -0.064430
    12    -0.086795
    13     0.035917
    14     0.021327
    15     0.004580
    16    -0.005705
    17    -0.017630
    18    -0.031717
    19    -0.013979
    20     0.041451
    21     0.021712
    22    -0.029313
    23     0.012675
    24     0.017037
    25     0.013868
    26    -0.007916
    27     0.010998
    28    -0.012829
    29    -0.012964
    30    -0.001056
    31    -0.127577
    32    -0.024216
    33     0.052444
    34    -0.038017
    35    -0.037038
    36    -0.000274
    37     0.007099
    38    -0.028737
    39     0.022412
    40     0.006988
    41    -0.007551
    42     0.013939
    43     0.011342
    44    -0.019761
    45    -0.003397
    46     0.010483
    47     0.010241
    48     0.006811
    49     0.006261
    50    -0.001464
    51    -0.002941
    52    -0.020571
    53     0.003116
    54     0.000933
    55     0.002572
    56    -0.000528
    57    -0.020008
    58    -0.000197
    59    -0.000587
    60    -0.000007
    61     0.025146
    62     0.007645
    63     0.002016
    64     0.000377
    65     0.006893
    66     0.002167
    67     0.006670
    68    -0.002563
    69     0.001229
    70     0.003202
    71    -0.001641
    72     0.011645
    73    -0.008724
    74     0.026448
    75    -0.003134
    76    -0.002157
    77    -0.001676
    78    -0.001094
    79    -0.001862
    80     0.001315
    81     0.001042
    82     0.010805
    83    -0.000386
    84     0.000222
    85    -0.000026
    86     0.003839
    87     0.008321
    88     0.042318
    89     0.009767
    90    -0.006060
    91     0.006834
    92    -0.014300
    93    -0.021616
    94    -0.043911
    95    -0.005489
    96    -0.003148
    97    -0.004366
    98    -0.004417
    99     0.001848
   100    -0.003240
   101     0.003276
   102     0.015929
   103     0.000623
   104     0.000429
   105    -0.001705
   106     0.000204
   107     0.000834
   108    -0.012627
   109    -0.002557
   110     0.005373
   111     0.000928
   112     0.004621
   113    -0.017824
   114    -0.008710
   115    -0.020825
   116    -0.003995
   117    -0.000930
   118     0.006882
   119     0.009354
   120    -0.007184
   121     0.002501
   122    -0.002352
   123     0.013399
   124    -0.006990
   125     0.002327
   126     0.000566
   127    -0.000847
   128     0.002138
   129    -0.000151
   130    -0.537088
   131    -2.201947
   132     0.896829
   133     0.428506
   134     0.299653
   135     0.078288
   136    -0.391757
   137    -0.273166
   138    -0.070242
   139     0.575479
   140     0.648769
   141     0.666558
   142    -0.010423
   143     0.026589
   144    -0.024537
   145     0.000742
   146     0.015989
   147    -0.001173
   148    -0.000392
   149    -0.000074
   150     0.044067
   151    -0.017234
   152    -0.000257
   153    -0.016662
   154    -0.004072
Sym=   114a
Ene=   -0.429218E-02
Spin= Alpha
Occup= 0.001287
     1     0.014946
     2     0.078063
     3    -0.267901
     4    -0.053387
     5    -0.043152
     6    -0.014712
     7    -0.127010
     8    -0.008273
     9     0.010903
    10    -0.038486
    11     0.007746
    12    -0.033579
    13     0.018519
    14     0.043656
    15     0.006481
    16     0.153999
    17     0.611424
    18     0.100363
    19     0.040040
    20    -0.021479
    21     0.035070
    22    -0.072266
    23    -0.068975
    24     0.011180
    25    -0.295818
    26    -0.289768
    27    -0.352327
    28    -0.022133
    29     0.048675
    30    -0.019389
    31    -0.059970
    32    -0.039620
    33     0.115239
    34    -0.021436
    35    -0.033605
    36     0.333280
    37     1.080298
    38     0.107289
    39    -0.116576
    40    -0.077045
    41    -0.177487
    42    -0.457816
    43    -0.216262
    44    -0.624586
    45    -0.792015
    46    -0.518998
    47    -0.818958
    48    -0.077268
    49    -0.239959
    50    -0.128815
    51    -0.273386
    52     0.112712
    53     0.026362
    54    -0.068419
    55     0.021130
    56    -0.021530
    57    -0.150270
    58     0.029110
    59    -0.018342
    60     0.045252
    61    -0.019007
    62     0.076115
    63     0.014760
    64    -0.012212
    65    -0.036727
    66     0.129314
    67     0.626235
    68     0.006746
    69    -0.107363
    70     0.081040
    71     0.110712
    72     0.071418
    73    -0.186919
    74     0.193879
    75    -0.337939
    76    -0.183256
    77    -0.253867
    78    -0.014415
    79     0.005637
    80     0.085525
    81     0.055695
    82     0.089048
    83     0.000633
    84     0.014473
    85     0.048111
    86    -0.244745
    87    -1.269116
    88     0.307961
    89    -0.077825
    90     0.022289
    91    -0.150246
    92    -0.035184
    93    -0.053458
    94    -0.259794
    95     0.521074
    96     0.576156
    97     0.536639
    98    -0.093824
    99    -0.092725
   100     0.076776
   101    -0.271955
   102     0.153796
   103    -0.051516
   104     0.045205
   105     0.048047
   106    -0.014319
   107    -0.211966
   108    -0.922752
   109     0.083256
   110     0.090511
   111     0.037364
   112     0.145928
   113    -0.462425
   114    -0.201264
   115    -0.710639
   116     0.094963
   117     0.022672
   118     0.082803
   119     0.573570
   120     0.133693
   121     0.568534
   122    -0.090724
   123     0.259783
   124    -0.153115
   125    -0.006853
   126    -0.066517
   127     0.026811
   128     0.139228
   129     0.078052
   130     0.051623
   131     0.164164
   132     0.197501
   133     0.097445
   134    -0.032490
   135    -0.040535
   136    -0.063271
   137     0.067263
   138     0.043316
   139    -0.111451
   140    -0.060582
   141    -0.120756
   142     0.028664
   143    -0.000095
   144     0.029842
   145    -0.076341
   146     0.045612
   147    -0.023742
   148    -0.061638
   149    -0.027817
   150     0.022638
   151     0.002669
   152     0.007095
   153     0.011608
   154    -0.004904
Sym=   115a
Ene=   -0.125995E-02
Spin= Alpha
Occup= 0.000262
     1    -0.111376
     2    -0.361826
     3     0.304722
     4    -0.008385
     5     0.084847
     6     0.049368
     7     0.154080
     8    -0.122090
     9    -0.042155
    10     0.127744
    11     0.339607
    12     0.381695
    13    -0.154553
    14     0.098772
    15     0.083882
    16    -0.148867
    17    -0.161410
    18    -2.268594
    19     0.030659
    20     0.249258
    21    -0.083109
    22    -0.346558
    23     0.540355
    24    -0.069637
    25     0.658573
    26     0.373338
    27     0.147217
    28     0.114955
    29     0.067961
    30     0.166710
    31     0.070408
    32    -0.122932
    33    -0.119979
    34     0.022267
    35     0.028700
    36     0.017641
    37     0.043376
    38     0.018283
    39    -0.076752
    40    -0.006680
    41     0.036466
    42    -0.209203
    43    -0.054683
    44     0.070375
    45    -0.103848
    46    -0.057535
    47     0.016399
    48    -0.037564
    49    -0.031795
    50    -0.026530
    51    -0.102216
    52    -0.161964
    53    -0.078381
    54    -0.178402
    55     0.006775
    56     0.200613
    57    -0.012467
    58     0.075016
    59     0.004137
    60    -0.201002
    61     0.513871
    62    -0.033398
    63    -0.049648
    64    -0.006304
    65     0.204845
    66     0.030688
    67     0.121426
    68    -1.314124
    69    -0.003134
    70    -0.040712
    71    -0.056501
    72     0.416251
    73     0.245614
    74     0.024190
    75    -0.062839
    76    -0.238156
    77    -0.140762
    78    -0.003280
    79    -0.159713
    80     0.015618
    81     0.184096
    82     0.016261
    83    -0.174438
    84    -0.044064
    85     0.152726
    86    -0.034128
    87    -0.260319
    88     2.104269
    89     0.335418
    90    -0.015123
    91     0.173044
    92     0.310277
    93    -0.120275
    94    -1.032919
    95     0.421294
    96    -0.005918
    97     0.034475
    98    -0.166278
    99     0.063120
   100     0.190509
   101    -0.025582
   102     0.214878
   103     0.065577
   104     0.020487
   105    -0.038358
   106    -0.000725
   107    -0.018084
   108    -0.388704
   109     0.081765
   110    -0.078596
   111    -0.028635
   112     0.068283
   113     0.410258
   114     0.047030
   115    -0.319533
   116    -0.000031
   117     0.025301
   118     0.035118
   119    -0.165559
   120     0.121291
   121     0.177106
   122    -0.101320
   123     0.097145
   124    -0.025763
   125    -0.153199
   126     0.115535
   127     0.046606
   128    -0.013738
   129     0.075236
   130    -0.075464
   131    -0.143316
   132    -0.552958
   133    -0.058900
   134    -0.010924
   135     0.039970
   136    -0.001397
   137    -0.133105
   138    -0.175858
   139     0.263727
   140     0.089996
   141     0.192066
   142     0.080213
   143     0.037063
   144    -0.168233
   145     0.155436
   146    -0.007951
   147    -0.106070
   148     0.361973
   149     0.030776
   150     0.201591
   151    -0.058183
   152     0.088277
   153    -0.190008
   154    -0.078475
Sym=   116a
Ene=   -0.130284E-02
Spin= Alpha
Occup= 0.000259
     1     0.216641
     2     0.690591
     3     0.329855
     4     0.050208
     5    -0.089808
     6    -0.030028
     7     0.142529
     8     0.017490
     9     0.169206
    10    -0.662693
    11    -0.549034
    12    -0.490936
    13    -0.197215
    14     0.010352
    15     0.024393
    16    -0.083427
    17    -0.097711
    18    -1.324044
    19    -0.054247
    20     0.136831
    21    -0.105251
    22    -0.476045
    23     0.390283
    24    -0.256730
    25     0.448020
    26     0.175866
    27     0.050329
    28     0.281717
    29    -0.136523
    30     0.134526
    31    -0.015236
    32     0.026256
    33     0.099036
    34    -0.029651
    35    -0.036405
    36    -0.029570
    37    -0.037939
    38    -0.196056
    39     0.016084
    40     0.014172
    41    -0.023517
    42     0.035285
    43     0.032732
    44    -0.076939
    45     0.051760
    46     0.123953
    47     0.088629
    48    -0.010781
    49     0.014932
    50     0.006845
    51    -0.408485
    52    -0.061893
    53     0.165671
    54    -0.168541
    55    -0.083611
    56     0.195127
    57     0.054268
    58    -0.091127
    59     0.130773
    60    -0.034280
    61     0.228128
    62    -0.047311
    63    -0.064964
    64    -0.005212
    65     0.118081
    66    -0.035752
    67    -0.187962
    68    -0.756726
    69     0.091408
    70     0.053758
    71     0.019121
    72     0.233300
    73     0.243413
    74    -0.156562
    75     0.153981
    76    -0.284992
    77     0.209528
    78    -0.006524
    79    -0.289094
    80    -0.044762
    81     0.233260
    82    -0.091262
    83     0.069649
    84    -0.105483
    85    -0.177346
    86    -0.113166
    87    -0.478450
    88     1.434986
    89     0.468190
    90    -0.008203
    91     0.280333
    92     0.321849
    93    -0.032268
    94    -0.430590
    95     0.338578
    96     0.451831
    97     0.190292
    98     0.055070
    99     0.108791
   100    -0.072481
   101     0.070715
   102    -0.033476
   103    -0.003616
   104    -0.122393
   105    -0.077194
   106    -0.006436
   107    -0.102587
   108    -0.482938
   109    -0.050975
   110    -0.009610
   111    -0.049277
   112     0.027199
   113     0.063951
   114     0.226739
   115    -0.140175
   116     0.070940
   117    -0.143716
   118     0.019163
   119     0.246398
   120     0.131705
   121     0.214292
   122     0.199357
   123    -0.120046
   124    -0.039508
   125     0.199033
   126    -0.142029
   127    -0.169096
   128     0.113233
   129    -0.016539
   130     0.124137
   131     0.223286
   132     0.710021
   133     0.064968
   134    -0.093708
   135    -0.062267
   136    -0.049506
   137     0.342100
   138     0.156715
   139    -0.378198
   140    -0.229369
   141    -0.387289
   142    -0.041815
   143    -0.059524
   144     0.175403
   145    -0.125815
   146    -0.029534
   147     0.046803
   148    -0.095454
   149     0.191584
   150     0.090842
   151    -0.048631
   152    -0.028088
   153    -0.087874
   154    -0.048382
Sym=   117a
Ene=   -0.114271E-02
Spin= Alpha
Occup= 0.000239
     1    -0.044017
     2    -0.096189
     3    -0.171471
     4    -0.050362
     5    -0.038418
     6     0.026289
     7     0.015707
     8    -0.188592
     9     0.109385
    10     0.211100
    11     0.052214
    12     0.111286
    13    -0.113338
    14     0.042947
    15    -0.012426
    16    -0.132923
    17    -0.172726
    18    -1.651254
    19    -0.121183
    20     0.250901
    21    -0.139791
    22    -0.721029
    23     0.944633
    24    -0.370170
    25     0.237035
    26     0.406732
    27     0.476769
    28    -0.005318
    29    -0.122756
    30     0.186560
    31    -0.091396
    32     0.026070
    33     0.023749
    34    -0.025014
    35    -0.039119
    36     0.069568
    37     0.038965
    38     0.676942
    39     0.061198
    40     0.052596
    41     0.051346
    42     0.331240
    43     0.138908
    44     0.273023
    45    -0.228925
    46    -0.247348
    47    -0.189522
    48     0.049570
    49     0.125717
    50     0.076391
    51    -0.578630
    52    -0.510789
    53    -0.071802
    54    -0.284538
    55     0.032480
    56     0.045279
    57    -0.040260
    58    -0.139964
    59     0.013795
    60     0.072982
    61    -0.059405
    62    -0.214890
    63    -0.078810
    64     0.084599
    65     0.051972
    66    -0.011167
    67    -0.187846
    68    -1.257996
    69    -0.084990
    70     0.101921
    71     0.354725
    72     0.410921
    73     0.173366
    74     0.220122
    75    -0.108135
    76     0.401689
    77     0.013974
    78     0.057485
    79     0.080180
    80     0.103546
    81    -0.264263
    82     0.183931
    83     0.025886
    84     0.086772
    85     0.053813
    86    -0.123012
    87    -0.861268
    88     3.258854
    89     0.321974
    90     0.119351
    91     0.063128
    92     0.317159
    93    -0.499474
    94    -1.828669
    95     0.135832
    96     0.581458
    97     0.645687
    98    -0.040473
    99    -0.150018
   100     0.242122
   101    -0.451177
   102     0.629292
   103     0.105774
   104     0.113731
   105     0.050199
   106     0.012493
   107     0.254709
   108     0.486057
   109    -0.321179
   110    -0.074864
   111     0.112219
   112    -0.015704
   113     0.589768
   114    -0.637919
   115     0.090567
   116     0.066471
   117    -0.081314
   118    -0.101533
   119    -0.658652
   120    -0.912457
   121    -0.606028
   122     0.356806
   123    -0.200195
   124    -0.049488
   125     0.377225
   126    -0.241077
   127     0.047620
   128    -0.135000
   129     0.028596
   130    -0.032694
   131    -0.067204
   132    -0.183333
   133     0.028608
   134    -0.031938
   135     0.028845
   136    -0.019342
   137     0.094455
   138    -0.124429
   139     0.130805
   140     0.112134
   141     0.050624
   142     0.018258
   143    -0.037080
   144    -0.004890
   145    -0.151239
   146     0.392995
   147     0.106312
   148    -0.236402
   149    -0.251207
   150    -0.264608
   151    -0.142013
   152     0.031452
   153    -0.070099
   154    -0.030096
Sym=   118a
Ene=   -0.737719E-03
Spin= Alpha
Occup= 0.000105
     1    -0.019543
     2     0.003416
     3    -0.321822
     4     0.009832
     5    -0.018075
     6    -0.005962
     7     0.064032
     8    -0.047361
     9     0.040302
    10     0.125711
    11    -0.088201
    12     0.107240
    13    -0.180897
    14    -0.047197
    15    -0.100684
    16    -0.001775
    17     0.030735
    18    -0.225601
    19    -0.083714
    20     0.043899
    21     0.045365
    22    -0.416229
    23     0.241782
    24    -0.248360
    25    -0.012266
    26     0.006179
    27     0.062753
    28     0.033007
    29    -0.096860
    30     0.110601
    31     0.592773
    32     0.393164
    33     0.244126
    34     0.002353
    35    -0.062338
    36    -0.027502
    37     0.021848
    38    -0.336249
    39     0.085691
    40    -0.013544
    41    -0.028122
    42     0.339188
    43    -0.046007
    44    -0.061372
    45     0.047667
    46     0.134591
    47     0.141656
    48     0.043003
    49     0.066796
    50    -0.001479
    51     0.121683
    52    -0.406262
    53     0.154227
    54     0.093646
    55    -0.261495
    56    -0.508673
    57     0.317774
    58     0.431943
    59    -0.172777
    60     0.056857
    61    -0.210629
    62    -0.123355
    63     0.040862
    64     0.087492
    65    -0.133447
    66     0.037956
    67     0.144878
    68    -0.444219
    69    -0.289928
    70    -0.165651
    71    -0.461574
    72     0.056120
    73     0.028459
    74    -0.156320
    75     0.090469
    76    -0.092552
    77    -0.209942
    78     0.002127
    79     0.313610
    80    -0.241003
    81    -0.108525
    82     0.046470
    83    -0.002493
    84     0.019904
    85    -0.222494
    86     0.009829
    87    -0.109406
    88     1.303805
    89     0.149369
    90    -0.305722
    91    -0.230818
    92     0.173746
    93    -0.320421
    94    -0.886383
    95     0.095382
    96    -0.182081
    97     0.123392
    98    -0.130354
    99    -0.079370
   100     0.025589
   101    -0.344099
   102     0.521056
   103    -0.052005
   104    -0.076972
   105     0.370897
   106     0.005047
   107     0.101968
   108     0.227305
   109    -0.231233
   110    -0.020650
   111     0.044255
   112     0.000142
   113     0.156646
   114    -0.248893
   115    -0.020739
   116     0.120352
   117    -0.045511
   118     0.023171
   119    -0.253243
   120    -0.218554
   121    -0.292637
   122     0.013709
   123    -0.013034
   124     0.037114
   125     0.022448
   126    -0.045247
   127     0.106530
   128    -0.035782
   129     0.034128
   130    -0.106105
   131    -0.039414
   132    -1.139760
   133     0.219867
   134    -0.039571
   135    -0.070939
   136    -0.684531
   137     0.162089
   138     0.232286
   139     0.170802
   140     0.487047
   141     0.461893
   142    -0.023435
   143     0.065100
   144     0.012758
   145     0.394158
   146    -0.187447
   147    -0.422473
   148    -0.082422
   149     0.194465
   150    -0.119962
   151    -0.040158
   152    -0.018103
   153    -0.027223
   154     0.001399
Sym=   119a
Ene=   -0.693801E-03
Spin= Alpha
Occup= 0.000100
     1    -0.018423
     2    -0.039439
     3    -0.093561
     4    -0.042693
     5     0.027740
     6     0.046639
     7    -0.202049
     8     0.030457
     9     0.146159
    10     0.013488
    11     0.174317
    12     0.020141
    13     0.118341
    14     0.125967
    15     0.092848
    16    -0.010734
    17     0.011268
    18    -0.168497
    19     0.086282
    20    -0.052552
    21    -0.207742
    22     0.085283
    23    -0.114375
    24    -0.395649
    25     0.027530
    26    -0.120129
    27     0.180420
    28    -0.019594
    29    -0.018542
    30    -0.012285
    31    -0.620798
    32    -0.308667
    33    -0.132013
    34    -0.013418
    35     0.010318
    36     0.032963
    37    -0.056327
    38     0.573957
    39    -0.029953
    40    -0.015750
    41     0.038795
    42    -0.032516
    43    -0.019126
    44     0.218224
    45    -0.064656
    46    -0.190042
    47    -0.133825
    48    -0.013493
    49     0.039439
    50     0.008002
    51    -0.295854
    52     0.001879
    53     0.087722
    54    -0.142485
    55    -0.098563
    56    -0.409704
    57     0.229132
    58     0.391146
    59    -0.107017
    60     0.083652
    61    -0.193504
    62    -0.062703
    63    -0.042874
    64    -0.162134
    65     0.189645
    66    -0.003558
    67    -0.004329
    68     0.004952
    69    -0.404950
    70     0.259017
    71    -0.109574
    72    -0.042323
    73    -0.002749
    74    -0.055513
    75     0.080545
    76    -0.130213
    77     0.206781
    78    -0.089549
    79     0.092301
    80     0.001974
    81     0.164252
    82    -0.094802
    83     0.033175
    84    -0.169757
    85     0.072541
    86    -0.015353
    87    -0.128993
    88     0.367522
    89    -0.018309
    90     0.137560
    91     0.172633
    92    -0.121677
    93     0.099960
    94     0.045404
    95     0.215628
    96     0.264473
    97    -0.341101
    98     0.214531
    99     0.033305
   100    -0.167403
   101     0.352881
   102    -0.275960
   103    -0.167519
   104    -0.095933
   105    -0.183533
   106     0.002271
   107     0.051981
   108     0.154303
   109     0.091799
   110    -0.010719
   111     0.012992
   112    -0.040667
   113     0.116876
   114    -0.054316
   115     0.229415
   116    -0.075033
   117     0.086450
   118    -0.085379
   119    -0.157865
   120    -0.208659
   121    -0.117520
   122     0.051686
   123    -0.201497
   124    -0.076780
   125     0.124873
   126    -0.051310
   127     0.081751
   128    -0.014402
   129    -0.153724
   130     0.062303
   131    -0.005922
   132     0.918861
   133    -0.148500
   134     0.041654
   135     0.077228
   136     0.594431
   137    -0.150250
   138    -0.285798
   139    -0.013131
   140    -0.344585
   141    -0.321424
   142    -0.002140
   143    -0.085463
   144    -0.037144
   145    -0.142994
   146    -0.077486
   147    -0.429611
   148    -0.077380
   149    -0.289977
   150     0.192992
   151    -0.026657
   152     0.046134
   153     0.155454
   154    -0.152462
Sym=   120a
Ene=   -0.491261E-03
Spin= Alpha
Occup= 0.000061
     1     0.004480
     2     0.004574
     3     0.060258
     4     0.011079
     5     0.006984
     6     0.016940
     7     0.020827
     8     0.002829
     9    -0.076025
    10    -0.017585
    11     0.008714
    12    -0.028338
    13     0.032150
    14    -0.071882
    15    -0.030553
    16     0.012235
    17     0.051367
    18    -0.277337
    19     0.075040
    20    -0.127126
    21    -0.262908
    22    -0.080136
    23    -0.085738
    24     0.372201
    25    -0.019427
    26     0.293452
    27    -0.442166
    28    -0.101475
    29    -0.008360
    30    -0.072986
    31    -0.015786
    32     0.011058
    33     0.085289
    34    -0.076932
    35    -0.003737
    36    -0.006032
    37     0.063754
    38    -0.331223
    39    -0.022207
    40     0.060127
    41    -0.030360
    42    -0.184183
    43     0.170303
    44    -0.219432
    45    -0.016860
    46     0.104144
    47     0.016656
    48     0.027820
    49    -0.062312
    50     0.042682
    51    -0.330385
    52     0.253267
    53    -0.223401
    54    -0.017856
    55    -0.141644
    56     0.119660
    57     0.208044
    58     0.109025
    59     0.244711
    60    -0.212351
    61     0.610241
    62    -0.077784
    63    -0.417755
    64    -0.024472
    65     0.432627
    66     0.006877
    67     0.129009
    68    -0.664343
    69     0.243654
    70    -0.001042
    71    -0.163566
    72     0.112511
    73     0.284096
    74    -0.144078
    75    -0.318735
    76     0.275669
    77    -0.071090
    78    -0.005843
    79     0.054443
    80    -0.075083
    81    -0.185568
    82     0.058638
    83    -0.028490
    84     0.001621
    85    -0.130766
    86    -0.019042
    87    -0.069355
    88     0.233807
    89    -0.190487
    90    -0.039250
    91    -0.066408
    92     0.069474
    93    -0.044118
    94    -0.164061
    95    -0.450281
    96     0.506313
    97     0.266022
    98    -0.002506
    99     0.082212
   100    -0.019529
   101    -0.269671
   102     0.236337
   103    -0.255697
   104    -0.119260
   105     0.156270
   106    -0.004578
   107    -0.083181
   108    -0.211500
   109    -0.079650
   110    -0.005716
   111    -0.024194
   112     0.040128
   113    -0.056006
   114     0.131043
   115    -0.252982
   116     0.104327
   117    -0.144632
   118     0.057015
   119     0.221532
   120     0.027919
   121     0.341402
   122     0.269931
   123     0.180756
   124     0.199311
   125     0.168507
   126    -0.098455
   127    -0.132536
   128     0.090495
   129     0.012404
   130    -0.014415
   131    -0.013901
   132    -0.103135
   133     0.039989
   134    -0.011395
   135     0.006485
   136    -0.009569
   137     0.010841
   138    -0.064993
   139     0.076611
   140     0.038190
   141     0.046095
   142     0.021720
   143    -0.037304
   144    -0.008022
   145     0.099978
   146     0.149087
   147    -0.074959
   148     0.358662
   149     0.003748
   150    -0.165596
   151     0.105981
   152     0.044121
   153     0.233276
   154     0.174798
Sym=   121a
Ene=   -0.269790E-03
Spin= Alpha
Occup= 0.000018
     1    -0.011434
     2    -0.047306
     3     0.086694
     4    -0.035739
     5    -0.051384
     6    -0.026642
     7     0.056887
     8    -0.178425
     9    -0.154503
    10    -0.034432
    11     0.062011
    12     0.068743
    13    -0.067834
    14    -0.055200
    15     0.024859
    16    -0.015549
    17    -0.048538
    18     0.131897
    19    -0.043932
    20     0.003844
    21     0.123604
    22     0.022249
    23     0.083652
    24     0.113041
    25    -0.118914
    26     0.047098
    27     0.275713
    28     0.278307
    29     0.076323
    30    -0.041105
    31     0.899059
    32    -0.190963
    33    -0.797981
    34     0.319347
    35     0.384302
    36     0.020698
    37    -0.037786
    38     0.285816
    39    -0.077360
    40     0.007835
    41     0.005083
    42    -0.276703
    43     0.052107
    44    -0.011000
    45    -0.008877
    46    -0.130179
    47    -0.142467
    48     0.004532
    49    -0.063128
    50     0.029271
    51    -0.273633
    52     0.167632
    53    -0.172035
    54    -0.221119
    55    -0.226897
    56     0.045951
    57     0.061070
    58     0.016492
    59     0.053632
    60     0.017949
    61    -0.129217
    62     0.061467
    63     0.289006
    64    -0.299790
    65    -0.199931
    66     0.024320
    67     0.131034
    68    -0.042710
    69     0.018762
    70     0.000352
    71    -0.129076
    72    -0.039478
    73     0.165790
    74    -0.162900
    75    -0.132552
    76    -0.015217
    77    -0.177359
    78     0.009007
    79     0.090575
    80     0.000355
    81     0.017460
    82    -0.171137
    83     0.066903
    84    -0.020001
    85     0.003779
    86    -0.018059
    87    -0.112083
    88     0.058105
    89    -0.031339
    90     0.227755
    91     0.039380
    92     0.073675
    93     0.053074
    94    -0.006858
    95    -0.043521
    96     0.389531
    97    -0.048082
    98     0.023916
    99    -0.037061
   100    -0.154627
   101     0.069522
   102     0.002961
   103     0.068666
   104    -0.020838
   105    -0.022737
   106    -0.000851
   107    -0.020418
   108    -0.045263
   109     0.041713
   110    -0.019719
   111    -0.015609
   112     0.017556
   113     0.068881
   114     0.073471
   115    -0.105191
   116     0.057419
   117    -0.054405
   118     0.026352
   119     0.087473
   120     0.017001
   121     0.057032
   122     0.196174
   123     0.081628
   124     0.077064
   125     0.115441
   126    -0.111117
   127    -0.045920
   128     0.020455
   129     0.014961
   130     0.042697
   131     0.139391
   132    -0.575862
   133    -0.183199
   134     0.042720
   135     0.077005
   136    -0.663492
   137     0.011678
   138     0.171682
   139    -0.587288
   140     0.033808
   141    -0.006765
   142     0.098162
   143     0.257516
   144    -0.056105
   145     0.090181
   146    -0.084724
   147     0.024080
   148     0.247286
   149     0.060066
   150    -0.056557
   151    -0.050203
   152    -0.473792
   153     0.013049
   154    -0.294765
Sym=   122a
Ene=   -0.239568E-03
Spin= Alpha
Occup= 0.000016
     1    -0.024286
     2     0.074358
     3    -0.876452
     4    -0.093946
     5    -0.049966
     6    -0.014526
     7    -0.561708
     8    -0.128402
     9     0.050847
    10    -0.031067
    11     0.114627
    12     0.190797
    13    -0.026111
    14     0.031096
    15    -0.010587
    16    -0.098367
    17    -0.116736
    18    -0.059330
    19    -0.055505
    20    -0.142224
    21     0.089830
    22    -0.492884
    23     0.369418
    24     0.004879
    25     0.231956
    26     0.637570
    27     0.334114
    28     0.123328
    29     0.013566
    30    -0.231282
    31    -0.379757
    32     0.128385
    33     0.125681
    34    -0.131171
    35    -0.400200
    36    -0.012967
    37    -0.026088
    38     0.004306
    39     0.047654
    40    -0.038701
    41     0.013082
    42     0.235658
    43    -0.128391
    44     0.110046
    45     0.038474
    46     0.024635
    47     0.079065
    48    -0.015350
    49     0.043910
    50    -0.027518
    51    -0.077617
    52    -0.281013
    53    -0.060236
    54    -0.065943
    55     0.067710
    56     0.446486
    57    -0.184213
    58    -0.023188
    59     0.144629
    60    -0.097501
    61    -0.134036
    62    -0.004210
    63     0.171418
    64    -0.382821
    65    -0.328613
    66    -0.016886
    67    -0.139425
    68    -0.326381
    69     0.008658
    70    -0.025908
    71     0.149565
    72     0.059349
    73     0.057783
    74     0.015922
    75    -0.239778
    76     0.539546
    77    -0.009115
    78     0.087635
    79    -0.558988
    80    -0.113952
    81    -0.376288
    82     0.136477
    83    -0.230443
    84     0.053507
    85    -0.154711
    86     0.019069
    87    -0.034725
    88     1.151845
    89     0.184799
    90     0.036064
    91     0.080331
    92     0.120598
    93    -0.098918
    94    -0.438807
    95    -0.281838
    96     0.100688
    97    -0.025521
    98    -0.018952
    99    -0.201724
   100     0.111341
   101    -0.071024
   102     0.042349
   103     0.161677
   104    -0.221657
   105     0.042988
   106     0.001364
   107     0.037279
   108    -0.045237
   109    -0.072189
   110    -0.005468
   111     0.050921
   112    -0.007327
   113     0.129780
   114    -0.308479
   115     0.052492
   116     0.044665
   117     0.039325
   118    -0.014887
   119    -0.143453
   120    -0.001780
   121    -0.255717
   122    -0.248419
   123    -0.112609
   124    -0.183837
   125    -0.198732
   126     0.061584
   127     0.152377
   128    -0.089595
   129     0.092220
   130    -0.006617
   131    -0.082566
   132     0.437637
   133     0.020455
   134    -0.038606
   135    -0.054169
   136     0.456966
   137     0.125255
   138     0.105389
   139     0.265253
   140    -0.070492
   141    -0.128870
   142     0.025040
   143     0.041542
   144    -0.020647
   145    -0.085677
   146     0.059818
   147    -0.085399
   148    -0.238627
   149    -0.098405
   150    -0.428996
   151    -0.032565
   152    -0.252229
   153     0.313774
   154     0.358201
Sym=   123a
Ene=   -0.155128E-03
Spin= Alpha
Occup= 0.000007
     1     0.050631
     2    -0.081017
     3     1.159232
     4     0.110106
     5    -0.022748
     6    -0.055343
     7     0.539350
     8    -0.138337
     9    -0.319993
    10    -0.120927
    11    -0.161366
    12    -0.250839
    13     0.062547
    14    -0.043923
    15     0.126396
    16     0.062813
    17     0.136985
    18    -0.490787
    19    -0.024856
    20     0.115105
    21    -0.042528
    22     0.218369
    23    -0.125023
    24     0.161430
    25    -0.144717
    26    -0.436460
    27    -0.192696
    28    -0.050790
    29     0.052512
    30     0.054728
    31     0.377409
    32     0.072643
    33    -0.345628
    34    -0.270416
    35    -0.319045
    36     0.011020
    37    -0.031395
    38     0.236831
    39     0.028160
    40    -0.031297
    41     0.026018
    42     0.152994
    43    -0.148757
    44     0.124227
    45    -0.014826
    46    -0.085268
    47    -0.047629
    48    -0.074847
    49     0.018092
    50    -0.069357
    51    -0.198689
    52     0.137244
    53     0.263524
    54    -0.304648
    55    -0.102233
    56     0.113933
    57     0.056032
    58     0.053956
    59     0.130288
    60     0.126173
    61     0.220190
    62    -0.074459
    63    -0.052951
    64     0.135601
    65     0.235734
    66     0.003880
    67     0.125082
    68    -0.229046
    69    -0.067048
    70    -0.126878
    71    -0.036966
    72    -0.052224
    73     0.135409
    74    -0.190100
    75    -0.297056
    76     0.804709
    77    -0.417482
    78    -0.027754
    79     0.164387
    80    -0.192708
    81    -0.618196
    82     0.174570
    83    -0.103329
    84     0.174714
    85    -0.188677
    86    -0.014166
    87    -0.066969
    88    -0.061937
    89    -0.096581
    90     0.156772
    91     0.009756
    92     0.141350
    93     0.067041
    94    -0.007095
    95     0.208379
    96     0.219271
    97    -0.140597
    98     0.300454
    99     0.121678
   100    -0.171043
   101     0.180650
   102    -0.013058
   103    -0.129639
   104     0.043603
   105    -0.082579
   106     0.002760
   107     0.055024
   108     0.220782
   109     0.066892
   110    -0.024651
   111     0.014434
   112     0.005182
   113     0.175463
   114    -0.105456
   115     0.044857
   116    -0.004234
   117     0.085184
   118    -0.006346
   119    -0.069844
   120    -0.007279
   121    -0.328940
   122    -0.442449
   123     0.045666
   124    -0.359172
   125    -0.336566
   126     0.110641
   127     0.055520
   128    -0.233116
   129    -0.063768
   130    -0.010740
   131     0.107456
   132    -0.935940
   133     0.004874
   134    -0.022677
   135    -0.024086
   136    -0.317168
   137    -0.040330
   138     0.161418
   139     0.094334
   140     0.037778
   141     0.000793
   142     0.121345
   143     0.169368
   144    -0.099948
   145     0.314407
   146    -0.235453
   147     0.146502
   148     0.116443
   149     0.143512
   150     0.346425
   151    -0.021804
   152     0.100332
   153    -0.296347
   154    -0.271154
Sym=   124a
Ene=   -0.141560E-03
Spin= Alpha
Occup= 0.000007
     1    -0.016861
     2    -0.021562
     3    -0.157671
     4    -0.014467
     5    -0.008619
     6     0.016643
     7     0.061289
     8     0.285318
     9     0.080093
    10     0.115860
    11    -0.000528
    12     0.037817
    13     0.036681
    14    -0.041637
    15    -0.130568
    16     0.047982
    17     0.015309
    18     0.593143
    19     0.096471
    20     0.114767
    21     0.030622
    22     0.523887
    23     0.122605
    24     0.641111
    25    -0.174615
    26    -0.169180
    27    -0.256864
    28     0.117943
    29     0.035957
    30     0.068492
    31    -0.341108
    32     0.200264
    33     0.368087
    34     0.050041
    35     0.069847
    36     0.001891
    37    -0.034633
    38     0.190736
    39     0.036374
    40     0.039500
    41    -0.006521
    42     0.157697
    43     0.140462
    44     0.050942
    45    -0.006845
    46    -0.020911
    47    -0.012195
    48     0.019762
    49     0.019379
    50     0.048434
    51     0.361347
    52    -0.011842
    53     0.175839
    54    -0.216754
    55    -0.190185
    56     0.366271
    57    -0.209684
    58    -0.010529
    59    -0.072672
    60    -0.129637
    61     0.354625
    62     0.051768
    63    -0.297128
    64    -0.147969
    65     0.105144
    66     0.020143
    67     0.136261
    68     0.798932
    69    -0.027193
    70    -0.127108
    71     0.058741
    72    -0.308818
    73    -0.093396
    74    -0.093441
    75    -0.381407
    76     0.082712
    77     0.093355
    78     0.063728
    79    -0.327657
    80     0.285805
    81     0.025525
    82    -0.211107
    83    -0.182908
    84    -0.015465
    85    -0.203062
    86    -0.042246
    87     0.012516
    88    -1.621179
    89    -0.106730
    90     0.301934
    91    -0.109998
    92    -0.186465
    93     0.319625
    94     0.872514
    95     0.168476
    96    -0.225097
    97     0.660419
    98     0.157607
    99    -0.031455
   100    -0.142692
   101    -0.342046
   102    -0.077967
   103    -0.057498
   104     0.332161
   105     0.048491
   106    -0.000286
   107    -0.007538
   108     0.229544
   109     0.099382
   110     0.013976
   111     0.005484
   112    -0.018155
   113    -0.126019
   114     0.035771
   115     0.177514
   116     0.053952
   117    -0.006224
   118     0.094688
   119    -0.040618
   120     0.417669
   121    -0.274115
   122     0.154886
   123     0.030040
   124    -0.011465
   125    -0.090480
   126    -0.040293
   127     0.259043
   128     0.134247
   129     0.039964
   130     0.004251
   131    -0.118356
   132     0.732099
   133     0.019718
   134    -0.016346
   135    -0.044583
   136     0.327110
   137     0.132332
   138     0.055454
   139     0.036600
   140    -0.041986
   141    -0.039495
   142    -0.070347
   143    -0.127982
   144     0.102186
   145    -0.376651
   146     0.105462
   147     0.077704
   148     0.086381
   149    -0.225011
   150    -0.128014
   151    -0.064807
   152    -0.182337
   153    -0.111821
   154    -0.376540
Sym=   125a
Ene=   -0.472237E-04
Spin= Alpha
Occup= 0.000001
     1     0.007662
     2     0.019407
     3    -0.188721
     4     0.033440
     5     0.010077
     6    -0.013425
     7     0.101185
     8     0.010943
     9    -0.062031
    10     0.057397
    11    -0.119598
    12    -0.028122
    13    -0.051464
    14    -0.076527
    15    -0.044139
    16    -0.014951
    17     0.101587
    18    -0.796358
    19    -0.072380
    20     0.059927
    21     0.097084
    22    -0.631723
    23     0.768487
    24     0.540492
    25    -0.004420
    26     0.107501
    27     0.111925
    28     0.027060
    29     0.043870
    30     0.016424
    31     0.029164
    32     0.022886
    33    -0.051964
    34     0.023446
    35    -0.076461
    36    -0.003266
    37    -0.025311
    38     0.082770
    39     0.004953
    40     0.023045
    41    -0.011480
    42     0.087887
    43     0.077678
    44     0.016286
    45     0.018097
    46    -0.006706
    47     0.012628
    48     0.034707
    49     0.021264
    50     0.029028
    51    -0.270378
    52    -0.207749
    53     0.052287
    54    -0.007032
    55     0.230412
    56    -0.081832
    57    -0.020066
    58    -0.017877
    59    -0.291296
    60     0.014228
    61     0.377703
    62    -0.084442
    63     0.160746
    64    -0.286308
    65    -0.027414
    66     0.006809
    67    -0.086276
    68    -0.508897
    69    -0.034035
    70     0.000432
    71    -0.037965
    72     0.162692
    73     0.106349
    74     0.135741
    75     0.282088
    76    -0.319690
    77    -0.036936
    78     0.509549
    79     0.099897
    80    -0.073734
    81     0.239018
    82    -0.060893
    83    -0.247364
    84    -0.076979
    85     0.139536
    86     0.026995
    87    -0.142680
    88     1.475041
    89     0.140399
    90    -0.079801
    91     0.018768
    92     0.270669
    93    -0.553782
    94    -1.276711
    95    -0.413759
    96     0.082858
    97    -0.052690
    98     0.244799
    99     0.710996
   100     0.173236
   101     0.063239
   102     0.530652
   103    -0.620693
   104    -0.158028
   105    -0.059492
   106    -0.000199
   107    -0.011221
   108    -0.477475
   109    -0.126987
   110    -0.012183
   111     0.005176
   112    -0.002663
   113     0.182273
   114    -0.109169
   115    -0.023226
   116     0.167827
   117    -0.084513
   118    -0.017502
   119    -0.113008
   120     0.281718
   121    -0.106522
   122     0.082550
   123    -0.092864
   124     0.210615
   125     0.038040
   126    -0.110172
   127     0.141871
   128     0.071172
   129     0.188663
   130     0.007162
   131    -0.037402
   132     0.169761
   133    -0.003931
   134    -0.029899
   135    -0.001521
   136    -0.030845
   137     0.177406
   138     0.097120
   139    -0.039983
   140     0.009397
   141    -0.060726
   142     0.008646
   143     0.015628
   144     0.043792
   145     0.141900
   146     0.018721
   147     0.166966
   148    -0.074513
   149     0.065513
   150    -0.412089
   151    -0.017797
   152     0.179640
   153     0.103522
   154    -0.131496
Sym=   126a
Ene=    0.000000E+00
Spin= Alpha
Occup= 0.000000
     1     0.012377
     2     0.060396
     3    -0.402099
     4     0.049895
     5     0.063976
     6    -0.012598
     7     0.276327
     8     0.558359
     9     0.354275
    10     0.070082
    11    -0.124273
    12    -0.068090
    13    -0.005662
    14     0.073517
    15    -0.037150
    16    -0.079288
    17     0.479377
    18    -3.502668
    19    -0.115559
    20    -0.105279
    21    -0.015173
    22    -1.115877
    23     0.462355
    24    -1.238601
    25     0.152972
    26     0.447115
    27     0.517605
    28     0.005192
    29    -0.169331
    30     0.029056
    31     0.049287
    32    -0.289274
    33    -0.003223
    34    -0.080536
    35    -0.077818
    36    -0.004331
    37     0.063351
    38    -0.302926
    39    -0.002047
    40     0.009963
    41    -0.059072
    42    -0.094751
    43     0.006613
    44    -0.320031
    45     0.065403
    46     0.049550
    47    -0.024181
    48     0.033128
    49    -0.032329
    50    -0.010892
    51     0.079097
    52    -0.624704
    53     0.101360
    54     0.075419
    55    -0.196205
    56     0.105372
    57     1.292708
    58     0.014994
    59    -0.046800
    60     0.042460
    61    -0.088511
    62    -0.472077
    63     0.330608
    64     0.042365
    65    -0.267895
    66     0.012346
    67     0.304684
    68    -5.145021
    69    -0.187260
    70     0.122007
    71    -0.029619
    72     0.627812
    73     1.790522
    74    -0.658247
    75    -0.108945
    76    -0.113439
    77     0.115487
    78    -0.199650
    79    -0.068833
    80     0.060745
    81     0.059378
    82    -0.565781
    83     0.269499
    84    -0.048897
    85    -0.035666
    86    -0.006910
    87    -0.477666
    88     6.923951
    89     0.213902
    90    -0.094208
    91     0.265017
    92     0.250674
    93     1.048104
    94    -1.994780
    95     0.328010
    96    -0.263741
    97    -0.005469
    98    -0.355276
    99     0.310837
   100    -0.594531
   101     0.146298
   102    -0.524714
   103    -0.011354
   104     0.111102
   105    -0.290350
   106     0.000787
   107     0.002418
   108     0.065016
   109     0.467680
   110    -0.017672
   111     0.000016
   112    -0.002538
   113     0.188982
   114    -0.004611
   115    -0.038632
   116     0.539918
   117    -0.195051
   118     0.302516
   119     0.114090
   120     0.112094
   121    -0.056533
   122     0.016852
   123     0.418801
   124     0.276984
   125    -0.061884
   126    -0.396146
   127    -0.020432
   128    -0.071294
   129     0.128837
   130     0.010814
   131    -0.104805
   132     0.843050
   133     0.028418
   134    -0.033470
   135     0.009083
   136    -0.093246
   137     0.389165
   138     0.140496
   139    -0.072112
   140    -0.007410
   141    -0.074743
   142     0.004429
   143    -0.014597
   144     0.058193
   145    -0.025690
   146     0.819663
   147     0.056591
   148    -0.126670
   149    -0.101384
   150     0.197996
   151    -0.480041
   152     0.230604
   153     0.237978
   154     0.251142
Sym=   127a
Ene=    0.000000E+00
Spin= Alpha
Occup= 0.000000
     1    -0.020845
     2     0.177905
     3    -2.006094
     4     0.025555
     5     0.088598
     6     0.017970
     7     0.454642
     8     2.427957
     9     1.177881
    10     0.317428
    11    -0.170625
    12     0.070660
    13     0.165836
    14     0.044077
    15    -0.405944
    16    -0.021266
    17     0.090888
    18    -0.424096
    19     0.104663
    20    -0.073645
    21     0.014362
    22     1.416827
    23    -0.888573
    24    -0.369356
    25     0.053384
    26     0.036412
    27     0.212073
    28    -0.036426
    29     0.007416
    30    -0.029961
    31     0.069551
    32     0.792089
    33    -0.260302
    34    -0.217521
    35     0.004791
    36     0.012876
    37    -0.079671
    38     0.444071
    39     0.032896
    40     0.016435
    41     0.008943
    42     0.111713
    43     0.079506
    44     0.018309
    45    -0.066156
    46    -0.070566
    47    -0.090164
    48    -0.005711
    49    -0.046706
    50     0.008149
    51    -0.096233
    52     0.520544
    53     0.021457
    54    -0.207510
    55    -0.043873
    56     0.034621
    57    -0.372087
    58     0.042965
    59     0.008196
    60    -0.029352
    61    -0.270928
    62     0.556386
    63    -0.184576
    64     0.142616
    65    -0.158098
    66     0.007794
    67    -0.247554
    68     5.061011
    69     0.008699
    70     0.010111
    71     0.005121
    72    -1.758854
    73    -1.251452
    74     0.158904
    75     0.109353
    76    -0.102579
    77    -0.092310
    78     0.198871
    79    -0.031411
    80     0.110948
    81     0.115363
    82    -0.250320
    83     0.015798
    84    -0.032986
    85     0.015070
    86    -0.010441
    87     0.244748
    88    -3.399482
    89     0.007367
    90     0.131673
    91    -0.067273
    92    -1.549287
    93    -0.302821
    94     2.405854
    95    -0.008963
    96     0.355301
    97    -0.145322
    98    -0.016764
    99    -0.083528
   100     0.312148
   101     0.025636
   102    -1.228863
   103     0.064642
   104    -0.071376
   105     0.144063
   106     0.000370
   107     0.012612
   108     0.601012
   109    -1.910535
   110     0.010837
   111     0.008329
   112     0.004931
   113    -0.262592
   114    -0.001374
   115     0.024159
   116     0.250749
   117    -0.818381
   118    -0.078124
   119     0.117073
   120    -0.099027
   121    -0.127255
   122    -0.069061
   123     0.087072
   124    -0.024605
   125    -0.119455
   126     0.154761
   127    -0.115777
   128    -0.062090
   129    -0.004104
   130     0.028975
   131    -0.391687
   132     2.816893
   133    -0.006104
   134    -0.081135
   135    -0.084130
   136    -0.279997
   137     1.683407
   138     1.250422
   139    -0.318212
   140     0.002117
   141    -0.176185
   142     0.081506
   143     0.050745
   144     0.225082
   145    -0.076846
   146     0.024101
   147    -0.031611
   148    -0.014686
   149    -0.064566
   150     0.553872
   151     0.159693
   152    -0.050923
   153    -0.001277
   154    -0.020112
Sym=   128a
Ene=    0.000000E+00
Spin= Alpha
Occup= 0.000000
     1    -0.006882
     2     0.318727
     3    -2.844920
     4    -0.072059
     5    -0.018879
     6    -0.017072
     7    -1.603650
     8    -0.353169
     9     0.268297
    10    -0.137871
    11     0.065814
    12     0.204372
    13    -0.163783
    14     0.091524
    15    -0.068850
    16     0.046702
    17    -0.321569
    18     3.566878
    19    -0.142828
    20     0.036876
    21    -0.027746
    22    -1.780182
    23    -0.429063
    24    -0.929437
    25    -0.064160
    26    -0.318852
    27    -0.196076
    28     0.114241
    29    -0.054712
    30    -0.004428
    31    -0.218630
    32     1.328343
    33    -0.169206
    34     0.038136
    35     0.056691
    36    -0.002258
    37     0.049020
    38    -0.254453
    39     0.024604
    40     0.057748
    41    -0.026250
    42     0.078169
    43     0.200387
    44    -0.152750
    45    -0.008063
    46     0.061631
    47    -0.000056
    48    -0.017723
    49    -0.033647
    50    -0.006872
    51     0.070359
    52    -1.007528
    53    -0.083224
    54    -0.312712
    55     0.147729
    56     0.183421
    57     0.116095
    58    -0.059129
    59    -0.015392
    60    -0.089286
    61     0.055782
    62    -2.280029
    63     0.234902
    64     0.126817
    65    -0.230112
    66     0.034786
    67    -0.600996
    68     5.725184
    69    -0.085333
    70     0.079721
    71    -0.032977
    72    -2.237572
    73    -0.449671
    74    -0.631729
    75    -0.124132
    76    -0.227630
    77    -0.207085
    78     0.202346
    79    -0.158381
    80     0.153417
    81     0.043087
    82    -1.022222
    83     0.044160
    84    -0.143778
    85     0.052243
    86    -0.002292
    87     0.161580
    88    -2.124066
    89     0.116783
    90     0.090566
    91    -0.083373
    92    -1.445576
    93    -0.904420
    94     0.084611
    95    -0.052180
    96     0.289267
    97     0.031971
    98    -0.083694
    99     0.062897
   100    -0.035005
   101     0.014630
   102     0.238741
   103     0.041707
   104    -0.034067
   105     0.182774
   106    -0.000722
   107    -0.012603
   108    -0.275389
   109    -0.701607
   110     0.012746
   111     0.016959
   112    -0.008358
   113    -0.161888
   114    -0.217810
   115     0.002126
   116     0.231136
   117    -0.772374
   118     0.020745
   119     0.110171
   120    -0.240733
   121     0.185916
   122     0.070951
   123     0.083227
   124    -0.006916
   125     0.045256
   126    -0.223410
   127    -0.099400
   128    -0.032648
   129    -0.075823
   130    -0.005860
   131     0.038989
   132    -0.176419
   133    -0.030175
   134    -0.046635
   135     0.007469
   136     0.033086
   137     0.482801
   138     0.191267
   139    -0.023822
   140     0.069561
   141     0.030647
   142     0.054200
   143     0.049638
   144    -0.020737
   145    -0.085225
   146    -0.739642
   147     0.067544
   148    -0.102190
   149     0.026020
   150    -0.134236
   151     0.144040
   152     0.260424
   153    -0.099169
   154    -0.002777
Sym=   129a
Ene=    0.000000E+00
Spin= Alpha
Occup= 0.000000
     1     0.022149
     2    -0.288002
     3     2.670676
     4     0.093176
     5     0.017369
     6    -0.008215
     7     1.259092
     8    -0.066487
     9    -0.207781
    10     0.003437
    11    -0.072075
    12    -0.230987
    13     0.104611
    14     0.033187
    15     0.144020
    16    -0.037879
    17     0.006691
    18     0.169803
    19     0.049505
    20    -0.102720
    21     0.084986
    22     1.797566
    23     0.239714
    24    -0.964206
    25    -0.084019
    26     0.157773
    27     0.477902
    28    -0.108852
    29    -0.172457
    30    -0.017129
    31     0.110491
    32    -0.083329
    33     0.157558
    34     0.128840
    35     0.062855
    36     0.023867
    37    -0.210934
    38     1.107532
    39     0.016282
    40     0.049398
    41     0.061565
    42     0.261538
    43     0.188612
    44     0.501676
    45    -0.154091
    46    -0.174587
    47    -0.099225
    48    -0.049043
    49     0.109878
    50     0.004010
    51    -0.067891
    52     1.468619
    53    -0.064294
    54    -0.075539
    55    -0.104623
    56    -0.242128
    57    -1.830627
    58     0.062799
    59     0.146747
    60    -0.075258
    61    -0.304169
    62    -1.019845
    63     0.292898
    64    -0.027893
    65    -0.663741
    66     0.000010
    67    -0.411482
    68     6.779273
    69     0.133197
    70    -0.137785
    71     0.062854
    72    -0.846302
    73    -2.883581
    74     1.474081
    75    -0.073069
    76     0.125897
    77    -0.121900
    78     0.022789
    79     0.261442
    80    -0.096452
    81    -0.150797
    82     1.091967
    83    -0.102376
    84     0.030693
    85    -0.070075
    86    -0.061449
    87     0.682462
    88    -8.246459
    89     0.072899
    90     0.050822
    91    -0.033321
    92    -1.953434
    93     0.325424
    94     2.095287
    95     0.254577
    96     0.355929
    97     0.324071
    98     0.071854
    99    -0.006279
   100    -0.014968
   101    -0.123010
   102     0.261449
   103    -0.095570
   104     0.158043
   105     0.061535
   106     0.001278
   107     0.039643
   108     0.055656
   109    -0.286965
   110     0.014033
   111    -0.010757
   112    -0.004384
   113    -0.164793
   114     0.060674
   115     0.240487
   116    -0.823282
   117     0.226613
   118    -0.209387
   119    -0.206952
   120     0.064212
   121    -0.393803
   122    -0.317440
   123    -0.698526
   124    -0.245321
   125    -0.145534
   126     0.539361
   127     0.017137
   128     0.099468
   129     0.125812
   130    -0.006326
   131     0.107079
   132    -0.815634
   133     0.019775
   134     0.008986
   135     0.022726
   136    -0.137503
   137    -0.459210
   138    -0.333431
   139     0.063159
   140    -0.000117
   141     0.059324
   142    -0.079758
   143    -0.052861
   144    -0.032041
   145    -0.012380
   146    -0.603498
   147    -0.035353
   148     0.244242
   149     0.042014
   150     0.072478
   151     0.534980
   152    -0.105325
   153     0.104626
   154     0.226799
Sym=   130a
Ene=    0.000000E+00
Spin= Alpha
Occup= 0.000000
     1    -0.023082
     2     0.328440
     3    -2.802285
     4    -0.089408
     5    -0.026389
     6    -0.022348
     7    -1.627637
     8    -0.309140
     9     0.183960
    10    -0.075239
    11     0.184776
    12     0.228338
    13    -0.104139
    14     0.063947
    15    -0.043304
    16     0.028058
    17    -0.434041
    18     2.966885
    19    -0.028800
    20     0.022486
    21    -0.066749
    22    -1.337970
    23    -1.228854
    24    -0.367058
    25    -0.036559
    26    -0.260105
    27    -0.253710
    28     0.092144
    29     0.048180
    30    -0.101740
    31    -0.054549
    32    -0.546394
    33     0.016582
    34    -0.048475
    35    -0.012511
    36     0.008119
    37    -0.108006
    38     0.529536
    39    -0.026209
    40    -0.002852
    41     0.042489
    42    -0.110694
    43     0.030708
    44     0.251191
    45    -0.075599
    46    -0.088207
    47    -0.011605
    48    -0.027532
    49     0.003127
    50    -0.009525
    51    -0.115012
    52     2.762707
    53     0.197050
    54     0.386388
    55    -0.454234
    56     0.023890
    57    -1.398414
    58    -0.007360
    59     0.068559
    60    -0.088649
    61    -0.251361
    62     0.499147
    63     0.235820
    64    -0.032249
    65     0.284358
    66    -0.009315
    67    -0.631695
    68     6.689304
    69     0.152667
    70    -0.038906
    71     0.013670
    72    -1.088806
    73    -2.836069
    74     0.434015
    75     0.087942
    76    -0.056729
    77    -0.034900
    78     0.279369
    79    -0.072989
    80     0.109970
    81     0.077069
    82     0.513697
    83    -0.047270
    84    -0.110159
    85    -0.052335
    86     0.018800
    87     0.327455
    88    -5.152090
    89    -0.137976
    90    -0.168676
    91     0.209068
    92    -1.884761
    93     1.469971
    94     2.981656
    95    -0.395722
    96    -0.168447
    97     0.106478
    98    -0.122694
    99     0.032270
   100    -0.266678
   101     0.103447
   102    -1.786290
   103     0.095473
   104     0.132724
   105    -0.149208
   106     0.002927
   107     0.085288
   108     0.476084
   109    -0.936011
   110     0.011126
   111    -0.004145
   112     0.005288
   113    -0.237992
   114     0.008415
   115     0.034650
   116    -0.397792
   117    -0.425942
   118    -0.409427
   119    -0.423504
   120    -0.147695
   121    -0.188553
   122    -0.317773
   123    -0.024371
   124    -0.114244
   125    -0.055881
   126     0.113994
   127     0.059538
   128     0.010261
   129    -0.045131
   130     0.001882
   131    -0.115574
   132     0.968689
   133    -0.009919
   134     0.009270
   135     0.031587
   136     0.355287
   137     0.148349
   138    -0.034462
   139    -0.027479
   140    -0.035377
   141    -0.019080
   142     0.034754
   143     0.024511
   144    -0.016643
   145    -0.089840
   146    -0.851655
   147     0.011099
   148    -0.063501
   149     0.014084
   150     0.055428
   151     0.199841
   152     0.221596
   153    -0.304424
   154    -0.011219
Sym=   131a
Ene=    0.000000E+00
Spin= Alpha
Occup= 0.000000
     1    -0.026243
     2     0.054059
     3    -0.311448
     4    -0.052908
     5     0.027329
     6    -0.070252
     7     0.257630
     8     0.633559
     9    -0.101925
    10     0.197656
    11     0.066125
    12     0.067649
    13     0.070713
    14    -0.040878
    15    -0.044006
    16     0.002743
    17     0.158693
    18    -1.295935
    19     0.078056
    20     0.118926
    21    -0.048655
    22     0.788117
    23     0.463367
    24    -0.660508
    25     0.016860
    26    -0.070510
    27     0.083871
    28     0.037549
    29    -0.014116
    30    -0.021564
    31     0.056403
    32    -0.349706
    33    -0.153769
    34    -0.001965
    35    -0.072935
    36    -0.017802
    37     0.120056
    38    -0.710095
    39    -0.062356
    40    -0.007333
    41     0.008710
    42    -0.225052
    43    -0.043446
    44     0.000749
    45     0.082426
    46     0.092395
    47     0.135630
    48    -0.013333
    49     0.009293
    50    -0.006977
    51     0.088272
    52    -2.028148
    53     0.260990
    54     0.107307
    55     0.084677
    56    -0.198719
    57     0.061068
    58     0.014990
    59     0.049428
    60     0.126534
    61    -0.064314
    62    -0.928337
    63    -0.179555
    64     0.036696
    65    -0.218011
    66    -0.031285
    67     0.310296
    68    -4.013408
    69     0.131023
    70    -0.116686
    71    -0.096110
    72     1.240854
    73     0.197476
    74     0.972705
    75     0.192413
    76     0.109671
    77     0.136338
    78    -0.033624
    79     0.093686
    80    -0.362680
    81    -0.073037
    82     0.903217
    83    -0.082774
    84     0.182071
    85     0.048815
    86     0.048340
    87    -0.354162
    88     5.516696
    89    -0.232242
    90    -0.046028
    91     0.017322
    92    -1.346898
    93    -0.018052
    94    -0.353964
    95    -0.234218
    96    -0.284471
    97    -0.275928
    98    -0.019575
    99     0.036037
   100     0.168457
   101     0.025987
   102    -1.416993
   103     0.310274
   104    -0.180502
   105    -0.047126
   106     0.000562
   107     0.010745
   108    -0.104269
   109     1.216981
   110    -0.000157
   111     0.008768
   112    -0.020841
   113     0.049897
   114    -0.029463
   115     0.133570
   116    -0.565687
   117     0.678604
   118    -0.205765
   119    -0.340725
   120     0.109537
   121     0.224307
   122     0.116638
   123     0.094953
   124    -0.076737
   125     0.045786
   126     0.151177
   127     0.212078
   128     0.080527
   129    -0.077928
   130     0.005026
   131    -0.065334
   132     0.503401
   133     0.009443
   134    -0.017353
   135     0.023464
   136    -0.165790
   137     0.260939
   138     0.160188
   139    -0.068230
   140    -0.004487
   141    -0.027612
   142     0.025187
   143     0.021562
   144     0.027781
   145    -0.024380
   146     1.205377
   147    -0.125927
   148     0.058420
   149     0.282614
   150     0.030422
   151    -0.241174
   152    -0.230336
   153    -0.120449
   154    -0.166463
Sym=   132a
Ene=    0.000000E+00
Spin= Alpha
Occup= 0.000000
     1    -0.019969
     2    -0.008586
     3    -0.022633
     4    -0.034618
     5     0.005524
     6    -0.005552
     7     0.305043
     8     0.072951
     9    -0.074496
    10     0.203868
    11    -0.005416
    12     0.044440
    13    -0.038178
    14    -0.057919
    15     0.018570
    16     0.014507
    17     0.130329
    18    -0.728116
    19     0.062221
    20     0.132352
    21    -0.029787
    22     0.113253
    23     1.379607
    24     0.171171
    25    -0.144834
    26     0.122909
    27    -0.112600
    28     0.025159
    29     0.001388
    30    -0.038358
    31     0.107196
    32     1.514312
    33    -0.370105
    34     0.084184
    35     0.101179
    36     0.010309
    37    -0.096132
    38     0.525998
    39     0.060422
    40     0.016586
    41    -0.011322
    42     0.388966
    43     0.041701
    44     0.026259
    45    -0.099454
    46    -0.075543
    47    -0.024251
    48     0.020682
    49     0.016893
    50    -0.020215
    51    -0.106613
    52    -1.309221
    53     0.167578
    54     0.164566
    55    -0.014290
    56    -0.020874
    57     0.107502
    58    -0.040446
    59    -0.013637
    60     0.000057
    61    -0.035987
    62     0.190523
    63    -0.054270
    64    -0.313408
    65     0.125492
    66    -0.048040
    67    -0.079188
    68     0.757243
    69     0.004805
    70     0.008701
    71     0.112493
    72    -0.350161
    73     0.544534
    74     0.320976
    75     0.063994
    76     0.235679
    77     0.425093
    78    -0.218987
    79    -0.174811
    80     0.192890
    81    -0.082464
    82    -0.243117
    83    -0.008313
    84     0.113180
    85    -0.112042
    86     0.003810
    87    -0.051540
    88     0.299823
    89    -0.062924
    90    -0.260942
    91    -0.043781
    92    -1.062930
    93    -2.316128
    94    -2.356643
    95     0.066926
    96    -0.162289
    97    -0.007437
    98     0.007447
    99     0.150923
   100    -0.152249
   101     0.056612
   102     2.134990
   103     0.173099
   104     0.285016
   105    -0.137014
   106     0.000968
   107     0.032330
   108     0.074066
   109    -1.008190
   110    -0.012552
   111    -0.018787
   112     0.019103
   113     0.156246
   114     0.077490
   115    -0.123586
   116     1.251103
   117    -1.213200
   118     0.749074
   119    -0.383198
   120    -0.027539
   121    -0.001321
   122    -0.074162
   123    -0.260117
   124     0.082714
   125     0.019386
   126    -0.741529
   127    -0.056782
   128     0.108175
   129     0.017744
   130    -0.011730
   131     0.173400
   132    -1.262135
   133    -0.027501
   134    -0.023987
   135     0.001808
   136    -0.541720
   137     0.259637
   138     0.271914
   139    -0.017967
   140     0.130790
   141     0.075472
   142     0.061455
   143     0.071725
   144    -0.000912
   145    -0.099493
   146     0.265545
   147     0.061830
   148    -0.129980
   149    -0.388960
   150    -0.403220
   151    -0.310634
   152    -0.031918
   153     0.031158
   154     0.250022
Sym=   133a
Ene=    0.000000E+00
Spin= Alpha
Occup= 0.000000
     1    -0.004818
     2     0.038654
     3    -0.435737
     4     0.004494
     5     0.011838
     6    -0.012451
     7    -0.013573
     8     0.282056
     9    -0.001061
    10     0.038170
    11     0.005542
    12     0.012838
    13     0.000108
    14    -0.043249
    15    -0.067890
    16    -0.015949
    17     0.136499
    18    -1.048551
    19     0.012315
    20    -0.049877
    21     0.031428
    22    -0.191196
    23    -0.257408
    24     0.442752
    25     0.079405
    26     0.091947
    27     0.026850
    28     0.019736
    29     0.014956
    30     0.103252
    31    -0.027089
    32    -0.022388
    33    -0.024895
    34     0.052332
    35     0.034648
    36    -0.013799
    37     0.063401
    38    -0.380871
    39    -0.025481
    40     0.038477
    41     0.037586
    42    -0.043937
    43     0.131575
    44     0.144675
    45     0.043007
    46     0.054620
    47     0.133566
    48    -0.007509
    49     0.024981
    50    -0.011149
    51     0.229491
    52    -0.742390
    53    -0.183402
    54    -0.056119
    55     0.199741
    56     0.001875
    57    -0.623342
    58    -0.000749
    59    -0.015647
    60     0.154448
    61     0.166445
    62     0.908891
    63    -0.048562
    64     0.049638
    65     0.164128
    66    -0.016947
    67    -0.253262
    68     3.647894
    69     0.031135
    70     0.042573
    71    -0.135269
    72    -0.555228
    73    -1.282396
    74     0.070298
    75     0.026635
    76     0.310753
    77    -0.138137
    78     0.108254
    79     0.020387
    80     0.029523
    81    -0.164489
    82     0.109985
    83    -0.036036
    84    -0.012145
    85    -0.034344
    86    -0.018557
    87     0.381116
    88    -2.612168
    89    -0.048662
    90     0.092082
    91    -0.093999
    92    -1.681193
    93     0.753848
    94     0.754543
    95    -0.023998
    96     0.005636
    97     0.348501
    98     0.105107
    99     0.222907
   100    -0.147753
   101    -0.105488
   102    -0.215959
   103     0.003039
   104     0.021890
   105     0.119501
   106    -0.000516
   107    -0.005388
   108     0.050580
   109     0.954570
   110     0.021709
   111    -0.005166
   112    -0.014362
   113    -0.177325
   114     0.037379
   115     0.168006
   116    -0.602516
   117    -1.355671
   118     0.407426
   119     0.135691
   120    -0.508915
   121     0.397954
   122    -0.450729
   123    -0.487573
   124     0.101152
   125     0.322164
   126    -1.320088
   127    -0.076036
   128    -0.062790
   129     0.184949
   130     0.003491
   131    -0.058874
   132     0.363596
   133    -0.014069
   134    -0.006616
   135    -0.031450
   136    -0.006861
   137     0.165705
   138     0.219060
   139    -0.045145
   140    -0.012126
   141    -0.012989
   142    -0.009723
   143     0.012076
   144     0.050271
   145     0.088171
   146    -0.215051
   147    -0.196341
   148    -0.046487
   149     0.182444
   150     0.138209
   151    -0.239764
   152     0.025213
   153     0.122125
   154    -0.201374
Sym=   134a
Ene=    0.000000E+00
Spin= Alpha
Occup= 0.000000
     1     0.008691
     2    -0.043358
     3     0.369596
     4     0.043420
     5     0.015019
     6    -0.017648
     7     0.345050
     8     0.173145
     9    -0.054591
    10     0.037238
    11    -0.093585
    12    -0.058721
    13     0.031028
    14    -0.028118
    15    -0.018170
    16    -0.025729
    17     0.070652
    18    -0.597468
    19    -0.013625
    20    -0.030706
    21     0.063642
    22     0.162889
    23     0.355948
    24     0.057044
    25     0.006121
    26     0.175704
    27     0.182921
    28    -0.036462
    29    -0.022853
    30     0.021423
    31     0.012336
    32    -0.394178
    33     0.084776
    34     0.033571
    35    -0.060306
    36     0.004732
    37    -0.033437
    38     0.171607
    39    -0.037746
    40    -0.001949
    41    -0.005216
    42    -0.189470
    43     0.009698
    44    -0.083554
    45    -0.065247
    46    -0.007228
    47    -0.024426
    48    -0.034652
    49    -0.021739
    50    -0.021000
    51     0.188471
    52    -2.356696
    53    -0.204108
    54     0.339174
    55    -0.110385
    56     0.309087
    57     0.596598
    58    -0.097925
    59    -0.098508
    60     0.191493
    61     0.184777
    62    -0.511166
    63     0.040026
    64    -0.095661
    65    -0.226934
    66    -0.006999
    67    -0.050214
    68    -0.848959
    69     0.004793
    70     0.018399
    71    -0.196871
    72    -0.773645
    73     1.246461
    74    -0.569627
    75     0.210105
    76     0.259644
    77    -0.385013
    78     0.005317
    79    -0.235450
    80     0.297427
    81    -0.092473
    82    -0.634808
    83    -0.018655
    84    -0.034053
    85    -0.182100
    86     0.010447
    87    -0.215771
    88     3.082845
    89     0.060583
    90    -0.264622
    91    -0.083285
    92     0.408435
    93    -2.190247
    94    -0.417460
    95    -0.114355
    96    -0.289613
    97     0.161874
    98    -0.173562
    99     0.062604
   100     0.077867
   101    -0.071749
   102    -0.107965
   103    -0.136430
   104     0.343783
   105     0.001764
   106    -0.001565
   107    -0.024044
   108    -0.312249
   109    -0.032756
   110    -0.005029
   111     0.023553
   112     0.003268
   113     0.088896
   114    -0.198465
   115    -0.114783
   116     0.332522
   117    -0.935475
   118     0.351376
   119     0.091140
   120    -0.268243
   121     0.290513
   122     0.110215
   123     0.054378
   124    -0.276040
   125     0.236088
   126    -0.885579
   127     0.124566
   128    -0.120525
   129    -0.282097
   130     0.010340
   131    -0.090548
   132     0.519956
   133    -0.002097
   134    -0.010827
   135    -0.001262
   136     0.108937
   137     0.016499
   138    -0.009023
   139    -0.047393
   140    -0.044533
   141    -0.065179
   142    -0.032011
   143    -0.018296
   144     0.033726
   145    -0.173702
   146     1.033922
   147    -0.110268
   148     0.123920
   149     0.187824
   150    -0.183733
   151     0.402325
   152     0.109955
   153     0.128427
   154     0.052318
Sym=   135a
Ene=    0.000000E+00
Spin= Alpha
Occup= 0.000000
     1     0.010062
     2     0.020796
     3    -0.029366
     4     0.024801
     5     0.046614
     6     0.023258
     7     0.054730
     8     0.128554
     9     0.073917
    10    -0.060972
    11    -0.019800
    12    -0.022910
    13    -0.020003
    14    -0.003822
    15     0.004070
    16    -0.050018
    17     0.196620
    18    -1.675469
    19    -0.068590
    20    -0.132063
    21     0.036285
    22    -0.594520
    23    -0.279389
    24     0.109405
    25     0.185210
    26     0.196683
    27     0.281264
    28    -0.044278
    29    -0.032475
    30     0.096527
    31     0.011936
    32     1.175269
    33    -0.134405
    34     0.074705
    35     0.130568
    36    -0.002426
    37     0.033128
    38    -0.144524
    39     0.038644
    40    -0.010149
    41    -0.007133
    42     0.128461
    43    -0.058529
    44    -0.082294
    45    -0.015690
    46     0.018557
    47     0.043568
    48    -0.032617
    49    -0.037607
    50    -0.008497
    51    -0.009665
    52     0.653607
    53    -0.080847
    54     0.041409
    55    -0.051496
    56    -0.015960
    57     0.124056
    58    -0.033605
    59    -0.093912
    60     0.059619
    61     0.032056
    62     0.803943
    63     0.233609
    64     0.243280
    65     0.018719
    66    -0.006895
    67     0.091366
    68    -0.933119
    69     0.022175
    70     0.041347
    71    -0.057391
    72     0.492919
    73     0.064969
    74    -0.237111
    75     0.045199
    76     0.037121
    77     0.042957
    78     0.182982
    79     0.029258
    80    -0.140493
    81    -0.103759
    82     0.287023
    83    -0.165058
    84    -0.037288
    85     0.042329
    86    -0.055813
    87    -0.152071
    88     1.087835
    89     0.012696
    90     0.018669
    91     0.027063
    92     0.352725
    93     0.646181
    94    -1.134826
    95    -0.003477
    96     0.344179
    97     0.431281
    98    -0.279724
    99    -0.031580
   100     0.059784
   101    -0.336239
   102     0.776980
   103     0.002714
   104    -0.117603
   105     0.141879
   106    -0.000665
   107    -0.018739
   108     0.332948
   109    -0.950412
   110     0.002212
   111    -0.014221
   112     0.000266
   113    -0.022117
   114     0.118301
   115    -0.051081
   116     1.102767
   117    -0.934837
   118     0.003901
   119    -0.211953
   120     0.181982
   121     0.205842
   122     0.415736
   123     0.238585
   124    -0.602981
   125     0.072603
   126    -0.646825
   127     0.236467
   128     0.066486
   129    -0.465044
   130    -0.011503
   131     0.147257
   132    -0.908265
   133    -0.000064
   134     0.002467
   135    -0.022291
   136    -0.359287
   137     0.082814
   138     0.202918
   139     0.008654
   140     0.093537
   141     0.098055
   142    -0.004000
   143     0.017837
   144     0.006841
   145     0.090045
   146    -0.380308
   147     0.158438
   148     0.177330
   149    -0.002570
   150     0.335131
   151    -0.385988
   152     0.131312
   153     0.270483
   154    -0.044091
Sym=   136a
Ene=    0.000000E+00
Spin= Alpha
Occup= 0.000000
     1     0.002444
     2    -0.002254
     3    -0.091840
     4     0.002454
     5     0.036147
     6     0.011293
     7    -0.090087
     8     0.061998
     9    -0.015118
    10    -0.063140
    11    -0.004471
    12     0.026766
    13    -0.013947
    14    -0.049726
    15    -0.032333
    16    -0.011461
    17    -0.164005
    18     1.138430
    19     0.000252
    20    -0.095377
    21     0.077870
    22     0.044178
    23    -0.323382
    24     0.630827
    25     0.030571
    26    -0.001499
    27     0.086922
    28    -0.063384
    29     0.024639
    30     0.142724
    31    -0.018573
    32     1.344377
    33    -0.179117
    34     0.115469
    35     0.126057
    36    -0.001869
    37    -0.014707
    38     0.025458
    39    -0.004757
    40    -0.044286
    41     0.069178
    42     0.075554
    43    -0.156471
    44     0.248286
    45    -0.059255
    46     0.027734
    47     0.040336
    48    -0.003101
    49     0.001712
    50     0.001616
    51    -0.158750
    52     1.970132
    53    -0.004239
    54     0.009909
    55    -0.194554
    56     0.039099
    57     0.357753
    58    -0.039334
    59    -0.033874
    60     0.116039
    61     0.193887
    62     0.025687
    63     0.092578
    64     0.223520
    65    -0.046896
    66    -0.031427
    67     0.049175
    68    -1.754711
    69     0.070094
    70    -0.131541
    71    -0.137358
    72    -0.054290
    73     0.351971
    74    -0.111851
    75     0.142899
    76     0.240986
    77    -0.034072
    78     0.072822
    79    -0.008476
    80    -0.064631
    81    -0.100058
    82     0.195109
    83    -0.164506
    84     0.127054
    85    -0.045730
    86     0.006817
    87     0.090751
    88    -1.929372
    89    -0.092602
    90     0.029809
    91     0.099792
    92     0.962318
    93     0.408167
    94     0.628027
    95    -0.241842
    96    -0.036119
    97     0.012034
    98     0.140283
    99    -0.013771
   100    -0.198070
   101    -0.055313
   102     0.528972
   103    -0.066941
   104     0.100869
   105    -0.280726
   106     0.001435
   107     0.031875
   108     0.412190
   109    -0.628400
   110     0.034404
   111     0.028132
   112    -0.028626
   113    -0.258931
   114    -0.100731
   115     0.244292
   116     0.824553
   117     1.197910
   118    -0.538856
   119    -0.262186
   120    -0.029015
   121     0.033057
   122    -0.275744
   123    -0.037320
   124     0.212189
   125    -0.193846
   126     0.833376
   127    -0.217855
   128    -0.086180
   129     0.192793
   130    -0.010474
   131     0.132044
   132    -0.899503
   133    -0.016760
   134    -0.002503
   135    -0.020994
   136    -0.296691
   137     0.112222
   138     0.240856
   139    -0.004653
   140     0.090277
   141     0.086244
   142     0.006263
   143     0.038191
   144     0.001959
   145    -0.066345
   146     0.460818
   147    -0.271152
   148    -0.085894
   149     0.317538
   150    -0.009443
   151    -0.090837
   152     0.076390
   153     0.285983
   154    -0.198616
Sym=   137a
Ene=    0.000000E+00
Spin= Alpha
Occup= 0.000000
     1    -0.000579
     2     0.191579
     3    -1.236474
     4    -0.037433
     5     0.006652
     6    -0.034696
     7    -0.809022
     8    -0.148479
     9    -0.184380
    10    -0.110007
    11     0.092141
    12     0.089638
    13    -0.022448
    14    -0.017721
    15     0.004553
    16    -0.021386
    17    -0.077075
    18     0.246878
    19    -0.045689
    20    -0.085886
    21     0.025473
    22    -0.813647
    23    -0.479805
    24     0.284501
    25     0.174495
    26     0.003287
    27     0.087160
    28    -0.029441
    29     0.034602
    30     0.112212
    31    -0.136466
    32    -0.397627
    33     0.108253
    34    -0.043006
    35    -0.078196
    36    -0.004461
    37     0.014686
    38    -0.057744
    39     0.014574
    40     0.026336
    41    -0.022905
    42     0.094302
    43     0.088206
    44    -0.020576
    45     0.089497
    46    -0.013988
    47     0.005978
    48     0.036582
    49     0.039678
    50    -0.023740
    51     0.039372
    52    -3.417280
    53    -0.086680
    54    -0.420145
    55    -0.119586
    56    -0.009521
    57    -0.338456
    58    -0.129890
    59     0.105477
    60    -0.103731
    61     0.046417
    62     0.347761
    63     0.138388
    64     0.283582
    65     0.037756
    66    -0.005226
    67    -0.168218
    68     1.487840
    69     0.080741
    70    -0.005941
    71     0.172381
    72     0.105764
    73    -0.163066
    74     0.137276
    75     0.120532
    76    -0.004532
    77    -0.047079
    78    -0.051610
    79    -0.158401
    80    -0.039582
    81    -0.031272
    82     0.104818
    83    -0.109958
    84     0.009436
    85    -0.011296
    86     0.029396
    87    -0.315010
    88     3.643126
    89    -0.028379
    90     0.128373
    91     0.259939
    92    -0.548047
    93    -2.433922
    94    -0.336332
    95    -0.402176
    96     0.331358
    97    -0.416733
    98     0.047398
    99    -0.036863
   100    -0.216055
   101     0.085397
   102     0.116432
   103     0.123269
   104     0.040380
   105    -0.442698
   106     0.000880
   107     0.016165
   108    -0.209101
   109    -0.399081
   110    -0.005144
   111    -0.011383
   112    -0.006059
   113     0.085184
   114    -0.001214
   115     0.021683
   116     0.206576
   117    -1.301278
   118    -0.396194
   119     0.107063
   120     0.144342
   121    -0.363269
   122     0.034753
   123    -0.086226
   124    -0.095088
   125    -0.016272
   126    -0.654282
   127     0.054025
   128     0.039029
   129     0.224761
   130     0.001239
   131    -0.050843
   132     0.416126
   133     0.000360
   134     0.023270
   135    -0.015155
   136     0.294411
   137    -0.121183
   138    -0.026060
   139     0.037626
   140    -0.060172
   141    -0.010549
   142    -0.007700
   143    -0.005786
   144    -0.016553
   145     0.121069
   146    -0.559759
   147    -0.016682
   148     0.011154
   149    -0.280271
   150     0.128218
   151     0.041766
   152     0.194692
   153     0.210908
   154    -0.116610
Sym=   138a
Ene=    0.000000E+00
Spin= Alpha
Occup= 0.000000
     1    -0.004472
     2     0.053174
     3    -0.744599
     4    -0.008581
     5     0.007925
     6     0.000311
     7    -0.380731
     8     0.193051
     9     0.191285
    10    -0.026040
    11     0.021988
    12     0.040357
    13    -0.014760
    14     0.043839
    15    -0.047137
    16     0.015209
    17    -0.255225
    18     2.153981
    19    -0.002567
    20    -0.017295
    21    -0.027453
    22    -0.012688
    23    -0.474546
    24    -0.182549
    25    -0.060871
    26    -0.114371
    27    -0.098458
    28     0.034148
    29     0.009912
    30    -0.019260
    31    -0.103616
    32     0.664837
    33     0.061417
    34     0.025226
    35     0.088245
    36     0.019262
    37    -0.193671
    38     1.028006
    39     0.014011
    40     0.044914
    41     0.029274
    42     0.166870
    43     0.200147
    44     0.259147
    45    -0.149925
    46    -0.131303
    47    -0.092626
    48     0.004240
    49     0.026199
    50     0.037207
    51     0.257256
    52     0.751431
    53    -0.041180
    54     0.249858
    55    -0.120700
    56    -0.086373
    57     1.260433
    58     0.167780
    59     0.050696
    60     0.088824
    61    -0.086880
    62    -0.231923
    63    -0.024466
    64    -0.035590
    65    -0.000879
    66     0.013255
    67    -0.075884
    68     3.865076
    69    -0.106340
    70     0.240572
    71    -0.275086
    72    -2.199930
    73     1.554543
    74    -2.155040
    75     0.009893
    76    -0.060133
    77    -0.213225
    78    -0.127424
    79     0.160552
    80    -0.503636
    81    -0.275895
    82    -2.164987
    83     0.222231
    84    -0.055580
    85     0.454716
    86     0.010090
    87     0.327738
    88    -2.652174
    89    -0.109715
    90     0.002253
    91     0.159567
    92    -0.494527
    93     0.476915
    94     2.886553
    95    -0.034562
    96    -0.348791
    97     0.084558
    98    -0.036214
    99     0.092373
   100     0.143191
   101    -0.218936
   102    -1.130558
   103    -0.043081
   104    -0.016885
   105    -0.160821
   106    -0.002577
   107    -0.066938
   108     0.675394
   109    -0.097017
   110     0.019950
   111    -0.044947
   112    -0.011263
   113    -0.154516
   114     0.428833
   115     0.245800
   116     0.927305
   117    -0.425828
   118     0.447708
   119     0.168352
   120     0.384069
   121     0.006008
   122     0.085149
   123    -0.441148
   124     0.034506
   125     0.009463
   126    -0.507636
   127     0.046597
   128     0.207659
   129     0.120212
   130     0.001086
   131    -0.050029
   132     0.325816
   133    -0.025602
   134    -0.005446
   135    -0.035725
   136     0.145958
   137     0.205254
   138     0.204881
   139    -0.016027
   140    -0.014563
   141    -0.001939
   142    -0.005959
   143    -0.001943
   144     0.026425
   145     0.274997
   146    -1.640726
   147     0.126360
   148    -0.016963
   149     0.260570
   150     0.202044
   151    -0.561422
   152    -0.071886
   153    -0.004651
   154    -0.014719
Sym=   139a
Ene=    0.000000E+00
Spin= Alpha
Occup= 0.000000
     1    -0.004234
     2     0.057811
     3    -0.691032
     4    -0.020960
     5     0.027264
     6     0.011661
     7    -0.155978
     8     0.505190
     9     0.214729
    10    -0.006827
    11    -0.013453
    12     0.058677
    13     0.037787
    14    -0.028745
    15    -0.122034
    16     0.007447
    17     0.003503
    18    -0.400360
    19    -0.008448
    20    -0.005902
    21     0.059327
    22    -0.046505
    23    -0.453576
    24     0.360157
    25     0.042583
    26    -0.135509
    27     0.018510
    28    -0.007995
    29     0.081530
    30     0.039074
    31     0.040828
    32     0.378090
    33    -0.252199
    34    -0.018736
    35    -0.072356
    36     0.010417
    37    -0.100385
    38     0.544425
    39     0.027197
    40     0.016496
    41    -0.029246
    42     0.218037
    43     0.051297
    44    -0.002679
    45    -0.065170
    46    -0.071785
    47    -0.064038
    48     0.018462
    49     0.035183
    50    -0.023949
    51     0.133945
    52     0.430372
    53     0.020318
    54     0.490606
    55     0.117409
    56     0.136114
    57    -0.117894
    58    -0.147677
    59    -0.033289
    60    -0.159794
    61     0.229333
    62    -0.113932
    63    -0.112995
    64     0.209594
    65    -0.106049
    66     0.007298
    67    -0.014526
    68    -4.913114
    69    -0.026705
    70     0.130135
    71     0.232823
    72     1.761099
    73     0.136099
    74     0.370333
    75    -0.035588
    76    -0.041072
    77    -0.170403
    78     0.030691
    79    -0.080605
    80     0.153475
    81     0.006925
    82     1.138399
    83     0.085162
    84    -0.266659
    85    -0.270045
    86     0.097347
    87    -0.635039
    88     5.519865
    89    -0.053030
    90    -0.084957
    91    -0.008088
    92     2.064734
    93     1.148469
    94    -1.840643
    95    -0.320728
    96    -0.848037
    97    -0.483872
    98    -0.017288
    99    -0.177583
   100    -0.128788
   101     0.162657
   102    -0.072991
   103    -0.016167
   104    -0.175296
   105    -0.253424
   106    -0.000225
   107     0.001399
   108    -0.159527
   109    -0.839024
   110    -0.022699
   111    -0.026595
   112     0.023409
   113     0.245383
   114     0.093965
   115    -0.189191
   116     0.462502
   117    -0.663072
   118     0.273725
   119    -0.090629
   120    -0.071216
   121    -0.039239
   122     0.020983
   123    -0.334145
   124     0.022380
   125     0.112038
   126    -0.288357
   127    -0.075370
   128     0.100746
   129     0.055983
   130     0.005477
   131    -0.040517
   132     0.347397
   133    -0.010840
   134    -0.014411
   135     0.003469
   136    -0.177079
   137     0.397362
   138     0.318113
   139    -0.090651
   140     0.036071
   141    -0.036939
   142     0.039533
   143     0.064592
   144     0.025982
   145     0.130483
   146     0.899773
   147    -0.082777
   148     0.117834
   149    -0.247102
   150     0.117840
   151    -0.230162
   152    -0.078403
   153    -0.013647
   154    -0.345517
Sym=   140a
Ene=    0.000000E+00
Spin= Alpha
Occup= 0.000000
     1    -0.005566
     2     0.084756
     3    -0.809054
     4    -0.015073
     5    -0.021363
     6     0.045320
     7    -0.236155
     8     0.127948
     9     0.372100
    10     0.030606
    11     0.001016
    12     0.045715
    13    -0.024254
    14     0.070872
    15    -0.044187
    16     0.008072
    17    -0.014898
    18    -0.057153
    19    -0.005696
    20     0.019434
    21    -0.034720
    22    -0.237084
    23    -0.177894
    24    -0.263062
    25    -0.015256
    26    -0.067190
    27    -0.026000
    28     0.017614
    29     0.015779
    30    -0.094826
    31    -0.033453
    32     0.687895
    33    -0.090388
    34    -0.064037
    35     0.081138
    36     0.014492
    37    -0.144606
    38     0.784273
    39     0.042706
    40     0.054767
    41    -0.034835
    42     0.203617
    43     0.206969
    44    -0.106816
    45    -0.100579
    46    -0.110411
    47    -0.083958
    48     0.018491
    49    -0.020456
    50    -0.026346
    51    -0.031381
    52    -1.329866
    53    -0.051192
    54    -0.342928
    55    -0.110736
    56    -0.122834
    57     1.190207
    58     0.078991
    59     0.018708
    60    -0.101071
    61    -0.210321
    62     0.731227
    63     0.151282
    64    -0.061622
    65     0.079513
    66     0.013403
    67     0.395439
    68    -6.059134
    69     0.040847
    70    -0.087732
    71    -0.137352
    72     0.295866
    73     1.228211
    74     0.612221
    75    -0.252979
    76    -0.048489
    77     0.032228
    78    -0.013517
    79     0.349414
    80    -0.269910
    81    -0.030016
    82     0.655035
    83    -0.050685
    84     0.075450
    85     0.168304
    86    -0.038232
    87    -0.229509
    88     4.734212
    89     0.020123
    90     0.109110
    91     0.091825
    92     1.236738
    93    -0.485673
    94    -1.057869
    95     0.222471
    96     0.368974
    97    -0.014903
    98     0.202341
    99    -0.123441
   100    -0.090266
   101     0.060402
   102    -0.149397
   103    -0.055091
   104    -0.033476
   105    -0.032150
   106     0.001886
   107     0.047273
   108     0.890179
   109    -1.625506
   110     0.002486
   111     0.009018
   112    -0.005409
   113    -0.004516
   114     0.023784
   115     0.075403
   116     1.169575
   117    -2.726665
   118     0.949434
   119    -0.225880
   120     0.159225
   121    -0.236062
   122    -0.322407
   123     0.205769
   124     0.025377
   125     0.067133
   126    -1.850916
   127     0.239330
   128    -0.134706
   129     0.062461
   130     0.000529
   131    -0.005558
   132     0.083270
   133    -0.013951
   134    -0.001551
   135    -0.024493
   136    -0.083678
   137     0.277443
   138     0.214938
   139    -0.039351
   140     0.027167
   141     0.000915
   142     0.026634
   143     0.017271
   144     0.012224
   145    -0.302734
   146     4.560477
   147    -0.221880
   148    -0.079125
   149     0.466680
   150     0.059083
   151     0.024397
   152     0.040505
   153    -0.156972
   154     0.144404
Sym=   141a
Ene=    0.000000E+00
Spin= Alpha
Occup= 0.000000
     1    -0.005232
     2     0.051457
     3    -0.588524
     4    -0.017507
     5    -0.015173
     6     0.030526
     7    -0.295578
     8    -0.024464
     9     0.324080
    10     0.017632
    11     0.006177
    12     0.031419
    13    -0.048406
    14     0.086044
    15    -0.011421
    16     0.040035
    17    -0.165122
    18     1.653414
    19     0.034913
    20     0.057754
    21    -0.047055
    22    -0.098865
    23     0.068966
    24    -0.495097
    25    -0.151160
    26    -0.196266
    27    -0.198597
    28     0.090243
    29    -0.043255
    30    -0.039250
    31    -0.023194
    32     0.246696
    33     0.053893
    34    -0.044974
    35     0.014915
    36     0.002988
    37    -0.015031
    38     0.110004
    39     0.018187
    40     0.055257
    41    -0.011062
    42     0.012396
    43     0.196431
    44    -0.058180
    45     0.016866
    46     0.006460
    47    -0.070028
    48     0.008470
    49    -0.009101
    50     0.007750
    51     0.082819
    52     1.493196
    53     0.037407
    54     0.152570
    55     0.125226
    56    -0.117086
    57     0.895363
    58    -0.303078
    59    -0.031512
    60     0.387290
    61    -0.329339
    62     0.269191
    63     0.140363
    64    -0.155031
    65     0.084006
    66    -0.034528
    67     0.280527
    68    -1.643128
    69     0.092343
    70     0.015220
    71    -0.018887
    72    -0.270696
    73     0.646681
    74    -0.089394
    75     0.688531
    76     0.262749
    77    -0.418915
    78    -0.128120
    79    -0.047567
    80    -0.020116
    81    -0.088309
    82    -0.050296
    83     0.022041
    84     0.081648
    85    -0.241445
    86    -0.036301
    87     0.206920
    88    -0.503729
    89    -0.003743
    90    -0.016985
    91    -0.039193
    92     0.286867
    93     0.837439
    94     0.831011
    95     0.182198
    96    -0.034435
    97     0.276004
    98    -0.295863
    99     0.234831
   100     0.339548
   101    -0.201365
   102    -0.520698
   103    -0.122517
   104    -0.092846
   105     0.193402
   106    -0.000241
   107    -0.009339
   108     0.833860
   109    -0.328493
   110     0.012842
   111    -0.021164
   112    -0.018065
   113    -0.144293
   114     0.284337
   115     0.194897
   116     1.015978
   117    -0.939542
   118    -0.338177
   119     0.288568
   120     0.174889
   121    -0.245770
   122     0.026800
   123     0.239691
   124    -0.096653
   125     0.037827
   126    -0.921966
   127    -0.040496
   128    -0.090185
   129     0.125636
   130    -0.002081
   131    -0.028824
   132     0.236068
   133     0.004536
   134    -0.004444
   135    -0.011747
   136     0.076311
   137     0.150781
   138     0.059458
   139     0.016843
   140     0.014844
   141    -0.009694
   142     0.005524
   143     0.003475
   144     0.006335
   145     0.142516
   146     0.515954
   147    -0.405418
   148     0.320808
   149    -0.162893
   150     0.008779
   151    -0.543189
   152    -0.048129
   153    -0.136964
   154     0.139200
Sym=   142a
Ene=    0.000000E+00
Spin= Alpha
Occup= 0.000000
     1    -0.011134
     2     0.164662
     3    -1.437271
     4    -0.032688
     5    -0.028955
     6     0.015894
     7    -0.538453
     8     0.051934
     9     0.296761
    10     0.057986
    11     0.008643
    12     0.094112
    13    -0.054885
    14     0.060764
    15    -0.057098
    16     0.006833
    17     0.111935
    18    -1.002809
    19    -0.034907
    20     0.088322
    21    -0.072810
    22    -1.045217
    23     0.096339
    24    -0.263110
    25     0.005165
    26    -0.024817
    27    -0.093631
    28     0.112527
    29     0.036702
    30    -0.109480
    31    -0.072681
    32    -0.414324
    33    -0.025750
    34    -0.146851
    35    -0.011820
    36     0.015786
    37    -0.110643
    38     0.646529
    39    -0.012238
    40    -0.054495
    41     0.004231
    42     0.019729
    43    -0.163803
    44     0.091091
    45    -0.095841
    46    -0.104345
    47    -0.071022
    48     0.008305
    49     0.041884
    50    -0.015725
    51     0.080153
    52    -1.209572
    53    -0.182720
    54    -0.135106
    55     0.150922
    56    -0.167583
    57     0.399227
    58     0.227326
    59    -0.044964
    60     0.149369
    61    -0.092895
    62     0.621041
    63     0.068910
    64    -0.162749
    65     0.258658
    66    -0.028841
    67     0.027657
    68    -4.114730
    69    -0.108104
    70    -0.104303
    71    -0.120579
    72     0.791896
    73    -0.612495
    74     0.806305
    75     0.152292
    76     0.302721
    77    -0.018992
    78    -0.013825
    79     0.255586
    80    -0.051208
    81    -0.166295
    82     1.580607
    83     0.075986
    84     0.112214
    85    -0.082110
    86     0.000875
    87    -0.449329
    88     5.357698
    89     0.111292
    90    -0.027452
    91     0.120134
    92     0.598873
    93    -0.493561
    94    -1.827162
    95     0.011651
    96    -0.049504
    97     0.067358
    98    -0.055584
    99     0.135459
   100    -0.096214
   101    -0.084004
   102     0.263442
   103    -0.061566
   104    -0.020349
   105    -0.081598
   106    -0.000764
   107     0.008088
   108    -0.104011
   109    -2.905366
   110     0.020919
   111    -0.015271
   112    -0.014388
   113    -0.073166
   114     0.076288
   115     0.069515
   116     0.106449
   117    -0.479017
   118    -0.724154
   119    -0.125887
   120    -0.415889
   121     0.125976
   122     0.377469
   123    -0.397156
   124    -0.191966
   125    -0.134186
   126     1.478305
   127    -0.220548
   128     0.450345
   129    -0.062586
   130     0.014591
   131    -0.144548
   132     1.034389
   133    -0.013599
   134     0.009396
   135    -0.009795
   136     0.192705
   137     0.237668
   138     0.104970
   139    -0.086403
   140    -0.057590
   141    -0.094472
   142     0.036776
   143     0.000153
   144     0.021532
   145    -0.058780
   146     1.837500
   147     0.000623
   148     0.270194
   149     0.172147
   150    -0.058758
   151     0.112760
   152     0.133500
   153    -0.255347
   154     0.116441
Sym=   143a
Ene=    0.000000E+00
Spin= Alpha
Occup= 0.000000
     1     0.003910
     2    -0.021643
     3     0.648994
     4    -0.009774
     5    -0.001346
     6    -0.034834
     7    -0.036745
     8    -0.541994
     9    -0.580399
    10    -0.086765
    11     0.079941
    12    -0.002041
    13     0.001323
    14    -0.092943
    15     0.114252
    16    -0.017873
    17     0.157666
    18    -1.429971
    19    -0.011866
    20    -0.035044
    21     0.043116
    22    -0.281370
    23    -0.012777
    24     0.635459
    25     0.154493
    26     0.051199
    27     0.029054
    28    -0.003198
    29     0.012210
    30     0.139777
    31    -0.010291
    32    -0.012321
    33     0.065140
    34     0.102665
    35    -0.060264
    36     0.016596
    37    -0.133665
    38     0.759949
    39     0.058897
    40    -0.016143
    41    -0.060249
    42     0.284039
    43    -0.036958
    44    -0.139327
    45    -0.077357
    46    -0.116756
    47    -0.112405
    48     0.034049
    49     0.002013
    50     0.022265
    51     0.005272
    52    -0.346099
    53     0.108591
    54     0.026781
    55     0.150146
    56     0.109105
    57    -0.959824
    58    -0.230978
    59     0.289912
    60     0.203121
    61     0.345050
    62     0.413444
    63    -0.057751
    64     0.104364
    65     0.097062
    66     0.044210
    67    -0.419730
    68     3.321459
    69     0.101095
    70    -0.058908
    71    -0.127584
    72    -0.874163
    73    -0.739357
    74     1.445940
    75     0.166386
    76    -0.296575
    77    -0.612848
    78    -0.130772
    79    -0.267013
    80    -0.187516
    81     0.085492
    82    -0.132423
    83     0.138028
    84    -0.075215
    85     0.087156
    86     0.012320
    87    -0.058036
    88    -2.636339
    89     0.010081
    90    -0.061463
    91    -0.102613
    92    -1.439275
    93    -1.005773
    94    -1.446157
    95    -0.212282
    96    -0.052083
    97     0.017263
    98    -0.120668
    99     0.164439
   100     0.030015
   101    -0.022443
   102     1.547355
   103     0.043391
   104    -0.070513
   105     0.012734
   106    -0.000422
   107    -0.000866
   108    -0.411339
   109    -1.668769
   110    -0.003610
   111     0.023112
   112     0.004008
   113     0.027820
   114    -0.241508
   115    -0.101752
   116    -0.471615
   117    -0.314443
   118     0.863907
   119    -0.117734
   120     0.108781
   121    -0.175980
   122     0.024528
   123    -0.095503
   124     0.262733
   125    -0.164852
   126     0.718961
   127     0.048902
   128     0.115804
   129    -0.041995
   130    -0.009622
   131     0.153584
   132    -1.026051
   133     0.005538
   134     0.028146
   135     0.024238
   136     0.021276
   137    -0.543216
   138    -0.316499
   139     0.121084
   140     0.002122
   141     0.059747
   142    -0.033553
   143    -0.014291
   144    -0.054906
   145    -0.233055
   146     1.991495
   147    -0.404131
   148     0.029588
   149     0.116024
   150    -0.039253
   151     0.470295
   152     0.038760
   153     0.079807
   154    -0.223651
Sym=   144a
Ene=    0.000000E+00
Spin= Alpha
Occup= 0.000000
     1     0.001729
     2     0.006616
     3    -0.099772
     4     0.000016
     5     0.019460
     6     0.010356
     7     0.091791
     8     0.145335
     9    -0.000470
    10     0.040221
    11    -0.078409
    12     0.013760
    13    -0.006177
    14    -0.086445
    15    -0.054998
    16    -0.007518
    17     0.102702
    18    -0.713460
    19    -0.032343
    20     0.006654
    21     0.036075
    22    -0.297886
    23     0.497620
    24     0.886060
    25     0.026249
    26     0.173871
    27    -0.063640
    28    -0.028917
    29     0.069226
    30     0.041750
    31     0.040972
    32     0.341309
    33    -0.117560
    34     0.035633
    35    -0.059437
    36    -0.012794
    37     0.023463
    38    -0.166351
    39    -0.023257
    40     0.037036
    41    -0.003275
    42    -0.022678
    43     0.126666
    44     0.036767
    45     0.062064
    46     0.036216
    47     0.084255
    48     0.012753
    49     0.020804
    50    -0.013545
    51    -0.156099
    52     1.047300
    53     0.171422
    54     0.216280
    55     0.031755
    56     0.176455
    57    -2.135322
    58     0.097373
    59     0.329145
    60    -0.026833
    61     0.394477
    62     0.274621
    63    -0.205089
    64    -0.109780
    65     0.085753
    66     0.076773
    67    -0.765848
    68     6.426715
    69    -0.085944
    70    -0.005506
    71    -0.031394
    72    -0.170456
    73    -1.925158
    74     0.915806
    75    -0.393917
    76    -0.458771
    77    -0.387432
    78    -0.206085
    79    -0.097730
    80    -0.104922
    81     0.044341
    82     0.129948
    83     0.288713
    84    -0.184335
    85     0.180314
    86     0.020474
    87    -0.543838
    88    -0.497550
    89     0.098298
    90    -0.204202
    91    -0.174012
    92     0.371944
    93    -1.763392
    94    -2.710222
    95    -0.039322
    96    -0.243507
    97    -0.039222
    98    -0.038279
    99    -0.153924
   100     0.012221
   101     0.155602
   102     1.881765
   103    -0.083751
   104     0.166754
   105     0.095336
   106     0.003036
   107     0.094182
   108    -0.613286
   109    -3.126498
   110    -0.003345
   111     0.021776
   112    -0.003164
   113     0.079876
   114    -0.379844
   115    -0.124819
   116     1.016035
   117    -2.271579
   118    -1.600107
   119    -0.522263
   120    -0.178760
   121    -0.295481
   122     0.156585
   123     0.105639
   124    -0.216538
   125     0.141634
   126    -0.541363
   127     0.149083
   128     0.117947
   129     0.187728
   130     0.003065
   131    -0.001479
   132    -0.013697
   133     0.003008
   134    -0.026802
   135     0.013191
   136    -0.140515
   137     0.209965
   138     0.115583
   139    -0.037464
   140     0.040792
   141    -0.033967
   142     0.022499
   143     0.019176
   144     0.031875
   145    -0.064160
   146    -0.488319
   147    -0.054644
   148     0.044574
   149     0.135935
   150    -0.264314
   151     0.106257
   152     0.065692
   153     0.171682
   154     0.013262
Sym=   145a
Ene=    0.000000E+00
Spin= Alpha
Occup= 0.000000
     1     0.007252
     2    -0.254667
     3     2.664962
     4     0.020277
     5    -0.009194
     6    -0.028530
     7     0.908001
     8    -0.604329
     9    -0.757123
    10    -0.027412
    11     0.086860
    12    -0.139652
    13     0.080938
    14    -0.066317
    15     0.246194
    16    -0.019347
    17     0.257740
    18    -2.398292
    19     0.042022
    20     0.021630
    21    -0.006996
    22     0.959893
    23     0.353946
    24     0.020849
    25     0.062116
    26     0.051562
    27     0.155217
    28    -0.027185
    29    -0.014508
    30    -0.033908
    31     0.085870
    32     0.108397
    33     0.160027
    34     0.123679
    35     0.079949
    36     0.013879
    37    -0.002424
    38     0.152131
    39     0.001690
    40     0.034346
    41    -0.010359
    42    -0.125328
    43     0.121419
    44    -0.180276
    45    -0.089945
    46    -0.010816
    47    -0.086135
    48     0.020580
    49    -0.056335
    50    -0.026409
    51     0.010747
    52    -0.377246
    53     0.141950
    54    -0.096502
    55    -0.010906
    56     0.300622
    57     0.079552
    58    -0.167837
    59    -0.303666
    60    -0.152391
    61     0.019682
    62     0.289526
    63    -0.137724
    64    -0.055689
    65    -0.061139
    66     0.030491
    67    -0.179393
    68     0.353137
    69     0.036122
    70     0.338397
    71    -0.051507
    72     0.034472
    73    -0.018807
    74    -0.417856
    75    -0.197452
    76    -0.344095
    77    -0.108139
    78     0.447561
    79    -0.116497
    80     0.355567
    81     0.208324
    82     0.116478
    83    -0.074470
    84    -0.577520
    85     0.047805
    86     0.016588
    87    -0.378789
    88     3.394990
    89     0.007720
    90     0.070501
    91     0.056698
    92     0.162577
    93    -0.605676
    94    -0.741644
    95    -0.029383
    96    -0.091175
    97    -0.151204
    98    -0.020117
    99     0.029922
   100     0.221978
   101    -0.044661
   102    -0.099490
   103     0.034707
   104    -0.162123
   105    -0.060984
   106     0.002185
   107     0.077384
   108     0.522443
   109    -2.256216
   110     0.023792
   111    -0.014471
   112    -0.000107
   113    -0.207234
   114     0.065628
   115    -0.088508
   116     1.036649
   117    -1.836418
   118    -0.501281
   119    -0.110805
   120    -0.642147
   121    -0.015113
   122     0.079053
   123     0.427879
   124     0.030350
   125     0.004617
   126    -0.283147
   127    -0.333652
   128     0.129865
   129    -0.070065
   130    -0.017486
   131     0.260308
   132    -1.829314
   133     0.019380
   134     0.056046
   135     0.025058
   136    -0.133831
   137    -0.946467
   138    -0.536234
   139     0.171448
   140     0.001987
   141     0.138711
   142    -0.063786
   143    -0.060136
   144    -0.099381
   145     0.014164
   146     0.442716
   147    -0.089350
   148    -0.206112
   149     0.040389
   150     0.165698
   151     0.171285
   152    -0.303728
   153    -0.139309
   154    -0.018202
Sym=   146a
Ene=    0.000000E+00
Spin= Alpha
Occup= 0.000000
     1     0.007909
     2     0.055352
     3    -0.352296
     4    -0.028371
     5     0.044269
     6    -0.005680
     7    -0.362549
     8     0.025476
     9    -0.011180
    10    -0.022032
    11    -0.020414
    12    -0.041450
    13    -0.041542
    14    -0.016907
    15     0.016924
    16     0.013269
    17    -0.107504
    18     1.204344
    19    -0.022584
    20    -0.011823
    21    -0.035605
    22    -0.602302
    23     1.151343
    24     0.275344
    25    -0.126020
    26     0.165872
    27    -0.123987
    28    -0.021077
    29     0.002124
    30     0.101836
    31    -0.064523
    32    -0.976421
    33     0.159578
    34    -0.042792
    35    -0.086289
    36     0.008618
    37    -0.032917
    38     0.228084
    39    -0.023727
    40    -0.019641
    41    -0.024633
    42    -0.156567
    43    -0.065180
    44    -0.129530
    45    -0.047264
    46    -0.039471
    47    -0.051260
    48     0.000917
    49    -0.015877
    50    -0.018085
    51    -0.047172
    52    -0.401811
    53     0.012215
    54    -0.022884
    55     0.018898
    56     0.105647
    57    -0.715396
    58     0.065129
    59    -0.082792
    60    -0.102008
    61    -0.098895
    62     0.468144
    63    -0.001702
    64    -0.066897
    65     0.041649
    66     0.017875
    67    -0.078671
    68    -0.845575
    69     0.001583
    70    -0.064878
    71     0.039188
    72     0.453376
    73    -0.586153
    74     1.224885
    75    -0.123522
    76    -0.029180
    77    -0.082348
    78     0.197181
    79     0.022726
    80     0.049444
    81     0.075711
    82     0.642761
    83    -0.083192
    84     0.033160
    85    -0.133799
    86     0.032101
    87    -0.365229
    88     2.707915
    89    -0.005522
    90     0.101192
    91     0.035671
    92    -0.424961
    93     0.346422
    94    -0.996040
    95    -0.192551
    96    -0.133436
    97    -0.139928
    98     0.047838
    99     0.045100
   100    -0.039447
   101     0.059807
   102    -0.238804
   103    -0.000680
   104    -0.068466
   105    -0.041174
   106    -0.000915
   107    -0.013225
   108    -0.248696
   109    -1.064511
   110    -0.004663
   111     0.013173
   112     0.000471
   113     0.031930
   114    -0.147299
   115    -0.084316
   116    -0.460206
   117    -0.476016
   118     0.058530
   119     0.039234
   120    -0.203144
   121     0.182184
   122    -0.049253
   123     0.079994
   124     0.007606
   125    -0.027972
   126     0.312884
   127    -0.011724
   128    -0.024009
   129    -0.075071
   130     0.005090
   131    -0.136229
   132     0.860113
   133    -0.002052
   134     0.006754
   135     0.014417
   136     0.368421
   137    -0.061630
   138    -0.150035
   139     0.013959
   140    -0.063981
   141    -0.062667
   142    -0.000917
   143    -0.033394
   144     0.019189
   145    -0.116158
   146     1.739777
   147    -0.031341
   148     0.000077
   149     0.125669
   150    -0.107614
   151    -2.553689
   152    -0.091121
   153     0.607964
   154     0.179652
Sym=   147a
Ene=    0.000000E+00
Spin= Alpha
Occup= 0.000000
     1     0.000465
     2     0.007542
     3    -0.165242
     4     0.013510
     5     0.006014
     6    -0.001551
     7     0.149810
     8     0.145820
     9     0.096246
    10     0.078141
    11    -0.052306
    12    -0.025441
    13    -0.021329
    14     0.025886
    15    -0.009133
    16    -0.007170
    17     0.206464
    18    -1.385958
    19    -0.049605
    20     0.053375
    21    -0.096027
    22    -0.518520
    23     0.566649
    24    -0.392410
    25    -0.019568
    26     0.142806
    27     0.001557
    28     0.010462
    29     0.005111
    30    -0.081874
    31     0.011889
    32     0.220639
    33    -0.081421
    34    -0.052900
    35     0.024398
    36    -0.008791
    37    -0.035692
    38     0.096358
    39     0.031625
    40    -0.059305
    41     0.025725
    42     0.291941
    43    -0.185488
    44     0.240802
    45     0.072454
    46    -0.027662
    47     0.053016
    48    -0.010264
    49     0.080758
    50     0.000914
    51     0.097374
    52    -1.199212
    53    -0.035548
    54    -0.092658
    55     0.062197
    56     0.245400
    57    -0.502702
    58    -0.546751
    59     0.278346
    60    -0.336473
    61    -0.070050
    62    -0.336365
    63    -0.084219
    64    -0.087286
    65     0.126499
    66     0.085298
    67    -0.398668
    68     2.651577
    69     0.207754
    70    -0.203917
    71     0.071942
    72     0.272722
    73    -0.371002
    74    -0.777587
    75    -0.578599
    76    -0.166341
    77    -0.724347
    78     0.167182
    79    -0.194262
    80     0.185429
    81     0.251014
    82    -1.254014
    83     0.032213
    84     0.002568
    85    -0.086691
    86     0.004123
    87    -0.474549
    88     2.338093
    89     0.177881
    90     0.089932
    91     0.152761
    92    -0.411031
    93     0.276164
    94    -0.786186
    95     0.151056
    96    -0.029546
    97    -0.206856
    98    -0.011237
    99     0.094535
   100    -0.045295
   101     0.114423
   102    -0.306499
   103    -0.051676
   104    -0.157616
   105    -0.137722
   106     0.004547
   107     0.133003
   108    -0.504612
   109     1.657814
   110     0.015368
   111     0.029851
   112     0.003057
   113     0.019842
   114    -0.375941
   115    -0.043115
   116     0.367325
   117     0.620961
   118     0.345381
   119    -0.478085
   120    -0.340240
   121    -0.576463
   122     0.203642
   123    -0.415634
   124    -0.179137
   125     0.168345
   126    -0.362856
   127    -0.094166
   128     0.085580
   129    -0.117014
   130     0.001040
   131    -0.005243
   132     0.002400
   133    -0.005807
   134    -0.017469
   135    -0.006787
   136    -0.120686
   137     0.203285
   138     0.119891
   139    -0.029947
   140     0.017506
   141    -0.005818
   142     0.030489
   143     0.007720
   144     0.015957
   145     0.061412
   146    -1.867271
   147    -0.098301
   148     0.245981
   149     0.205103
   150    -0.001024
   151    -0.447808
   152     0.019052
   153    -0.008134
   154     0.183816
Sym=   148a
Ene=    0.000000E+00
Spin= Alpha
Occup= 0.000000
     1    -0.002608
     2    -0.111436
     3     0.896778
     4     0.021917
     5    -0.016643
     6     0.015208
     7     0.560132
     8    -0.035425
     9    -0.042693
    10     0.075720
    11    -0.008966
    12    -0.048689
    13     0.016469
    14     0.005739
    15     0.052889
    16     0.003692
    17    -0.019418
    18    -0.075389
    19     0.062451
    20     0.037332
    21    -0.041377
    22     0.786175
    23     0.145916
    24    -0.207918
    25    -0.088238
    26    -0.006889
    27    -0.008033
    28    -0.032774
    29     0.000613
    30    -0.120076
    31     0.097571
    32     1.179480
    33    -0.126306
    34     0.058711
    35     0.137823
    36    -0.021723
    37     0.151376
    38    -0.861512
    39     0.014580
    40     0.003739
    41    -0.032133
    42     0.019459
    43    -0.001362
    44    -0.223446
    45     0.105717
    46     0.147059
    47     0.114737
    48    -0.029659
    49    -0.052847
    50    -0.008937
    51     0.138643
    52     0.345646
    53     0.044134
    54     0.120272
    55    -0.050246
    56     0.001614
    57    -0.042265
    58    -0.182824
    59    -0.111125
    60    -0.178618
    61    -0.205479
    62     0.056210
    63    -0.023000
    64    -0.117129
    65     0.058050
    66     0.045821
    67    -0.149550
    68     4.162489
    69     0.160603
    70    -0.090715
    71     0.041101
    72    -0.528664
    73    -0.158612
    74    -0.195502
    75    -0.195426
    76    -0.133593
    77    -0.392712
    78     0.070603
    79     0.025448
    80     0.084610
    81     0.251763
    82    -1.485036
    83    -0.051905
    84     0.055465
    85    -0.123909
    86     0.023905
    87     0.152569
    88    -1.835435
    89    -0.020739
    90     0.060913
    91     0.314356
    92    -0.102975
    93    -0.225409
    94     1.249902
    95     0.077129
    96    -0.243196
    97    -0.338210
    98     0.021095
    99     0.041589
   100    -0.140191
   101     0.073230
   102     0.063019
   103    -0.063141
   104    -0.086016
   105    -0.468175
   106    -0.004691
   107    -0.166760
   108    -0.155969
   109    -2.413301
   110    -0.022342
   111     0.022750
   112    -0.012720
   113     0.023907
   114    -0.120225
   115     0.069155
   116    -0.783895
   117    -0.503798
   118    -0.768712
   119     0.703204
   120     0.416358
   121     0.601112
   122    -0.177122
   123     0.120288
   124    -0.138799
   125    -0.150429
   126     0.618344
   127     0.221601
   128    -0.333287
   129     0.131992
   130    -0.014584
   131     0.187792
   132    -1.290232
   133     0.007052
   134    -0.006675
   135    -0.023914
   136    -0.439089
   137    -0.006984
   138     0.128492
   139     0.036436
   140     0.097348
   141     0.114030
   142     0.009659
   143     0.026846
   144    -0.021861
   145    -0.015911
   146    -0.007114
   147     0.020575
   148     0.118793
   149     0.130320
   150    -0.004523
   151     0.362437
   152    -0.080608
   153    -0.179689
   154     0.158353
Sym=   149a
Ene=    0.000000E+00
Spin= Alpha
Occup= 0.000000
     1     0.002644
     2    -0.026602
     3    -0.051295
     4     0.011969
     5     0.000382
     6     0.014416
     7    -0.027400
     8     0.174623
     9     0.266941
    10    -0.018246
    11    -0.034825
    12    -0.013628
    13     0.018980
    14     0.053138
    15    -0.048738
    16     0.009051
    17    -0.078791
    18     0.674217
    19    -0.011963
    20    -0.008975
    21    -0.006074
    22     0.086186
    23    -0.240878
    24    -0.297331
    25    -0.046976
    26    -0.076726
    27     0.020135
    28    -0.003194
    29    -0.012832
    30    -0.014947
    31    -0.022663
    32    -0.546115
    33     0.100545
    34    -0.061095
    35    -0.066296
    36     0.016804
    37    -0.106217
    38     0.607671
    39    -0.013873
    40     0.021239
    41    -0.013501
    42    -0.093769
    43     0.082411
    44     0.008069
    45    -0.104441
    46    -0.093332
    47    -0.092915
    48    -0.001462
    49    -0.005827
    50    -0.025949
    51    -0.116277
    52     2.105632
    53    -0.023555
    54     0.040088
    55    -0.017655
    56    -0.059526
    57    -0.099571
    58    -0.100895
    59     0.192513
    60     0.312962
    61    -0.102938
    62    -0.236394
    63     0.001259
    64     0.021114
    65    -0.144076
    66    -0.007890
    67    -0.095601
    68    -0.263857
    69     0.039547
    70    -0.214931
    71    -0.123014
    72     2.062467
    73    -2.168856
    74    -2.237134
    75    -0.083911
    76     0.125575
    77     0.202453
    78    -0.076863
    79     0.020237
    80     0.122226
    81    -0.008902
    82     1.022817
    83    -0.075562
    84     0.243614
    85     0.195875
    86     0.000425
    87    -0.317552
    88     1.634506
    89    -0.022143
    90     0.067322
    91     0.102873
    92     1.687573
    93     1.893030
    94    -0.257449
    95     0.061009
    96    -0.029057
    97    -0.181311
    98     0.092327
    99    -0.013789
   100     0.037511
   101    -0.140599
   102     0.525481
   103     0.022775
   104    -0.177902
   105    -0.187051
   106    -0.001050
   107    -0.022583
   108    -0.108142
   109    -2.142885
   110    -0.003456
   111     0.022470
   112     0.001449
   113     0.022162
   114    -0.159072
   115    -0.065468
   116    -0.000161
   117    -0.832253
   118    -0.695689
   119     0.018877
   120     0.016177
   121     0.100630
   122    -0.172514
   123    -0.034596
   124    -0.117058
   125    -0.066704
   126     0.184899
   127     0.087317
   128    -0.114278
   129     0.082256
   130     0.010870
   131    -0.141475
   132     0.949408
   133     0.000266
   134    -0.000629
   135     0.004258
   136     0.239726
   137     0.090942
   138    -0.024576
   139    -0.042312
   140    -0.058367
   141    -0.083000
   142    -0.011974
   143    -0.019624
   144     0.019815
   145    -0.100188
   146    -1.924240
   147    -0.118730
   148    -0.115689
   149    -0.167403
   150     0.071661
   151    -0.264842
   152    -0.029970
   153    -0.003486
   154    -0.042900
Sym=   150a
Ene=    0.000000E+00
Spin= Alpha
Occup= 0.000000
     1    -0.002849
     2     0.101617
     3    -0.652214
     4    -0.021827
     5     0.008012
     6    -0.020950
     7    -0.280476
     8     0.013233
     9    -0.062996
    10     0.016574
    11     0.030661
    12     0.027925
    13    -0.037050
    14     0.004093
    15     0.012984
    16    -0.004780
    17     0.062423
    18    -0.321818
    19    -0.025699
    20     0.001444
    21    -0.015377
    22    -0.464070
    23     0.125073
    24    -0.214051
    25     0.037939
    26     0.080312
    27    -0.009905
    28     0.016987
    29    -0.018589
    30     0.029256
    31    -0.065260
    32     0.425459
    33    -0.006563
    34     0.006524
    35     0.055521
    36     0.001168
    37    -0.019092
    38     0.077553
    39     0.007694
    40    -0.013360
    41     0.010059
    42     0.062955
    43    -0.055211
    44     0.048637
    45    -0.026200
    46    -0.004595
    47    -0.002851
    48     0.011901
    49    -0.010135
    50     0.009870
    51     0.046421
    52    -0.893501
    53    -0.051758
    54    -0.131751
    55    -0.040328
    56    -0.003870
    57     0.056252
    58    -0.171732
    59     0.032225
    60    -0.026100
    61    -0.020269
    62     0.295688
    63     0.137644
    64    -0.026367
    65     0.048296
    66     0.033003
    67     0.219163
    68    -3.150981
    69     0.098855
    70     0.184039
    71     0.012529
    72     1.820561
    73    -0.372834
    74    -0.735146
    75    -0.161728
    76    -0.329892
    77    -0.104324
    78    -0.076350
    79     0.051910
    80     0.055495
    81    -0.029622
    82     1.365230
    83     0.016758
    84    -0.403750
    85     0.087379
    86    -0.006979
    87    -0.069552
    88     7.103754
    89     0.039500
    90    -0.081563
    91    -0.153086
    92     0.251738
    93     1.389790
    94     2.092356
    95     0.029317
    96    -0.030157
    97     0.350364
    98     0.087561
    99     0.026775
   100    -0.018804
   101     0.166666
   102    -4.625820
   103    -0.044278
   104     0.287811
   105     0.545869
   106    -0.005228
   107    -0.155641
   108    -0.071411
   109    -0.870332
   110    -0.006561
   111     0.014320
   112    -0.005037
   113    -0.011801
   114    -0.021346
   115     0.093068
   116    -0.081242
   117     0.594411
   118    -0.319303
   119     0.430117
   120     0.688082
   121     0.332698
   122    -0.021460
   123    -0.155026
   124    -0.051162
   125    -0.087105
   126     0.427276
   127     0.130066
   128    -0.233036
   129     0.146360
   130    -0.002077
   131     0.020086
   132    -0.116118
   133    -0.015156
   134     0.009776
   135    -0.032207
   136     0.018709
   137     0.033635
   138     0.146223
   139     0.015630
   140    -0.001721
   141     0.018632
   142     0.004280
   143     0.011223
   144     0.008552
   145     0.052884
   146    -0.638515
   147    -0.065955
   148     0.079521
   149    -0.063052
   150    -0.042859
   151    -0.678528
   152     0.002055
   153     0.082908
   154     0.003321
Sym=   151a
Ene=    0.000000E+00
Spin= Alpha
Occup= 0.000000
     1    -0.011309
     2     0.115913
     3    -1.437364
     4    -0.016410
     5     0.006567
     6     0.026867
     7    -0.299239
     8     0.650631
     9     0.686312
    10     0.096306
    11    -0.077683
    12     0.084513
    13    -0.011412
    14     0.074944
    15    -0.189206
    16     0.015794
    17    -0.132561
    18     1.365498
    19     0.022367
    20     0.039473
    21    -0.015924
    22    -0.089629
    23    -0.030796
    24    -0.308952
    25    -0.086502
    26    -0.082374
    27    -0.063718
    28     0.075267
    29    -0.009438
    30    -0.038428
    31    -0.030123
    32    -0.894811
    33    -0.067800
    34    -0.137621
    35    -0.082040
    36    -0.004494
    37     0.066328
    38    -0.378266
    39    -0.032958
    40    -0.015822
    41     0.012153
    42    -0.184696
    43    -0.065206
    44     0.020572
    45     0.046531
    46     0.021834
    47     0.036792
    48    -0.007409
    49     0.001013
    50     0.016796
    51    -0.129653
    52     0.465185
    53    -0.005257
    54    -0.035478
    55    -0.040163
    56     0.049325
    57    -0.945651
    58    -0.320524
    59    -0.199866
    60    -0.053013
    61    -0.171780
    62    -0.307964
    63     0.030984
    64    -0.045770
    65    -0.000587
    66     0.031371
    67    -0.004095
    68     0.575004
    69     0.215846
    70     0.289328
    71    -0.036464
    72     1.139960
    73     0.142712
    74     0.762510
    75    -0.194948
    76    -0.370978
    77    -0.230258
    78     0.005385
    79     0.021468
    80     0.096511
    81     0.014350
    82     0.692364
    83    -0.257775
    84    -0.614862
    85     0.066589
    86    -0.066986
    87     0.115019
    88    -3.680611
    89    -0.091635
    90    -0.101284
    91     0.016901
    92    -0.092459
    93    -0.287265
    94    -0.496142
    95     0.350588
    96     0.319471
    97     0.170735
    98     0.050856
    99    -0.026664
   100    -0.118874
   101    -0.112906
   102     1.799758
   103     0.017105
   104     0.063108
   105    -0.090266
   106     0.000833
   107     0.027277
   108    -0.178303
   109     1.216751
   110    -0.000524
   111    -0.027383
   112    -0.002624
   113     0.028927
   114     0.192417
   115    -0.005328
   116    -1.292048
   117     1.445929
   118    -0.101394
   119    -0.208446
   120    -0.128986
   121     0.069045
   122     0.046795
   123     0.066950
   124     0.169017
   125    -0.115032
   126     1.217097
   127    -0.080171
   128     0.258138
   129    -0.105593
   130     0.020112
   131    -0.292280
   132     1.996174
   133    -0.006754
   134    -0.039171
   135     0.009653
   136     0.176846
   137     0.696371
   138     0.268008
   139    -0.169006
   140    -0.042547
   141    -0.152150
   142     0.041985
   143     0.010593
   144     0.086911
   145     0.081267
   146    -0.283610
   147    -0.132144
   148    -0.070831
   149     0.128870
   150    -0.014899
   151     0.083363
   152     0.115719
   153    -0.066138
   154     0.125466
Sym=   152a
Ene=    0.000000E+00
Spin= Alpha
Occup= 0.000000
     1     0.000183
     2     0.010722
     3    -0.099141
     4     0.008416
     5     0.013698
     6    -0.003466
     7    -0.025829
     8    -0.024983
     9    -0.043712
    10    -0.016535
    11     0.015668
    12     0.004636
    13    -0.014333
    14    -0.009582
    15     0.004440
    16    -0.008604
    17     0.018356
    18    -0.039005
    19    -0.034852
    20    -0.032763
    21     0.024640
    22    -0.144327
    23    -0.185181
    24    -0.049911
    25     0.031718
    26     0.029176
    27     0.091616
    28    -0.029578
    29    -0.011678
    30     0.042953
    31     0.015467
    32     0.443972
    33    -0.081936
    34     0.067302
    35     0.049048
    36     0.001281
    37     0.024242
    38    -0.118436
    39     0.034698
    40     0.029870
    41     0.031589
    42     0.170082
    43     0.103205
    44     0.139517
    45     0.011032
    46    -0.014297
    47     0.017730
    48    -0.008019
    49     0.027960
    50     0.006657
    51    -0.087923
    52    -0.098319
    53     0.008500
    54     0.031632
    55    -0.057653
    56    -0.069674
    57     0.013887
    58    -0.018697
    59    -0.080658
    60     0.056084
    61     0.006354
    62    -0.135006
    63     0.084272
    64     0.113228
    65    -0.088506
    66    -0.008545
    67    -0.030822
    68     1.670944
    69     0.038539
    70    -0.142504
    71     0.098512
    72     0.704740
    73     1.090100
    74    -1.412572
    75    -0.103064
    76     0.444804
    77    -0.000022
    78    -0.086588
    79     0.095200
    80    -0.034843
    81     0.062442
    82    -2.610834
    83    -0.156285
    84     0.510197
    85    -0.115587
    86    -0.008762
    87    -0.162852
    88     3.884515
    89     0.025622
    90    -0.051337
    91    -0.130226
    92     0.830220
    93     0.657468
    94     1.574348
    95    -0.047570
    96     0.039157
    97     0.269269
    98    -0.029210
    99    -0.153955
   100     0.141521
   101     0.012484
   102    -2.907830
   103    -0.072590
   104     0.128148
   105     0.405599
   106     0.004819
   107     0.146657
   108     0.791735
   109    -1.163281
   110     0.000302
   111    -0.029353
   112     0.011667
   113     0.028420
   114     0.294125
   115     0.003807
   116    -0.601618
   117    -0.371506
   118    -0.523594
   119    -0.350740
   120    -0.695921
   121    -0.383304
   122     0.098557
   123    -0.061298
   124    -0.033697
   125    -0.215032
   126     1.158949
   127    -0.191408
   128     0.503876
   129    -0.064095
   130    -0.005307
   131     0.066267
   132    -0.429845
   133    -0.002993
   134    -0.005738
   135     0.002906
   136    -0.154092
   137     0.028959
   138     0.059143
   139     0.000957
   140     0.039738
   141     0.044994
   142    -0.001791
   143     0.019248
   144    -0.007382
   145    -0.037248
   146    -0.621211
   147    -0.044004
   148    -0.142214
   149    -0.063646
   150    -0.015457
   151     0.016266
   152     0.035767
   153     0.088845
   154    -0.082843
Sym=   153a
Ene=    0.000000E+00
Spin= Alpha
Occup= 0.000000
     1    -0.007413
     2     0.128569
     3    -1.061864
     4    -0.026245
     5    -0.017704
     6    -0.017474
     7    -0.557514
     8     0.029777
     9     0.054500
    10    -0.019201
    11     0.043741
    12     0.087242
    13     0.013167
    14     0.002443
    15    -0.048057
    16     0.010183
    17    -0.047965
    18     0.446956
    19    -0.003264
    20    -0.004021
    21     0.031361
    22    -0.349755
    23    -0.574728
    24     0.075649
    25     0.018459
    26    -0.108809
    27    -0.049234
    28     0.038300
    29     0.008250
    30     0.019640
    31    -0.064000
    32    -0.626861
    33     0.126903
    34    -0.079385
    35    -0.079740
    36     0.025562
    37    -0.204852
    38     1.153289
    39    -0.047355
    40    -0.014093
    41    -0.004689
    42    -0.194123
    43    -0.014087
    44     0.042673
    45    -0.192290
    46    -0.142562
    47    -0.140987
    48     0.007948
    49    -0.011324
    50    -0.027099
    51    -0.083614
    52     0.236157
    53    -0.065353
    54    -0.099354
    55     0.014063
    56     0.178609
    57    -2.383931
    58     0.055347
    59    -0.169831
    60    -0.005998
    61     0.043887
    62     0.120823
    63    -0.031149
    64     0.007408
    65    -0.019323
    66     0.021682
    67    -0.260758
    68     9.510718
    69    -0.004820
    70    -0.033717
    71     0.054855
    72    -0.980141
    73     1.674609
    74     0.286714
    75    -0.196151
    76     0.060055
    77    -0.058125
    78     0.008413
    79     0.009722
    80    -0.142902
    81     0.132148
    82    -4.247245
    83    -0.145814
    84     0.296479
    85    -0.158973
    86     0.001617
    87     0.194853
    88    -4.003475
    89    -0.077465
    90     0.020448
    91    -0.128938
    92    -1.591226
    93    -1.304084
    94    -0.588445
    95    -0.065090
    96     0.136130
    97     0.024908
    98     0.016049
    99     0.003411
   100    -0.044458
   101     0.086673
   102     0.999822
   103     0.070362
   104    -0.012547
   105     0.091880
   106    -0.003492
   107    -0.087965
   108    -0.055102
   109    -0.005861
   110     0.003924
   111     0.016661
   112    -0.005660
   113    -0.063558
   114    -0.110253
   115     0.007940
   116     1.691064
   117    -0.839003
   118     0.471834
   119     0.151482
   120     0.270122
   121     0.326999
   122    -0.064379
   123    -0.151325
   124    -0.122178
   125     0.168184
   126    -1.511053
   127     0.039052
   128    -0.299835
   129     0.034963
   130     0.012765
   131    -0.159598
   132     1.107785
   133    -0.009094
   134     0.010849
   135     0.006089
   136     0.384686
   137     0.041825
   138    -0.046875
   139    -0.035450
   140    -0.087783
   141    -0.093293
   142    -0.001234
   143    -0.023305
   144     0.012975
   145     0.131685
   146    -1.798668
   147     0.022211
   148    -0.002770
   149    -0.018459
   150    -0.007945
   151     0.725140
   152     0.089538
   153    -0.130008
   154    -0.098782
Sym=   154a
Ene=    0.000000E+00
Spin= Alpha
Occup= 0.000000
     1    -0.000654
     2    -0.025316
     3     0.310673
     4     0.007515
     5    -0.009957
     6     0.006821
     7     0.235902
     8    -0.004940
     9     0.016653
    10     0.042057
    11     0.000091
    12    -0.030554
    13    -0.008715
    14     0.034575
    15     0.029154
    16     0.002335
    17    -0.050651
    18     0.217412
    19     0.038139
    20     0.040445
    21    -0.056668
    22     0.444634
    23     0.229030
    24    -0.438635
    25    -0.036153
    26    -0.019492
    27    -0.010447
    28     0.011994
    29    -0.013077
    30    -0.079327
    31     0.009557
    32     0.446493
    33    -0.055338
    34     0.009282
    35     0.086779
    36    -0.013778
    37     0.110888
    38    -0.628758
    39     0.047833
    40     0.001331
    41     0.015008
    42     0.188282
    43    -0.018477
    44     0.034133
    45     0.111266
    46     0.083940
    47     0.062295
    48    -0.001234
    49     0.001774
    50     0.020344
    51     0.248512
    52    -0.944050
    53    -0.032085
    54    -0.051202
    55     0.020879
    56     0.195354
    57    -4.762165
    58     0.591377
    59    -0.037465
    60     0.571119
    61    -0.215868
    62    -0.272313
    63     0.059515
    64    -0.046786
    65     0.030449
    66     0.003636
    67     0.019693
    68     4.967133
    69    -0.222962
    70     0.027128
    71    -0.208103
    72     1.732673
    73    -1.133713
    74     1.049792
    75     0.307078
    76    -0.154725
    77     0.091557
    78    -0.138956
    79     0.358686
    80    -0.039591
    81     0.041260
    82    -0.142391
    83     0.009366
    84    -0.016267
    85     0.005768
    86     0.013623
    87     0.232021
    88    -1.407566
    89     0.082963
    90     0.071683
    91     0.169856
    92    -0.878938
    93     0.468941
    94     1.444026
    95     0.008025
    96    -0.087797
    97    -0.097748
    98    -0.017538
    99     0.064445
   100     0.051231
   101    -0.029857
   102    -0.901609
   103    -0.069551
   104    -0.107941
   105    -0.127925
   106     0.001007
   107     0.025565
   108    -0.440607
   109     2.312631
   110     0.021978
   111    -0.003597
   112     0.015755
   113    -0.195524
   114    -0.036585
   115    -0.114603
   116    -0.804139
   117     1.363555
   118     0.386203
   119     0.039145
   120    -0.036228
   121    -0.216530
   122    -0.003569
   123    -0.060867
   124     0.063902
   125     0.025444
   126     0.192175
   127    -0.088862
   128    -0.013311
   129    -0.085597
   130    -0.007212
   131     0.085913
   132    -0.573685
   133     0.000476
   134    -0.007773
   135    -0.016866
   136    -0.196294
   137     0.037756
   138     0.071392
   139     0.020690
   140     0.041485
   141     0.058513
   142     0.008487
   143     0.009191
   144    -0.008167
   145     0.076811
   146    -1.815287
   147    -0.057917
   148     0.050275
   149    -0.058735
   150     0.003135
   151    -0.044609
   152    -0.033163
   153    -0.093873
   154     0.124008
