[Molden Format]
p30-5 set                                                                       
[Atoms] AU
 NA       1    11        0.0000        0.0000       -1.7926
 H        2     1        0.0000        0.0000        1.7926
[GTO]
    1 0
s    5 1.00
    4098.200390800000 -0.582973440428E-02
     616.493740310000 -0.434692743388E-01
     139.966440010000 -0.193522713755E+00
      39.073441051000 -0.484866458138E+00
      11.929847205000 -0.417110128653E+00
s    3 1.00
      20.659966030000  0.857687067851E-01
       1.983886097800 -0.562404693737E+00
       0.648363239420 -0.518446102123E+00
s    1 1.00
       0.052443967404  0.100000000000E+01
s    1 1.00
       0.028048160742  0.100000000000E+01
p    5 1.00
      75.401862017000  0.154353625324E-01
      17.274818978000  0.997382931840E-01
       5.184234742500  0.312095939659E+00
       1.660121197300  0.492956748074E+00
       0.512325289580  0.324203983180E+00
p    1 1.00
       0.052000000000  0.100000000000E+01
d    1 1.00
       0.131000000000  0.100000000000E+01
 
    2 0
s    3 1.00
      13.010701000000  0.334854848130E-01
       1.962257200000  0.234721870881E+00
       0.444537960000  0.813770285260E+00
s    1 1.00
       0.121949620000  0.100000000000E+01
p    1 1.00
       0.800000000000  0.100000000000E+01
 
[MO]
Sym=     1a
Ene=   -0.404765E+02
Spin= Alpha
Occup= 2.000000
     1    -0.994003
     2    -0.027136
     3    -0.037770
     4     0.013311
     5    -0.000001
     6    -0.000002
     7    -0.000356
     8     0.000002
     9     0.000001
    10    -0.000360
    11     0.010067
    12     0.010065
    13     0.009797
    14     0.000001
    15     0.000002
    16    -0.000001
    17    -0.000172
    18     0.000773
    19    -0.000000
    20    -0.000000
    21    -0.000161
Sym=     2a
Ene=   -0.279921E+01
Spin= Alpha
Occup= 1.999971
     1     0.272411
     2    -1.022630
     3     0.041774
     4    -0.019750
     5    -0.000022
     6    -0.000024
     7    -0.036036
     8     0.000000
     9    -0.000000
    10     0.002241
    11    -0.002339
    12    -0.002340
    13    -0.000830
    14    -0.000002
    15     0.000000
    16     0.000000
    17     0.000281
    18    -0.003272
    19     0.000001
    20     0.000001
    21    -0.001669
Sym=     3a
Ene=   -0.152040E+01
Spin= Alpha
Occup= 1.999796
     1    -0.000005
     2     0.000023
     3    -0.000023
     4     0.000008
     5    -0.876863
     6    -0.477840
     7     0.000158
     8    -0.009502
     9    -0.005131
    10    -0.000001
    11     0.000005
    12     0.000007
    13     0.000005
    14    -0.000000
    15     0.002420
    16     0.001272
    17    -0.000002
    18     0.000008
    19    -0.001009
    20    -0.000546
    21    -0.000002
Sym=     4a
Ene=   -0.151977E+01
Spin= Alpha
Occup= 1.999385
     1     0.000002
     2    -0.000013
     3     0.000006
     4    -0.000000
     5    -0.477827
     6     0.876862
     7     0.000074
     8    -0.005231
     9     0.009511
    10    -0.000002
    11     0.000001
    12    -0.000004
    13    -0.000008
    14     0.000004
    15     0.001360
    16    -0.002409
    17     0.000005
    18     0.000003
    19    -0.000552
    20     0.001006
    21     0.000000
Sym=     5a
Ene=   -0.151766E+01
Spin= Alpha
Occup= 1.999095
     1    -0.010141
     2     0.042994
     3     0.044545
     4    -0.017814
     5    -0.000174
     6    -0.000010
     7    -0.996565
     8    -0.000001
     9     0.000002
    10    -0.005067
    11    -0.012640
    12    -0.012641
    13    -0.000379
    14    -0.000001
    15     0.000002
    16    -0.000000
    17    -0.013163
    18    -0.013357
    19     0.000001
    20    -0.000002
    21     0.003226
Sym=     6a
Ene=   -0.287290E+00
Spin= Alpha
Occup= 1.969713
     1     0.027519
     2    -0.162021
     3    -0.208501
     4    -0.114453
     5    -0.000001
     6    -0.000001
     7     0.085753
     8     0.000002
     9     0.000005
    10    -0.153753
    11    -0.016911
    12    -0.016881
    13    -0.069231
    14     0.000034
    15    -0.000000
    16     0.000001
    17    -0.392118
    18    -0.364796
    19    -0.000001
    20    -0.000001
    21     0.012730
Sym=     7a
Ene=   -0.154285E-01
Spin= Alpha
Occup= 0.024116
     1    -0.071585
     2     0.568847
     3     2.857981
     4    -0.826550
     5    -0.000001
     6     0.000003
     7     0.011365
     8     0.000004
     9    -0.000009
    10     0.258592
    11    -0.567117
    12    -0.567095
    13    -0.483563
    14    -0.000149
    15     0.000001
    16     0.000002
    17    -0.820637
    18    -0.022942
    19     0.000003
    20     0.000006
    21    -0.019251
Sym=     8a
Ene=   -0.113268E-02
Spin= Alpha
Occup= 0.000445
     1    -0.045288
     2     0.487169
     3     2.793045
     4    -0.917313
     5    -0.002250
     6    -0.001277
     7     0.013683
     8     0.015557
     9     0.008828
    10    -0.323811
    11    -0.942964
    12    -0.943764
    13    -1.221558
    14     0.000714
    15     0.014736
    16     0.008156
    17    -0.132055
    18     0.718792
    19     0.029103
    20     0.016251
    21     0.801390
Sym=     9a
Ene=   -0.109757E-02
Spin= Alpha
Occup= 0.000462
     1     0.000032
     2    -0.000354
     3    -0.002060
     4     0.000666
     5     0.026989
     6    -0.050606
     7    -0.000015
     8    -0.186707
     9     0.350356
    10     0.000211
    11     0.000591
    12     0.000765
    13     0.000872
    14    -0.000116
    15    -0.180135
    16     0.330305
    17     0.000043
    18    -0.000421
    19    -0.348151
    20     0.645256
    21    -0.000547
Sym=    10a
Ene=   -0.229566E-03
Spin= Alpha
Occup= 0.000102
     1    -0.000005
     2     0.000052
     3     0.000105
     4     0.000195
     5     0.054558
     6     0.073254
     7    -0.000037
     8    -0.437555
     9    -0.588180
    10    -0.000077
    11    -0.000248
    12     0.000014
    13    -0.000467
    14    -0.000397
    15    -0.273214
    16    -0.379312
    17     0.000037
    18     0.000248
    19     0.406688
    20     0.554432
    21    -0.000389
Sym=    11a
Ene=   -0.337817E-04
Spin= Alpha
Occup= 0.000014
     1     0.000010
     2    -0.000157
     3     0.000413
     4    -0.001302
     5     0.067562
     6    -0.034220
     7     0.000049
     8    -0.480555
     9     0.243209
    10     0.001172
    11     0.016216
    12    -0.016320
    13     0.002418
    14     0.017323
    15     0.755378
    16    -0.385155
    17    -0.000420
    18    -0.001534
    19    -0.219378
    20     0.112564
    21     0.000567
Sym=    12a
Ene=   -0.229778E-07
Spin= Alpha
Occup= 0.000000
     1     0.000012
     2    -0.000062
     3    -0.000520
     4     0.003549
     5     0.007215
     6     0.018131
     7     0.000071
     8    -0.051792
     9    -0.130078
    10     0.002291
    11     0.338178
    12    -0.338471
    13    -0.000034
    14     0.887444
    15     0.074588
    16     0.188428
    17     0.001977
    18    -0.004782
    19    -0.018789
    20    -0.047740
    21    -0.000385
Sym=    13a
Ene=   -0.568559E-02
Spin= Alpha
Occup= 0.006171
     1    -0.096967
     2     0.906111
     3     6.116165
     4    -2.538776
     5    -0.000025
     6    -0.000019
     7     0.039562
     8     0.000173
     9     0.000118
    10    -0.012750
    11    -1.572766
    12    -1.572565
    13    -1.443971
    14    -0.000102
    15     0.000161
    16     0.000096
    17     0.702382
    18    -0.742705
    19     0.000184
    20     0.000120
    21    -0.213162
Sym=    14a
Ene=   -0.109474E-02
Spin= Alpha
Occup= 0.000460
     1     0.002094
     2    -0.022479
     3    -0.129034
     4     0.042396
     5    -0.050484
     6    -0.027549
     7    -0.000607
     8     0.349574
     9     0.190908
    10     0.014782
    11     0.043518
    12     0.043497
    13     0.056279
    14    -0.000028
    15     0.330976
    16     0.176609
    17     0.005802
    18    -0.032645
    19     0.644206
    20     0.347505
    21    -0.036065
Sym=    15a
Ene=   -0.344402E-03
Spin= Alpha
Occup= 0.000153
     1    -0.014965
     2     0.206647
     3     0.919787
     4    -0.612667
     5     0.000008
     6    -0.000047
     7    -0.114273
     8    -0.000064
     9     0.000377
    10    -0.363227
    11    -0.590371
    12    -0.591269
    13    -0.825770
    14     0.001038
    15     0.000018
    16     0.000160
    17    -0.754289
    18     1.712792
    19     0.000248
    20    -0.000214
    21    -0.488674
Sym=    16a
Ene=   -0.228727E-03
Spin= Alpha
Occup= 0.000102
     1    -0.000006
     2     0.000101
     3     0.000468
     4    -0.000329
     5    -0.076730
     6     0.055900
     7    -0.000040
     8     0.612776
     9    -0.446937
    10    -0.000216
    11    -0.001097
    12     0.000525
    13    -0.000320
    14    -0.000913
    15     0.343906
    16    -0.260084
    17    -0.000365
    18     0.000800
    19    -0.543250
    20     0.402182
    21    -0.000066
Sym=    17a
Ene=   -0.441569E-04
Spin= Alpha
Occup= 0.000016
     1    -0.004400
     2     0.083818
     3     0.130074
     4     0.442672
     5     0.000062
     6    -0.000047
     7    -0.057473
     8    -0.000424
     9     0.000322
    10    -0.092623
    11     0.183091
    12     0.180924
    13    -1.560150
    14    -0.001970
    15     0.001087
    16    -0.000215
    17     0.470401
    18     0.330953
    19    -0.000338
    20     0.000044
    21    -0.270469
Sym=    18a
Ene=   -0.223456E-05
Spin= Alpha
Occup= 0.000000
     1     0.000005
     2    -0.000162
     3    -0.000616
     4    -0.002646
     5     0.035505
     6     0.068544
     7    -0.000036
     8    -0.254725
     9    -0.491520
    10    -0.001627
    11    -0.096533
    12     0.098612
    13     0.000091
    14    -0.216359
    15     0.368715
    16     0.715039
    17    -0.000935
    18     0.002962
    19    -0.093706
    20    -0.182608
    21     0.000126
Sym=    19a
Ene=    0.000000E+00
Spin= Alpha
Occup= 0.000000
     1     0.003734
     2    -0.064338
     3    -1.320855
     4     0.039745
     5     0.000063
     6    -0.000486
     7     0.020180
     8    -0.000437
     9     0.003484
    10    -1.891031
    11     0.302750
    12     0.768350
    13    -0.709250
    14     0.120740
    15     0.000675
    16    -0.005019
    17    -0.292782
    18     2.285516
    19    -0.000176
    20     0.001270
    21    -0.274379
Sym=    20a
Ene=    0.000000E+00
Spin= Alpha
Occup= 0.000000
     1     0.005970
     2    -0.108915
     3    -0.422500
     4    -0.966246
     5    -0.000153
     6     0.001144
     7    -0.013884
     8     0.001086
     9    -0.008208
    10    -0.485444
    11     1.250489
    12    -0.019085
    13    -0.000817
    14    -0.325169
    15    -0.001725
    16     0.011787
    17    -0.167319
    18     0.848961
    19     0.000441
    20    -0.002985
    21     0.005943
Sym=    21a
Ene=    0.000000E+00
Spin= Alpha
Occup= 0.000000
     1    -0.007072
     2     0.131233
     3    -0.097944
     4     1.512569
     5    -0.000037
     6     0.000781
     7     0.033115
     8     0.000265
     9    -0.005601
    10    -0.323032
    11    -0.236559
    12    -1.057773
    13    -0.395064
    14    -0.212160
    15    -0.000191
    16     0.008271
    17     0.090685
    18    -0.015594
    19     0.000063
    20    -0.002098
    21    -0.164011
