[Molden Format]
p30-20 set                                                                      
[Atoms] AU
 N        1     7        0.0000        0.0000       -1.0394
 N        2     7        0.0000        0.0000        1.0394
[GTO]
    1 0
s    5 1.00
    1712.841585300000 -0.544779958049E-02
     257.648126770000 -0.406271746324E-01
      58.458245853000 -0.181119622506E+00
      16.198367905000 -0.468439755632E+00
       5.005260080900 -0.446168462892E+00
s    1 1.00
       0.587318565710  0.100000000000E+01
s    1 1.00
       0.187645922530  0.100000000000E+01
p    3 1.00
      13.571470233000 -0.588481169695E-01
       2.925737287400 -0.320246247625E+00
       0.799277507540 -0.753282265204E+00
p    1 1.00
       0.219543480340  0.100000000000E+01
d    1 1.00
       1.000000000000  0.100000000000E+01
 
    2 0
s    5 1.00
    1712.841585300000 -0.544779958049E-02
     257.648126770000 -0.406271746324E-01
      58.458245853000 -0.181119622506E+00
      16.198367905000 -0.468439755632E+00
       5.005260080900 -0.446168462892E+00
s    1 1.00
       0.587318565710  0.100000000000E+01
s    1 1.00
       0.187645922530  0.100000000000E+01
p    3 1.00
      13.571470233000 -0.588481169695E-01
       2.925737287400 -0.320246247625E+00
       0.799277507540 -0.753282265204E+00
p    1 1.00
       0.219543480340  0.100000000000E+01
d    1 1.00
       1.000000000000  0.100000000000E+01
 
[MO]
Sym=     1a
Ene=   -0.156916E+02
Spin= Alpha
Occup= 1.999901
     1     0.698709
     2    -0.030492
     3     0.016041
     4    -0.000000
     5     0.000001
     6     0.004881
     7     0.000002
     8     0.000000
     9     0.002562
    10     0.002900
    11     0.002902
    12     0.000447
    13     0.000003
    14     0.000002
    15    -0.000002
    16    -0.699910
    17     0.030638
    18    -0.016175
    19     0.000002
    20    -0.000000
    21     0.004925
    22     0.000000
    23     0.000004
    24     0.002510
    25    -0.002916
    26    -0.002911
    27    -0.000437
    28     0.000002
    29     0.000002
    30     0.000003
Sym=     2a
Ene=   -0.156944E+02
Spin= Alpha
Occup= 1.999882
     1     0.700024
     2    -0.026672
     3     0.006596
     4    -0.000004
     5    -0.000002
     6    -0.000370
     7    -0.000001
     8    -0.000002
     9     0.000974
    10     0.003014
    11     0.003021
    12     0.001853
    13     0.000005
    14     0.000006
    15     0.000001
    16     0.698694
    17    -0.026916
    18     0.006467
    19     0.000001
    20     0.000002
    21     0.000505
    22     0.000002
    23     0.000003
    24    -0.000968
    25     0.003014
    26     0.003012
    27     0.001845
    28    -0.000000
    29     0.000008
    30    -0.000002
Sym=     3a
Ene=   -0.133223E+01
Spin= Alpha
Occup= 1.989940
     1     0.231763
     2     0.452739
     3     0.254201
     4     0.000076
     5     0.000324
     6     0.002732
     7    -0.000004
     8    -0.000190
     9    -0.062488
    10     0.007287
    11     0.007486
    12     0.025761
    13     0.000079
    14    -0.000008
    15    -0.000037
    16     0.194704
    17     0.371638
    18     0.186374
    19     0.000069
    20     0.000318
    21     0.037655
    22    -0.000075
    23    -0.000182
    24     0.043406
    25     0.003809
    26     0.004005
    27     0.024980
    28     0.000074
    29     0.000007
    30     0.000035
Sym=     4a
Ene=   -0.788808E+00
Spin= Alpha
Occup= 1.983297
     1     0.169206
     2     0.374643
     3     0.324810
     4    -0.000044
     5     0.000081
     6     0.195729
     7     0.000031
     8    -0.000023
     9    -0.088354
    10     0.016409
    11     0.016424
    12     0.001811
    13     0.000008
    14     0.000011
    15    -0.000008
    16    -0.210022
    17    -0.452222
    18    -0.379551
    19    -0.000048
    20     0.000068
    21     0.217990
    22     0.000041
    23    -0.000029
    24    -0.108593
    25    -0.018142
    26    -0.018166
    27    -0.005092
    28    -0.000014
    29    -0.000008
    30     0.000009
Sym=     5a
Ene=   -0.791705E+00
Spin= Alpha
Occup= 1.976656
     1     0.015728
     2     0.035847
     3    -0.226747
     4    -0.000361
     5    -0.001677
     6    -0.510238
     7     0.000154
     8     0.000979
     9     0.195509
    10    -0.016085
    11    -0.015964
    12     0.030573
    13     0.000041
    14     0.000039
    15     0.000160
    16     0.025662
    17     0.057692
    18    -0.209698
    19    -0.000361
    20    -0.001657
    21     0.499943
    22     0.000277
    23     0.000951
    24    -0.190497
    25    -0.015137
    26    -0.014998
    27     0.030851
    28     0.000049
    29    -0.000033
    30    -0.000162
Sym=     6a
Ene=   -0.639546E+00
Spin= Alpha
Occup= 1.963268
     1    -0.000129
     2    -0.000241
     3    -0.001265
     4     0.118213
     5     0.420840
     6    -0.001998
     7    -0.067859
     8    -0.241574
     9     0.000773
    10    -0.000074
    11    -0.000077
    12     0.000096
    13    -0.000002
    14    -0.011372
    15    -0.040498
    16    -0.000023
    17    -0.000026
    18    -0.000744
    19     0.118271
    20     0.421043
    21     0.001896
    22    -0.068003
    23    -0.242085
    24    -0.000878
    25    -0.000062
    26    -0.000069
    27     0.000091
    28     0.000001
    29     0.011363
    30     0.040452
Sym=     7a
Ene=   -0.638865E+00
Spin= Alpha
Occup= 1.960638
     1     0.000043
     2     0.000108
     3     0.000130
     4     0.421337
     5    -0.118350
     6     0.000133
     7    -0.241551
     8     0.067852
     9    -0.000037
    10     0.000001
    11     0.000002
    12    -0.000011
    13    -0.000003
    14    -0.040705
    15     0.011439
    16    -0.000034
    17    -0.000092
    18    -0.000019
    19     0.421133
    20    -0.118296
    21    -0.000092
    22    -0.241448
    23     0.067823
    24     0.000051
    25    -0.000000
    26    -0.000000
    27    -0.000010
    28     0.000001
    29     0.040722
    30    -0.011440
Sym=     8a
Ene=   -0.470559E-01
Spin= Alpha
Occup= 0.034165
     1     0.000061
     2     0.000289
     3    -0.000078
     4     0.674100
     5    -0.189031
     6     0.000040
     7    -0.133388
     8     0.037060
     9    -0.000050
    10    -0.000046
    11    -0.000051
    12    -0.000158
    13     0.000003
    14     0.022517
    15    -0.006269
    16     0.000075
    17     0.000353
    18    -0.000043
    19    -0.672709
    20     0.188635
    21     0.000046
    22     0.134461
    23    -0.037367
    24     0.000047
    25    -0.000070
    26    -0.000057
    27    -0.000152
    28     0.000008
    29     0.020935
    30    -0.005821
Sym=     9a
Ene=   -0.482878E-01
Spin= Alpha
Occup= 0.034744
     1     0.000277
     2     0.001110
     3     0.000397
     4     0.189971
     5     0.678340
     6    -0.001187
     7    -0.034953
     8    -0.123819
     9     0.000253
    10    -0.000021
    11    -0.000161
    12    -0.000047
    13     0.000007
    14     0.004804
    15     0.016996
    16    -0.000225
    17    -0.000853
    18    -0.000592
    19    -0.190086
    20    -0.678706
    21    -0.001218
    22     0.034845
    23     0.123471
    24     0.000244
    25     0.000069
    26     0.000064
    27     0.000049
    28     0.000060
    29     0.005161
    30     0.018289
Sym=    10a
Ene=   -0.326235E-01
Spin= Alpha
Occup= 0.018339
     1     0.242292
     2     0.960665
     3     0.174489
     4    -0.000832
     5    -0.000689
     6    -0.869288
     7    -0.000758
     8     0.000179
     9     0.143799
    10    -0.117737
    11    -0.116902
    12    -0.128840
    13     0.000335
    14     0.000711
    15    -0.000108
    16    -0.246861
    17    -0.980924
    18    -0.164629
    19    -0.000294
    20     0.001529
    21    -0.866016
    22    -0.000629
    23     0.000729
    24     0.142880
    25     0.124827
    26     0.124942
    27     0.125462
    28     0.000032
    29    -0.000659
    30     0.000465
Sym=    11a
Ene=   -0.758500E-02
Spin= Alpha
Occup= 0.004550
     1    -0.003128
     2    -0.013352
     3     0.023674
     4     0.110183
     5     0.391348
     6    -0.013780
     7     0.128884
     8     0.457472
     9    -0.040623
    10    -0.008153
    11    -0.014864
    12     0.028872
    13    -0.002367
    14    -0.102122
    15    -0.361684
    16    -0.008088
    17    -0.030696
    18     0.008203
    19     0.116919
    20     0.416195
    21     0.029468
    22     0.138587
    23     0.493216
    24     0.058248
    25    -0.004584
    26    -0.011850
    27     0.048244
    28    -0.002591
    29     0.111796
    30     0.397465
Sym=    12a
Ene=   -0.141662E-01
Spin= Alpha
Occup= 0.004991
     1     0.533706
     2     2.237439
     3    -0.846587
     4    -0.000702
     5    -0.003155
     6     0.541902
     7    -0.000795
     8    -0.004063
     9     0.134105
    10    -0.757715
    11    -0.768817
    12    -0.854520
    13    -0.004042
    14     0.000678
    15     0.004270
    16    -0.427223
    17    -1.780495
    18     0.736547
    19    -0.000777
    20    -0.003599
    21     0.523307
    22    -0.000918
    23    -0.004537
    24     0.162450
    25     0.592121
    26     0.587930
    27     0.782158
    28    -0.001659
    29    -0.000666
    30    -0.004493
Sym=    13a
Ene=   -0.771920E-03
Spin= Alpha
Occup= 0.000049
     1     0.005472
     2     0.008093
     3     0.002713
     4     0.000265
     5    -0.000222
     6     0.024658
     7    -0.000012
     8    -0.000194
     9    -0.012504
    10    -0.646250
    11     0.637062
    12    -0.053158
    13     0.107552
    14    -0.001870
    15     0.000277
    16    -0.003043
    17     0.001370
    18     0.000481
    19    -0.001143
    20    -0.000178
    21     0.026883
    22    -0.000761
    23    -0.000211
    24    -0.009918
    25     0.647228
    26    -0.647930
    27     0.047313
    28    -0.097967
    29    -0.001731
    30     0.000141
Sym=    14a
Ene=   -0.772969E-03
Spin= Alpha
Occup= 0.000050
     1    -0.001399
     2    -0.001351
     3     0.001795
     4     0.000358
     5    -0.000036
     6    -0.008829
     7     0.000179
     8     0.000043
     9     0.003982
    10    -0.083272
    11     0.083187
    12     0.017161
    13    -0.733887
    14    -0.000902
    15     0.000281
    16     0.000193
    17    -0.003217
    18    -0.003412
    19    -0.000205
    20     0.000239
    21    -0.009752
    22    -0.000002
    23     0.000163
    24     0.002993
    25     0.097552
    26    -0.092325
    27    -0.014444
    28     0.755112
    29    -0.000780
    30     0.000338
Sym=    15a
Ene=   -0.405140E-02
Spin= Alpha
Occup= 0.001796
     1    -0.046619
     2    -0.200189
     3    -0.054918
     4     0.002385
     5     0.000641
     6     0.062890
     7     0.003700
     8    -0.000087
     9     0.105177
    10     0.572028
    11    -0.390421
    12     0.094313
    13    -0.360070
    14    -0.004825
    15     0.002270
    16    -0.050665
    17    -0.219342
    18    -0.031779
    19    -0.003470
    20     0.002558
    21    -0.074150
    22    -0.004508
    23     0.002588
    24    -0.124644
    25     0.585586
    26    -0.377043
    27     0.088622
    28    -0.360215
    29    -0.004126
    30     0.000569
Sym=    16a
Ene=   -0.296033E-02
Spin= Alpha
Occup= 0.001091
     1     0.121979
     2     0.791679
     3    -1.191952
     4     0.003913
     5     0.004077
     6    -0.771702
     7     0.003720
     8     0.004236
     9    -0.779805
    10    -0.566841
    11    -0.531533
    12     0.848463
    13     0.012154
    14    -0.000919
    15    -0.001549
    16    -0.132630
    17    -0.833783
    18     1.185474
    19     0.001545
    20     0.003668
    21    -0.777864
    22     0.000720
    23     0.003599
    24    -0.790272
    25     0.579469
    26     0.564218
    27    -0.833447
    28    -0.004612
    29    -0.003118
    30     0.000933
Sym=    17a
Ene=   -0.361613E-02
Spin= Alpha
Occup= 0.001043
     1     0.426621
     2     1.761591
     3     0.368393
     4     0.044111
     5    -0.010170
     6    -0.411311
     7     0.057312
     8    -0.013365
     9    -0.446597
    10    -0.678533
    11    -0.788638
    12    -1.111025
    13    -0.041264
    14    -0.080071
    15     0.019515
    16     0.464053
    17     1.882862
    18     0.442388
    19    -0.047828
    20     0.010807
    21     0.354596
    22    -0.059779
    23     0.013126
    24     0.428412
    25    -0.744509
    26    -0.849340
    27    -1.246159
    28    -0.039390
    29    -0.076520
    30     0.016469
Sym=    18a
Ene=   -0.641450E-02
Spin= Alpha
Occup= 0.003289
     1     0.000712
     2     0.003820
     3    -0.007789
     4    -0.455837
     5     0.128135
     6     0.000645
     7    -0.281891
     8     0.079265
     9     0.003894
    10    -0.001310
    11     0.003051
    12    -0.002124
    13    -0.001181
    14    -0.487445
    15     0.136810
    16    -0.000160
    17    -0.001499
    18     0.002533
    19    -0.438679
    20     0.123573
    21    -0.005738
    22    -0.267083
    23     0.075500
    24    -0.010203
    25     0.001463
    26     0.006378
    27    -0.006713
    28    -0.001083
    29     0.533191
    30    -0.149308
Sym=    19a
Ene=   -0.596926E-02
Spin= Alpha
Occup= 0.002825
     1     0.000936
     2     0.004562
     3    -0.005496
     4    -0.147684
     5    -0.524865
     6    -0.004449
     7    -0.102305
     8    -0.363447
     9    -0.009204
    10    -0.003641
    11    -0.006805
    12     0.006216
    13    -0.001182
    14    -0.130740
    15    -0.465318
    16    -0.000650
    17    -0.004048
    18     0.009008
    19    -0.151915
    20    -0.538798
    21    -0.000436
    22    -0.106228
    23    -0.375824
    24     0.000981
    25     0.000704
    26    -0.001966
    27     0.002045
    28    -0.001068
    29     0.120152
    30     0.429344
Sym=    20a
Ene=   -0.916600E-03
Spin= Alpha
Occup= 0.000058
     1     0.000933
     2     0.004639
     3     0.001040
     4    -0.092529
     5    -0.356665
     6    -0.001975
     7    -0.059913
     8    -0.227220
     9    -0.000682
    10    -0.001906
    11    -0.001433
    12    -0.001641
    13     0.000173
    14     0.221456
    15     0.864856
    16     0.001046
    17     0.003951
    18     0.000738
    19     0.079945
    20     0.313500
    21     0.000163
    22     0.048365
    23     0.187266
    24     0.001341
    25    -0.000670
    26    -0.000946
    27    -0.005635
    28    -0.000057
    29     0.221808
    30     0.864834
Sym=    21a
Ene=   -0.281759E-03
Spin= Alpha
Occup= 0.000018
     1     0.160389
     2     0.072814
     3     0.683653
     4     0.001379
     5     0.001006
     6     0.356766
     7     0.017304
     8    -0.001648
     9     0.714867
    10    -0.777905
    11    -0.766139
    12    -0.036086
    13     0.004484
    14     0.018269
    15    -0.003489
    16     0.128959
    17     0.000938
    18     0.589599
    19    -0.000728
    20     0.000813
    21    -0.320887
    22    -0.016756
    23     0.003367
    24    -0.776560
    25    -0.699838
    26    -0.684423
    27     0.129261
    28     0.005713
    29     0.018048
    30    -0.003438
Sym=    22a
Ene=   -0.601091E-02
Spin= Alpha
Occup= 0.003401
     1     0.000203
     2     0.001259
     3    -0.002368
     4    -0.498351
     5     0.140548
     6     0.000791
     7    -0.539258
     8     0.151917
     9    -0.002298
    10    -0.001279
    11    -0.001007
    12     0.000267
    13    -0.000346
    14     0.295411
    15    -0.082753
    16     0.000255
    17     0.000798
    18     0.002998
    19    -0.494680
    20     0.139593
    21     0.002041
    22    -0.535677
    23     0.151035
    24     0.000296
    25    -0.000866
    26     0.000272
    27    -0.000081
    28    -0.000078
    29    -0.287292
    30     0.080531
Sym=    23a
Ene=   -0.220973E-02
Spin= Alpha
Occup= 0.000897
     1     0.042125
     2     0.179468
     3     0.036005
     4    -0.410888
     5     0.103762
     6    -0.051832
     7    -0.527743
     8     0.132070
     9    -0.060909
    10    -0.063035
    11    -0.079654
    12    -0.111907
    13    -0.007330
    14     0.738155
    15    -0.190712
    16     0.045297
    17     0.187656
    18     0.047555
    19     0.438693
    20    -0.113323
    21     0.042075
    22     0.546983
    23    -0.139184
    24     0.056457
    25    -0.064223
    26    -0.085684
    27    -0.130316
    28    -0.006218
    29     0.714359
    30    -0.184364
Sym=    24a
Ene=   -0.774189E-02
Spin= Alpha
Occup= 0.003962
     1     0.099463
     2     0.400472
     3    -0.208946
     4     0.008309
     5     0.026064
     6     0.289416
     7     0.006920
     8     0.034106
     9     0.613881
    10     0.041276
    11     0.131866
    12    -0.559875
    13     0.033720
    14     0.002015
    15    -0.037196
    16     0.062329
    17     0.253666
    18    -0.188947
    19     0.015507
    20     0.024987
    21    -0.224688
    22     0.016898
    23     0.032684
    24    -0.583449
    25     0.092812
    26     0.182620
    27    -0.471203
    28     0.033393
    29     0.008783
    30     0.035380
Sym=    25a
Ene=   -0.180332E-01
Spin= Alpha
Occup= 0.008864
     1    -0.367277
     2    -1.615554
     3     0.584241
     4     0.001860
     5    -0.001194
     6    -0.172737
     7     0.003108
     8    -0.001150
     9    -0.108666
    10     0.479335
    11     0.495995
    12     0.208587
    13     0.006285
    14    -0.002662
    15     0.000034
    16    -0.457932
    17    -2.010473
    18     0.789573
    19    -0.002560
    20    -0.000961
    21     0.297783
    22    -0.003773
    23    -0.000680
    24     0.155977
    25     0.596162
    26     0.613248
    27     0.343595
    28     0.006450
    29    -0.002743
    30     0.000579
Sym=    26a
Ene=   -0.508584E-02
Spin= Alpha
Occup= 0.002244
     1     0.000079
     2     0.000356
     3    -0.000117
     4    -0.001809
     5     0.000371
     6     0.000034
     7    -0.001170
     8     0.000235
     9     0.000111
    10     0.322568
    11    -0.322674
    12    -0.000249
    13     0.574877
    14    -0.001896
    15     0.000528
    16     0.000103
    17     0.000432
    18    -0.000037
    19    -0.002051
    20     0.000534
    21    -0.000062
    22    -0.001499
    23     0.000330
    24    -0.000158
    25     0.307858
    26    -0.308021
    27    -0.000324
    28     0.548698
    29     0.001408
    30    -0.000480
Sym=    27a
Ene=   -0.173692E-03
Spin= Alpha
Occup= 0.000011
     1    -0.002479
     2     0.000024
     3    -0.003214
     4     0.278429
     5    -0.058362
     6    -0.005993
     7     1.208057
     8    -0.263668
     9    -0.007708
    10     0.012510
    11     0.013594
    12     0.000195
    13    -0.000045
    14     0.613055
    15    -0.142883
    16    -0.002319
    17     0.000791
    18    -0.021579
    19    -0.272294
    20     0.056886
    21     0.005507
    22    -1.203907
    23     0.262846
    24     0.018391
    25     0.013548
    26     0.012998
    27    -0.002060
    28     0.000305
    29     0.607538
    30    -0.140952
Sym=    28a
Ene=   -0.489281E-03
Spin= Alpha
Occup= 0.000031
     1     0.299396
     2     0.781743
     3     0.806357
     4    -0.000093
     5    -0.000306
     6     0.346925
     7    -0.000608
     8    -0.000244
     9    -0.480858
    10    -0.666415
    11    -0.691633
    12    -1.504462
    13    -0.005997
    14    -0.000747
    15     0.000713
    16    -0.305747
    17    -0.744909
    18    -0.833587
    19    -0.000226
    20     0.000085
    21     0.421179
    22     0.000281
    23    -0.000067
    24    -0.354336
    25     0.729802
    26     0.752262
    27     1.443064
    28     0.004850
    29    -0.000822
    30     0.000338
Sym=    29a
Ene=    0.000000E+00
Spin= Alpha
Occup= 0.000000
     1     0.039031
     2    -0.061006
     3     8.484673
     4    -0.020468
     5    -0.087619
     6    -0.135288
     7    -0.069140
     8    -0.303475
     9     4.555948
    10    -0.396773
    11    -0.392409
    12     0.525051
    13     0.001459
    14    -0.019555
    15    -0.091291
    16    -0.037368
    17     0.066768
    18    -8.480536
    19     0.019331
    20     0.084619
    21    -0.133321
    22     0.067968
    23     0.300142
    24     4.558056
    25     0.393164
    26     0.387485
    27    -0.529214
    28    -0.001947
    29    -0.019946
    30    -0.093131
Sym=    30a
Ene=    0.000000E+00
Spin= Alpha
Occup= 0.000000
     1     0.008923
     2    -0.015580
     3     2.016990
     4     0.083869
     5     0.367190
     6    -0.032228
     7     0.284452
     8     1.275813
     9     1.082938
    10    -0.093031
    11    -0.092236
    12     0.125403
    13     0.000288
    14     0.078514
    15     0.384575
    16    -0.009195
    17     0.015294
    18    -2.017970
    19    -0.081728
    20    -0.358367
    21    -0.031583
    22    -0.281893
    23    -1.265860
    24     1.084672
    25     0.094230
    26     0.092776
    27    -0.124556
    28    -0.000506
    29     0.080462
    30     0.390567
