[Molden Format]
p30-20 set                                                                      
[Atoms] AU
 F        1     9        0.0000        0.0000       -1.3372
 F        2     9        0.0000        0.0000        1.3372
[GTO]
    1 0
s    5 1.00
    2894.832599000000 -0.534932117607E-02
     435.419391200000 -0.399677343716E-01
      98.843328866000 -0.179412617888E+00
      27.485198001000 -0.468324686869E+00
       8.540549817100 -0.447241605328E+00
s    1 1.00
       1.065457803800  0.100000000000E+01
s    1 1.00
       0.332473467480  0.100000000000E+01
p    3 1.00
      22.696633924000 -0.647821482412E-01
       4.987233925700 -0.340357853553E+00
       1.349161395400 -0.734858153660E+00
p    1 1.00
       0.348298819770  0.100000000000E+01
d    1 1.00
       1.400000000000  0.100000000000E+01
 
    2 0
s    5 1.00
    2894.832599000000 -0.534932117607E-02
     435.419391200000 -0.399677343716E-01
      98.843328866000 -0.179412617888E+00
      27.485198001000 -0.468324686869E+00
       8.540549817100 -0.447241605328E+00
s    1 1.00
       1.065457803800  0.100000000000E+01
s    1 1.00
       0.332473467480  0.100000000000E+01
p    3 1.00
      22.696633924000 -0.647821482412E-01
       4.987233925700 -0.340357853553E+00
       1.349161395400 -0.734858153660E+00
p    1 1.00
       0.348298819770  0.100000000000E+01
d    1 1.00
       1.400000000000  0.100000000000E+01
 
[MO]
Sym=     1a
Ene=   -0.264626E+02
Spin= Alpha
Occup= 1.999907
     1     0.693253
     2    -0.027728
     3     0.004482
     4    -0.000003
     5    -0.000011
     6     0.000468
     7     0.000007
     8     0.000028
     9     0.000273
    10     0.004201
    11     0.004198
    12     0.004764
    13     0.000001
    14     0.000000
    15    -0.000008
    16     0.703413
    17    -0.029170
    18     0.003486
    19     0.000061
    20     0.000338
    21    -0.000373
    22    -0.000066
    23    -0.000360
    24    -0.000348
    25     0.004281
    26     0.004281
    27     0.004864
    28     0.000002
    29    -0.000001
    30     0.000002
Sym=     2a
Ene=   -0.264624E+02
Spin= Alpha
Occup= 1.999905
     1     0.704041
     2    -0.028329
     3     0.007114
     4    -0.000007
     5    -0.000007
     6     0.000814
     7    -0.000001
     8    -0.000019
     9     0.001436
    10     0.004043
    11     0.004040
    12     0.004594
    13     0.000001
    14     0.000001
    15     0.000011
    16    -0.692846
    17     0.028809
    18    -0.006157
    19    -0.000052
    20    -0.000305
    21     0.000807
    22     0.000066
    23     0.000343
    24     0.001472
    25    -0.004019
    26    -0.004017
    27    -0.004521
    28    -0.000003
    29    -0.000004
    30    -0.000011
Sym=     3a
Ene=   -0.165891E+01
Spin= Alpha
Occup= 1.993919
     1     0.307599
     2     0.630257
     3     0.435613
     4    -0.000103
     5     0.000998
     6     0.032619
     7    -0.000016
     8    -0.000747
     9    -0.022496
    10     0.005133
    11     0.005122
    12     0.013097
    13    -0.000170
    14    -0.000034
    15    -0.000035
    16     0.030514
    17     0.055858
    18     0.015071
    19     0.000553
    20     0.001118
    21     0.039137
    22    -0.000391
    23    -0.000830
    24    -0.006224
    25    -0.002784
    26    -0.002790
    27     0.013285
    28    -0.000009
    29     0.000048
    30     0.000067
Sym=     4a
Ene=   -0.156575E+01
Spin= Alpha
Occup= 1.990472
     1     0.047251
     2     0.102965
     3     0.093841
     4     0.001559
     5     0.001859
     6     0.041982
     7    -0.000778
     8     0.000260
     9    -0.008204
    10     0.003949
    11     0.003950
    12    -0.009694
    13    -0.000017
    14    -0.000338
    15    -0.001674
    16    -0.307947
    17    -0.629123
    18    -0.436578
    19     0.025281
    20     0.124164
    21     0.049758
    22    -0.016338
    23    -0.080787
    24    -0.028089
    25    -0.006242
    26    -0.006229
    27    -0.009752
    28     0.000005
    29     0.000318
    30     0.001651
Sym=     5a
Ene=   -0.775254E+00
Spin= Alpha
Occup= 1.986504
     1     0.000215
     2     0.000368
     3     0.000279
     4     0.627239
     5    -0.300164
     6    -0.001401
     7    -0.413480
     8     0.197892
     9     0.000855
    10    -0.000032
    11    -0.000005
    12     0.000087
    13    -0.000010
    14    -0.008353
    15     0.003984
    16    -0.000465
    17    -0.001002
    18    -0.000867
    19    -0.017707
    20     0.010282
    21     0.001499
    22     0.019879
    23    -0.010850
    24    -0.000889
    25    -0.000043
    26    -0.000052
    27     0.000105
    28     0.000003
    29     0.008645
    30    -0.004152
Sym=     6a
Ene=   -0.802060E+00
Spin= Alpha
Occup= 1.984144
     1     0.009261
     2     0.020027
     3     0.018065
     4    -0.009387
     5     0.010539
     6     0.007053
     7     0.005240
     8    -0.016391
     9    -0.001373
    10     0.000763
    11     0.000753
    12    -0.001733
    13    -0.000003
    14     0.001088
    15     0.009455
    16    -0.055515
    17    -0.113747
    18    -0.083452
    19    -0.064407
    20    -0.678475
    21     0.010231
    22     0.042557
    23     0.450031
    24    -0.006307
    25    -0.000667
    26    -0.000854
    27    -0.001171
    28    -0.000029
    29    -0.001063
    30    -0.009211
Sym=     7a
Ene=   -0.769425E+00
Spin= Alpha
Occup= 1.983208
     1    -0.001238
     2    -0.002712
     3    -0.002577
     4    -0.038356
     5     0.014544
     6    -0.003185
     7     0.034541
     8    -0.010415
     9     0.001686
    10    -0.000139
    11    -0.000148
    12     0.000385
    13     0.000004
    14    -0.009269
    15     0.000739
    16     0.005681
    17     0.011427
    18     0.008505
    19     0.690275
    20    -0.069079
    21     0.001539
    22    -0.459544
    23     0.046176
    24    -0.000841
    25     0.000039
    26     0.000034
    27     0.000279
    28     0.000055
    29     0.009008
    30    -0.000719
Sym=     8a
Ene=   -0.761821E+00
Spin= Alpha
Occup= 1.981147
     1    -0.000885
     2    -0.002146
     3    -0.001469
     4     0.299843
     5     0.626842
     6    -0.002897
     7    -0.199273
     8    -0.416641
     9     0.001229
    10    -0.000067
    11    -0.000075
    12     0.000215
    13    -0.000010
    14    -0.003798
    15    -0.007911
    16     0.001447
    17     0.003019
    18     0.001594
    19    -0.023392
    20    -0.052096
    21     0.003034
    22     0.019541
    23     0.043105
    24    -0.002067
    25     0.000029
    26     0.000029
    27     0.000338
    28     0.000004
    29     0.003884
    30     0.008165
Sym=     9a
Ene=   -0.822785E+00
Spin= Alpha
Occup= 1.955034
     1     0.020369
     2     0.049438
     3     0.091917
     4     0.003559
     5     0.003034
     6     0.462011
     7    -0.002403
     8    -0.002157
     9    -0.283592
    10     0.008720
    11     0.008727
    12    -0.035043
    13     0.000004
    14     0.000024
    15     0.000115
    16     0.015287
    17     0.039147
    18     0.083793
    19     0.003225
    20    -0.002134
    21    -0.461376
    22    -0.002228
    23     0.001134
    24     0.282796
    25     0.008695
    26     0.008689
    27    -0.035061
    28    -0.000107
    29    -0.000075
    30    -0.000222
Sym=    10a
Ene=   -0.854345E-01
Spin= Alpha
Occup= 0.043480
     1    -0.059885
     2    -0.152451
     3    -0.081227
     4    -0.000116
     5    -0.001185
     6     0.674936
     7     0.000386
     8    -0.000089
     9    -0.132952
    10     0.001472
    11     0.001431
    12     0.044728
    13     0.000167
    14    -0.001054
    15    -0.001433
    16     0.062167
    17     0.162499
    18     0.074148
    19    -0.000891
    20    -0.001217
    21     0.672527
    22    -0.001043
    23    -0.002107
    24    -0.134948
    25    -0.004279
    26    -0.004135
    27    -0.042492
    28     0.000129
    29    -0.000150
    30     0.000219
Sym=    11a
Ene=   -0.152425E-01
Spin= Alpha
Occup= 0.008694
     1    -0.001985
     2    -0.008132
     3     0.003432
     4     0.828008
     5    -0.342032
     6     0.001011
     7     1.005833
     8    -0.412947
     9     0.002738
    10     0.004178
    11     0.000740
    12     0.002560
    13     0.001572
    14    -0.021819
    15     0.002231
    16     0.006740
    17     0.027166
    18    -0.013114
    19    -0.105300
    20     0.033056
    21    -0.005062
    22    -0.303996
    23     0.113578
    24    -0.004037
    25    -0.007914
    26    -0.006887
    27    -0.005370
    28     0.000145
    29    -0.113451
    30     0.051917
Sym=    12a
Ene=   -0.960912E-02
Spin= Alpha
Occup= 0.004036
     1     0.005393
     2     0.033259
     3    -0.072151
     4     0.005452
     5     0.005778
     6     0.217117
     7     0.012205
     8     0.015132
     9     0.179693
    10    -0.125044
    11    -0.128667
    12     0.211470
    13     0.009091
    14    -0.058683
    15    -0.071606
    16     0.030806
    17     0.115175
    18    -0.056961
    19     0.006864
    20     0.000935
    21    -0.211797
    22     0.011484
    23     0.005313
    24    -0.182200
    25    -0.765764
    26     0.359388
    27     0.250600
    28     0.558191
    29     0.088711
    30     0.104317
Sym=    13a
Ene=   -0.198152E-01
Spin= Alpha
Occup= 0.011906
     1    -0.019693
     2    -0.059987
     3    -0.021601
     4     0.009488
     5    -0.064369
     6     0.036925
     7     0.029136
     8     0.106255
     9    -0.004876
    10     0.002950
    11     0.003095
    12     0.034127
    13     0.000513
    14    -0.019275
    15    -0.093328
    16    -0.202845
    17    -0.800381
    18     0.325758
    19    -0.080418
    20    -0.844002
    21     0.037037
    22    -0.096574
    23    -0.987530
    24     0.038434
    25     0.198475
    26     0.193448
    27     0.221607
    28     0.003284
    29     0.003642
    30     0.005726
Sym=    14a
Ene=   -0.247920E-01
Spin= Alpha
Occup= 0.009598
     1     0.580163
     2     2.236667
     3    -0.761921
     4     0.004204
     5     0.002263
     6     0.084884
     7     0.007936
     8     0.017244
     9     0.090905
    10    -0.617796
    11    -0.612315
    12    -0.669516
    13     0.008995
    14    -0.001635
    15    -0.013657
    16     0.070579
    17     0.231791
    18     0.021422
    19    -0.013984
    20    -0.066630
    21     0.095189
    22    -0.017544
    23    -0.079186
    24    -0.014114
    25    -0.029761
    26    -0.028621
    27    -0.105272
    28     0.006253
    29     0.000627
    30     0.004469
Sym=    15a
Ene=   -0.210645E-01
Spin= Alpha
Occup= 0.006629
     1    -0.073591
     2    -0.313523
     3     0.164823
     4     0.010833
     5     0.037392
     6    -0.119067
     7     0.026430
     8     0.112582
     9    -0.026965
    10     0.133830
    11     0.132455
    12     0.054519
    13    -0.003371
    14    -0.012088
    15    -0.036144
    16     0.567011
    17     2.131202
    18    -0.560770
    19    -0.062820
    20    -0.317899
    21    -0.092934
    22    -0.076909
    23    -0.386799
    24    -0.082561
    25    -0.661933
    26    -0.667397
    27    -0.717511
    28    -0.024026
    29    -0.002978
    30    -0.016689
Sym=    16a
Ene=   -0.782732E-02
Spin= Alpha
Occup= 0.002709
     1     0.006132
     2     0.021133
     3    -0.000439
     4     0.048007
     5    -0.045868
     6     0.009007
     7     0.071463
     8    -0.068954
     9     0.006551
    10    -0.087006
    11     0.042652
    12     0.013628
    13    -0.037108
    14    -0.602606
    15     0.557461
    16     0.000794
    17     0.002245
    18     0.000999
    19     0.065214
    20    -0.058504
    21    -0.008173
    22     0.116621
    23    -0.105356
    24    -0.005307
    25    -0.006312
    26    -0.018096
    27     0.015693
    28    -0.003619
    29     0.373783
    30    -0.354354
Sym=    17a
Ene=   -0.137606E-02
Spin= Alpha
Occup= 0.000051
     1     0.007146
     2     0.025478
     3     0.005785
     4     0.001202
     5    -0.117436
     6     0.009792
     7    -0.004178
     8    -0.231904
     9    -0.002113
    10    -0.006663
    11    -0.001987
    12    -0.041549
    13    -0.000796
    14    -0.148464
    15    -0.677237
    16    -0.004788
    17    -0.016136
    18    -0.003848
    19     0.021741
    20     0.100288
    21     0.007725
    22     0.038439
    23     0.208555
    24     0.005062
    25    -0.033360
    26    -0.040315
    27     0.104698
    28    -0.001819
    29    -0.000407
    30    -0.759626
Sym=    18a
Ene=   -0.138302E-02
Spin= Alpha
Occup= 0.000051
     1     0.003703
     2     0.013132
     3     0.002763
     4    -0.130403
     5     0.025768
     6     0.002826
     7    -0.247972
     8     0.042735
     9    -0.003027
    10    -0.002474
    11    -0.007198
    12    -0.015752
    13     0.002250
    14    -0.642183
    15    -0.025377
    16     0.000826
    17     0.000871
    18     0.005699
    19     0.090567
    20     0.004331
    21     0.005053
    22     0.196956
    23     0.000737
    24     0.004533
    25    -0.027188
    26    -0.023305
    27     0.044797
    28    -0.001259
    29    -0.791295
    30     0.150115
Sym=    19a
Ene=   -0.498128E-02
Spin= Alpha
Occup= 0.001486
     1    -0.021096
     2    -0.091012
     3     0.031486
     4     0.052195
     5     0.056823
     6    -0.001608
     7     0.084187
     8     0.090991
     9     0.033641
    10     0.165035
    11     0.179717
    12    -0.256473
    13    -0.000328
    14    -0.426164
    15    -0.441147
    16    -0.020609
    17    -0.087117
    18     0.023618
    19     0.056610
    20     0.057904
    21     0.001913
    22     0.090087
    23     0.091878
    24    -0.032258
    25     0.169794
    26     0.174251
    27    -0.252479
    28     0.022098
    29     0.430380
    30     0.450084
Sym=    20a
Ene=   -0.171306E-01
Spin= Alpha
Occup= 0.010158
     1    -0.000445
     2     0.001322
     3    -0.011180
     4     0.346343
     5     0.838852
     6     0.024481
     7     0.413762
     8     0.996573
     9     0.017901
    10    -0.006220
    11    -0.006963
    12     0.010386
    13    -0.000742
    14    -0.007074
    15    -0.008254
    16    -0.034231
    17    -0.137772
    18     0.059540
    19    -0.013133
    20    -0.007714
    21    -0.005803
    22    -0.090087
    23    -0.190031
    24    -0.002910
    25     0.027151
    26     0.025189
    27     0.041732
    28     0.001827
    29    -0.037908
    30    -0.100237
Sym=    21a
Ene=   -0.196722E-01
Spin= Alpha
Occup= 0.012757
     1     0.001941
     2     0.005934
     3     0.001808
     4     0.134227
     5    -0.031461
     6    -0.001414
     7    -0.035618
     8    -0.016536
     9     0.002203
    10    -0.000385
    11    -0.000529
    12    -0.003317
    13    -0.000066
    14     0.093469
    15    -0.000291
    16     0.019393
    17     0.076907
    18    -0.032925
    19     0.900381
    20    -0.098275
    21    -0.004889
    22     1.039163
    23    -0.110595
    24    -0.005454
    25    -0.018414
    26    -0.017911
    27    -0.020972
    28    -0.001845
    29    -0.016268
    30    -0.001018
Sym=    22a
Ene=   -0.959459E-02
Spin= Alpha
Occup= 0.003950
     1     0.007350
     2     0.039887
     3    -0.070511
     4     0.005099
     5     0.005918
     6     0.211228
     7     0.011318
     8     0.014918
     9     0.174224
    10    -0.125137
    11    -0.130761
    12     0.205398
    13     0.002010
    14    -0.056099
    15    -0.074730
    16     0.026328
    17     0.099660
    18    -0.055702
    19     0.007527
    20     0.006812
    21    -0.205107
    22     0.012139
    23     0.012324
    24    -0.176287
    25     0.462763
    26    -0.848262
    27     0.250536
    28     0.412506
    29     0.084703
    30     0.114736
Sym=    23a
Ene=   -0.988835E-02
Spin= Alpha
Occup= 0.003898
     1    -0.001489
     2    -0.004952
     3     0.000188
     4     0.002572
     5    -0.003237
     6    -0.005768
     7     0.004469
     8    -0.005410
     9    -0.004530
    10     0.776206
    11    -0.758155
    12    -0.009295
    13     0.455855
    14    -0.049461
    15     0.044812
    16    -0.000357
    17    -0.001842
    18     0.002432
    19     0.005549
    20    -0.004631
    21     0.006766
    22     0.010093
    23    -0.008457
    24     0.005436
    25     0.001996
    26     0.007282
    27    -0.007130
    28     0.005172
    29     0.034297
    30    -0.033182
Sym=    24a
Ene=   -0.874815E-02
Spin= Alpha
Occup= 0.002899
     1     0.020713
     2     0.088896
     3    -0.079203
     4     0.010339
     5     0.012143
     6     0.263642
     7     0.021103
     8     0.025503
     9     0.213129
    10    -0.185696
    11    -0.208976
    12     0.270121
    13     0.014456
    14    -0.091252
    15    -0.117294
    16     0.017470
    17     0.073594
    18    -0.074233
    19     0.010848
    20     0.013382
    21    -0.249532
    22     0.017568
    23     0.022183
    24    -0.207281
    25    -0.299472
    26    -0.177490
    27     0.377239
    28    -0.718123
    29     0.136981
    30     0.171666
Sym=    25a
Ene=   -0.983618E-02
Spin= Alpha
Occup= 0.003372
     1     0.007540
     2     0.024854
     3     0.002745
     4     0.000204
     5    -0.000963
     6     0.010334
     7     0.000356
     8    -0.001003
     9     0.011517
    10     0.385883
    11    -0.406561
    12    -0.016776
    13    -0.889034
    14    -0.002872
    15    -0.001368
    16    -0.001369
    17    -0.005053
    18    -0.002578
    19     0.000245
    20     0.000147
    21    -0.005571
    22     0.000479
    23     0.000486
    24    -0.004567
    25    -0.007710
    26     0.006061
    27     0.007356
    28     0.005192
    29     0.002080
    30     0.002124
Sym=    26a
Ene=   -0.120940E-02
Spin= Alpha
Occup= 0.000045
     1     0.000269
     2     0.071485
     3    -0.159448
     4     0.002621
     5     0.006142
     6     0.088239
     7     0.005684
     8     0.012272
     9    -0.022275
    10     0.400037
    11     0.412380
    12    -0.811924
    13     0.003251
    14     0.043949
    15     0.070157
    16    -0.012215
    17    -0.103822
    18     0.146445
    19    -0.005629
    20    -0.008409
    21     0.175875
    22    -0.011164
    23    -0.017594
    24     0.051324
    25    -0.323181
    26    -0.324700
    27     0.746185
    28    -0.000484
    29     0.012137
    30     0.031396
Sym=    27a
Ene=   -0.110180E-02
Spin= Alpha
Occup= 0.000042
     1    -0.061178
     2    -0.195153
     3    -0.212768
     4    -0.021765
     5    -0.025821
     6     0.588924
     7    -0.032947
     8    -0.038130
     9     0.622144
    10     0.258114
    11     0.264758
    12    -0.190133
    13     0.006636
    14     0.087933
    15     0.098611
    16    -0.051495
    17    -0.177756
    18    -0.159807
    19    -0.014708
    20    -0.019523
    21    -0.582948
    22    -0.019615
    23    -0.025334
    24    -0.623048
    25     0.228247
    26     0.228754
    27    -0.203821
    28    -0.036482
    29    -0.123905
    30    -0.140529
Sym=    28a
Ene=    0.000000E+00
Spin= Alpha
Occup= 0.000000
     1    -0.109811
     2    -0.686745
     3     1.267179
     4    -0.001502
     5    -0.004748
     6     0.408975
     7    -0.002615
     8    -0.009108
     9     1.725323
    10     0.020762
    11     0.021631
    12     0.533830
    13    -0.000664
    14    -0.002243
    15    -0.002787
    16     0.076838
    17     0.612483
    18    -1.377011
    19     0.002890
    20     0.012687
    21     0.427334
    22     0.004177
    23     0.017166
    24     1.740932
    25     0.063864
    26     0.063370
    27    -0.445070
    28    -0.002897
    29     0.000237
    30    -0.002287
Sym=    29a
Ene=    0.000000E+00
Spin= Alpha
Occup= 0.000000
     1     0.275860
     2     0.514485
     3     1.260915
     4    -0.002890
     5    -0.007422
     6     0.120707
     7    -0.005042
     8    -0.015924
     9     0.118752
    10    -0.818527
    11    -0.816644
    12    -0.813378
    13     0.004096
    14     0.014688
    15     0.012088
    16     0.264694
    17     0.470247
    18     1.255643
    19     0.004277
    20     0.028469
    21    -0.067034
    22     0.004843
    23     0.035757
    24     0.024497
    25    -0.820151
    26    -0.820676
    27    -0.825820
    28    -0.002896
    29    -0.008641
    30    -0.008757
Sym=    30a
Ene=    0.000000E+00
Spin= Alpha
Occup= 0.000000
     1     0.281340
     2     0.250901
     3     2.522348
     4     0.001564
     5     0.006385
     6     0.066792
     7     0.003454
     8     0.014875
     9     0.865724
    10    -0.946929
    11    -0.945397
    12    -0.730100
    13     0.003724
    14     0.004161
    15     0.004816
    16    -0.252176
    17    -0.157101
    18    -2.509950
    19    -0.006680
    20    -0.029721
    21     0.044790
    22    -0.008943
    23    -0.038328
    24     0.840856
    25     0.900862
    26     0.901278
    27     0.674751
    28     0.007973
    29    -0.000313
    30     0.005125
