[Molden Format]
p30-20 set                                                                      
[Atoms] AU
 BE       1     4        0.0000        0.0000        0.0000
 H        2     1        0.0000        0.0000       -2.5279
 H        3     1        0.0000        0.0000        2.5279
[GTO]
    1 0
s    5 1.00
     515.186161250000  0.583763544133E-02
      77.511037595000  0.432349671107E-01
      17.552481693000  0.188026956444E+00
       4.802894059600  0.469576904234E+00
       1.451621431600  0.440951660947E+00
s    1 1.00
       0.132816336200  0.100000000000E+01
s    1 1.00
       0.045837372213  0.100000000000E+01
p    3 1.00
       3.631691714500 -0.454619686657E-01
       0.716956943660 -0.264276543343E+00
       0.195419328600 -0.804884200890E+00
p    1 1.00
       0.060515465890  0.100000000000E+01
 
    2 0
s    3 1.00
      13.010701000000  0.334854848130E-01
       1.962257200000  0.234721870881E+00
       0.444537960000  0.813770285260E+00
s    1 1.00
       0.121949620000  0.100000000000E+01
p    1 1.00
       0.800000000000  0.100000000000E+01
 
    3 0
s    3 1.00
      13.010701000000  0.334854848130E-01
       1.962257200000  0.234721870881E+00
       0.444537960000  0.813770285260E+00
s    1 1.00
       0.121949620000  0.100000000000E+01
p    1 1.00
       0.800000000000  0.100000000000E+01
 
[MO]
Sym=     1a
Ene=   -0.469157E+01
Spin= Alpha
Occup= 1.999909
     1     0.993544
     2     0.027562
     3    -0.008759
     4    -0.000001
     5     0.000013
     6     0.000741
     7     0.000009
     8     0.000007
     9    -0.000243
    10    -0.000255
    11    -0.002644
    12    -0.000003
    13     0.000009
    14     0.003032
    15    -0.000425
    16    -0.002501
    17    -0.000012
    18    -0.000009
    19    -0.002995
Sym=     2a
Ene=   -0.482394E+00
Spin= Alpha
Occup= 1.970551
     1    -0.145783
     2     0.275174
     3     0.033037
     4     0.000007
     5     0.000012
     6     0.292113
     7    -0.000019
     8    -0.000004
     9    -0.092912
    10     0.433487
    11     0.214134
    12     0.000016
    13    -0.000006
    14     0.027034
    15    -0.026111
    16     0.041866
    17     0.000004
    18    -0.000006
    19    -0.008960
Sym=     3a
Ene=   -0.484406E+00
Spin= Alpha
Occup= 1.968106
     1     0.152988
     2    -0.292522
     3    -0.032013
     4    -0.000001
     5     0.000001
     6     0.277223
     7    -0.000022
     8    -0.000018
     9    -0.085666
    10     0.003340
    11    -0.052105
    12     0.000003
    13    -0.000011
    14    -0.010709
    15    -0.430802
    16    -0.219961
    17     0.000016
    18     0.000001
    19     0.028399
Sym=     4a
Ene=   -0.925466E-02
Spin= Alpha
Occup= 0.012433
     1     0.157171
     2    -0.784167
     3     0.209152
     4     0.000216
     5     0.000218
     6     1.140880
     7    -0.000362
     8    -0.000348
     9    -0.241813
    10    -0.193363
    11    -0.407558
    12    -0.000059
    13    -0.000003
    14    -0.009556
    15     0.898824
    16     0.559184
    17    -0.000149
    18    -0.000134
    19     0.137376
Sym=     5a
Ene=   -0.441774E-02
Spin= Alpha
Occup= 0.005695
     1     0.064066
     2    -0.620316
     3     0.293518
     4    -0.000430
     5    -0.000378
     6    -0.091349
     7    -0.000800
     8    -0.000719
     9     0.059799
    10    -0.891803
    11     1.294424
    12    -0.000027
    13    -0.000023
    14    -0.448481
    15     0.118487
    16    -0.173334
    17    -0.000013
    18     0.000056
    19     0.080873
Sym=     6a
Ene=   -0.270588E-03
Spin= Alpha
Occup= 0.000045
     1     0.018071
     2    -0.220150
     3     0.074813
     4    -0.000805
     5    -0.000633
     6    -1.556358
     7    -0.001706
     8    -0.001496
     9     0.522562
    10     0.003552
    11     1.525916
    12     0.000263
    13     0.000281
    14     0.973910
    15    -0.055536
    16    -1.328984
    17     0.000323
    18     0.000389
    19     0.784796
Sym=     7a
Ene=   -0.494260E-02
Spin= Alpha
Occup= 0.006733
     1    -0.000048
     2     0.000262
     3    -0.000179
     4    -0.429845
     5     0.645546
     6    -0.000099
     7     0.000799
     8    -0.000505
     9    -0.000298
    10    -0.000054
    11    -0.000118
    12     0.026109
    13    -0.039283
    14     0.000016
    15     0.000092
    16    -0.000045
    17     0.271198
    18    -0.405374
    19    -0.000110
Sym=     8a
Ene=   -0.134732E-01
Spin= Alpha
Occup= 0.019873
     1    -0.215398
     2     1.058272
     3    -0.157118
     4     0.000085
     5     0.000021
     6     0.800021
     7    -0.000195
     8    -0.000168
     9    -0.180848
    10    -0.958218
    11    -0.416190
    12    -0.000020
    13    -0.000031
    14     0.067147
    15    -0.149757
    16     0.220935
    17    -0.000029
    18     0.000026
    19    -0.000409
Sym=     9a
Ene=   -0.157823E-04
Spin= Alpha
Occup= 0.000003
     1     0.039656
     2    -0.002987
     3     1.203996
     4     0.311751
     5    -0.312812
     6     0.007943
     7     0.702265
     8    -0.730752
     9    -0.231745
    10     0.318802
    11    -1.090440
    12    -0.095842
    13     0.106343
    14    -0.030199
    15     0.213833
    16    -0.648351
    17    -0.127623
    18     0.144802
    19     0.014117
Sym=    10a
Ene=   -0.488293E-02
Spin= Alpha
Occup= 0.006904
     1    -0.000186
     2     0.001499
     3    -0.000996
     4     0.686515
     5     0.458738
     6    -0.000707
     7     0.006142
     8     0.004539
     9    -0.002067
    10     0.000206
    11    -0.001181
    12    -0.044489
    13    -0.029742
    14     0.000093
    15     0.001078
    16    -0.000716
    17    -0.348971
    18    -0.232009
    19    -0.000941
Sym=    11a
Ene=   -0.656770E-03
Spin= Alpha
Occup= 0.000514
     1     0.000005
     2    -0.000029
     3     0.000339
     4    -0.481759
     5     0.704829
     6    -0.000001
     7    -0.188979
     8     0.274484
     9     0.001490
    10    -0.000157
    11     0.001052
    12    -0.252504
    13     0.370366
    14    -0.000044
    15     0.000287
    16    -0.001497
    17    -0.430541
    18     0.631308
    19    -0.000067
Sym=    12a
Ene=   -0.930087E-05
Spin= Alpha
Occup= 0.000001
     1     0.002276
     2    -0.002289
     3     0.071359
     4     0.397266
     5     0.356042
     6    -0.121152
     7     0.814568
     8     0.750168
     9     1.410890
    10    -0.210299
    11     1.248165
    12    -0.090064
    13    -0.088442
    14     0.029169
    15     0.235604
    16    -1.343124
    17    -0.109772
    18    -0.111220
    19     0.033085
Sym=    13a
Ene=   -0.426042E-02
Spin= Alpha
Occup= 0.005155
     1     0.046930
     2    -0.512651
     3     0.210359
     4     0.001829
     5     0.001579
     6    -0.072593
     7     0.001019
     8     0.000943
     9    -0.067852
    10     0.243542
    11    -0.213438
    12    -0.000053
    13    -0.000070
    14    -0.051485
    15    -1.023903
    16     1.297773
    17    -0.000764
    18    -0.000712
    19     0.441231
Sym=    14a
Ene=   -0.197528E-02
Spin= Alpha
Occup= 0.001687
     1    -0.000009
     2     0.000041
     3     0.000070
     4    -0.025718
     5    -0.012967
     6     0.000100
     7     0.030182
     8     0.018907
     9     0.001020
    10    -0.000342
    11     0.000944
    12     0.771808
    13     0.473313
    14    -0.000036
    15     0.000391
    16    -0.001128
    17    -0.348368
    18    -0.213571
    19    -0.000052
Sym=    15a
Ene=   -0.224821E-03
Spin= Alpha
Occup= 0.000039
     1     0.133714
     2    -1.655985
     3     0.405647
     4     0.000362
     5     0.000312
     6     0.235347
     7     0.000536
     8     0.000550
     9    -0.085025
    10    -0.241110
    11     0.641779
    12    -0.000017
    13    -0.000085
    14     0.565706
    15    -0.223353
    16     1.076998
    17    -0.000041
    18    -0.000094
    19    -0.800962
Sym=    16a
Ene=   -0.805914E-03
Spin= Alpha
Occup= 0.000670
     1    -0.000024
     2    -0.000041
     3    -0.000424
     4    -0.628152
     5    -0.428416
     6     0.000085
     7    -0.197405
     8    -0.134207
     9    -0.004016
    10     0.000691
    11    -0.003358
    12    -0.367320
    13    -0.250759
    14     0.000209
    15    -0.000887
    16     0.004003
    17    -0.675041
    18    -0.460670
    19     0.000025
Sym=    17a
Ene=   -0.194480E-02
Spin= Alpha
Occup= 0.001680
     1    -0.000007
     2    -0.000012
     3     0.000116
     4     0.043109
     5    -0.065923
     6    -0.000005
     7    -0.013580
     8     0.022745
     9     0.000253
    10    -0.000079
    11     0.000216
    12    -0.469191
    13     0.766364
    14     0.000004
    15     0.000061
    16    -0.000318
    17     0.212178
    18    -0.346493
    19    -0.000019
Sym=    18a
Ene=   -0.164602E-04
Spin= Alpha
Occup= 0.000003
     1    -0.063014
     2     0.004593
     3    -1.913064
     4     0.182169
     5    -0.209124
     6    -0.013720
     7     0.413328
     8    -0.485683
     9     0.380535
    10    -0.508551
    11     1.744109
    12    -0.057193
    13     0.070029
    14     0.048335
    15    -0.337930
    16     1.019021
    17    -0.076445
    18     0.095031
    19    -0.022198
Sym=    19a
Ene=    0.000000E+00
Spin= Alpha
Occup= 0.000000
     1    -0.009856
     2     0.006674
     3    -0.301639
     4     0.182571
     5     0.162559
     6     0.257933
     7     0.374508
     8     0.341648
     9    -3.053081
    10     0.418306
    11    -2.587456
    12    -0.040816
    13    -0.039404
    14    -0.057236
    15    -0.536961
    16     3.003053
    17    -0.049694
    18    -0.049438
    19    -0.070108
