[Molden Format]
p30-20 set                                                                      
[Atoms] AU
 LI       1     3        0.0000        0.0000       -1.5080
 H        2     1        0.0000        0.0000        1.5080
[GTO]
    1 0
s    5 1.00
     266.277855160000  0.635428653465E-02
      40.069783447000  0.467348893628E-01
       9.055994438900  0.198387923560E+00
       2.450300905100  0.475753833454E+00
       0.722095718550  0.427014289368E+00
s    1 1.00
       0.052810884721  0.100000000000E+01
s    1 1.00
       0.020960948798  0.100000000000E+01
p    2 1.00
       1.450000000000  0.224912327222E+00
       0.300000000000  0.869730577039E+00
p    1 1.00
       0.082000000000  0.100000000000E+01
 
    2 0
s    3 1.00
      13.010701000000  0.334854848130E-01
       1.962257200000  0.234721870881E+00
       0.444537960000  0.813770285260E+00
s    1 1.00
       0.121949620000  0.100000000000E+01
p    1 1.00
       0.800000000000  0.100000000000E+01
 
[MO]
Sym=     1a
Ene=   -0.244604E+01
Spin= Alpha
Occup= 1.999628
     1     0.995564
     2     0.025154
     3    -0.011263
     4    -0.000005
     5    -0.000006
     6    -0.011918
     7     0.000010
     8     0.000010
     9     0.004717
    10     0.001414
    11    -0.003558
    12     0.000009
    13    -0.000004
    14    -0.004062
Sym=     2a
Ene=   -0.315489E+00
Spin= Alpha
Occup= 1.964306
     1     0.152105
     2    -0.303319
     3    -0.019908
     4    -0.000002
     5    -0.000003
     6    -0.086055
     7     0.000009
     8    -0.000003
     9    -0.127142
    10    -0.410231
    11    -0.367527
    12    -0.000018
    13    -0.000006
    14     0.015974
Sym=     3a
Ene=   -0.352165E-02
Spin= Alpha
Occup= 0.005341
     1     0.030228
     2    -0.837943
     3     0.511364
     4     0.000225
     5     0.001606
     6    -0.720458
     7     0.000091
     8     0.000699
     9     0.014173
    10    -0.293380
    11     0.876917
    12     0.000314
    13     0.002444
    14     0.461082
Sym=     4a
Ene=   -0.258590E-04
Spin= Alpha
Occup= 0.000009
     1    -0.150787
     2     0.443497
     3    -1.451387
     4     0.000429
     5     0.001309
     6     0.070223
     7    -0.001209
     8    -0.003979
     9    -1.096745
    10    -0.447354
    11     1.576105
    12     0.000451
    13     0.001238
    14     0.010407
Sym=     5a
Ene=   -0.913741E-03
Spin= Alpha
Occup= 0.001062
     1     0.000047
     2    -0.000465
     3     0.000224
     4     0.972773
     5    -0.117196
     6     0.000337
     7    -0.511346
     8     0.061543
     9    -0.000280
    10    -0.000205
    11     0.000416
    12    -0.603033
    13     0.072782
    14     0.000156
Sym=     6a
Ene=   -0.712869E-04
Spin= Alpha
Occup= 0.000023
     1     0.000020
     2     0.004805
     3     0.001219
     4    -0.220219
     5     0.326471
     6    -0.000439
     7     0.606244
     8    -0.897985
     9     0.004189
    10     0.003360
    11    -0.009266
    12    -0.284111
    13     0.420902
    14     0.001184
Sym=     7a
Ene=   -0.194708E-02
Spin= Alpha
Occup= 0.002764
     1    -0.000150
     2     0.001546
     3    -0.000215
     4     0.542815
     5    -0.229940
     6    -0.002123
     7     0.175902
     8    -0.074351
     9     0.001485
    10     0.000949
    11    -0.001780
    12     0.575693
    13    -0.243890
    14    -0.000219
Sym=     8a
Ene=   -0.810528E-03
Spin= Alpha
Occup= 0.000260
     1    -0.093921
     2     0.801198
     3    -0.274139
     4     0.005172
     5     0.039319
     6    -1.004929
     7    -0.002228
     8    -0.016773
     9     0.645244
    10     0.455507
    11    -0.796501
    12    -0.002407
    13    -0.019254
    14    -0.673004
Sym=     9a
Ene=   -0.913540E-03
Spin= Alpha
Occup= 0.001062
     1     0.004382
     2    -0.049481
     3     0.018012
     4     0.117189
     5     0.971897
     6     0.035673
     7    -0.061645
     8    -0.510828
     9    -0.028961
    10    -0.024626
    11     0.048757
    12    -0.072607
    13    -0.602762
    14     0.018465
Sym=    10a
Ene=   -0.717825E-04
Spin= Alpha
Occup= 0.000023
     1     0.000201
     2     0.002998
     3     0.002556
     4     0.326306
     5     0.220508
     6    -0.000447
     7    -0.897824
     8    -0.606167
     9     0.004385
    10     0.003009
    11    -0.008655
    12     0.421168
    13     0.284359
    14     0.000813
Sym=    11a
Ene=   -0.194830E-02
Spin= Alpha
Occup= 0.002769
     1     0.000531
     2    -0.005817
     3     0.000740
     4     0.229729
     5     0.542589
     6     0.007951
     7     0.074792
     8     0.176241
     9    -0.005593
    10    -0.003643
    11     0.006797
    12     0.243741
    13     0.575607
    14     0.000945
Sym=    12a
Ene=   -0.188217E-03
Spin= Alpha
Occup= 0.000057
     1     0.093211
     2    -1.962327
     3     0.714962
     4    -0.001376
     5    -0.009608
     6    -0.158909
     7     0.000479
     8     0.001077
     9    -0.521979
    10    -0.715862
    11     1.909298
    12     0.000638
    13     0.006269
    14    -0.687909
Sym=    13a
Ene=   -0.115658E-01
Spin= Alpha
Occup= 0.022697
     1    -0.189370
     2     0.915380
     3    -0.134947
     4    -0.000082
     5    -0.000611
     6     0.129138
     7     0.000006
     8     0.000183
     9     0.288704
    10    -1.016767
    11     0.115617
    12     0.000044
    13     0.000237
    14    -0.008573
Sym=    14a
Ene=   -0.259267E-05
Spin= Alpha
Occup= 0.000001
     1    -0.006931
     2    -1.159243
     3     1.008403
     4    -0.000049
     5    -0.000247
     6     0.249239
     7     0.000009
     8     0.000208
     9    -1.454966
    10     0.039429
    11     0.978056
    12     0.000040
    13    -0.000059
    14    -0.143767
