[Molden Format]
p30-5 set                                                                       
[Atoms] AU
 H        1     1       -2.0987       -0.2667        0.1150
 F        2     9       -1.9281       -1.4600       -4.2439
 F        3     9       -2.2189        2.9139       -3.7719
 S        4    16       -1.8083        3.5519        4.8453
 H        5     1        1.8628        0.1830        7.2507
 F        6     9        1.6410        0.9312       -3.0378
 SI       7    14        0.5627        0.3064        4.7968
 F        8     9       -1.1202       -2.2591        4.5724
 B        9     5       -0.7256        1.1007       -4.7419
 O       10     8        2.5187        0.2592        2.4393
 AL      11    13        2.6859       -1.1250       -0.4797
 SI      12    14       -2.6196       -2.8709       -0.9642
 H       13     1       -2.2821        3.4445        2.3435
 H       14     1        0.3843       -3.5066       -0.8027
 H       15     1       -0.0437        1.1710       -6.8777
 H       16     1        5.1899       -2.3737       -1.4432
[GTO]
    1 0
s    3 1.00
      13.010701000000  0.334854848130E-01
       1.962257200000  0.234721870881E+00
       0.444537960000  0.813770285260E+00
s    1 1.00
       0.121949620000  0.100000000000E+01
p    1 1.00
       0.800000000000  0.100000000000E+01

    2 0
s    5 1.00
    2894.832599000000 -0.534932117607E-02
     435.419391200000 -0.399677343716E-01
      98.843328866000 -0.179412617888E+00
      27.485198001000 -0.468324686869E+00
       8.540549817100 -0.447241605328E+00
s    1 1.00
       1.065457803800  0.100000000000E+01
s    1 1.00
       0.332473467480  0.100000000000E+01
p    3 1.00
      22.696633924000 -0.647821482412E-01
       4.987233925700 -0.340357853553E+00
       1.349161395400 -0.734858153660E+00
p    1 1.00
       0.348298819770  0.100000000000E+01
d    1 1.00
       1.400000000000  0.100000000000E+01

    3 0
s    5 1.00
    2894.832599000000 -0.534932117607E-02
     435.419391200000 -0.399677343716E-01
      98.843328866000 -0.179412617888E+00
      27.485198001000 -0.468324686869E+00
       8.540549817100 -0.447241605328E+00
s    1 1.00
       1.065457803800  0.100000000000E+01
s    1 1.00
       0.332473467480  0.100000000000E+01
p    3 1.00
      22.696633924000 -0.647821482412E-01
       4.987233925700 -0.340357853553E+00
       1.349161395400 -0.734858153660E+00
p    1 1.00
       0.348298819770  0.100000000000E+01
d    1 1.00
       1.400000000000  0.100000000000E+01

    4 0
s    5 1.00
    9184.930301000000 -0.547294661347E-02
    1381.510550300000 -0.409544021551E-01
     313.871475800000 -0.184758289562E+00
      88.053870623000 -0.475672806440E+00
      27.039914905000 -0.434951535842E+00
s    3 1.00
      45.648731303000 -0.919040458089E-01
       4.966452232600  0.556987772145E+00
       2.011624204700  0.511154682985E+00
s    1 1.00
       0.356610770130  0.100000000000E+01
s    1 1.00
       0.135072214770  0.100000000000E+01
p    5 1.00
     261.982334390000 -0.918305465927E-02
      61.306894736000 -0.659022265260E-01
      19.103729887000 -0.245877845187E+00
       6.656772037800 -0.482314710760E+00
       2.395963516100 -0.389563143514E+00
p    1 1.00
       0.617761616790  0.100000000000E+01
p    1 1.00
       0.169933768710  0.100000000000E+01
d    1 1.00
       0.550000000000  0.100000000000E+01

    5 0
s    3 1.00
      13.010701000000  0.334854848130E-01
       1.962257200000  0.234721870881E+00
       0.444537960000  0.813770285260E+00
s    1 1.00
       0.121949620000  0.100000000000E+01
p    1 1.00
       0.800000000000  0.100000000000E+01

    6 0
s    5 1.00
    2894.832599000000 -0.534932117607E-02
     435.419391200000 -0.399677343716E-01
      98.843328866000 -0.179412617888E+00
      27.485198001000 -0.468324686869E+00
       8.540549817100 -0.447241605328E+00
s    1 1.00
       1.065457803800  0.100000000000E+01
s    1 1.00
       0.332473467480  0.100000000000E+01
p    3 1.00
      22.696633924000 -0.647821482412E-01
       4.987233925700 -0.340357853553E+00
       1.349161395400 -0.734858153660E+00
p    1 1.00
       0.348298819770  0.100000000000E+01
d    1 1.00
       1.400000000000  0.100000000000E+01

    7 0
s    5 1.00
    6903.711868600000  0.558446588743E-02
    1038.434641900000  0.417422844355E-01
     235.875814800000  0.187528023742E+00
      66.069385169000  0.478678596587E+00
      20.247945761000  0.429256952162E+00
s    3 1.00
      34.353481730000  0.898348994648E-01
       3.637078819200 -0.545685958777E+00
       1.400204859900 -0.524810829267E+00
s    1 1.00
       0.204844148050  0.100000000000E+01
s    1 1.00
       0.077994095468  0.100000000000E+01
p    5 1.00
     179.839073730000  0.101334983789E-01
      41.907258846000  0.710290410957E-01
      12.955294367000  0.255839142169E+00
       4.438326739300  0.481498047149E+00
       1.546224790400  0.385211960064E+00
p    1 1.00
       0.356076123020  0.100000000000E+01
p    1 1.00
       0.100085137620  0.100000000000E+01
d    1 1.00
       0.350000000000  0.100000000000E+01

    8 0
s    5 1.00
    2894.832599000000 -0.534932117607E-02
     435.419391200000 -0.399677343716E-01
      98.843328866000 -0.179412617888E+00
      27.485198001000 -0.468324686869E+00
       8.540549817100 -0.447241605328E+00
s    1 1.00
       1.065457803800  0.100000000000E+01
s    1 1.00
       0.332473467480  0.100000000000E+01
p    3 1.00
      22.696633924000 -0.647821482412E-01
       4.987233925700 -0.340357853553E+00
       1.349161395400 -0.734858153660E+00
p    1 1.00
       0.348298819770  0.100000000000E+01
d    1 1.00
       1.400000000000  0.100000000000E+01

    9 0
s    5 1.00
     839.318300860000 -0.562888359825E-02
     126.264648430000 -0.418327946095E-01
      28.620600763000 -0.184174881258E+00
       7.879372271000 -0.468396550281E+00
       2.408885717200 -0.444579308833E+00
s    1 1.00
       0.251051090360  0.100000000000E+01
s    1 1.00
       0.083648866069  0.100000000000E+01
p    3 1.00
       6.033222361900 -0.540325003228E-01
       1.249915786600 -0.301940343932E+00
       0.338716763500 -0.771707916582E+00
p    1 1.00
       0.096415632351  0.100000000000E+01
d    1 1.00
       0.500000000000  0.100000000000E+01

   10 0
s    5 1.00
    2266.176778500000 -0.538935039217E-02
     340.870101910000 -0.402347213890E-01
      77.363135167000 -0.180081842055E+00
      21.479644940000 -0.468288576577E+00
       6.658943312400 -0.446926171602E+00
s    1 1.00
       0.809759756680  0.100000000000E+01
s    1 1.00
       0.255307722340  0.100000000000E+01
p    3 1.00
      17.721504317000  0.626302487632E-01
       3.863550544000  0.333311384824E+00
       1.048092088300  0.741486383081E+00
p    1 1.00
       0.276415444110  0.100000000000E+01
d    1 1.00
       1.200000000000  0.100000000000E+01

   11 0
s    5 1.00
    5887.572703000000  0.565197896170E-02
     885.612259960000  0.422182534268E-01
     201.136048990000  0.189187196726E+00
      56.284974674000  0.480435911881E+00
      17.229551243000  0.425872684294E+00
s    3 1.00
      29.340249922000  0.885686032394E-01
       3.043963042000 -0.543157066723E+00
       1.128553951800 -0.529385510294E+00
s    1 1.00
       0.142341751600  0.100000000000E+01
s    1 1.00
       0.054400192313  0.100000000000E+01
p    5 1.00
     145.119188090000  0.107263778593E-01
      33.717894833000  0.741036235460E-01
      10.369863083000  0.261296213060E+00
       3.513561603600  0.480201235327E+00
       1.198005027300  0.384382240624E+00
p    1 1.00
       0.265830059130  0.100000000000E+01
p    1 1.00
       0.071003361994  0.100000000000E+01
d    1 1.00
       0.300000000000  0.100000000000E+01

   12 0
s    5 1.00
    6903.711868600000  0.558446588743E-02
    1038.434641900000  0.417422844355E-01
     235.875814800000  0.187528023742E+00
      66.069385169000  0.478678596587E+00
      20.247945761000  0.429256952162E+00
s    3 1.00
      34.353481730000  0.898348994648E-01
       3.637078819200 -0.545685958777E+00
       1.400204859900 -0.524810829267E+00
s    1 1.00
       0.204844148050  0.100000000000E+01
s    1 1.00
       0.077994095468  0.100000000000E+01
p    5 1.00
     179.839073730000  0.101334983789E-01
      41.907258846000  0.710290410957E-01
      12.955294367000  0.255839142169E+00
       4.438326739300  0.481498047149E+00
       1.546224790400  0.385211960064E+00
p    1 1.00
       0.356076123020  0.100000000000E+01
p    1 1.00
       0.100085137620  0.100000000000E+01
d    1 1.00
       0.350000000000  0.100000000000E+01

   13 0
s    3 1.00
      13.010701000000  0.334854848130E-01
       1.962257200000  0.234721870881E+00
       0.444537960000  0.813770285260E+00
s    1 1.00
       0.121949620000  0.100000000000E+01
p    1 1.00
       0.800000000000  0.100000000000E+01

   14 0
s    3 1.00
      13.010701000000  0.334854848130E-01
       1.962257200000  0.234721870881E+00
       0.444537960000  0.813770285260E+00
s    1 1.00
       0.121949620000  0.100000000000E+01
p    1 1.00
       0.800000000000  0.100000000000E+01

   15 0
s    3 1.00
      13.010701000000  0.334854848130E-01
       1.962257200000  0.234721870881E+00
       0.444537960000  0.813770285260E+00
s    1 1.00
       0.121949620000  0.100000000000E+01
p    1 1.00
       0.800000000000  0.100000000000E+01

   16 0
s    3 1.00
      13.010701000000  0.334854848130E-01
       1.962257200000  0.234721870881E+00
       0.444537960000  0.813770285260E+00
s    1 1.00
       0.121949620000  0.100000000000E+01
p    1 1.00
       0.800000000000  0.100000000000E+01

[MO]
Sym=     1a
Ene=   -0.919065E+02
Spin= Alpha
Occup= 1.999999
     1    -0.000042
     2     0.000362
     3    -0.000000
     4    -0.000001
     5     0.000037
     6     0.000000
     7     0.000003
     8     0.000012
     9    -0.000002
    10    -0.000005
    11    -0.000003
    12    -0.000010
    13    -0.000021
    14    -0.000017
    15     0.000002
    16    -0.000002
    17    -0.000006
    18    -0.000003
    19     0.000001
    20     0.000003
    21    -0.000000
    22     0.000008
    23    -0.000042
    24    -0.000001
    25     0.000005
    26     0.000004
    27    -0.000015
    28     0.000027
    29     0.000018
    30     0.000002
    31     0.000001
    32     0.000002
    33     0.000003
    34     0.000002
    35    -0.000001
    36     0.993023
    37    -0.027523
    38     0.027552
    39     0.002664
    40    -0.000012
    41     0.000029
    42     0.000032
    43    -0.000085
    44     0.000173
    45     0.000210
    46     0.000384
    47    -0.000624
    48    -0.000305
    49    -0.010088
    50    -0.010054
    51    -0.010325
    52    -0.000040
    53    -0.000056
    54    -0.000001
    55     0.000033
    56     0.000236
    57    -0.000031
    58     0.000030
    59    -0.000017
    60    -0.000003
    61     0.000012
    62    -0.000082
    63     0.000003
    64    -0.000003
    65    -0.000006
    66     0.000022
    67    -0.000013
    68    -0.000022
    69     0.000011
    70     0.000015
    71     0.000014
    72    -0.000000
    73     0.000001
    74    -0.000002
    75    -0.032776
    76     0.000792
    77     0.000943
    78    -0.001786
    79     0.000017
    80    -0.000021
    81     0.000001
    82    -0.000017
    83     0.000006
    84     0.000000
    85     0.000421
    86    -0.000506
    87     0.000210
    88    -0.000249
    89    -0.000206
    90    -0.000278
    91    -0.000097
    92     0.000045
    93     0.000007
    94     0.000008
    95    -0.000067
    96     0.000426
    97    -0.000010
    98    -0.000002
    99     0.000006
   100    -0.000044
   101     0.000109
   102     0.000015
   103    -0.000061
   104    -0.000038
   105    -0.000044
   106     0.000001
   107    -0.000002
   108     0.000001
   109    -0.000003
   110     0.000017
   111    -0.000050
   112     0.000007
   113    -0.000007
   114    -0.000014
   115    -0.000028
   116     0.000019
   117    -0.000028
   118     0.000018
   119     0.000019
   120    -0.000005
   121    -0.000005
   122     0.000002
   123     0.000003
   124     0.000003
   125    -0.000044
   126     0.000308
   127    -0.000006
   128    -0.000012
   129    -0.000005
   130    -0.000106
   131     0.000130
   132     0.000110
   133    -0.000008
   134    -0.000027
   135    -0.000025
   136    -0.000004
   137    -0.000006
   138     0.000013
   139     0.000046
   140     0.000001
   141    -0.000082
   142     0.000345
   143    -0.000003
   144     0.000002
   145    -0.000003
   146     0.000037
   147    -0.000011
   148     0.000026
   149    -0.000265
   150     0.000112
   151     0.000121
   152    -0.000028
   153    -0.000025
   154     0.000024
   155     0.000008
   156    -0.000002
   157     0.000010
   158     0.033349
   159    -0.000860
   160    -0.000996
   161    -0.000112
   162     0.000001
   163     0.000002
   164     0.000002
   165    -0.000003
   166    -0.000018
   167    -0.000029
   168    -0.000046
   169    -0.000100
   170     0.000030
   171     0.000328
   172     0.000308
   173     0.000344
   174    -0.000010
   175     0.000004
   176     0.000001
   177     0.000253
   178    -0.000651
   179     0.000052
   180     0.000037
   181     0.000330
   182    -0.000006
   183    -0.000046
   184     0.000011
   185    -0.000004
   186    -0.000008
   187     0.000007
   188    -0.000005
   189     0.000000
   190    -0.000002
   191     0.000004
   192    -0.000002
   193     0.000106
   194    -0.000004
   195     0.000003
   196     0.000003
Sym=     2a
Ene=   -0.689158E+02
Spin= Alpha
Occup= 1.999998
     1     0.000112
     2    -0.000280
     3    -0.000007
     4    -0.000117
     5    -0.000012
     6    -0.000009
     7    -0.000111
     8     0.000178
     9     0.000006
    10     0.000015
    11     0.000018
    12    -0.000046
    13    -0.000027
    14     0.000282
    15    -0.000061
    16    -0.000024
    17     0.000106
    18     0.000021
    19    -0.000036
    20    -0.000073
    21     0.000004
    22    -0.000018
    23     0.000151
    24     0.000004
    25     0.000014
    26    -0.000002
    27    -0.000008
    28     0.000020
    29     0.000039
    30    -0.000016
    31    -0.000014
    32    -0.000012
    33     0.000006
    34     0.000005
    35    -0.000004
    36     0.046731
    37    -0.001339
    38     0.001504
    39     0.000384
    40    -0.000002
    41     0.000006
    42     0.000018
    43    -0.000039
    44     0.000067
    45     0.000021
    46     0.000011
    47    -0.000076
    48    -0.000053
    49    -0.000604
    50    -0.000695
    51    -0.000511
    52     0.000192
    53    -0.000005
    54    -0.000003
    55    -0.000183
    56     0.000245
    57     0.000035
    58    -0.000001
    59     0.000069
    60    -0.000005
    61     0.000015
    62    -0.000076
    63     0.000014
    64     0.000017
    65    -0.000016
    66     0.000028
    67     0.000044
    68    -0.000032
    69     0.000022
    70     0.000027
    71     0.000024
    72    -0.000003
    73    -0.000003
    74     0.000003
    75     0.705295
    76    -0.018486
    77    -0.020786
    78    -0.000285
    79    -0.000010
    80    -0.000003
    81     0.000020
    82    -0.000008
    83    -0.000060
    84    -0.000243
    85     0.000130
    86    -0.000008
    87     0.000316
    88     0.007645
    89     0.007655
    90     0.007651
    91    -0.000009
    92    -0.000052
    93     0.000017
    94     0.000020
    95    -0.000053
    96     0.000023
    97     0.000022
    98     0.000043
    99     0.000043
   100    -0.000118
   101    -0.000119
   102     0.000099
   103    -0.000017
   104    -0.000005
   105    -0.000052
   106     0.000013
   107    -0.000003
   108    -0.000001
   109     0.000007
   110     0.000155
   111    -0.000232
   112    -0.000004
   113    -0.000017
   114     0.000004
   115     0.000101
   116     0.000052
   117    -0.000449
   118     0.000001
   119    -0.000014
   120    -0.000043
   121    -0.000015
   122     0.000049
   123     0.000085
   124     0.000014
   125    -0.000075
   126    -0.000138
   127    -0.000008
   128    -0.000019
   129    -0.000039
   130     0.000252
   131     0.000068
   132    -0.000194
   133     0.000016
   134    -0.000008
   135     0.000018
   136    -0.000010
   137    -0.000035
   138     0.000001
   139    -0.004815
   140     0.000106
   141    -0.000128
   142     0.000566
   143     0.000001
   144     0.000009
   145    -0.000000
   146     0.000052
   147    -0.000057
   148    -0.000027
   149    -0.000499
   150     0.000111
   151     0.000237
   152    -0.000097
   153    -0.000054
   154     0.000044
   155    -0.000054
   156    -0.000090
   157    -0.000034
   158    -0.699594
   159     0.018262
   160     0.020590
   161    -0.000068
   162     0.000006
   163     0.000019
   164     0.000006
   165    -0.000181
   166    -0.000183
   167     0.000022
   168     0.000334
   169     0.000291
   170     0.000114
   171    -0.007463
   172    -0.007433
   173    -0.007476
   174    -0.000008
   175     0.000034
   176     0.000047
   177     0.000040
   178    -0.000008
   179     0.000053
   180    -0.000072
   181     0.000011
   182     0.000154
   183    -0.000523
   184    -0.000181
   185     0.000057
   186    -0.000042
   187     0.000009
   188    -0.000254
   189     0.000007
   190     0.000016
   191     0.000013
   192    -0.000027
   193     0.000216
   194     0.000008
   195     0.000001
   196     0.000006
Sym=     3a
Ene=   -0.641646E+02
Spin= Alpha
Occup= 1.999998
     1     0.000191
     2    -0.000255
     3     0.000091
     4    -0.000090
     5    -0.000094
     6    -0.000002
     7    -0.000113
     8     0.000200
     9     0.000045
    10     0.000002
    11     0.000053
    12     0.000091
    13    -0.000058
    14     0.000330
    15    -0.000066
    16    -0.000054
    17     0.000052
    18     0.000024
    19     0.000000
    20    -0.000065
    21    -0.000005
    22     0.000026
    23    -0.000152
    24     0.000003
    25     0.000027
    26    -0.000024
    27    -0.000007
    28     0.000097
    29    -0.000074
    30     0.000025
    31     0.000026
    32     0.000026
    33     0.000005
    34    -0.000003
    35    -0.000002
    36     0.000563
    37     0.000010
    38    -0.000163
    39     0.000142
    40     0.000006
    41    -0.000031
    42    -0.000016
    43     0.000024
    44    -0.000034
    45    -0.000020
    46     0.000039
    47    -0.000015
    48     0.000008
    49     0.000063
    50     0.000121
    51    -0.000012
    52    -0.000136
    53     0.000014
    54    -0.000000
    55     0.000149
    56     0.000068
    57    -0.000006
    58     0.000009
    59    -0.000059
    60     0.000034
    61    -0.000034
    62     0.000525
    63     0.000043
    64    -0.000032
    65     0.000022
    66     0.000034
    67     0.000072
    68    -0.000162
    69    -0.000067
    70    -0.000106
    71    -0.000135
    72     0.000020
    73    -0.000042
    74     0.000091
    75    -0.514583
    76     0.013438
    77     0.015107
    78    -0.000865
    79     0.000026
    80    -0.000007
    81     0.000014
    82    -0.000022
    83     0.000043
    84     0.000138
    85    -0.000339
    86    -0.000142
    87    -0.000177
    88    -0.005603
    89    -0.005484
    90    -0.005389
    91    -0.000026
    92     0.000063
    93     0.000084
    94    -0.000018
    95     0.000080
    96    -0.000208
    97     0.000018
    98    -0.000007
    99     0.000001
   100     0.000143
   101     0.000157
   102     0.000066
   103     0.000043
   104     0.000044
   105     0.000046
   106    -0.000011
   107    -0.000015
   108     0.000004
   109     0.000000
   110    -0.000054
   111    -0.000189
   112     0.000042
   113    -0.000047
   114     0.000027
   115    -0.000188
   116    -0.000220
   117     0.000162
   118    -0.000047
   119    -0.000008
   120     0.000046
   121    -0.000055
   122     0.000057
   123     0.000020
   124     0.000023
   125    -0.000074
   126     0.000717
   127    -0.000033
   128     0.000047
   129     0.000050
   130    -0.000101
   131    -0.000001
   132     0.000400
   133    -0.000094
   134    -0.000054
   135    -0.000094
   136    -0.000011
   137     0.000038
   138    -0.000006
   139     0.671256
   140    -0.017887
   141    -0.027898
   142     0.004484
   143    -0.000046
   144    -0.000001
   145     0.000009
   146     0.000183
   147     0.000017
   148    -0.000053
   149    -0.000477
   150     0.000416
   151     0.000253
   152     0.008848
   153     0.008899
   154     0.008825
   155     0.000007
   156     0.000071
   157     0.000036
   158    -0.523349
   159     0.013683
   160     0.015632
   161    -0.001380
   162    -0.000028
   163    -0.000007
   164    -0.000035
   165     0.000048
   166    -0.000042
   167     0.000091
   168    -0.000321
   169     0.000131
   170     0.000071
   171    -0.005463
   172    -0.005529
   173    -0.005538
   174     0.000090
   175     0.000037
   176     0.000062
   177     0.000021
   178    -0.000256
   179    -0.000064
   180     0.000059
   181    -0.000004
   182     0.000095
   183     0.000848
   184    -0.000288
   185    -0.000108
   186    -0.000033
   187     0.000018
   188     0.000117
   189     0.000011
   190     0.000042
   191    -0.000000
   192    -0.000052
   193     0.000842
   194     0.000137
   195    -0.000071
   196    -0.000068
Sym=     4a
Ene=   -0.632434E+02
Spin= Alpha
Occup= 1.999998
     1     0.000011
     2     0.000277
     3     0.000151
     4     0.000098
     5     0.000064
     6     0.000013
     7     0.000033
     8     0.000045
     9     0.000039
    10    -0.000013
    11     0.000032
    12     0.000159
    13     0.000020
    14    -0.000043
    15     0.000008
    16    -0.000034
    17    -0.000116
    18    -0.000009
    19     0.000053
    20     0.000040
    21    -0.000004
    22     0.000023
    23    -0.000136
    24    -0.000004
    25     0.000006
    26    -0.000023
    27     0.000013
    28     0.000041
    29    -0.000123
    30     0.000024
    31     0.000023
    32     0.000015
    33    -0.000001
    34    -0.000012
    35     0.000005
    36    -0.000270
    37    -0.000020
    38     0.000188
    39     0.000009
    40    -0.000000
    41     0.000022
    42     0.000008
    43    -0.000004
    44    -0.000010
    45    -0.000028
    46    -0.000041
    47     0.000155
    48     0.000100
    49    -0.000038
    50    -0.000141
    51    -0.000006
    52     0.000135
    53     0.000020
    54    -0.000030
    55    -0.000092
    56     0.000579
    57     0.000056
    58     0.000011
    59     0.000031
    60     0.000040
    61    -0.000052
    62     0.000649
    63     0.000028
    64    -0.000058
    65     0.000021
    66    -0.000026
    67     0.000033
    68    -0.000215
    69    -0.000090
    70    -0.000140
    71    -0.000169
    72     0.000035
    73    -0.000040
    74     0.000091
    75     0.475153
    76    -0.012470
    77    -0.014311
    78    -0.000318
    79     0.000006
    80    -0.000003
    81     0.000030
    82     0.000034
    83    -0.000015
    84    -0.000043
    85    -0.000501
    86    -0.000141
    87    -0.000360
    88     0.005062
    89     0.005251
    90     0.005330
    91    -0.000030
    92    -0.000071
    93     0.000108
    94     0.000015
    95    -0.000048
    96    -0.000071
    97     0.000021
    98     0.000022
    99    -0.000044
   100    -0.000080
   101    -0.000121
   102    -0.000093
   103    -0.000055
   104    -0.000043
   105    -0.000028
   106     0.000020
   107     0.000005
   108     0.000015
   109    -0.000013
   110    -0.000224
   111    -0.000143
   112     0.000043
   113    -0.000019
   114     0.000010
   115    -0.000257
   116    -0.000278
   117     0.000293
   118    -0.000054
   119     0.000016
   120     0.000133
   121    -0.000029
   122    -0.000012
   123    -0.000102
   124     0.000048
   125    -0.000168
   126     0.000424
   127    -0.000031
   128     0.000042
   129     0.000020
   130     0.000309
   131     0.000072
   132     0.000125
   133    -0.000087
   134    -0.000079
   135    -0.000079
   136    -0.000025
   137    -0.000021
   138    -0.000023
   139     0.734095
   140    -0.019617
   141    -0.030844
   142     0.005156
   143    -0.000016
   144    -0.000006
   145    -0.000008
   146     0.000004
   147    -0.000004
   148    -0.000014
   149    -0.000568
   150     0.000432
   151     0.000355
   152     0.009820
   153     0.009714
   154     0.009846
   155    -0.000028
   156    -0.000087
   157     0.000005
   158     0.473955
   159    -0.012412
   160    -0.013816
   161    -0.001288
   162    -0.000035
   163    -0.000016
   164    -0.000031
   165     0.000286
   166     0.000157
   167     0.000022
   168    -0.000806
   169    -0.000199
   170    -0.000100
   171     0.005147
   172     0.005064
   173     0.005104
   174     0.000106
   175     0.000008
   176     0.000012
   177     0.000064
   178    -0.000264
   179    -0.000003
   180    -0.000007
   181     0.000026
   182    -0.000130
   183     0.001344
   184    -0.000028
   185    -0.000210
   186    -0.000038
   187     0.000008
   188     0.000161
   189     0.000013
   190     0.000023
   191    -0.000028
   192    -0.000027
   193     0.000839
   194     0.000172
   195    -0.000086
   196    -0.000057
Sym=     5a
Ene=   -0.263845E+02
Spin= Alpha
Occup= 1.999982
     1    -0.000041
     2     0.000008
     3     0.000037
     4     0.000035
     5     0.000044
     6    -0.495812
     7     0.020277
     8    -0.004263
     9    -0.000044
    10     0.000007
    11    -0.000064
    12    -0.000129
    13    -0.000016
    14    -0.000483
    15    -0.002897
    16    -0.002940
    17    -0.002975
    18    -0.000039
    19     0.000026
    20     0.000060
    21     0.494938
    22    -0.021045
    23     0.005147
    24     0.000163
    25    -0.000442
    26     0.000049
    27     0.000617
    28    -0.000454
    29    -0.000114
    30     0.002869
    31     0.002846
    32     0.002808
    33    -0.000055
    34    -0.000035
    35     0.000027
    36     0.000000
    37    -0.000012
    38    -0.000137
    39     0.000610
    40    -0.000003
    41     0.000033
    42     0.000004
    43    -0.000027
    44     0.000123
    45     0.000019
    46     0.000132
    47    -0.000379
    48    -0.000060
    49    -0.000086
    50     0.000006
    51    -0.000077
    52    -0.000013
    53    -0.000018
    54     0.000030
    55    -0.000115
    56     0.000045
    57    -0.000028
    58    -0.000056
    59     0.000005
    60     0.493665
    61    -0.020391
    62     0.005606
    63    -0.000351
    64    -0.000130
    65     0.000016
    66    -0.000303
    67    -0.000290
    68     0.000271
    69     0.002859
    70     0.002820
    71     0.002823
    72    -0.000031
    73     0.000067
    74    -0.000058
    75     0.000022
    76     0.000122
    77     0.000114
    78    -0.002208
    79     0.000089
    80     0.000139
    81     0.000027
    82     0.000031
    83     0.000185
    84    -0.000017
    85     0.000588
    86     0.000543
    87     0.000905
    88    -0.000011
    89    -0.000187
    90     0.000009
    91    -0.000171
    92     0.000093
    93    -0.000101
    94     0.490417
    95    -0.020301
    96     0.005370
    97     0.000149
    98     0.000240
    99    -0.000047
   100     0.000448
   101     0.000793
   102     0.000052
   103     0.002841
   104     0.002908
   105     0.002786
   106     0.000090
   107     0.000005
   108     0.000006
   109     0.000132
   110    -0.000292
   111    -0.001289
   112     0.000120
   113    -0.000040
   114     0.000165
   115     0.000371
   116    -0.000373
   117    -0.002014
   118     0.000009
   119    -0.000013
   120    -0.000056
   121    -0.000113
   122    -0.000136
   123     0.000071
   124     0.024327
   125    -0.001194
   126     0.001117
   127     0.000083
   128     0.000031
   129     0.000013
   130    -0.000301
   131    -0.000106
   132     0.000066
   133     0.000047
   134     0.000043
   135     0.000044
   136     0.000013
   137    -0.000020
   138    -0.000003
   139     0.000009
   140     0.000059
   141    -0.000432
   142     0.000540
   143     0.000005
   144    -0.000055
   145     0.000070
   146     0.000233
   147    -0.000236
   148     0.000085
   149    -0.000482
   150     0.000146
   151     0.000545
   152    -0.000099
   153    -0.000072
   154    -0.000196
   155     0.000140
   156    -0.000136
   157     0.000150
   158    -0.000006
   159    -0.000053
   160    -0.000553
   161     0.001559
   162     0.000029
   163     0.000032
   164    -0.000060
   165    -0.000071
   166    -0.000061
   167    -0.000024
   168     0.000556
   169     0.000650
   170    -0.000556
   171     0.000005
   172     0.000126
   173     0.000170
   174     0.000116
   175    -0.000114
   176    -0.000212
   177    -0.000103
   178     0.000298
   179     0.000038
   180    -0.000016
   181     0.000015
   182    -0.000027
   183    -0.000507
   184    -0.000005
   185    -0.000013
   186     0.000024
   187     0.000046
   188    -0.001052
   189    -0.000016
   190     0.000097
   191     0.000040
   192    -0.000084
   193     0.000324
   194    -0.000010
   195     0.000013
   196    -0.000028
Sym=     6a
Ene=   -0.263834E+02
Spin= Alpha
Occup= 1.999982
     1    -0.000035
     2     0.000302
     3     0.000032
     4     0.000078
     5    -0.000281
     6     0.493501
     7    -0.020551
     8     0.006299
     9     0.000057
    10     0.000158
    11     0.000091
    12     0.000381
    13     0.000862
    14     0.000464
    15     0.002700
    16     0.002842
    17     0.002741
    18     0.000089
    19    -0.000012
    20    -0.000034
    21     0.487477
    22    -0.020935
    23     0.005946
    24     0.000099
    25    -0.000576
    26     0.000135
    27     0.000744
    28    -0.000655
    29    -0.000047
    30     0.002721
    31     0.002759
    32     0.002665
    33    -0.000088
    34    -0.000023
    35     0.000034
    36    -0.000000
    37     0.000025
    38     0.000199
    39    -0.001002
    40    -0.000003
    41    -0.000031
    42    -0.000005
    43     0.000005
    44    -0.000120
    45    -0.000071
    46    -0.000062
    47     0.000330
    48     0.000295
    49     0.000142
    50     0.000060
    51     0.000077
    52     0.000031
    53    -0.000005
    54    -0.000018
    55     0.000107
    56    -0.000252
    57     0.000023
    58     0.000051
    59    -0.000012
    60     0.499063
    61    -0.020813
    62     0.006395
    63    -0.000479
    64    -0.000189
    65    -0.000025
    66    -0.000506
    67    -0.000191
    68     0.000104
    69     0.002858
    70     0.002757
    71     0.002784
    72    -0.000027
    73     0.000080
    74    -0.000033
    75    -0.000024
    76    -0.000129
    77     0.000166
    78     0.001336
    79    -0.000083
    80    -0.000139
    81    -0.000016
    82    -0.000098
    83    -0.000198
    84    -0.000093
    85    -0.000382
    86    -0.000403
    87    -0.000183
    88     0.000093
    89     0.000233
    90    -0.000081
    91     0.000146
    92    -0.000089
    93     0.000070
    94    -0.494511
    95     0.020453
    96    -0.005244
    97    -0.000161
    98    -0.000245
    99     0.000071
   100    -0.000487
   101    -0.000790
   102    -0.000008
   103    -0.002874
   104    -0.002946
   105    -0.002829
   106    -0.000099
   107    -0.000011
   108    -0.000012
   109     0.000366
   110    -0.000701
   111    -0.003549
   112     0.000036
   113    -0.000012
   114     0.000204
   115     0.000369
   116     0.000644
   117    -0.002427
   118    -0.000118
   119    -0.000005
   120    -0.000215
   121    -0.000049
   122    -0.000053
   123     0.000106
   124    -0.028418
   125     0.001347
   126    -0.001029
   127    -0.000068
   128    -0.000035
   129     0.000042
   130     0.000255
   131     0.000018
   132    -0.000081
   133    -0.000100
   134    -0.000079
   135    -0.000098
   136    -0.000016
   137     0.000023
   138     0.000001
   139     0.000005
   140     0.000015
   141    -0.000349
   142     0.000562
   143     0.000017
   144    -0.000057
   145     0.000079
   146     0.000109
   147    -0.000141
   148     0.000183
   149    -0.000413
   150     0.000141
   151    -0.000131
   152     0.000033
   153    -0.000050
   154    -0.000053
   155     0.000060
   156    -0.000049
   157     0.000172
   158     0.000004
   159     0.000033
   160    -0.000054
   161     0.000217
   162    -0.000015
   163    -0.000012
   164     0.000062
   165     0.000002
   166    -0.000074
   167     0.000043
   168    -0.000022
   169     0.000168
   170    -0.000133
   171    -0.000057
   172    -0.000004
   173    -0.000227
   174    -0.000015
   175     0.000023
   176     0.000025
   177     0.000006
   178     0.000352
   179     0.000005
   180     0.000016
   181     0.000034
   182    -0.000006
   183    -0.000139
   184    -0.000009
   185     0.000026
   186    -0.000089
   187     0.000132
   188    -0.000477
   189    -0.000033
   190    -0.000031
   191     0.000183
   192    -0.000078
   193     0.000122
   194     0.000012
   195     0.000011
   196    -0.000006
Sym=     7a
Ene=   -0.263873E+02
Spin= Alpha
Occup= 1.999981
     1    -0.000099
     2     0.001365
     3     0.000016
     4    -0.000028
     5    -0.000058
     6     0.490827
     7    -0.020310
     8     0.005682
     9     0.000015
    10     0.000124
    11     0.000095
    12     0.000233
    13     0.000643
    14     0.000575
    15     0.002726
    16     0.002862
    17     0.002780
    18     0.000062
    19     0.000000
    20    -0.000042
    21     0.503117
    22    -0.021426
    23     0.005106
    24     0.000005
    25    -0.000552
    26    -0.000008
    27     0.000532
    28    -0.000411
    29    -0.000277
    30     0.002904
    31     0.002932
    32     0.002881
    33    -0.000046
    34    -0.000019
    35     0.000033
    36    -0.000000
    37    -0.000026
    38    -0.000245
    39     0.001348
    40    -0.000002
    41     0.000034
    42     0.000009
    43    -0.000021
    44     0.000128
    45     0.000049
    46     0.000154
    47    -0.000513
    48    -0.000333
    49    -0.000151
    50    -0.000045
    51    -0.000085
    52    -0.000023
    53    -0.000018
    54     0.000044
    55    -0.000124
    56    -0.000143
    57    -0.000013
    58    -0.000047
    59     0.000013
    60    -0.495301
    61     0.020184
    62    -0.004253
    63     0.000234
    64     0.000193
    65    -0.000003
    66    -0.000195
    67     0.000334
    68    -0.000416
    69    -0.002928
    70    -0.002973
    71    -0.002993
    72     0.000020
    73    -0.000036
    74     0.000036
    75     0.000021
    76     0.000109
    77     0.000254
    78    -0.002798
    79     0.000097
    80     0.000132
    81     0.000029
    82    -0.000023
    83     0.000203
    84    -0.000100
    85     0.000786
    86     0.000364
    87     0.001432
    88    -0.000052
    89    -0.000161
    90     0.000079
    91    -0.000124
    92     0.000129
    93    -0.000107
    94     0.485952
    95    -0.020126
    96     0.005483
    97     0.000145
    98     0.000245
    99    -0.000042
   100     0.000407
   101     0.000798
   102    -0.000032
   103     0.002790
   104     0.002858
   105     0.002737
   106     0.000082
   107     0.000001
   108     0.000007
   109     0.000266
   110    -0.000325
   111    -0.001556
   112    -0.000202
   113    -0.000009
   114    -0.000173
   115     0.000889
   116     0.000161
   117    -0.001572
   118    -0.000087
   119     0.000081
   120    -0.000039
   121    -0.000152
   122    -0.000009
   123     0.000103
   124     0.009142
   125    -0.000481
   126     0.000662
   127     0.000040
   128     0.000038
   129    -0.000085
   130    -0.000257
   131    -0.000031
   132     0.000330
   133     0.000035
   134     0.000014
   135     0.000020
   136     0.000019
   137    -0.000026
   138    -0.000001
   139    -0.000009
   140    -0.000056
   141    -0.000368
   142     0.001901
   143    -0.000028
   144     0.000056
   145    -0.000054
   146    -0.000020
   147     0.000147
   148    -0.000257
   149    -0.001451
   150     0.000546
   151     0.000257
   152     0.000037
   153    -0.000017
   154     0.000247
   155    -0.000041
   156     0.000188
   157    -0.000151
   158     0.000002
   159     0.000016
   160     0.000194
   161    -0.001554
   162    -0.000030
   163    -0.000015
   164     0.000049
   165     0.000083
   166    -0.000082
   167     0.000052
   168    -0.000708
   169    -0.000557
   170    -0.000002
   171    -0.000070
   172    -0.000093
   173    -0.000130
   174    -0.000127
   175     0.000063
   176     0.000071
   177    -0.000086
   178    -0.000242
   179     0.000013
   180     0.000013
   181    -0.000013
   182     0.000023
   183     0.000045
   184    -0.000012
   185    -0.000010
   186    -0.000019
   187     0.000127
   188    -0.000806
   189    -0.000088
   190     0.000041
   191     0.000040
   192     0.000045
   193     0.000423
   194    -0.000011
   195    -0.000001
   196     0.000031
Sym=     8a
Ene=   -0.237783E+02
Spin= Alpha
Occup= 1.999974
     1     0.000110
     2    -0.001995
     3    -0.000190
     4     0.000039
     5    -0.000074
     6    -0.381302
     7     0.015738
     8    -0.004144
     9    -0.000048
    10    -0.000020
    11    -0.000027
    12    -0.000178
    13    -0.000182
    14    -0.000342
    15    -0.002160
    16    -0.002189
    17    -0.002186
    18    -0.000043
    19     0.000020
    20     0.000029
    21     0.363893
    22    -0.015344
    23     0.003006
    24     0.000048
    25    -0.000309
    26    -0.000047
    27     0.000299
    28    -0.000178
    29    -0.000221
    30     0.002162
    31     0.002148
    32     0.002158
    33    -0.000015
    34    -0.000027
    35     0.000015
    36    -0.000001
    37     0.000019
    38     0.000454
    39    -0.001990
    40     0.000038
    41    -0.000043
    42    -0.000024
    43     0.000125
    44    -0.000168
    45    -0.000131
    46    -0.000448
    47     0.000699
    48     0.000576
    49     0.000135
    50     0.000089
    51     0.000117
    52     0.000110
    53     0.000053
    54    -0.000101
    55     0.000120
    56    -0.000015
    57    -0.000018
    58     0.000032
    59     0.000095
    60    -0.365623
    61     0.015125
    62    -0.004146
    63     0.000255
    64     0.000186
    65    -0.000045
    66    -0.000029
    67     0.000258
    68    -0.000389
    69    -0.002054
    70    -0.002051
    71    -0.002105
    72     0.000011
    73    -0.000035
    74     0.000014
    75    -0.000059
    76    -0.000342
    77     0.000007
    78     0.003828
    79     0.000104
    80    -0.000088
    81    -0.000257
    82     0.000030
    83    -0.000304
    84     0.000028
    85    -0.000305
    86    -0.000078
    87    -0.002148
    88    -0.000026
    89     0.000430
    90     0.000115
    91     0.000095
    92    -0.000073
    93     0.000163
    94    -0.352239
    95     0.014782
    96    -0.004981
    97    -0.000193
    98    -0.000188
    99     0.000142
   100    -0.000495
   101    -0.000721
   102     0.000193
   103    -0.001917
   104    -0.001959
   105    -0.001851
   106    -0.000089
   107     0.000013
   108     0.000018
   109     0.000021
   110    -0.000032
   111     0.000529
   112    -0.000070
   113    -0.000020
   114    -0.000098
   115     0.000506
   116    -0.000665
   117    -0.000284
   118    -0.000024
   119     0.000056
   120     0.000113
   121    -0.000150
   122    -0.000058
   123     0.000033
   124    -0.663316
   125     0.029613
   126    -0.011973
   127    -0.000309
   128    -0.000158
   129     0.000056
   130     0.001622
   131     0.000631
   132     0.000377
   133    -0.003024
   134    -0.002989
   135    -0.003116
   136    -0.000030
   137     0.000071
   138    -0.000058
   139    -0.000022
   140    -0.000086
   141     0.001283
   142     0.000400
   143    -0.000048
   144     0.000120
   145     0.000146
   146    -0.000074
   147     0.000425
   148     0.000417
   149    -0.000744
   150     0.000645
   151     0.000567
   152    -0.000249
   153    -0.000035
   154     0.000325
   155    -0.000213
   156     0.000038
   157     0.000013
   158    -0.000003
   159     0.000005
   160    -0.000088
   161     0.001470
   162     0.000008
   163     0.000012
   164    -0.000056
   165    -0.000050
   166     0.000017
   167     0.000067
   168     0.000440
   169     0.000781
   170    -0.000331
   171    -0.000086
   172     0.000104
   173    -0.000006
   174     0.000010
   175    -0.000144
   176    -0.000098
   177     0.000171
   178     0.000141
   179    -0.000059
   180     0.000024
   181     0.000017
   182     0.000074
   183    -0.000646
   184     0.000028
   185    -0.000074
   186    -0.000028
   187    -0.000005
   188    -0.000515
   189    -0.000046
   190     0.000122
   191    -0.000067
   192     0.000001
   193     0.000490
   194    -0.000006
   195    -0.000021
   196    -0.000023
Sym=     9a
Ene=   -0.232184E+02
Spin= Alpha
Occup= 1.999972
     1    -0.000042
     2    -0.000139
     3     0.000065
     4     0.000032
     5     0.000123
     6    -0.316567
     7     0.013051
     8    -0.003328
     9    -0.000079
    10    -0.000041
    11    -0.000051
    12    -0.000227
    13    -0.000258
    14    -0.000323
    15    -0.001799
    16    -0.001831
    17    -0.001823
    18    -0.000033
    19     0.000016
    20     0.000020
    21     0.326490
    22    -0.013702
    23     0.002259
    24     0.000051
    25    -0.000262
    26    -0.000061
    27     0.000245
    28    -0.000053
    29    -0.000245
    30     0.002006
    31     0.001977
    32     0.001992
    33    -0.000010
    34    -0.000016
    35     0.000010
    36     0.000001
    37    -0.000002
    38    -0.000257
    39     0.000993
    40    -0.000038
    41     0.000009
    42     0.000026
    43    -0.000102
    44     0.000045
    45     0.000107
    46     0.000352
    47    -0.000278
    48    -0.000381
    49    -0.000000
    50    -0.000075
    51    -0.000035
    52    -0.000094
    53    -0.000044
    54     0.000084
    55    -0.000007
    56     0.000010
    57     0.000075
    58     0.000041
    59    -0.000119
    60    -0.322688
    61     0.013219
    62    -0.002882
    63     0.000245
    64     0.000167
    65     0.000127
    66     0.000120
    67     0.000109
    68     0.000140
    69    -0.001969
    70    -0.001949
    71    -0.001949
    72     0.000009
    73    -0.000037
    74     0.000004
    75     0.000030
    76     0.000190
    77    -0.000040
    78    -0.001946
    79    -0.000251
    80    -0.000108
    81     0.000258
    82    -0.000106
    83     0.000027
    84    -0.000029
    85    -0.000676
    86    -0.000562
    87     0.001538
    88     0.000112
    89    -0.000141
    90    -0.000145
    91     0.000152
    92     0.000023
    93    -0.000071
    94    -0.361323
    95     0.014724
    96    -0.002701
    97    -0.000027
    98    -0.000149
    99    -0.000088
   100    -0.000147
   101    -0.000369
   102    -0.000164
   103    -0.002210
   104    -0.002276
   105    -0.002214
   106    -0.000047
   107    -0.000016
   108    -0.000036
   109     0.000021
   110     0.000005
   111     0.000656
   112    -0.000061
   113    -0.000002
   114    -0.000129
   115     0.000447
   116    -0.000435
   117     0.000174
   118     0.000088
   119     0.000074
   120     0.000025
   121    -0.000173
   122    -0.000047
   123     0.000054
   124     0.730725
   125    -0.032421
   126     0.011838
   127     0.000246
   128     0.000145
   129    -0.000104
   130    -0.001443
   131    -0.000584
   132    -0.000334
   133     0.003479
   134     0.003439
   135     0.003578
   136     0.000012
   137    -0.000053
   138     0.000072
   139     0.000019
   140     0.000140
   141    -0.000684
   142    -0.000818
   143     0.000008
   144    -0.000042
   145    -0.000257
   146     0.000067
   147    -0.000234
   148    -0.000617
   149     0.000411
   150    -0.000325
   151    -0.000525
   152    -0.000052
   153     0.000024
   154    -0.000262
   155     0.000047
   156     0.000123
   157    -0.000161
   158    -0.000002
   159    -0.000009
   160    -0.000427
   161     0.001428
   162     0.000036
   163     0.000032
   164    -0.000023
   165    -0.000142
   166    -0.000061
   167    -0.000115
   168     0.000657
   169     0.000415
   170     0.000192
   171     0.000016
   172     0.000003
   173     0.000049
   174     0.000115
   175     0.000034
   176    -0.000019
   177    -0.000092
   178     0.000026
   179     0.000032
   180    -0.000061
   181    -0.000038
   182    -0.000049
   183    -0.000295
   184     0.000025
   185    -0.000001
   186     0.000116
   187     0.000017
   188    -0.000228
   189    -0.000071
   190     0.000095
   191    -0.000048
   192     0.000026
   193    -0.000037
   194    -0.000018
   195     0.000031
   196     0.000063
Sym=    10a
Ene=   -0.897011E+01
Spin= Alpha
Occup= 1.999875
     1     0.000180
     2    -0.001120
     3     0.000006
     4     0.000023
     5    -0.000089
     6     0.000001
     7     0.000005
     8    -0.000042
     9     0.000005
    10     0.000017
    11     0.000009
    12     0.000027
    13     0.000069
    14     0.000019
    15    -0.000002
    16     0.000004
    17     0.000001
    18     0.000005
    19     0.000001
    20     0.000001
    21     0.000000
    22    -0.000024
    23     0.000120
    24     0.000005
    25    -0.000016
    26    -0.000018
    27     0.000047
    28    -0.000091
    29    -0.000078
    30    -0.000002
    31     0.000001
    32    -0.000004
    33    -0.000008
    34    -0.000006
    35     0.000002
    36     0.305532
    37     1.023578
    38     0.043972
    39    -0.019408
    40     0.002130
    41    -0.007777
    42    -0.012731
    43     0.000564
    44    -0.001169
    45    -0.001199
    46    -0.001034
    47     0.001565
    48     0.000546
    49    -0.001844
    50    -0.001800
    51    -0.000885
    52    -0.000191
    53     0.000303
    54    -0.000005
    55     0.000189
    56    -0.000973
    57     0.000046
    58    -0.000070
    59    -0.000006
    60     0.000007
    61    -0.000042
    62     0.000250
    63    -0.000017
    64     0.000015
    65     0.000011
    66    -0.000072
    67     0.000041
    68     0.000046
    69    -0.000029
    70    -0.000038
    71    -0.000037
    72     0.000002
    73    -0.000002
    74     0.000006
    75    -0.000077
    76    -0.000071
    77     0.000055
    78     0.006589
    79    -0.000181
    80     0.000271
    81     0.000005
    82     0.000344
    83    -0.000394
    84     0.000052
    85    -0.001568
    86     0.002009
    87    -0.000565
    88    -0.000425
    89    -0.000659
    90    -0.000286
    91     0.000357
    92    -0.000007
    93    -0.000134
    94    -0.000037
    95     0.000138
    96    -0.001172
    97     0.000080
    98    -0.000036
    99    -0.000030
   100     0.000110
   101    -0.000147
   102    -0.000069
   103     0.000130
   104     0.000117
   105     0.000093
   106    -0.000002
   107     0.000000
   108    -0.000001
   109    -0.000542
   110    -0.000046
   111     0.000147
   112    -0.000021
   113     0.000031
   114     0.000010
   115     0.000100
   116    -0.000060
   117     0.000065
   118    -0.000052
   119    -0.000056
   120     0.000032
   121     0.000022
   122    -0.000015
   123    -0.000016
   124    -0.000027
   125     0.000058
   126    -0.000799
   127     0.000001
   128     0.000054
   129     0.000021
   130     0.000146
   131    -0.000295
   132    -0.000284
   133     0.000023
   134     0.000047
   135     0.000065
   136     0.000005
   137     0.000012
   138    -0.000026
   139     0.000000
   140    -0.000000
   141     0.000330
   142    -0.001145
   143     0.000010
   144    -0.000008
   145     0.000017
   146    -0.000101
   147     0.000039
   148    -0.000099
   149     0.000891
   150    -0.000360
   151    -0.000427
   152     0.000094
   153     0.000090
   154    -0.000130
   155    -0.000003
   156     0.000031
   157    -0.000004
   158    -0.000021
   159    -0.000112
   160     0.000046
   161     0.000406
   162    -0.000006
   163    -0.000015
   164    -0.000011
   165     0.000028
   166     0.000080
   167     0.000086
   168     0.000110
   169     0.000278
   170    -0.000131
   171     0.000061
   172     0.000132
   173     0.000010
   174     0.000045
   175    -0.000019
   176    -0.000012
   177    -0.001063
   178     0.003022
   179    -0.000066
   180    -0.000122
   181    -0.000652
   182    -0.000013
   183     0.000202
   184    -0.000005
   185     0.000002
   186     0.000026
   187    -0.000011
   188    -0.000002
   189    -0.000002
   190     0.000003
   191    -0.000014
   192     0.000014
   193    -0.000372
   194     0.000005
   195    -0.000005
   196    -0.000010
Sym=    11a
Ene=   -0.669461E+01
Spin= Alpha
Occup= 1.999761
     1     0.000331
     2     0.000009
     3    -0.000004
     4     0.000010
     5    -0.000065
     6     0.000006
     7     0.000084
     8    -0.001390
     9     0.000153
    10     0.000326
    11    -0.000103
    12    -0.000923
    13    -0.001922
    14     0.000813
    15     0.000020
    16    -0.000067
    17     0.000194
    18    -0.000077
    19    -0.000021
    20    -0.000055
    21     0.000087
    22     0.000005
    23    -0.002736
    24     0.000203
    25    -0.000212
    26    -0.000082
    27    -0.001199
    28     0.001592
    29     0.000762
    30     0.000176
    31     0.000283
    32     0.000081
    33    -0.000271
    34    -0.000126
    35     0.000184
    36    -0.000897
    37    -0.002891
    38    -0.001249
    39     0.002326
    40     0.604482
    41     0.267514
    42    -0.304474
    43    -0.028007
    44    -0.012506
    45     0.014911
    46     0.005573
    47     0.001273
    48    -0.002816
    49     0.000079
    50     0.000152
    51    -0.000546
    52    -0.000205
    53     0.000145
    54     0.000087
    55     0.000284
    56    -0.001139
    57     0.000156
    58     0.000081
    59     0.000238
    60    -0.000034
    61     0.000292
    62    -0.002270
    63    -0.000162
    64     0.000015
    65    -0.000113
    66     0.001810
    67     0.000095
    68     0.001010
    69    -0.000013
    70     0.000158
    71     0.000084
    72    -0.000011
    73    -0.000126
    74     0.000001
    75     0.107306
    76     0.374271
    77    -0.015470
    78     0.003407
    79     0.000570
    80    -0.000925
    81    -0.000804
    82    -0.000192
    83     0.000493
    84     0.000187
    85     0.000285
    86    -0.000781
    87     0.001452
    88     0.000273
    89     0.000740
    90     0.000339
    91    -0.000064
    92     0.000435
    93    -0.000021
    94    -0.000064
    95     0.000071
    96     0.000388
    97    -0.000092
    98    -0.000059
    99    -0.000053
   100     0.000278
   101     0.000855
   102    -0.000012
   103     0.000063
   104    -0.000085
   105     0.000136
   106    -0.000131
   107    -0.000002
   108    -0.000017
   109    -0.392162
   110     0.016274
   111    -0.006164
   112     0.000366
   113     0.000250
   114    -0.001905
   115    -0.000232
   116     0.000703
   117    -0.000307
   118     0.000632
   119     0.000800
   120    -0.000096
   121    -0.000290
   122     0.000099
   123     0.000336
   124    -0.000080
   125    -0.000112
   126     0.002079
   127     0.000006
   128     0.000028
   129     0.000048
   130    -0.000586
   131    -0.000229
   132     0.000876
   133    -0.000152
   134     0.000013
   135    -0.000227
   136     0.000026
   137     0.000195
   138    -0.000014
   139     0.000301
   140     0.001059
   141    -0.000579
   142     0.000549
   143    -0.000361
   144     0.000371
   145     0.000245
   146     0.000075
   147    -0.000040
   148     0.000026
   149    -0.000608
   150     0.000413
   151    -0.000713
   152     0.000085
   153    -0.000140
   154     0.000022
   155    -0.000034
   156     0.000407
   157     0.000010
   158     0.117981
   159     0.411668
   160    -0.016375
   161     0.006785
   162     0.003218
   163     0.004350
   164     0.001567
   165    -0.000713
   166    -0.000514
   167     0.000122
   168     0.000865
   169     0.000695
   170    -0.000205
   171     0.000534
   172     0.000510
   173     0.000012
   174     0.000091
   175    -0.000030
   176    -0.000072
   177     0.000295
   178    -0.001083
   179     0.000171
   180     0.000123
   181     0.000263
   182     0.000548
   183    -0.000998
   184    -0.000242
   185     0.000018
   186    -0.000009
   187    -0.000968
   188     0.001016
   189    -0.000189
   190     0.000030
   191     0.000549
   192    -0.000002
   193     0.000326
   194    -0.000017
   195    -0.000022
   196     0.000006
Sym=    12a
Ene=   -0.671616E+01
Spin= Alpha
Occup= 1.999751
     1    -0.000395
     2     0.000954
     3     0.000047
     4    -0.000059
     5     0.000054
     6    -0.000008
     7    -0.000128
     8     0.001600
     9    -0.000166
    10    -0.000345
    11     0.000123
    12     0.000971
    13     0.002019
    14    -0.000782
    15    -0.000036
    16     0.000064
    17    -0.000208
    18     0.000088
    19     0.000018
    20     0.000047
    21    -0.000089
    22    -0.000015
    23     0.002975
    24    -0.000207
    25     0.000227
    26     0.000098
    27     0.001281
    28    -0.001680
    29    -0.000791
    30    -0.000193
    31    -0.000307
    32    -0.000095
    33     0.000287
    34     0.000136
    35    -0.000195
    36    -0.000183
    37    -0.000579
    38    -0.000551
    39     0.001304
    40     0.711419
    41     0.071386
    42     0.008575
    43    -0.033847
    44    -0.002479
    45    -0.001007
    46     0.005329
    47     0.001257
    48    -0.000020
    49    -0.000288
    50    -0.000617
    51    -0.000005
    52     0.000428
    53     0.000280
    54     0.000050
    55    -0.000379
    56     0.001704
    57    -0.000117
    58     0.000128
    59    -0.000326
    60     0.000037
    61    -0.000339
    62     0.002499
    63     0.000167
    64    -0.000025
    65     0.000156
    66    -0.001935
    67    -0.000113
    68    -0.001008
    69     0.000003
    70    -0.000176
    71    -0.000105
    72     0.000008
    73     0.000135
    74    -0.000004
    75    -0.107168
    76    -0.373812
    77     0.015308
    78    -0.006947
    79    -0.000696
    80     0.000478
    81     0.000690
    82    -0.000396
    83     0.000264
    84    -0.000222
    85    -0.000588
    86    -0.001080
    87    -0.000541
    88    -0.000280
    89     0.000480
    90    -0.000654
    91     0.000021
    92    -0.000042
    93     0.000200
    94     0.000068
    95    -0.000051
    96    -0.000578
    97     0.000036
    98     0.000120
    99    -0.000028
   100    -0.000665
   101    -0.000626
   102    -0.000042
   103    -0.000064
   104     0.000119
   105    -0.000113
   106     0.000133
   107     0.000012
   108     0.000033
   109     0.415636
   110    -0.017208
   111     0.006658
   112    -0.000375
   113    -0.000276
   114     0.002046
   115     0.000412
   116    -0.000756
   117     0.000072
   118    -0.000663
   119    -0.000850
   120     0.000081
   121     0.000304
   122    -0.000100
   123    -0.000348
   124     0.000058
   125    -0.000186
   126    -0.000590
   127     0.000061
   128    -0.000196
   129    -0.000202
   130     0.000380
   131     0.000318
   132    -0.000059
   133     0.000090
   134    -0.000102
   135     0.000143
   136    -0.000039
   137    -0.000258
   138    -0.000010
   139    -0.000365
   140    -0.001264
   141     0.001033
   142    -0.000645
   143     0.000375
   144    -0.000384
   145    -0.000348
   146    -0.000158
   147     0.000156
   148     0.000313
   149     0.001014
   150    -0.000399
   151     0.000982
   152    -0.000149
   153     0.000087
   154     0.000156
   155    -0.000005
   156    -0.000442
   157    -0.000007
   158    -0.117889
   159    -0.411321
   160     0.016318
   161    -0.006895
   162    -0.003338
   163    -0.004342
   164    -0.001239
   165     0.000644
   166     0.000442
   167    -0.000129
   168    -0.000801
   169    -0.000859
   170     0.000183
   171    -0.000548
   172    -0.000597
   173    -0.000076
   174    -0.000089
   175     0.000041
   176     0.000049
   177    -0.000514
   178     0.000824
   179     0.000080
   180    -0.000004
   181    -0.000314
   182    -0.000557
   183     0.001100
   184     0.000243
   185    -0.000004
   186     0.000011
   187     0.001020
   188    -0.001353
   189     0.000198
   190    -0.000025
   191    -0.000583
   192     0.000001
   193    -0.000536
   194     0.000034
   195     0.000017
   196    -0.000004
Sym=    13a
Ene=   -0.687465E+01
Spin= Alpha
Occup= 1.999744
     1     0.000577
     2    -0.000075
     3     0.000012
     4    -0.000078
     5    -0.000149
     6    -0.000019
     7    -0.000555
     8     0.003701
     9    -0.000188
    10    -0.000325
    11    -0.000019
    12     0.000946
    13     0.002077
    14     0.000927
    15    -0.000261
    16    -0.000036
    17    -0.000119
    18     0.000187
    19    -0.000070
    20    -0.000128
    21    -0.000126
    22    -0.000004
    23     0.003612
    24    -0.000217
    25     0.000334
    26     0.000122
    27     0.001591
    28    -0.001833
    29    -0.001081
    30    -0.000225
    31    -0.000372
    32    -0.000074
    33     0.000379
    34     0.000189
    35    -0.000240
    36     0.002368
    37     0.007562
    38     0.003089
    39    -0.003930
    40    -0.131684
    41     0.663907
    42     0.214476
    43     0.006743
    44    -0.032140
    45    -0.010711
    46    -0.001330
    47     0.005921
    48     0.001546
    49     0.000370
    50     0.000448
    51     0.000860
    52    -0.000284
    53     0.000061
    54     0.000226
    55     0.000151
    56    -0.000277
    57     0.000091
    58    -0.000098
    59    -0.000016
    60     0.000046
    61    -0.000322
    62     0.002839
    63     0.000266
    64    -0.000014
    65     0.000179
    66    -0.002138
    67    -0.000057
    68    -0.001332
    69     0.000037
    70    -0.000180
    71    -0.000097
    72     0.000002
    73     0.000150
    74     0.000036
    75    -0.002212
    76    -0.007668
    77     0.000372
    78     0.004028
    79    -0.001406
    80    -0.000158
    81    -0.001290
    82     0.000624
    83    -0.000820
    84     0.000084
    85    -0.001079
    86     0.001022
    87    -0.001044
    88    -0.000414
    89    -0.000527
    90    -0.000132
    91     0.000588
    92    -0.000173
    93    -0.000030
    94    -0.000008
    95     0.000279
    96    -0.001408
    97     0.000016
    98    -0.000139
    99    -0.000000
   100    -0.000054
   101    -0.000020
   102     0.000100
   103     0.000147
   104     0.000122
   105     0.000147
   106    -0.000031
   107    -0.000011
   108    -0.000003
   109     0.524753
   110    -0.021306
   111     0.007166
   112    -0.000408
   113    -0.000414
   114     0.002689
   115     0.000999
   116    -0.000596
   117     0.000061
   118    -0.000834
   119    -0.001123
   120     0.000060
   121     0.000315
   122     0.000073
   123    -0.000123
   124     0.000011
   125     0.000184
   126    -0.000854
   127    -0.000123
   128     0.000035
   129     0.000025
   130     0.000222
   131    -0.000055
   132    -0.000318
   133     0.000006
   134     0.000074
   135     0.000035
   136     0.000004
   137     0.000041
   138    -0.000007
   139     0.000026
   140     0.000087
   141     0.000757
   142    -0.004195
   143    -0.000285
   144    -0.000039
   145     0.000226
   146     0.000061
   147     0.000227
   148    -0.000162
   149     0.001464
   150     0.000271
   151     0.000837
   152    -0.000104
   153     0.000186
   154    -0.000145
   155     0.000077
   156    -0.000246
   157    -0.000138
   158     0.130334
   159     0.454842
   160    -0.017226
   161     0.005509
   162     0.002519
   163     0.004586
   164     0.002697
   165    -0.000919
   166    -0.000499
   167     0.000298
   168     0.000406
   169    -0.000187
   170     0.000282
   171     0.000540
   172     0.000318
   173     0.000247
   174     0.000081
   175     0.000145
   176     0.000313
   177    -0.000117
   178    -0.000265
   179    -0.000116
   180     0.000142
   181    -0.000451
   182     0.000593
   183     0.000963
   184    -0.000254
   185     0.000137
   186    -0.000072
   187     0.001282
   188    -0.001220
   189     0.000240
   190     0.000006
   191    -0.000686
   192    -0.000085
   193     0.000860
   194    -0.000070
   195    -0.000023
   196    -0.000027
Sym=    14a
Ene=   -0.679228E+01
Spin= Alpha
Occup= 1.999719
     1    -0.000458
     2     0.000143
     3    -0.000035
     4     0.000042
     5     0.000005
     6     0.000009
     7     0.000471
     8    -0.003333
     9     0.000181
    10     0.000303
    11     0.000056
    12    -0.000875
    13    -0.002015
    14    -0.000712
    15     0.000219
    16     0.000016
    17     0.000109
    18    -0.000167
    19     0.000065
    20     0.000108
    21     0.000108
    22     0.000022
    23    -0.003544
    24     0.000203
    25    -0.000306
    26    -0.000123
    27    -0.001496
    28     0.001747
    29     0.000943
    30     0.000233
    31     0.000370
    32     0.000094
    33    -0.000357
    34    -0.000179
    35     0.000226
    36     0.000845
    37     0.002683
    38     0.002152
    39    -0.004562
    40    -0.180264
    41     0.623749
    42    -0.128154
    43     0.009048
    44    -0.029925
    45     0.006345
    46    -0.001960
    47     0.006180
    48     0.000222
    49     0.000390
    50     0.000271
    51    -0.000048
    52     0.000046
    53    -0.000088
    54     0.000061
    55    -0.000237
    56     0.000494
    57     0.000028
    58    -0.000099
    59    -0.000294
    60    -0.000048
    61     0.000323
    62    -0.002771
    63    -0.000260
    64     0.000011
    65    -0.000152
    66     0.001968
    67     0.000073
    68     0.001201
    69    -0.000023
    70     0.000170
    71     0.000089
    72     0.000007
    73    -0.000149
    74    -0.000016
    75    -0.118299
    76    -0.412550
    77     0.017224
    78    -0.001877
    79    -0.001313
    80     0.001239
    81     0.000581
    82     0.000566
    83    -0.001145
    84    -0.000368
    85    -0.001623
    86     0.001176
    87    -0.000356
    88    -0.000880
    89    -0.000851
    90    -0.000766
    91     0.000804
    92    -0.000235
    93     0.000064
    94     0.000068
    95     0.000184
    96    -0.001690
    97     0.000117
    98    -0.000069
    99    -0.000020
   100    -0.000618
   101    -0.000875
   102    -0.000109
   103     0.000053
   104     0.000181
   105    -0.000015
   106     0.000105
   107    -0.000004
   108     0.000025
   109    -0.491922
   110     0.019878
   111    -0.006356
   112     0.000389
   113     0.000381
   114    -0.002507
   115    -0.000944
   116     0.000418
   117     0.000376
   118     0.000760
   119     0.001032
   120    -0.000056
   121    -0.000299
   122    -0.000064
   123     0.000125
   124     0.000077
   125     0.000080
   126    -0.001916
   127    -0.000107
   128     0.000006
   129    -0.000104
   130     0.000670
   131    -0.000023
   132    -0.000498
   133     0.000140
   134    -0.000026
   135     0.000229
   136    -0.000002
   137    -0.000193
   138    -0.000023
   139    -0.000489
   140    -0.001776
   141    -0.000582
   142     0.003584
   143     0.000426
   144    -0.000458
   145    -0.000211
   146    -0.000233
   147    -0.000070
   148     0.000119
   149    -0.000538
   150    -0.000470
   151    -0.000808
   152     0.000204
   153    -0.000063
   154     0.000253
   155    -0.000224
   156     0.000083
   157     0.000161
   158    -0.108771
   159    -0.379505
   160     0.014648
   161    -0.005494
   162    -0.002651
   163    -0.003265
   164    -0.001361
   165     0.000855
   166     0.000588
   167    -0.000046
   168    -0.000765
   169    -0.000082
   170    -0.000461
   171    -0.000379
   172    -0.000169
   173    -0.000128
   174    -0.000050
   175    -0.000147
   176    -0.000312
   177     0.000956
   178     0.000710
   179     0.000106
   180     0.000057
   181     0.000451
   182    -0.000424
   183    -0.000387
   184     0.000213
   185    -0.000076
   186     0.000066
   187    -0.001209
   188     0.001359
   189    -0.000229
   190     0.000006
   191     0.000644
   192     0.000115
   193    -0.001369
   194     0.000070
   195     0.000036
   196     0.000012
Sym=    15a
Ene=   -0.660046E+01
Spin= Alpha
Occup= 1.999702
     1     0.000736
     2    -0.002614
     3    -0.000023
     4     0.000078
     5    -0.000018
     6    -0.000005
     7     0.000036
     8    -0.001169
     9     0.000126
    10     0.000305
    11    -0.000060
    12    -0.000869
    13    -0.001676
    14     0.000894
    15     0.000010
    16    -0.000053
    17     0.000199
    18    -0.000054
    19    -0.000028
    20    -0.000075
    21     0.000075
    22    -0.000090
    23    -0.001924
    24     0.000180
    25    -0.000205
    26    -0.000081
    27    -0.001008
    28     0.001276
    29     0.000660
    30     0.000123
    31     0.000221
    32     0.000034
    33    -0.000242
    34    -0.000110
    35     0.000166
    36     0.001663
    37     0.005324
    38     0.001417
    39    -0.000290
    40     0.185887
    41    -0.164985
    42     0.610961
    43    -0.009694
    44     0.008499
    45    -0.030844
    46     0.000779
    47    -0.000532
    48     0.004353
    49    -0.000373
    50    -0.000594
    51     0.001229
    52     0.000433
    53     0.000232
    54     0.000141
    55    -0.000535
    56     0.002030
    57    -0.000245
    58     0.000067
    59    -0.000402
    60    -0.000038
    61     0.000252
    62    -0.002005
    63    -0.000170
    64     0.000016
    65    -0.000120
    66     0.001468
    67     0.000110
    68     0.000750
    69     0.000013
    70     0.000141
    71     0.000081
    72    -0.000007
    73    -0.000119
    74     0.000026
    75    -0.147442
    76    -0.514384
    77     0.021875
    78    -0.010328
    79    -0.001794
    80    -0.000767
    81    -0.000554
    82    -0.000326
    83     0.000085
    84    -0.000490
    85     0.000422
    86    -0.000569
    87    -0.000460
    88    -0.000133
    89     0.000058
    90    -0.000578
    91    -0.000149
    92    -0.000393
    93     0.000085
    94     0.000073
    95    -0.000030
    96    -0.000953
    97     0.000032
    98     0.000220
    99     0.000070
   100    -0.000581
   101    -0.000529
   102     0.000404
   103     0.000013
   104     0.000240
   105    -0.000116
   106     0.000174
   107    -0.000005
   108     0.000006
   109    -0.347177
   110     0.014555
   111    -0.006338
   112     0.000297
   113     0.000264
   114    -0.001626
   115    -0.000092
   116     0.000701
   117    -0.000874
   118     0.000477
   119     0.000654
   120    -0.000024
   121    -0.000210
   122     0.000086
   123     0.000317
   124     0.000079
   125     0.000008
   126    -0.002153
   127    -0.000018
   128    -0.000159
   129    -0.000195
   130     0.000848
   131     0.000435
   132    -0.000412
   133     0.000195
   134    -0.000018
   135     0.000303
   136    -0.000048
   137    -0.000283
   138    -0.000022
   139     0.000047
   140     0.000152
   141    -0.000855
   142     0.002947
   143    -0.000052
   144    -0.000586
   145     0.000113
   146    -0.000017
   147     0.000005
   148     0.000354
   149    -0.001287
   150     0.000648
   151     0.000288
   152     0.000101
   153    -0.000177
   154     0.000426
   155    -0.000222
   156     0.000062
   157     0.000099
   158     0.122059
   159     0.425839
   160    -0.017252
   161     0.009383
   162     0.001998
   163     0.004244
   164     0.002285
   165    -0.000850
   166    -0.000475
   167     0.000265
   168     0.001594
   169     0.001769
   170     0.000358
   171     0.000326
   172     0.000674
   173    -0.000001
   174     0.000164
   175     0.000024
   176     0.000088
   177    -0.001897
   178     0.002371
   179    -0.000228
   180    -0.000119
   181    -0.001284
   182     0.000641
   183    -0.002176
   184    -0.000172
   185     0.000001
   186    -0.000050
   187    -0.000860
   188     0.000720
   189    -0.000174
   190     0.000029
   191     0.000478
   192    -0.000005
   193     0.000002
   194     0.000019
   195     0.000073
   196     0.000008
Sym=    16a
Ene=   -0.645879E+01
Spin= Alpha
Occup= 1.999699
     1    -0.000310
     2    -0.000008
     3     0.000007
     4    -0.000065
     5    -0.000150
     6     0.000002
     7     0.000244
     8    -0.001458
     9     0.000049
    10     0.000060
    11     0.000096
    12    -0.000090
    13    -0.000334
    14    -0.000792
    15     0.000123
    16     0.000042
    17    -0.000021
    18    -0.000066
    19     0.000050
    20     0.000093
    21     0.000026
    22     0.000016
    23    -0.001021
    24     0.000048
    25    -0.000114
    26    -0.000049
    27    -0.000351
    28     0.000333
    29     0.000246
    30     0.000072
    31     0.000109
    32     0.000028
    33    -0.000108
    34    -0.000060
    35     0.000061
    36     0.002735
    37     0.008783
    38     0.002935
    39    -0.004207
    40     0.104443
    41     0.180309
    42     0.660368
    43    -0.004883
    44    -0.009152
    45    -0.033274
    46     0.000844
    47     0.001434
    48     0.004788
    49     0.000364
    50     0.000567
    51     0.001818
    52    -0.000424
    53     0.000269
    54     0.000238
    55     0.000731
    56    -0.000418
    57     0.000109
    58     0.000000
    59     0.000346
    60    -0.000005
    61    -0.000032
    62    -0.000237
    63    -0.000104
    64     0.000014
    65    -0.000032
    66     0.000393
    67     0.000046
    68     0.000498
    69    -0.000072
    70    -0.000021
    71    -0.000036
    72     0.000009
    73    -0.000037
    74    -0.000015
    75     0.165018
    76     0.575740
    77    -0.024561
    78     0.011512
    79     0.000693
    80     0.001590
    81    -0.000921
    82     0.000221
    83     0.000425
    84     0.000980
    85    -0.000974
    86    -0.000049
    87    -0.003251
    88     0.000688
    89     0.000686
    90     0.000713
    91    -0.000034
    92     0.000065
    93    -0.000062
    94    -0.000102
    95     0.000177
    96     0.000097
    97    -0.000132
    98    -0.000193
    99     0.000018
   100     0.000367
   101     0.000476
   102    -0.000028
   103     0.000066
   104    -0.000166
   105     0.000223
   106    -0.000207
   107     0.000025
   108     0.000003
   109    -0.130894
   110     0.004958
   111    -0.000569
   112     0.000082
   113     0.000128
   114    -0.000666
   115    -0.000384
   116    -0.000134
   117     0.000756
   118     0.000150
   119     0.000230
   120     0.000022
   121    -0.000061
   122    -0.000101
   123    -0.000088
   124    -0.000101
   125     0.000310
   126     0.000516
   127    -0.000093
   128     0.000072
   129     0.000243
   130    -0.000352
   131    -0.000167
   132     0.000391
   133    -0.000140
   134     0.000145
   135    -0.000243
   136     0.000047
   137     0.000353
   138     0.000004
   139    -0.000407
   140    -0.001489
   141     0.000678
   142    -0.002293
   143     0.000110
   144     0.000564
   145    -0.000114
   146    -0.000270
   147     0.000012
   148    -0.000036
   149     0.001713
   150    -0.000825
   151    -0.001763
   152     0.000251
   153     0.000128
   154    -0.000181
   155     0.000075
   156     0.000200
   157     0.000066
   158    -0.120426
   159    -0.420159
   160     0.016719
   161    -0.007027
   162    -0.003269
   163    -0.004817
   164    -0.000477
   165     0.000801
   166     0.000649
   167     0.000042
   168    -0.000913
   169    -0.000469
   170    -0.000647
   171    -0.000370
   172    -0.000270
   173    -0.000127
   174    -0.000016
   175    -0.000142
   176    -0.000270
   177    -0.002189
   178     0.001978
   179    -0.000372
   180     0.000095
   181    -0.001354
   182    -0.000671
   183     0.001497
   184     0.000224
   185    -0.000054
   186     0.000102
   187    -0.000328
   188     0.000459
   189    -0.000071
   190    -0.000011
   191     0.000146
   192     0.000166
   193    -0.000953
   194     0.000022
   195     0.000013
   196     0.000021
Sym=    17a
Ene=   -0.450315E+01
Spin= Alpha
Occup= 1.999405
     1     0.000462
     2    -0.000958
     3    -0.000205
     4    -0.000281
     5    -0.000007
     6    -0.000010
     7     0.000361
     8    -0.002109
     9    -0.000045
    10    -0.000126
    11     0.000460
    12     0.000041
    13     0.000624
    14    -0.001785
    15     0.000295
    16     0.000188
    17    -0.000092
    18    -0.000047
    19     0.000043
    20     0.000206
    21     0.000001
    22     0.000025
    23    -0.000082
    24    -0.000153
    25     0.000008
    26    -0.000065
    27    -0.000033
    28     0.000048
    29    -0.000231
    30     0.000016
    31     0.000011
    32     0.000003
    33     0.000006
    34    -0.000009
    35     0.000007
    36     0.000027
    37     0.000037
    38    -0.000373
    39     0.001766
    40     0.000571
    41     0.001628
    42     0.002455
    43     0.000567
    44    -0.000869
    45    -0.000226
    46     0.000492
    47    -0.000727
    48    -0.000227
    49     0.000059
    50     0.000374
    51     0.000074
    52    -0.000360
    53     0.000004
    54     0.000057
    55    -0.000622
    56     0.003957
    57    -0.000096
    58     0.000050
    59    -0.000185
    60    -0.000036
    61    -0.000343
    62     0.002302
    63    -0.000087
    64     0.000097
    65    -0.000234
    66     0.000158
    67    -0.000921
    68     0.000458
    69    -0.000033
    70    -0.000138
    71    -0.000224
    72     0.000061
    73    -0.000056
    74     0.000158
    75    -0.000236
    76    -0.000838
    77    -0.000130
    78    -0.002698
    79     0.393478
    80    -0.252477
    81     0.302858
    82     0.018462
    83    -0.011416
    84     0.014964
    85    -0.003729
    86     0.001107
    87    -0.004227
    88    -0.000128
    89    -0.000345
    90     0.000847
    91     0.000811
    92    -0.000002
    93     0.000178
    94    -0.000066
    95     0.000098
    96    -0.001025
    97     0.000141
    98     0.000073
    99     0.000188
   100    -0.000316
   101     0.000232
   102     0.000108
   103     0.000163
   104     0.000059
   105     0.000140
   106    -0.000021
   107     0.000038
   108     0.000000
   109     0.000215
   110    -0.000336
   111    -0.000453
   112     0.000178
   113     0.000012
   114     0.000042
   115    -0.000606
   116    -0.000373
   117     0.000741
   118    -0.000137
   119     0.000046
   120     0.000022
   121     0.000093
   122    -0.000202
   123    -0.000345
   124    -0.000133
   125    -0.000019
   126     0.001291
   127    -0.000174
   128     0.000054
   129    -0.000207
   130     0.000025
   131    -0.000217
   132    -0.000632
   133     0.000063
   134    -0.000012
   135    -0.000578
   136    -0.000024
   137     0.000023
   138    -0.000445
   139     0.156692
   140     0.562315
   141    -0.016774
   142     0.008511
   143     0.000797
   144     0.003054
   145     0.003154
   146     0.001007
   147    -0.000157
   148     0.000180
   149    -0.001482
   150    -0.000018
   151     0.000349
   152    -0.001780
   153    -0.001948
   154    -0.002436
   155     0.000009
   156    -0.000195
   157     0.000325
   158    -0.000589
   159    -0.001691
   160     0.002078
   161    -0.002262
   162     0.365791
   163     0.064959
   164    -0.480093
   165     0.016608
   166     0.002719
   167    -0.022491
   168    -0.002430
   169    -0.000006
   170     0.002471
   171     0.000272
   172    -0.000646
   173     0.000487
   174     0.000449
   175    -0.000747
   176    -0.001071
   177    -0.000052
   178    -0.001811
   179    -0.000222
   180     0.000241
   181    -0.000131
   182    -0.000135
   183     0.000490
   184     0.000392
   185    -0.000031
   186     0.000240
   187     0.000085
   188     0.000500
   189    -0.000055
   190    -0.000044
   191    -0.000029
   192     0.000908
   193    -0.000068
   194     0.000511
   195    -0.000274
   196    -0.000245
Sym=    18a
Ene=   -0.447184E+01
Spin= Alpha
Occup= 1.999352
     1     0.000769
     2    -0.002348
     3     0.000094
     4    -0.000182
     5    -0.000178
     6    -0.000029
     7    -0.000066
     8    -0.000062
     9     0.000107
    10     0.000157
    11    -0.000129
    12     0.000074
    13     0.000579
    14     0.000680
    15    -0.000077
    16    -0.000022
    17     0.000122
    18     0.000030
    19    -0.000019
    20    -0.000035
    21     0.000002
    22    -0.000066
    23     0.000533
    24     0.000031
    25     0.000087
    26    -0.000016
    27     0.000070
    28     0.000294
    29    -0.000075
    30    -0.000028
    31    -0.000006
    32    -0.000017
    33     0.000008
    34    -0.000006
    35    -0.000003
    36    -0.000017
    37    -0.000027
    38     0.000025
    39     0.000551
    40    -0.000241
    41     0.000549
    42    -0.000468
    43    -0.000679
    44     0.000804
    45     0.000032
    46    -0.000705
    47     0.000715
    48    -0.000213
    49    -0.000352
    50    -0.000612
    51    -0.000134
    52     0.000494
    53     0.000105
    54    -0.000064
    55    -0.000064
    56    -0.000175
    57     0.000043
    58    -0.000069
    59     0.000071
    60    -0.000038
    61    -0.000142
    62     0.001596
    63    -0.000025
    64     0.000079
    65    -0.000245
    66     0.000384
    67    -0.000585
    68     0.000174
    69     0.000065
    70    -0.000001
    71    -0.000110
    72     0.000026
    73    -0.000057
    74     0.000155
    75    -0.000182
    76    -0.000849
    77    -0.000719
    78    -0.003161
    79    -0.043630
    80     0.582501
    81     0.045784
    82    -0.001803
    83     0.027636
    84     0.002563
    85     0.000294
    86    -0.002578
    87     0.001777
    88     0.000267
    89    -0.000517
    90     0.000018
    91    -0.002300
    92     0.000340
    93    -0.000470
    94    -0.000303
    95    -0.000244
    96     0.002597
    97    -0.000018
    98     0.000161
    99     0.000134
   100     0.001224
   101     0.001380
   102     0.000307
   103    -0.000132
   104    -0.000347
   105     0.000076
   106    -0.000402
   107    -0.000067
   108    -0.000071
   109    -0.000256
   110     0.000633
   111    -0.003269
   112     0.000193
   113    -0.000303
   114     0.000187
   115     0.000018
   116     0.000320
   117    -0.001810
   118    -0.000118
   119    -0.000157
   120    -0.000186
   121     0.000019
   122     0.000091
   123     0.000261
   124    -0.000166
   125    -0.000215
   126     0.003388
   127     0.000122
   128    -0.000012
   129    -0.000113
   130    -0.000195
   131    -0.001344
   132    -0.000011
   133    -0.000050
   134    -0.000039
   135    -0.000676
   136     0.000002
   137     0.000124
   138    -0.000254
   139     0.143318
   140     0.514250
   141    -0.016437
   142     0.008572
   143    -0.000191
   144     0.004351
   145     0.001723
   146     0.001170
   147    -0.000659
   148    -0.000401
   149    -0.003871
   150     0.001669
   151     0.000902
   152    -0.001727
   153    -0.001739
   154    -0.002598
   155     0.000204
   156     0.000052
   157    -0.000043
   158     0.002156
   159     0.006900
   160    -0.005320
   161     0.005630
   162    -0.289855
   163    -0.544774
   164    -0.051283
   165    -0.013307
   166    -0.025457
   167    -0.002603
   168     0.003376
   169     0.004637
   170    -0.000118
   171     0.000369
   172    -0.000909
   173     0.000130
   174    -0.000526
   175    -0.000010
   176    -0.000244
   177     0.000440
   178    -0.000772
   179     0.000037
   180    -0.000109
   181    -0.000060
   182     0.001311
   183    -0.001494
   184     0.000172
   185     0.000322
   186    -0.000009
   187     0.000228
   188    -0.000377
   189    -0.000016
   190     0.000037
   191     0.000063
   192     0.000400
   193     0.002005
   194     0.000415
   195    -0.000162
   196    -0.000191
Sym=    19a
Ene=   -0.446016E+01
Spin= Alpha
Occup= 1.999338
     1    -0.000852
     2    -0.000787
     3     0.000213
     4     0.000259
     5    -0.000023
     6    -0.000012
     7    -0.000176
     8     0.000885
     9     0.000142
    10     0.000144
    11    -0.000392
    12    -0.000075
    13    -0.000640
    14     0.001686
    15    -0.000194
    16    -0.000080
    17     0.000201
    18     0.000053
    19    -0.000057
    20    -0.000208
    21     0.000002
    22    -0.000010
    23     0.000213
    24     0.000069
    25     0.000090
    26    -0.000007
    27    -0.000003
    28     0.000262
    29     0.000001
    30    -0.000024
    31     0.000015
    32    -0.000008
    33     0.000002
    34    -0.000003
    35    -0.000003
    36     0.000012
    37    -0.000027
    38    -0.000531
    39     0.002601
    40    -0.000087
    41     0.000096
    42    -0.000367
    43     0.000718
    44    -0.000765
    45     0.000078
    46     0.001091
    47    -0.001314
    48    -0.000578
    49     0.000174
    50     0.000410
    51     0.000099
    52    -0.000571
    53    -0.000062
    54     0.000087
    55     0.000324
    56     0.000181
    57     0.000017
    58     0.000061
    59    -0.000096
    60    -0.000034
    61    -0.000149
    62     0.001634
    63    -0.000004
    64     0.000077
    65    -0.000180
    66     0.000391
    67    -0.000598
    68     0.000295
    69     0.000036
    70    -0.000031
    71    -0.000130
    72     0.000030
    73    -0.000059
    74     0.000150
    75     0.000014
    76     0.000133
    77     0.001595
    78    -0.004368
    79    -0.016738
    80    -0.606539
    81    -0.120677
    82    -0.001804
    83    -0.028937
    84    -0.005950
    85    -0.000317
    86     0.002225
    87     0.002004
    88    -0.000144
    89     0.001223
    90    -0.000436
    91     0.002840
    92     0.000065
    93     0.000609
    94     0.000342
    95     0.000475
    96    -0.003495
    97    -0.000024
    98    -0.000144
    99    -0.000054
   100    -0.001636
   101    -0.001622
   102     0.000293
   103     0.000229
   104     0.000489
   105    -0.000024
   106     0.000386
   107     0.000076
   108     0.000073
   109    -0.000342
   110     0.000578
   111    -0.002137
   112     0.000312
   113    -0.000193
   114     0.000224
   115     0.000047
   116     0.000102
   117    -0.001191
   118    -0.000063
   119     0.000018
   120    -0.000182
   121     0.000110
   122     0.000144
   123     0.000385
   124    -0.000016
   125     0.000178
   126     0.001036
   127    -0.000004
   128     0.000144
   129    -0.000129
   130     0.000256
   131     0.000738
   132     0.000645
   133     0.000271
   134    -0.000000
   135    -0.000334
   136    -0.000029
   137    -0.000140
   138    -0.000461
   139     0.137498
   140     0.493230
   141    -0.015215
   142     0.007769
   143     0.002688
   144     0.002994
   145    -0.000859
   146     0.000869
   147    -0.000123
   148     0.000470
   149    -0.002991
   150     0.001091
   151     0.001758
   152    -0.001385
   153    -0.001452
   154    -0.001413
   155     0.000108
   156    -0.000320
   157     0.000241
   158    -0.000460
   159    -0.002131
   160    -0.003418
   161     0.002329
   162    -0.369759
   163    -0.075676
   164     0.470121
   165    -0.016801
   166    -0.003620
   167     0.022087
   168     0.002844
   169     0.002038
   170    -0.002762
   171     0.000157
   172     0.000705
   173    -0.000580
   174    -0.000059
   175     0.000633
   176     0.001054
   177    -0.000407
   178    -0.000779
   179    -0.000108
   180     0.000084
   181    -0.000070
   182     0.001805
   183    -0.000608
   184    -0.000142
   185     0.000292
   186    -0.000278
   187     0.000236
   188    -0.000236
   189    -0.000011
   190     0.000073
   191     0.000069
   192     0.000326
   193     0.001580
   194     0.000381
   195    -0.000197
   196    -0.000218
Sym=    20a
Ene=   -0.444839E+01
Spin= Alpha
Occup= 1.999241
     1    -0.001503
     2     0.003012
     3    -0.000012
     4     0.000142
     5     0.000296
     6     0.000016
     7     0.000046
     8    -0.000067
     9    -0.000045
    10    -0.000137
    11     0.000198
    12    -0.000225
    13    -0.000765
    14    -0.000309
    15     0.000066
    16     0.000030
    17    -0.000065
    18    -0.000024
    19    -0.000007
    20    -0.000004
    21     0.000005
    22    -0.000065
    23     0.000378
    24    -0.000092
    25    -0.000015
    26    -0.000030
    27    -0.000027
    28    -0.000151
    29    -0.000077
    30    -0.000035
    31    -0.000026
    32    -0.000042
    33     0.000003
    34    -0.000009
    35     0.000013
    36    -0.000013
    37     0.000018
    38     0.000218
    39    -0.000636
    40     0.000008
    41    -0.000288
    42    -0.000014
    43    -0.000499
    44     0.000781
    45     0.000068
    46    -0.000515
    47     0.000844
    48     0.000086
    49    -0.000065
    50    -0.000411
    51    -0.000153
    52     0.000394
    53     0.000055
    54    -0.000067
    55     0.000821
    56    -0.002532
    57     0.000107
    58    -0.000056
    59     0.000104
    60    -0.000022
    61    -0.000300
    62     0.002057
    63    -0.000095
    64     0.000049
    65    -0.000232
    66    -0.000082
    67    -0.000901
    68     0.000327
    69    -0.000028
    70    -0.000128
    71    -0.000213
    72     0.000056
    73    -0.000049
    74     0.000133
    75    -0.000004
    76    -0.000087
    77    -0.000374
    78    -0.000780
    79    -0.396328
    80     0.298012
    81    -0.280706
    82    -0.019041
    83     0.013770
    84    -0.013019
    85     0.002219
    86    -0.001915
    87     0.003886
    88     0.000030
    89     0.000679
    90    -0.001169
    91    -0.000758
    92     0.000358
    93    -0.000046
    94     0.000015
    95    -0.000018
    96     0.000384
    97    -0.000142
    98     0.000013
    99    -0.000151
   100     0.000245
   101    -0.000178
   102    -0.000028
   103    -0.000079
   104    -0.000023
   105    -0.000028
   106    -0.000040
   107    -0.000016
   108    -0.000011
   109     0.000191
   110    -0.000044
   111    -0.000287
   112     0.000298
   113     0.000183
   114     0.000124
   115    -0.000432
   116    -0.000503
   117    -0.000487
   118    -0.000114
   119     0.000231
   120     0.000095
   121     0.000262
   122    -0.000183
   123    -0.000158
   124    -0.000072
   125    -0.000002
   126     0.002844
   127     0.000137
   128    -0.000018
   129    -0.000072
   130    -0.000290
   131    -0.000738
   132     0.000950
   133     0.000087
   134    -0.000051
   135    -0.000647
   136    -0.000007
   137     0.000008
   138    -0.000348
   139     0.133058
   140     0.477194
   141    -0.014622
   142     0.006514
   143     0.001625
   144     0.004380
   145     0.002064
   146     0.000857
   147     0.000020
   148     0.000481
   149    -0.002772
   150     0.001672
   151     0.000636
   152    -0.001231
   153    -0.001501
   154    -0.001622
   155    -0.000028
   156    -0.000164
   157     0.000213
   158    -0.002646
   159    -0.008683
   160     0.004164
   161    -0.007186
   162     0.269126
   163     0.585745
   164     0.141173
   165     0.012269
   166     0.026997
   167     0.006781
   168    -0.003689
   169    -0.003514
   170    -0.000655
   171    -0.000378
   172     0.001066
   173    -0.000573
   174     0.000970
   175     0.000017
   176     0.000368
   177     0.000412
   178     0.000235
   179     0.000105
   180    -0.000154
   181     0.000104
   182     0.000145
   183     0.002840
   184     0.000036
   185    -0.000092
   186    -0.000052
   187     0.000066
   188    -0.000439
   189    -0.000011
   190    -0.000008
   191    -0.000047
   192     0.000478
   193     0.001761
   194     0.000409
   195    -0.000211
   196    -0.000165
Sym=    21a
Ene=   -0.388861E+01
Spin= Alpha
Occup= 1.998589
     1     0.000202
     2     0.001151
     3    -0.000099
     4    -0.000141
     5     0.000004
     6     0.000004
     7    -0.000192
     8     0.000917
     9    -0.000051
    10     0.000079
    11    -0.000092
    12    -0.000461
    13     0.000027
    14     0.000756
    15    -0.000102
    16    -0.000107
    17     0.000020
    18     0.000040
    19    -0.000081
    20    -0.000045
    21     0.000009
    22     0.000031
    23     0.000205
    24    -0.000138
    25     0.000087
    26    -0.000117
    27    -0.000093
    28     0.000237
    29    -0.000184
    30    -0.000004
    31     0.000025
    32     0.000007
    33     0.000021
    34     0.000005
    35     0.000000
    36    -0.000000
    37    -0.000040
    38    -0.000496
    39     0.002773
    40    -0.000045
    41    -0.000098
    42    -0.000103
    43     0.000073
    44    -0.000107
    45     0.000377
    46     0.000274
    47    -0.001179
    48    -0.001053
    49    -0.000063
    50     0.000159
    51    -0.000038
    52    -0.000177
    53     0.000002
    54     0.000101
    55     0.000156
    56    -0.002766
    57     0.000064
    58    -0.000024
    59     0.000173
    60    -0.000515
    61    -0.000770
    62     0.003013
    63    -0.000017
    64    -0.000082
    65     0.000122
    66     0.000454
    67    -0.000778
    68     0.001145
    69     0.000076
    70    -0.000210
    71    -0.000442
    72     0.000207
    73    -0.000272
    74     0.000534
    75    -0.000333
    76    -0.001351
    77     0.001642
    78    -0.002596
    79     0.285291
    80     0.013849
    81    -0.514537
    82     0.014308
    83     0.000758
    84    -0.026500
    85     0.000801
    86    -0.000629
    87     0.005793
    88     0.000755
    89    -0.000976
    90     0.002389
    91    -0.000407
    92    -0.002251
    93     0.000101
    94    -0.000058
    95    -0.000287
    96     0.002138
    97    -0.000037
    98    -0.000071
    99    -0.000230
   100    -0.000057
   101     0.000690
   102     0.000219
   103    -0.000183
   104    -0.000248
   105    -0.000140
   106    -0.000101
   107     0.000005
   108    -0.000029
   109    -0.000037
   110     0.000480
   111    -0.003318
   112     0.000110
   113    -0.000077
   114     0.000082
   115    -0.000757
   116     0.000212
   117    -0.001088
   118     0.000033
   119     0.000046
   120    -0.000052
   121     0.000107
   122     0.000052
   123     0.000183
   124     0.000733
   125     0.000706
   126    -0.005215
   127    -0.000351
   128    -0.000215
   129    -0.000032
   130     0.002343
   131     0.000985
   132    -0.002485
   133     0.000344
   134     0.000141
   135     0.000593
   136    -0.000084
   137    -0.000629
   138     0.000310
   139     0.000171
   140     0.000313
   141    -0.003331
   142     0.006931
   143     0.018053
   144    -0.519348
   145     0.351264
   146     0.001344
   147    -0.024948
   148     0.017434
   149    -0.003544
   150     0.002537
   151    -0.001831
   152     0.001332
   153    -0.000032
   154     0.000060
   155     0.001433
   156    -0.001922
   157     0.002215
   158    -0.000232
   159    -0.000632
   160     0.000858
   161    -0.000478
   162     0.371714
   163    -0.265209
   164     0.148418
   165     0.017211
   166    -0.012653
   167     0.007149
   168    -0.001588
   169     0.000312
   170    -0.001050
   171     0.000825
   172    -0.000736
   173    -0.000744
   174    -0.000479
   175     0.000141
   176     0.000031
   177    -0.000207
   178    -0.001054
   179     0.000019
   180    -0.000046
   181    -0.000093
   182    -0.002278
   183    -0.003422
   184     0.000526
   185    -0.000380
   186    -0.000200
   187     0.000368
   188     0.000265
   189    -0.000052
   190     0.000023
   191     0.000031
   192    -0.000279
   193    -0.000019
   194     0.000001
   195    -0.000005
   196     0.000128
Sym=    22a
Ene=   -0.387074E+01
Spin= Alpha
Occup= 1.998483
     1     0.000294
     2     0.000877
     3    -0.000163
     4    -0.000297
     5    -0.000006
     6    -0.000004
     7    -0.000032
     8     0.000070
     9    -0.000008
    10     0.000087
    11     0.000129
    12    -0.000452
    13     0.000759
    14    -0.000111
    15     0.000015
    16    -0.000008
    17    -0.000022
    18     0.000016
    19    -0.000046
    20     0.000060
    21     0.000007
    22    -0.000225
    23     0.001336
    24     0.000016
    25     0.000003
    26     0.000019
    27    -0.000038
    28    -0.000025
    29     0.000051
    30    -0.000082
    31    -0.000084
    32    -0.000097
    33     0.000010
    34     0.000015
    35    -0.000004
    36    -0.000005
    37    -0.000033
    38    -0.000541
    39     0.003068
    40     0.000009
    41     0.000003
    42     0.000033
    43     0.000081
    44     0.000291
    45     0.000347
    46     0.000256
    47    -0.000574
    48    -0.001312
    49    -0.000091
    50    -0.000139
    51    -0.000077
    52    -0.000116
    53    -0.000030
    54     0.000075
    55     0.000612
    56    -0.002662
    57     0.000086
    58    -0.000016
    59     0.000013
    60     0.000041
    61     0.000033
    62    -0.000424
    63    -0.000065
    64     0.000008
    65    -0.000117
    66    -0.001321
    67     0.000128
    68    -0.000472
    69     0.000038
    70     0.000016
    71     0.000006
    72    -0.000026
    73     0.000039
    74    -0.000027
    75     0.000208
    76     0.000840
    77     0.001340
    78    -0.005619
    79    -0.461964
    80    -0.228100
    81    -0.146872
    82    -0.023329
    83    -0.011473
    84    -0.006779
    85     0.003608
    86     0.000956
    87     0.006046
    88    -0.000275
    89     0.001646
    90    -0.002202
    91     0.001529
    92     0.001308
    93     0.000218
    94     0.000341
    95     0.000360
    96    -0.002040
    97    -0.000136
    98    -0.000011
    99     0.000027
   100    -0.000858
   101    -0.001179
   102     0.000319
   103     0.000156
   104     0.000453
   105    -0.000050
   106     0.000330
   107     0.000022
   108     0.000057
   109    -0.000007
   110     0.000573
   111    -0.002162
   112     0.000111
   113    -0.000007
   114     0.000064
   115     0.000989
   116     0.000469
   117    -0.003676
   118    -0.000216
   119    -0.000061
   120    -0.000052
   121    -0.000059
   122    -0.000073
   123    -0.000009
   124    -0.000467
   125    -0.000526
   126     0.003529
   127     0.000183
   128     0.000136
   129     0.000258
   130    -0.002309
   131     0.000300
   132     0.002760
   133     0.000082
   134    -0.000201
   135    -0.000739
   136    -0.000082
   137    -0.000055
   138    -0.000518
   139    -0.000572
   140    -0.002436
   141    -0.003640
   142     0.006593
   143     0.580156
   144     0.132582
   145    -0.231846
   146     0.028207
   147     0.006514
   148    -0.010586
   149    -0.007820
   150     0.000004
   151     0.002701
   152    -0.000722
   153     0.000703
   154     0.001383
   155    -0.000587
   156     0.000385
   157    -0.000463
   158     0.000550
   159     0.001940
   160    -0.001566
   161     0.001861
   162     0.326461
   163    -0.379764
   164    -0.156006
   165     0.014978
   166    -0.018238
   167    -0.007332
   168    -0.001037
   169     0.002903
   170     0.000454
   171     0.000598
   172    -0.001098
   173    -0.000323
   174    -0.000501
   175    -0.000370
   176    -0.000513
   177    -0.000002
   178    -0.001331
   179     0.000017
   180    -0.000057
   181    -0.000142
   182    -0.000377
   183    -0.002485
   184     0.000602
   185    -0.000060
   186     0.000157
   187     0.000024
   188    -0.002278
   189    -0.000004
   190    -0.000002
   191    -0.000018
   192     0.000668
   193     0.002522
   194    -0.000923
   195     0.000670
   196     0.000464
Sym=    23a
Ene=   -0.382189E+01
Spin= Alpha
Occup= 1.998396
     1    -0.000879
     2     0.000815
     3    -0.000068
     4     0.000203
     5    -0.000302
     6     0.000001
     7    -0.000239
     8     0.001326
     9     0.000032
    10     0.000060
    11    -0.000226
    12    -0.000467
    13    -0.000682
    14     0.001346
    15    -0.000155
    16    -0.000108
    17     0.000091
    18     0.000042
    19    -0.000088
    20    -0.000152
    21    -0.000004
    22    -0.000095
    23     0.000410
    24     0.000117
    25    -0.000003
    26     0.000056
    27    -0.000102
    28    -0.000002
    29     0.000148
    30    -0.000041
    31    -0.000036
    32    -0.000036
    33     0.000005
    34     0.000013
    35    -0.000011
    36     0.000005
    37     0.000028
    38     0.000170
    39    -0.000823
    40     0.000013
    41    -0.000068
    42    -0.000069
    43     0.000186
    44    -0.000321
    45    -0.000192
    46    -0.000473
    47     0.000410
    48     0.000456
    49    -0.000018
    50     0.000112
    51     0.000117
    52     0.000063
    53     0.000053
    54    -0.000026
    55    -0.000356
    56     0.002975
    57    -0.000068
    58    -0.000035
    59    -0.000097
    60     0.000216
    61     0.000400
    62    -0.001694
    63    -0.000011
    64     0.000085
    65    -0.000036
    66    -0.000925
    67     0.000830
    68    -0.000329
    69     0.000009
    70     0.000108
    71     0.000133
    72    -0.000097
    73     0.000093
    74    -0.000186
    75    -0.000176
    76    -0.000647
    77    -0.000786
    78    -0.000669
    79     0.423558
    80     0.215085
    81     0.180567
    82     0.020638
    83     0.010658
    84     0.009059
    85    -0.003802
    86    -0.000429
    87    -0.003251
    88     0.000322
    89    -0.001218
    90     0.000933
    91    -0.000977
    92    -0.000608
    93    -0.000474
    94    -0.000337
    95    -0.000356
    96     0.001859
    97     0.000094
    98     0.000161
    99     0.000063
   100     0.000432
   101     0.000940
   102    -0.000066
   103    -0.000114
   104    -0.000411
   105     0.000093
   106    -0.000341
   107     0.000003
   108    -0.000037
   109     0.000054
   110     0.000324
   111     0.000174
   112     0.000012
   113     0.000057
   114     0.000008
   115     0.000676
   116    -0.000163
   117    -0.001215
   118    -0.000023
   119     0.000111
   120    -0.000014
   121    -0.000033
   122     0.000061
   123     0.000146
   124    -0.000945
   125    -0.001074
   126     0.002543
   127    -0.000368
   128     0.000501
   129     0.001304
   130    -0.000172
   131    -0.001586
   132    -0.002872
   133     0.000158
   134    -0.000316
   135    -0.001386
   136    -0.000010
   137    -0.000075
   138    -0.000992
   139    -0.000196
   140    -0.000691
   141    -0.002224
   142     0.002321
   143     0.353450
   144    -0.098510
   145    -0.564371
   146     0.016482
   147    -0.005164
   148    -0.028870
   149    -0.002938
   150     0.000456
   151     0.003772
   152     0.000262
   153     0.000451
   154    -0.001313
   155    -0.000270
   156     0.001126
   157    -0.002514
   158    -0.000664
   159    -0.002267
   160     0.000924
   161    -0.002851
   162     0.160562
   163     0.077592
   164     0.476295
   165     0.007664
   166     0.003526
   167     0.022657
   168    -0.001910
   169    -0.000496
   170    -0.003308
   171     0.000465
   172     0.000801
   173    -0.001088
   174    -0.000115
   175     0.000331
   176     0.000915
   177     0.000105
   178    -0.000693
   179    -0.000124
   180     0.000142
   181     0.000003
   182    -0.000515
   183    -0.000005
   184     0.000178
   185    -0.000110
   186    -0.000017
   187    -0.000093
   188    -0.000880
   189     0.000021
   190     0.000062
   191     0.000007
   192     0.000574
   193     0.001568
   194    -0.001029
   195     0.000516
   196     0.000351
Sym=    24a
Ene=   -0.376100E+01
Spin= Alpha
Occup= 1.998382
     1    -0.000668
     2    -0.001915
     3     0.000013
     4     0.000045
     5     0.000285
     6    -0.000028
     7     0.000349
     8    -0.001978
     9     0.000034
    10    -0.000009
    11     0.000190
    12     0.000396
    13     0.000217
    14    -0.001059
    15     0.000199
    16     0.000198
    17     0.000048
    18    -0.000042
    19     0.000075
    20     0.000059
    21     0.000006
    22    -0.000042
    23     0.000361
    24    -0.000109
    25    -0.000004
    26    -0.000048
    27    -0.000078
    28    -0.000063
    29    -0.000200
    30    -0.000029
    31    -0.000020
    32    -0.000029
    33    -0.000008
    34    -0.000012
    35     0.000013
    36     0.000001
    37    -0.000021
    38    -0.000158
    39     0.000891
    40     0.000014
    41    -0.000025
    42     0.000029
    43     0.000061
    44    -0.000181
    45     0.000158
    46    -0.000024
    47    -0.000686
    48    -0.000275
    49    -0.000020
    50     0.000239
    51    -0.000062
    52    -0.000130
    53     0.000011
    54     0.000047
    55    -0.000138
    56    -0.001190
    57     0.000017
    58    -0.000045
    59     0.000093
    60    -0.000239
    61    -0.000425
    62     0.001073
    63    -0.000119
    64    -0.000182
    65    -0.000004
    66    -0.000945
    67    -0.000840
    68    -0.000305
    69     0.000050
    70    -0.000117
    71    -0.000174
    72     0.000089
    73    -0.000070
    74     0.000235
    75    -0.000274
    76    -0.000988
    77     0.000874
    78    -0.001005
    79     0.352711
    80     0.088804
    81    -0.321468
    82     0.017221
    83     0.004375
    84    -0.016385
    85    -0.000271
    86    -0.000211
    87     0.002736
    88    -0.000057
    89    -0.001422
    90     0.002120
    91    -0.000994
    92    -0.001652
    93     0.000094
    94    -0.000188
    95    -0.000186
    96     0.001405
    97     0.000060
    98     0.000070
    99    -0.000001
   100     0.000221
   101     0.001261
   102     0.000811
   103     0.000003
   104    -0.000120
   105     0.000065
   106    -0.000188
   107    -0.000002
   108    -0.000032
   109     0.000063
   110    -0.000081
   111    -0.001652
   112     0.000369
   113     0.000038
   114     0.000149
   115    -0.000108
   116     0.000407
   117    -0.000878
   118    -0.000267
   119    -0.000031
   120    -0.000165
   121     0.000132
   122    -0.000167
   123    -0.000089
   124     0.001012
   125     0.000997
   126    -0.006941
   127    -0.000255
   128    -0.000491
   129    -0.000849
   130     0.001009
   131     0.000377
   132    -0.000254
   133     0.000227
   134     0.000021
   135     0.001361
   136    -0.000157
   137    -0.000792
   138     0.000524
   139    -0.000929
   140    -0.003757
   141    -0.003053
   142     0.002821
   143     0.588640
   144     0.290990
   145     0.281255
   146     0.028123
   147     0.013820
   148     0.014731
   149    -0.005787
   150    -0.000120
   151    -0.000515
   152    -0.001057
   153     0.000531
   154     0.002705
   155    -0.001455
   156    -0.001579
   157     0.001461
   158     0.000197
   159     0.000501
   160    -0.002713
   161     0.004215
   162    -0.354174
   163     0.246544
   164    -0.195562
   165    -0.016846
   166     0.011313
   167    -0.009533
   168     0.003381
   169     0.001253
   170     0.001249
   171    -0.000881
   172     0.000439
   173     0.000567
   174     0.000431
   175    -0.000318
   176    -0.000279
   177    -0.000225
   178    -0.000090
   179    -0.000005
   180    -0.000036
   181    -0.000038
   182     0.002952
   183    -0.001820
   184    -0.000570
   185     0.000346
   186    -0.000100
   187     0.000179
   188    -0.000278
   189    -0.000047
   190    -0.000044
   191     0.000020
   192    -0.000360
   193     0.002114
   194    -0.000335
   195     0.000317
   196     0.000323
Sym=    25a
Ene=   -0.379288E+01
Spin= Alpha
Occup= 1.998207
     1     0.000359
     2     0.000777
     3     0.000121
     4    -0.000259
     5     0.000090
     6     0.000007
     7     0.000101
     8    -0.000425
     9    -0.000067
    10    -0.000056
    11     0.000203
    12     0.000335
    13     0.000746
    14    -0.001082
    15     0.000105
    16     0.000060
    17    -0.000136
    18    -0.000052
    19     0.000099
    20     0.000127
    21     0.000012
    22    -0.000220
    23     0.001106
    24     0.000044
    25    -0.000090
    26     0.000101
    27     0.000044
    28    -0.000323
    29     0.000325
    30    -0.000093
    31    -0.000132
    32    -0.000126
    33     0.000006
    34     0.000014
    35    -0.000009
    36    -0.000006
    37    -0.000056
    38    -0.000202
    39     0.001643
    40     0.000072
    41    -0.000055
    42     0.000046
    43     0.000259
    44    -0.000163
    45     0.000296
    46     0.000260
    47    -0.000833
    48    -0.000529
    49     0.000035
    50     0.000211
    51    -0.000072
    52    -0.000172
    53    -0.000019
    54     0.000075
    55     0.000602
    56    -0.002285
    57     0.000042
    58    -0.000052
    59     0.000074
    60     0.000400
    61     0.000701
    62    -0.002397
    63     0.000060
    64     0.000172
    65    -0.000081
    66     0.000046
    67     0.001458
    68    -0.000540
    69    -0.000001
    70     0.000233
    71     0.000335
    72    -0.000166
    73     0.000168
    74    -0.000388
    75    -0.000133
    76    -0.000664
    77     0.001436
    78    -0.003910
    79     0.085961
    80    -0.062304
    81    -0.509196
    82     0.004517
    83    -0.002890
    84    -0.025478
    85     0.000936
    86     0.000281
    87     0.005511
    88     0.001073
    89    -0.000125
    90     0.000816
    91     0.000441
    92    -0.001690
    93     0.000018
    94     0.000029
    95    -0.000010
    96     0.000181
    97     0.000002
    98     0.000014
    99    -0.000018
   100    -0.000145
   101     0.000237
   102     0.000671
   103     0.000037
   104     0.000118
   105    -0.000020
   106     0.000015
   107     0.000006
   108    -0.000010
   109     0.000015
   110     0.000231
   111     0.000372
   112    -0.000475
   113     0.000068
   114    -0.000312
   115     0.000706
   116     0.000095
   117    -0.002433
   118     0.000194
   119    -0.000027
   120     0.000274
   121    -0.000146
   122    -0.000023
   123    -0.000257
   124    -0.000725
   125    -0.001055
   126     0.002647
   127    -0.000274
   128     0.000638
   129     0.001751
   130     0.001743
   131    -0.001044
   132    -0.004104
   133     0.000469
   134    -0.000295
   135    -0.001151
   136     0.000076
   137    -0.000246
   138    -0.001064
   139     0.001844
   140     0.007103
   141     0.000079
   142     0.001816
   143    -0.225512
   144    -0.194864
   145    -0.625760
   146    -0.010940
   147    -0.010052
   148    -0.032004
   149    -0.000974
   150     0.001419
   151     0.004408
   152     0.000343
   153    -0.000459
   154    -0.002409
   155     0.000379
   156     0.001626
   157    -0.003282
   158     0.000619
   159     0.002218
   160    -0.000453
   161     0.001976
   162    -0.243640
   163     0.052773
   164    -0.395928
   165    -0.011678
   166     0.002319
   167    -0.018944
   168     0.002081
   169    -0.000636
   170     0.002335
   171    -0.000901
   172    -0.000655
   173     0.000707
   174     0.000149
   175    -0.000355
   176    -0.000725
   177    -0.000150
   178    -0.000123
   179     0.000062
   180    -0.000076
   181    -0.000025
   182     0.000306
   183    -0.001513
   184    -0.000431
   185     0.000001
   186     0.000214
   187    -0.000340
   188    -0.001948
   189     0.000080
   190    -0.000037
   191    -0.000084
   192     0.000046
   193     0.001565
   194    -0.000370
   195     0.000121
   196     0.000024
Sym=    26a
Ene=   -0.359159E+01
Spin= Alpha
Occup= 1.998065
     1     0.000433
     2     0.000350
     3    -0.000070
     4     0.000210
     5    -0.000079
     6     0.000013
     7    -0.000272
     8     0.001391
     9     0.000055
    10    -0.000011
    11    -0.000070
    12    -0.000326
    13    -0.000310
    14     0.000867
    15    -0.000142
    16    -0.000124
    17    -0.000017
    18     0.000045
    19    -0.000081
    20    -0.000049
    21    -0.000012
    22     0.000060
    23    -0.000593
    24     0.000203
    25    -0.000029
    26     0.000106
    27     0.000161
    28    -0.000061
    29     0.000184
    30     0.000035
    31     0.000038
    32     0.000047
    33    -0.000017
    34    -0.000001
    35    -0.000000
    36    -0.000004
    37    -0.000023
    38     0.000432
    39    -0.002092
    40    -0.000000
    41    -0.000111
    42    -0.000080
    43     0.000111
    44    -0.000359
    45     0.000008
    46    -0.000063
    47     0.000324
    48     0.000584
    49     0.000202
    50     0.000280
    51     0.000003
    52    -0.000082
    53     0.000028
    54    -0.000038
    55     0.000029
    56    -0.000399
    57     0.000025
    58    -0.000048
    59     0.000076
    60     0.000691
    61     0.001170
    62    -0.003057
    63     0.000074
    64     0.000208
    65    -0.000227
    66     0.000039
    67     0.000305
    68    -0.001099
    69    -0.000040
    70     0.000250
    71     0.000539
    72    -0.000205
    73     0.000305
    74    -0.000580
    75    -0.000602
    76    -0.002167
    77     0.000080
    78     0.003779
    79     0.223586
    80     0.026256
    81    -0.316870
    82     0.011378
    83     0.001253
    84    -0.015730
    85    -0.001263
    86     0.000389
    87    -0.000687
    88     0.000134
    89    -0.000944
    90     0.001625
    91    -0.000485
    92    -0.001752
    93     0.000129
    94    -0.000056
    95    -0.000093
    96     0.000928
    97     0.000044
    98    -0.000127
    99    -0.000206
   100     0.000095
   101     0.000251
   102     0.000074
   103    -0.000082
   104    -0.000147
   105    -0.000037
   106    -0.000075
   107     0.000006
   108    -0.000018
   109     0.000047
   110    -0.000215
   111     0.003426
   112    -0.000184
   113    -0.000027
   114     0.000040
   115     0.000691
   116    -0.000414
   117     0.001755
   118    -0.000069
   119    -0.000042
   120     0.000036
   121    -0.000107
   122     0.000098
   123     0.000037
   124     0.000890
   125     0.000880
   126    -0.004778
   127    -0.000194
   128    -0.000421
   129    -0.000709
   130     0.002272
   131    -0.000604
   132    -0.001662
   133     0.000129
   134    -0.000091
   135     0.001517
   136     0.000065
   137    -0.000402
   138     0.000397
   139    -0.001752
   140    -0.005980
   141     0.004553
   142    -0.005520
   143    -0.333555
   144     0.742470
   145    -0.062839
   146    -0.016559
   147     0.035557
   148    -0.003185
   149     0.004298
   150    -0.004329
   151     0.000672
   152    -0.001516
   153    -0.000934
   154     0.001133
   155    -0.002266
   156     0.000458
   157    -0.001844
   158    -0.000308
   159    -0.001109
   160     0.001500
   161    -0.005020
   162     0.297615
   163    -0.190580
   164     0.167106
   165     0.014419
   166    -0.008507
   167     0.008104
   168    -0.004456
   169     0.000120
   170    -0.000774
   171     0.000699
   172     0.000215
   173    -0.000146
   174    -0.000434
   175     0.000216
   176     0.000381
   177    -0.000162
   178     0.001160
   179     0.000071
   180    -0.000029
   181     0.000056
   182    -0.000412
   183     0.005071
   184     0.000786
   185     0.000167
   186     0.000032
   187    -0.000358
   188     0.000192
   189     0.000085
   190     0.000053
   191    -0.000006
   192    -0.000141
   193    -0.001677
   194     0.000980
   195    -0.000419
   196    -0.000400
Sym=    27a
Ene=   -0.157963E+01
Spin= Alpha
Occup= 1.993558
     1     0.000794
     2     0.020374
     3     0.000218
     4    -0.000438
     5    -0.000408
     6    -0.000161
     7    -0.000615
     8     0.000664
     9    -0.000098
    10    -0.000267
    11     0.000952
    12     0.000729
    13     0.000299
    14     0.000016
    15    -0.000079
    16    -0.000063
    17    -0.000066
    18     0.000012
    19     0.000009
    20    -0.000019
    21    -0.000017
    22     0.000053
    23    -0.000424
    24    -0.000067
    25    -0.000069
    26     0.000078
    27    -0.000021
    28     0.000194
    29    -0.000401
    30     0.000047
    31     0.000051
    32     0.000053
    33    -0.000003
    34    -0.000015
    35     0.000008
    36     0.000105
    37     0.000448
    38    -0.000686
    39     0.002254
    40    -0.000202
    41     0.000092
    42    -0.000004
    43    -0.000155
    44     0.000358
    45     0.000118
    46    -0.002445
    47    -0.000254
    48    -0.001353
    49    -0.000812
    50    -0.001080
    51    -0.000379
    52     0.000898
    53     0.000078
    54    -0.000114
    55    -0.004437
    56    -0.001599
    57     0.000900
    58    -0.000227
    59     0.001993
    60    -0.000025
    61    -0.000048
    62    -0.000199
    63    -0.000083
    64    -0.000118
    65     0.000136
    66    -0.000074
    67    -0.000082
    68    -0.000005
    69     0.000005
    70    -0.000014
    71    -0.000031
    72     0.000024
    73    -0.000005
    74     0.000026
    75    -0.006129
    76    -0.033520
    77    -0.028759
    78    -0.006272
    79    -0.017253
    80    -0.027312
    81    -0.003562
    82     0.016521
    83     0.025045
    84     0.003663
    85     0.006148
    86     0.008853
    87     0.000347
    88     0.004930
    89    -0.011307
    90     0.015399
    91    -0.018402
    92    -0.003883
    93    -0.004600
    94    -0.303169
    95    -0.606550
    96    -0.440445
    97    -0.022363
    98    -0.050535
    99    -0.032450
   100     0.017664
   101     0.039696
   102     0.024519
   103    -0.007444
   104    -0.009740
   105    -0.005837
   106    -0.003743
   107     0.000063
   108    -0.000102
   109     0.000020
   110    -0.000589
   111     0.004411
   112     0.000168
   113    -0.000048
   114    -0.000096
   115     0.000413
   116    -0.001700
   117     0.000693
   118    -0.000094
   119    -0.000147
   120     0.000063
   121     0.000023
   122    -0.000012
   123    -0.000077
   124    -0.000524
   125    -0.001241
   126    -0.000576
   127     0.000789
   128    -0.000034
   129    -0.000926
   130     0.001835
   131    -0.003023
   132    -0.005185
   133    -0.000848
   134    -0.000026
   135    -0.000800
   136    -0.000010
   137     0.000833
   138     0.000195
   139     0.000015
   140     0.000130
   141     0.000558
   142    -0.006243
   143     0.000121
   144     0.000035
   145     0.000263
   146    -0.001359
   147    -0.000553
   148    -0.001592
   149     0.002153
   150     0.001905
   151    -0.000647
   152     0.001400
   153    -0.000686
   154    -0.001014
   155    -0.000297
   156     0.000098
   157    -0.000812
   158     0.000092
   159     0.000676
   160     0.010693
   161    -0.035129
   162     0.000185
   163    -0.000191
   164     0.000817
   165     0.001302
   166     0.000738
   167     0.000738
   168    -0.013915
   169    -0.009135
   170    -0.012990
   171     0.001704
   172     0.001747
   173    -0.001170
   174    -0.000153
   175    -0.001516
   176    -0.000898
   177    -0.000032
   178    -0.003445
   179     0.000025
   180     0.000074
   181    -0.000129
   182     0.000577
   183     0.016304
   184    -0.000290
   185     0.000270
   186     0.000109
   187    -0.000176
   188    -0.001187
   189    -0.000015
   190     0.000056
   191    -0.000056
   192    -0.000359
   193     0.000888
   194     0.000036
   195    -0.000106
   196    -0.000032
Sym=    28a
Ene=   -0.165839E+01
Spin= Alpha
Occup= 1.993502
     1    -0.000030
     2     0.000610
     3     0.000408
     4     0.000299
     5    -0.000598
     6    -0.002395
     7    -0.006452
     8    -0.002115
     9    -0.000306
    10     0.000147
    11     0.000019
    12    -0.002187
    13     0.001293
    14    -0.002368
    15     0.000237
    16     0.000400
    17    -0.000611
    18     0.000933
    19     0.000175
    20     0.000163
    21    -0.000562
    22    -0.002029
    23     0.000526
    24     0.003068
    25    -0.000705
    26     0.001763
    27    -0.004098
    28    -0.001376
    29    -0.001484
    30     0.001109
    31     0.000585
    32    -0.000495
    33    -0.001186
    34    -0.000108
    35    -0.000150
    36    -0.000004
    37    -0.000005
    38     0.000234
    39    -0.000777
    40    -0.000000
    41    -0.000035
    42    -0.000031
    43    -0.000022
    44    -0.000074
    45    -0.000157
    46     0.000150
    47    -0.000176
    48     0.000512
    49     0.000120
    50     0.000146
    51    -0.000030
    52     0.000004
    53    -0.000036
    54     0.000010
    55    -0.000089
    56    -0.000831
    57    -0.000065
    58     0.000028
    59     0.000031
    60     0.293684
    61     0.590314
    62     0.403901
    63     0.094821
    64    -0.003554
    65     0.061362
    66    -0.054192
    67    -0.001011
    68    -0.031115
    69     0.012072
    70     0.007075
    71     0.010048
    72    -0.000387
    73     0.005868
    74    -0.002716
    75     0.000005
    76     0.000027
    77     0.000515
    78     0.000416
    79    -0.000120
    80    -0.000035
    81     0.000238
    82     0.000053
    83     0.000217
    84    -0.000328
    85     0.001095
    86    -0.000441
    87     0.000934
    88     0.000462
    89    -0.000006
    90    -0.000414
    91     0.000092
    92    -0.000219
    93    -0.000055
    94     0.000013
    95    -0.000012
    96     0.000159
    97     0.000014
    98    -0.000048
    99     0.000032
   100    -0.000109
   101    -0.000102
   102    -0.000252
   103    -0.000010
   104    -0.000020
   105    -0.000017
   106    -0.000007
   107    -0.000015
   108    -0.000012
   109     0.039218
   110     0.062291
   111    -0.004397
   112    -0.070061
   113     0.007640
   114    -0.052742
   115     0.003668
   116     0.004438
   117    -0.005572
   118     0.015519
   119    -0.008357
   120     0.003893
   121    -0.001615
   122     0.022707
   123    -0.002679
   124     0.000114
   125     0.000037
   126     0.002466
   127     0.000199
   128    -0.000239
   129     0.000174
   130     0.000055
   131    -0.001441
   132    -0.002302
   133    -0.000075
   134    -0.000103
   135     0.000543
   136     0.000105
   137     0.000062
   138     0.000257
   139     0.003302
   140     0.016568
   141     0.011765
   142     0.002723
   143     0.009219
   144    -0.013026
   145     0.017542
   146    -0.008340
   147     0.007989
   148    -0.013737
   149    -0.000932
   150     0.001467
   151    -0.004244
   152    -0.002656
   153    -0.000364
   154     0.003403
   155    -0.004272
   156     0.007093
   157    -0.009854
   158     0.000025
   159    -0.000002
   160    -0.001211
   161     0.002414
   162    -0.000154
   163     0.000201
   164     0.000032
   165     0.000042
   166    -0.000323
   167    -0.000429
   168    -0.000346
   169     0.000667
   170    -0.001561
   171     0.000447
   172     0.000509
   173     0.000553
   174     0.000427
   175    -0.000190
   176    -0.000555
   177    -0.000211
   178     0.001246
   179     0.000046
   180     0.000006
   181     0.000132
   182     0.000098
   183    -0.000033
   184     0.000458
   185     0.000356
   186     0.000231
   187     0.001158
   188    -0.009244
   189    -0.000154
   190    -0.000547
   191     0.003246
   192     0.000883
   193    -0.001527
   194    -0.000876
   195     0.000298
   196     0.000286
Sym=    29a
Ene=   -0.163428E+01
Spin= Alpha
Occup= 1.992886
     1     0.003782
     2     0.004242
     3    -0.000185
     4    -0.000876
     5     0.000309
     6     0.300327
     7     0.606736
     8     0.419398
     9     0.032362
    10     0.061250
    11     0.086568
    12    -0.027270
    13    -0.053777
    14    -0.053478
    15     0.007495
    16     0.011053
    17     0.009225
    18     0.002391
    19    -0.002246
    20    -0.005182
    21     0.000124
    22    -0.000485
    23     0.005357
    24    -0.001033
    25     0.002183
    26     0.000037
    27     0.003097
    28    -0.000796
    29     0.002010
    30    -0.000205
    31     0.000431
    32    -0.000181
    33    -0.000434
    34     0.000080
    35     0.000349
    36     0.000014
    37     0.000133
    38     0.000673
    39    -0.004087
    40     0.000003
    41     0.000016
    42     0.000053
    43     0.000030
    44    -0.000093
    45    -0.000120
    46    -0.000119
    47     0.001002
    48     0.001954
    49     0.000310
    50     0.000241
    51     0.000072
    52     0.000068
    53    -0.000027
    54    -0.000016
    55     0.000120
    56     0.000863
    57     0.000014
    58     0.000012
    59    -0.000064
    60    -0.001906
    61    -0.004087
    62    -0.000982
    63     0.001346
    64     0.001282
    65     0.000427
    66    -0.002398
    67     0.002669
    68    -0.000638
    69     0.000250
    70    -0.000070
    71     0.000040
    72    -0.000079
    73     0.000255
    74     0.000084
    75     0.000003
    76     0.000006
    77    -0.000377
    78     0.000617
    79     0.000025
    80    -0.000004
    81     0.000088
    82     0.000186
    83     0.000072
    84     0.000009
    85    -0.001740
    86     0.000304
    87    -0.000932
    88     0.000088
    89     0.000219
    90    -0.000094
    91     0.000078
    92    -0.000093
    93    -0.000043
    94     0.000011
    95    -0.000047
    96    -0.000073
    97     0.000012
    98     0.000063
    99    -0.000032
   100    -0.000433
   101    -0.000562
   102    -0.000401
   103    -0.000064
   104    -0.000075
   105    -0.000020
   106    -0.000017
   107     0.000011
   108    -0.000006
   109     0.020915
   110     0.027609
   111     0.012556
   112     0.019739
   113     0.038867
   114    -0.001921
   115     0.001624
   116    -0.006280
   117    -0.021551
   118    -0.001895
   119     0.014404
   120    -0.008558
   121     0.011624
   122     0.000008
   123    -0.001867
   124    -0.000092
   125     0.000266
   126    -0.002961
   127     0.000102
   128     0.000107
   129     0.000060
   130     0.000724
   131     0.000224
   132     0.000825
   133     0.000163
   134     0.000136
   135     0.000125
   136     0.000014
   137     0.000020
   138    -0.000011
   139     0.000042
   140     0.000137
   141    -0.000842
   142     0.002957
   143     0.000496
   144     0.000476
   145    -0.000088
   146    -0.000676
   147    -0.000103
   148    -0.000276
   149    -0.004010
   150     0.001146
   151     0.002461
   152     0.000254
   153     0.000478
   154     0.001198
   155     0.000069
   156    -0.000152
   157     0.000001
   158     0.002411
   159     0.012243
   160     0.008990
   161    -0.000350
   162    -0.002850
   163    -0.005298
   164     0.014683
   165     0.003499
   166     0.005881
   167    -0.016253
   168     0.000431
   169     0.001302
   170    -0.010197
   171    -0.005006
   172    -0.004879
   173     0.014065
   174     0.000122
   175    -0.002895
   176    -0.005517
   177    -0.000156
   178     0.002855
   179     0.000035
   180    -0.000019
   181     0.000211
   182     0.001435
   183     0.000656
   184    -0.000336
   185     0.000124
   186     0.000331
   187     0.001977
   188    -0.022247
   189    -0.000331
   190     0.000221
   191     0.001864
   192    -0.000152
   193     0.001862
   194    -0.000008
   195     0.000015
   196     0.000084
Sym=    30a
Ene=   -0.153012E+01
Spin= Alpha
Occup= 1.989727
     1     0.000694
     2    -0.002783
     3     0.000069
     4    -0.000517
     5     0.000673
     6     0.005823
     7     0.011020
     8     0.023023
     9     0.000724
    10    -0.000163
    11     0.000692
    12    -0.002269
    13     0.005674
    14     0.001729
    15    -0.000575
    16    -0.001827
    17    -0.000279
    18    -0.000369
    19     0.000205
    20     0.000036
    21    -0.293683
    22    -0.590305
    23    -0.384371
    24    -0.136957
    25    -0.083592
    26     0.099372
    27     0.108484
    28     0.039827
    29    -0.076275
    30    -0.006206
    31    -0.014163
    32    -0.006867
    33     0.002573
    34    -0.000644
    35    -0.001393
    36    -0.000012
    37    -0.000171
    38    -0.001608
    39     0.008596
    40    -0.000040
    41     0.000053
    42    -0.000175
    43     0.000002
    44     0.000231
    45     0.000227
    46    -0.000694
    47    -0.000666
    48    -0.005044
    49    -0.000695
    50    -0.000659
    51     0.000027
    52    -0.000063
    53     0.000152
    54     0.000106
    55    -0.000115
    56     0.000659
    57     0.000041
    58    -0.000035
    59    -0.000012
    60     0.003983
    61     0.007261
    62     0.009366
    63     0.001816
    64     0.001040
    65     0.000276
    66    -0.004577
    67     0.000565
    68     0.002994
    69    -0.000786
    70    -0.000013
    71    -0.000455
    72    -0.000162
    73    -0.000253
    74    -0.000208
    75    -0.000003
    76    -0.000010
    77     0.000332
    78    -0.004299
    79    -0.000058
    80     0.000067
    81     0.000018
    82     0.000366
    83    -0.000418
    84    -0.000068
    85    -0.000552
    86     0.000468
    87     0.001599
    88    -0.000054
    89    -0.000164
    90     0.000024
    91     0.000033
    92     0.000199
    93    -0.000038
    94    -0.000077
    95    -0.000146
    96    -0.000201
    97    -0.000060
    98     0.000070
    99    -0.000247
   100    -0.000037
   101     0.000189
   102     0.000613
   103     0.000028
   104     0.000021
   105     0.000030
   106    -0.000001
   107     0.000015
   108     0.000003
   109    -0.034236
   110    -0.045174
   111    -0.007593
   112    -0.052273
   113     0.023093
   114     0.031709
   115     0.016774
   116     0.006041
   117    -0.027123
   118    -0.007715
   119     0.001097
   120     0.002757
   121     0.016602
   122     0.014806
   123    -0.011972
   124    -0.000047
   125     0.000138
   126    -0.001524
   127     0.000137
   128     0.000059
   129     0.000055
   130     0.000391
   131     0.000335
   132     0.000931
   133     0.000059
   134     0.000042
   135     0.000087
   136     0.000003
   137     0.000017
   138    -0.000017
   139     0.000128
   140     0.000799
   141    -0.000141
   142     0.006129
   143     0.000210
   144    -0.000239
   145     0.000556
   146     0.000154
   147    -0.000097
   148    -0.001201
   149    -0.009744
   150     0.002666
   151     0.003021
   152     0.000012
   153    -0.000903
   154     0.000648
   155     0.000327
   156     0.000733
   157     0.000221
   158     0.000121
   159     0.000871
   160     0.002013
   161     0.005262
   162     0.000006
   163    -0.000484
   164    -0.000707
   165    -0.000493
   166     0.001670
   167     0.001697
   168     0.003773
   169     0.002191
   170     0.000407
   171     0.000411
   172    -0.000233
   173    -0.000767
   174     0.000692
   175    -0.000325
   176     0.000502
   177     0.000820
   178    -0.009329
   179    -0.000163
   180    -0.000013
   181    -0.000535
   182    -0.000838
   183    -0.006249
   184     0.000184
   185    -0.000128
   186    -0.000008
   187    -0.006748
   188    -0.024950
   189     0.000839
   190    -0.000236
   191    -0.000960
   192    -0.000326
   193     0.005226
   194    -0.000119
   195     0.000073
   196     0.000058
Sym=    31a
Ene=   -0.123631E+01
Spin= Alpha
Occup= 1.987811
     1     0.000706
     2    -0.000402
     3    -0.000971
     4     0.000046
     5    -0.000448
     6    -0.000216
     7    -0.000328
     8    -0.001890
     9     0.000296
    10    -0.000181
    11     0.000855
    12     0.000620
    13    -0.000255
    14    -0.000623
    15     0.000058
    16     0.000029
    17     0.000093
    18    -0.000025
    19     0.000047
    20    -0.000002
    21    -0.000022
    22     0.000148
    23    -0.001251
    24    -0.000010
    25    -0.000062
    26     0.000106
    27     0.000136
    28     0.000421
    29    -0.000268
    30     0.000078
    31     0.000055
    32     0.000078
    33    -0.000012
    34     0.000000
    35    -0.000015
    36     0.000031
    37     0.000356
    38    -0.000523
    39    -0.002237
    40    -0.000871
    41    -0.000785
    42     0.000184
    43    -0.001270
    44    -0.001073
    45     0.000473
    46    -0.006088
    47    -0.004956
    48    -0.000334
    49     0.001242
    50     0.000177
    51     0.000125
    52    -0.000067
    53    -0.000117
    54     0.000220
    55    -0.003561
    56    -0.019570
    57    -0.001279
    58     0.000236
    59    -0.002881
    60    -0.000790
    61    -0.001999
    62     0.000305
    63     0.000570
    64     0.000814
    65     0.001090
    66    -0.000365
    67    -0.002279
    68     0.002037
    69    -0.000158
    70    -0.000148
    71     0.000273
    72    -0.000021
    73     0.000278
    74    -0.000274
    75     0.008354
    76     0.047562
    77     0.056596
    78     0.013743
    79    -0.037737
    80    -0.005440
    81     0.027969
    82     0.051788
    83     0.009096
    84    -0.036454
    85     0.029491
    86     0.013421
    87     0.002229
    88     0.017433
    89    -0.018023
    90    -0.006368
    91     0.003502
    92    -0.035298
    93    -0.006372
    94    -0.000612
    95    -0.002654
    96     0.011841
    97    -0.001298
    98    -0.004187
    99    -0.000041
   100     0.001686
   101     0.006415
   102    -0.000534
   103    -0.000262
   104     0.000055
   105    -0.000977
   106     0.000596
   107     0.000193
   108    -0.000025
   109     0.000015
   110    -0.001037
   111     0.007827
   112    -0.000393
   113    -0.000155
   114    -0.000288
   115     0.000967
   116    -0.002447
   117     0.005470
   118     0.000368
   119    -0.000173
   120    -0.000332
   121    -0.000028
   122     0.000123
   123     0.000034
   124     0.278232
   125     0.554360
   126     0.360920
   127     0.151711
   128     0.066890
   129     0.046906
   130     0.131281
   131     0.060755
   132     0.034810
   133     0.009310
   134     0.011298
   135     0.024901
   136    -0.003761
   137    -0.007533
   138     0.003509
   139     0.007265
   140     0.039703
   141     0.052327
   142    -0.017310
   143    -0.008186
   144    -0.023125
   145    -0.039562
   146     0.010832
   147     0.027368
   148     0.043055
   149     0.036751
   150     0.007460
   151     0.006248
   152    -0.017513
   153    -0.001170
   154     0.020488
   155     0.005166
   156     0.011544
   157     0.023824
   158     0.000171
   159     0.001087
   160     0.001364
   161     0.006852
   162    -0.002040
   163    -0.000915
   164    -0.000228
   165     0.004004
   166     0.002311
   167     0.000662
   168     0.006982
   169     0.005546
   170     0.000743
   171     0.000400
   172     0.000512
   173    -0.000480
   174    -0.000385
   175    -0.000999
   176     0.000082
   177    -0.000941
   178     0.002088
   179    -0.000247
   180     0.000217
   181    -0.000025
   182     0.005268
   183     0.015235
   184     0.000326
   185     0.000996
   186     0.000102
   187    -0.000351
   188     0.001969
   189    -0.000146
   190     0.000053
   191     0.000044
   192    -0.002249
   193    -0.020395
   194    -0.001699
   195     0.001289
   196     0.001278
Sym=    32a
Ene=   -0.717187E+00
Spin= Alpha
Occup= 1.984808
     1    -0.004286
     2    -0.017037
     3    -0.000238
     4    -0.000187
     5     0.001955
     6     0.000569
     7     0.001156
     8     0.003099
     9     0.000079
    10     0.000787
    11    -0.002797
    12    -0.001110
    13     0.000781
    14     0.001737
    15    -0.000004
    16     0.000017
    17    -0.000152
    18     0.000016
    19     0.000003
    20     0.000084
    21     0.000211
    22    -0.000694
    23     0.006301
    24     0.000255
    25     0.000226
    26    -0.000285
    27     0.000002
    28    -0.001549
    29     0.001879
    30    -0.000420
    31    -0.000400
    32    -0.000455
    33    -0.000016
    34     0.000025
    35    -0.000006
    36    -0.000622
    37    -0.004395
    38     0.002613
    39     0.037311
    40    -0.000967
    41    -0.003016
    42     0.000802
    43    -0.002610
    44    -0.004842
    45     0.000526
    46     0.003507
    47    -0.021660
    48     0.009943
    49    -0.000957
    50    -0.001854
    51    -0.000882
    52    -0.000339
    53     0.000110
    54     0.000956
    55     0.003800
    56     0.032726
    57    -0.000818
    58    -0.000716
    59    -0.000089
    60     0.000104
    61    -0.000737
    62     0.005296
    63     0.000470
    64     0.001002
    65     0.000112
    66    -0.000011
    67    -0.001437
    68     0.000281
    69    -0.000327
    70    -0.000342
    71    -0.000207
    72    -0.000008
    73     0.000071
    74    -0.000052
    75     0.003421
    76     0.020735
    77     0.045585
    78    -0.065881
    79    -0.008363
    80     0.020503
    81     0.024124
    82     0.012117
    83    -0.032272
    84    -0.037557
    85     0.036882
    86    -0.019921
    87    -0.049251
    88    -0.027033
    89     0.031453
    90     0.003609
    91    -0.008179
    92     0.026006
    93     0.038329
    94    -0.014079
    95    -0.033494
    96    -0.015805
    97    -0.402527
    98     0.102900
    99     0.493876
   100     0.286100
   101    -0.076908
   102    -0.355274
   103     0.006731
   104    -0.006620
   105    -0.002842
   106     0.006913
   107    -0.006675
   108    -0.010290
   109     0.000027
   110     0.003033
   111    -0.006707
   112    -0.000790
   113     0.000208
   114    -0.000592
   115     0.003321
   116     0.002958
   117    -0.017300
   118     0.000020
   119    -0.000086
   120     0.000354
   121     0.000017
   122    -0.000140
   123    -0.000057
   124    -0.006853
   125    -0.011485
   126    -0.044483
   127     0.012497
   128     0.011297
   129    -0.008662
   130     0.013500
   131     0.018266
   132    -0.000924
   133     0.000946
   134     0.001196
   135     0.000592
   136     0.000477
   137    -0.000448
   138    -0.000291
   139    -0.000143
   140    -0.001223
   141    -0.015688
   142     0.032905
   143    -0.001378
   144    -0.001473
   145    -0.001070
   146     0.007217
   147     0.005800
   148     0.004377
   149    -0.024042
   150     0.000127
   151     0.018916
   152    -0.002498
   153    -0.000530
   154     0.005525
   155     0.003928
   156    -0.003877
   157     0.001796
   158    -0.000173
   159    -0.001594
   160    -0.013714
   161     0.028215
   162     0.000195
   163     0.001546
   164    -0.002900
   165    -0.003331
   166    -0.004278
   167     0.004197
   168     0.013544
   169     0.006050
   170     0.012727
   171    -0.002350
   172    -0.002766
   173     0.006509
   174    -0.000030
   175     0.005022
   176     0.000140
   177     0.000071
   178    -0.001931
   179    -0.000320
   180    -0.000414
   181     0.000225
   182    -0.008147
   183    -0.017556
   184    -0.000030
   185    -0.000533
   186     0.000506
   187     0.000251
   188    -0.011376
   189     0.000171
   190    -0.000082
   191    -0.000200
   192     0.000273
   193     0.007959
   194    -0.000258
   195     0.000248
   196     0.000398
Sym=    33a
Ene=   -0.949492E+00
Spin= Alpha
Occup= 1.984747
     1     0.000174
     2    -0.010155
     3    -0.000126
     4     0.000302
     5    -0.000126
     6    -0.000079
     7     0.000088
     8    -0.001672
     9    -0.000041
    10    -0.000062
    11     0.000091
    12     0.000044
    13     0.000017
    14    -0.000482
    15     0.000090
    16     0.000081
    17     0.000108
    18    -0.000000
    19    -0.000006
    20    -0.000006
    21     0.000002
    22     0.000125
    23    -0.000569
    24    -0.000043
    25    -0.000012
    26    -0.000019
    27    -0.000030
    28     0.000097
    29     0.000126
    30     0.000034
    31     0.000033
    32     0.000016
    33    -0.000000
    34     0.000004
    35    -0.000004
    36    -0.077905
    37    -0.484274
    38     0.665464
    39     0.350962
    40    -0.007948
    41     0.011642
    42     0.018206
    43    -0.014035
    44     0.023198
    45     0.038172
    46    -0.030999
    47     0.052818
    48     0.074688
    49     0.022689
    50     0.025999
    51     0.024174
    52    -0.007337
    53     0.004406
    54    -0.003206
    55    -0.009677
    56    -0.011205
    57    -0.000625
    58     0.000059
    59    -0.001010
    60     0.000053
    61     0.000097
    62     0.000232
    63     0.000029
    64    -0.000057
    65    -0.000193
    66     0.000151
    67     0.000162
    68     0.000328
    69    -0.000015
    70    -0.000007
    71    -0.000014
    72     0.000007
    73    -0.000010
    74    -0.000001
    75     0.006381
    76     0.036723
    77     0.044971
    78     0.005368
    79     0.020897
    80    -0.027345
    81    -0.001387
    82    -0.033924
    83     0.043134
    84     0.000409
    85    -0.011507
    86     0.014221
    87     0.003917
    88     0.003704
    89     0.016636
    90    -0.013383
    91    -0.021922
    92    -0.005642
    93     0.004971
    94    -0.002296
    95    -0.004411
    96    -0.005089
    97    -0.002731
    98     0.002178
    99     0.000776
   100     0.003430
   101    -0.002972
   102    -0.000604
   103     0.000006
   104     0.000584
   105     0.000058
   106     0.000164
   107    -0.000050
   108     0.000108
   109    -0.000015
   110    -0.000367
   111     0.000326
   112     0.000076
   113    -0.000001
   114     0.000126
   115     0.000011
   116     0.000162
   117     0.002308
   118    -0.000004
   119     0.000043
   120    -0.000096
   121    -0.000050
   122     0.000053
   123     0.000005
   124    -0.001235
   125    -0.001992
   126    -0.002547
   127    -0.000449
   128    -0.001955
   129     0.000399
   130     0.000222
   131    -0.002101
   132     0.000259
   133     0.000562
   134     0.000118
   135     0.000170
   136    -0.000118
   137    -0.000440
   138     0.000332
   139    -0.000053
   140    -0.000317
   141     0.000900
   142     0.000288
   143     0.000112
   144     0.000206
   145     0.000123
   146    -0.000759
   147     0.000033
   148     0.000256
   149     0.002816
   150    -0.003236
   151     0.000745
   152     0.000118
   153    -0.000214
   154     0.000651
   155     0.000127
   156    -0.000514
   157    -0.000212
   158     0.000070
   159     0.000447
   160     0.000108
   161     0.008894
   162    -0.000012
   163    -0.000329
   164    -0.000095
   165    -0.000165
   166     0.000682
   167     0.000378
   168     0.003539
   169     0.005268
   170     0.001408
   171     0.000178
   172     0.000464
   173    -0.000113
   174     0.000266
   175     0.000104
   176     0.000200
   177     0.101290
   178    -0.011255
   179     0.001063
   180     0.001910
   181     0.012732
   182     0.000029
   183    -0.003823
   184     0.000014
   185    -0.000003
   186     0.000016
   187     0.000016
   188     0.001711
   189    -0.000041
   190    -0.000013
   191     0.000050
   192     0.000415
   193    -0.002692
   194     0.000034
   195     0.000001
   196    -0.000098
Sym=    34a
Ene=   -0.769406E+00
Spin= Alpha
Occup= 1.983635
     1     0.003323
     2    -0.016922
     3     0.000210
     4    -0.001270
     5     0.002386
     6     0.012793
     7     0.026303
     8     0.049840
     9     0.001517
    10    -0.017830
    11    -0.002324
    12     0.002119
    13     0.021575
    14     0.002742
    15    -0.000028
    16    -0.003323
    17     0.000239
    18     0.000200
    19     0.000383
    20    -0.000316
    21     0.080088
    22     0.164327
    23     0.143998
    24    -0.206864
    25    -0.554125
    26     0.212750
    27     0.156277
    28     0.368892
    29    -0.153000
    30     0.009811
    31    -0.013058
    32     0.006755
    33     0.003821
    34    -0.005129
    35    -0.000655
    36    -0.000007
    37    -0.000019
    38     0.000853
    39    -0.004581
    40    -0.000024
    41     0.000024
    42    -0.000128
    43     0.000096
    44    -0.000081
    45    -0.000324
    46    -0.001222
    47     0.001838
    48     0.000755
    49     0.000220
    50     0.000112
    51     0.000098
    52     0.000081
    53     0.000061
    54    -0.000117
    55     0.000048
    56     0.004062
    57    -0.000011
    58    -0.000044
    59    -0.000111
    60     0.000763
    61     0.002759
    62    -0.004095
    63     0.005429
    64     0.004003
    65    -0.000877
    66    -0.006744
    67    -0.007765
    68     0.004822
    69    -0.000769
    70     0.001132
    71     0.000501
    72    -0.000054
    73     0.000166
    74    -0.000267
    75     0.000007
    76     0.000084
    77    -0.002340
    78     0.006060
    79    -0.000081
    80     0.000046
    81    -0.000083
    82     0.000995
    83    -0.000190
    84     0.001018
    85    -0.005025
    86     0.001497
    87    -0.007522
    88    -0.000233
    89    -0.000180
    90    -0.000147
    91    -0.000102
    92    -0.000202
    93     0.000033
    94    -0.000236
    95    -0.000034
    96    -0.003170
    97    -0.000169
    98     0.000019
    99    -0.000686
   100     0.000155
   101    -0.000042
   102     0.001130
   103     0.000176
   104     0.000174
   105     0.000202
   106     0.000019
   107     0.000041
   108     0.000028
   109    -0.029155
   110    -0.070204
   111     0.047664
   112    -0.085165
   113    -0.014395
   114     0.055186
   115     0.021461
   116     0.041061
   117    -0.030682
   118    -0.022763
   119     0.021643
   120    -0.016324
   121     0.007821
   122     0.024751
   123    -0.007809
   124    -0.000080
   125     0.000391
   126    -0.003937
   127     0.000256
   128     0.000211
   129     0.000274
   130     0.001886
   131     0.000482
   132     0.000650
   133     0.000127
   134     0.000150
   135     0.000135
   136     0.000002
   137     0.000031
   138    -0.000018
   139     0.000129
   140     0.000696
   141     0.002130
   142    -0.000828
   143     0.000691
   144    -0.000111
   145     0.000340
   146    -0.002140
   147     0.000319
   148    -0.000565
   149    -0.007664
   150    -0.001972
   151     0.001827
   152     0.002586
   153    -0.000998
   154     0.000535
   155     0.000386
   156     0.001086
   157     0.001063
   158     0.000272
   159     0.001769
   160     0.012060
   161    -0.004624
   162     0.000265
   163    -0.001368
   164    -0.002387
   165    -0.000187
   166     0.006578
   167     0.004036
   168     0.000486
   169    -0.001358
   170     0.009641
   171     0.002735
   172     0.000445
   173     0.000462
   174     0.001084
   175     0.000690
   176     0.001676
   177     0.000011
   178     0.000294
   179    -0.000025
   180    -0.000082
   181     0.000124
   182    -0.001402
   183    -0.003559
   184     0.000185
   185     0.000035
   186    -0.000046
   187    -0.010556
   188    -0.059309
   189     0.001072
   190    -0.001824
   191     0.002623
   192    -0.000244
   193     0.004174
   194     0.000008
   195     0.000033
   196    -0.000004
Sym=    35a
Ene=   -0.815171E+00
Spin= Alpha
Occup= 1.982831
     1    -0.003773
     2    -0.000800
     3     0.001855
     4     0.000820
     5    -0.001787
     6    -0.010208
     7    -0.023533
     8    -0.023982
     9     0.014259
    10     0.011367
    11     0.005377
    12    -0.009313
    13    -0.008977
    14    -0.006135
    15     0.000952
    16    -0.000219
    17    -0.001123
    18     0.001930
    19     0.000978
    20     0.000703
    21    -0.005749
    22    -0.013781
    23    -0.004723
    24     0.007935
    25    -0.011539
    26     0.009657
    27    -0.004761
    28     0.009245
    29    -0.011425
    30     0.001006
    31     0.000016
    32    -0.000782
    33    -0.001657
    34     0.000413
    35    -0.000551
    36    -0.000012
    37    -0.000093
    38    -0.000145
    39     0.001759
    40    -0.000078
    41    -0.000098
    42    -0.000045
    43    -0.000058
    44    -0.000052
    45     0.000113
    46    -0.000826
    47    -0.001296
    48    -0.001972
    49    -0.000161
    50     0.000000
    51    -0.000024
    52     0.000063
    53    -0.000093
    54     0.000141
    55    -0.000349
    56    -0.003674
    57     0.000095
    58    -0.000135
    59     0.000030
    60    -0.054168
    61    -0.119353
    62    -0.080191
    63     0.585144
    64     0.211499
    65    -0.092912
    66    -0.407790
    67    -0.155563
    68     0.074194
    69     0.004203
    70    -0.003818
    71    -0.005911
    72     0.007722
    73    -0.001421
    74    -0.001110
    75    -0.000024
    76    -0.000155
    77     0.003059
    78    -0.014224
    79     0.000039
    80    -0.000074
    81    -0.000070
    82    -0.000841
    83    -0.000513
    84    -0.000756
    85     0.002872
    86     0.005593
    87     0.012694
    88     0.000375
    89     0.000147
    90    -0.000651
    91    -0.000415
    92     0.000682
    93    -0.000730
    94     0.000246
    95     0.000097
    96     0.003811
    97    -0.000162
    98    -0.000240
    99     0.000911
   100    -0.000539
   101     0.001036
   102     0.000127
   103    -0.000119
   104    -0.000092
   105    -0.000188
   106    -0.000006
   107    -0.000001
   108    -0.000024
   109     0.043931
   110     0.078909
   111    -0.033678
   112    -0.073754
   113     0.026505
   114    -0.076189
   115    -0.021120
   116    -0.006973
   117     0.007647
   118     0.001997
   119    -0.006472
   120     0.016276
   121    -0.006519
   122     0.022547
   123    -0.009642
   124     0.000347
   125     0.000241
   126     0.002306
   127     0.001123
   128     0.001024
   129     0.000378
   130     0.001275
   131     0.001987
   132     0.002187
   133    -0.000145
   134    -0.000082
   135    -0.000218
   136    -0.000039
   137     0.000169
   138     0.000080
   139    -0.000066
   140     0.000389
   141     0.003390
   142     0.005004
   143     0.014910
   144     0.008387
   145    -0.004064
   146    -0.021303
   147    -0.011569
   148     0.003345
   149    -0.035620
   150    -0.011050
   151     0.017451
   152     0.015727
   153    -0.009635
   154    -0.007272
   155    -0.010693
   156     0.017549
   157     0.013581
   158    -0.000148
   159    -0.001320
   160    -0.009791
   161     0.016349
   162     0.003260
   163     0.001195
   164     0.001760
   165    -0.007799
   166    -0.004029
   167    -0.002455
   168     0.002231
   169    -0.002366
   170    -0.010838
   171     0.001914
   172     0.000438
   173     0.000216
   174     0.003639
   175    -0.002051
   176    -0.002184
   177    -0.000588
   178    -0.000315
   179     0.000043
   180     0.000060
   181     0.000079
   182    -0.009816
   183    -0.030376
   184     0.000359
   185    -0.000959
   186    -0.000596
   187     0.006082
   188     0.018212
   189     0.000948
   190    -0.000688
   191     0.003161
   192     0.006134
   193     0.023683
   194    -0.000024
   195     0.000330
   196    -0.000425
Sym=    36a
Ene=   -0.781417E+00
Spin= Alpha
Occup= 1.982229
     1    -0.002100
     2     0.006854
     3     0.000620
     4     0.000001
     5    -0.000760
     6     0.005467
     7     0.012127
     8     0.015994
     9    -0.009156
    10    -0.000788
    11    -0.000165
    12     0.008125
    13    -0.000443
    14    -0.002664
    15    -0.001209
    16     0.000323
    17     0.000729
    18    -0.000639
    19    -0.000169
    20    -0.000077
    21    -0.005866
    22    -0.011444
    23    -0.026981
    24     0.008724
    25    -0.004695
    26     0.000711
    27    -0.007196
    28     0.005737
    29     0.000176
    30     0.001064
    31    -0.000039
    32     0.001001
    33     0.000071
    34     0.000646
    35     0.000354
    36    -0.000006
    37    -0.000075
    38    -0.000647
    39     0.005665
    40    -0.000087
    41    -0.000123
    42     0.000288
    43    -0.000043
    44    -0.000124
    45     0.000760
    46    -0.000436
    47    -0.001537
    48    -0.002114
    49    -0.000160
    50    -0.000149
    51    -0.000144
    52     0.000071
    53    -0.000106
    54     0.000173
    55    -0.001646
    56    -0.001976
    57     0.000245
    58    -0.000067
    59    -0.000166
    60     0.012876
    61     0.028986
    62     0.019936
    63     0.133081
    64    -0.497044
    65    -0.402481
    66    -0.094234
    67     0.355434
    68     0.282896
    69     0.003478
    70    -0.006513
    71     0.004307
    72    -0.003296
    73    -0.004436
    74    -0.002544
    75     0.000099
    76     0.000638
    77     0.007827
    78    -0.031806
    79    -0.000729
    80     0.000251
    81     0.000367
    82     0.001586
    83    -0.000526
    84    -0.002035
    85    -0.002388
    86     0.002999
    87     0.018951
    88     0.001968
    89     0.001093
    90    -0.001924
    91     0.000135
    92     0.000516
    93    -0.000827
    94     0.000027
    95    -0.000697
    96     0.004158
    97     0.000591
    98    -0.000101
    99    -0.000186
   100    -0.001397
   101     0.000082
   102    -0.000382
   103    -0.000256
   104    -0.000334
   105    -0.000277
   106    -0.000055
   107    -0.000035
   108    -0.000036
   109    -0.011145
   110    -0.016735
   111    -0.010801
   112     0.030162
   113    -0.029910
   114     0.002750
   115    -0.016931
   116     0.019657
   117     0.017250
   118    -0.009787
   119    -0.000918
   120     0.011003
   121     0.012959
   122    -0.000538
   123     0.007275
   124    -0.002871
   125    -0.005321
   126    -0.011103
   127     0.001345
   128    -0.001637
   129     0.006396
   130     0.001020
   131    -0.007267
   132     0.008288
   133     0.000026
   134     0.000521
   135     0.000469
   136    -0.000132
   137    -0.000195
   138     0.000128
   139    -0.000438
   140    -0.002393
   141    -0.020821
   142     0.030689
   143     0.001002
   144    -0.011765
   145    -0.014173
   146     0.002044
   147     0.017512
   148     0.016857
   149    -0.040318
   150     0.034055
   151     0.037544
   152     0.002957
   153     0.021526
   154    -0.027516
   155    -0.010515
   156    -0.001837
   157    -0.005078
   158    -0.000022
   159    -0.000206
   160     0.004975
   161    -0.032088
   162    -0.001413
   163     0.001404
   164     0.000477
   165     0.003424
   166    -0.001868
   167    -0.001894
   168    -0.012647
   169    -0.014527
   170    -0.002257
   171    -0.000220
   172    -0.000222
   173     0.001394
   174    -0.001164
   175    -0.001292
   176    -0.000956
   177    -0.000691
   178    -0.003313
   179    -0.000110
   180     0.000091
   181    -0.000030
   182     0.002969
   183     0.015696
   184    -0.000061
   185    -0.000074
   186    -0.000081
   187     0.003764
   188     0.027703
   189    -0.000427
   190     0.000228
   191    -0.002471
   192     0.005356
   193     0.035868
   194    -0.000261
   195     0.000187
   196    -0.000164
Sym=    37a
Ene=   -0.777019E+00
Spin= Alpha
Occup= 1.980490
     1     0.005601
     2     0.009491
     3    -0.000667
     4    -0.000721
     5     0.000333
     6    -0.000131
     7    -0.001883
     8     0.005101
     9    -0.588853
    10     0.295280
    11     0.015149
    12     0.420835
    13    -0.207597
    14    -0.008565
    15     0.005281
    16    -0.005662
    17    -0.001098
    18     0.004289
    19     0.006109
    20    -0.002976
    21     0.008054
    22     0.015624
    23     0.030955
    24     0.008066
    25     0.023417
    26     0.004493
    27    -0.006493
    28    -0.018330
    29    -0.003517
    30    -0.000799
    31    -0.001120
    32    -0.000491
    33    -0.000604
    34     0.000471
    35    -0.000289
    36     0.000014
    37     0.000096
    38    -0.000013
    39    -0.000672
    40     0.000109
    41     0.000129
    42     0.000153
    43     0.000222
    44     0.000374
    45     0.000273
    46     0.000450
    47    -0.000473
    48     0.000753
    49     0.000006
    50     0.000178
    51    -0.000135
    52     0.000058
    53    -0.000093
    54     0.000140
    55    -0.000183
    56    -0.002472
    57     0.000040
    58    -0.000035
    59     0.000096
    60    -0.007388
    61    -0.015046
    62    -0.023330
    63    -0.014334
    64    -0.014429
    65    -0.009354
    66     0.009205
    67     0.011187
    68     0.010660
    69     0.000221
    70     0.000585
    71    -0.000184
    72     0.000910
    73     0.000292
    74     0.000675
    75     0.000006
    76     0.000054
    77     0.001082
    78    -0.003638
    79     0.000119
    80     0.000221
    81     0.000107
    82    -0.000797
    83    -0.000486
    84    -0.000414
    85     0.002059
    86     0.000280
    87     0.005335
    88    -0.000286
    89     0.000072
    90    -0.000259
    91    -0.000559
    92     0.000842
    93     0.000005
    94    -0.000114
    95    -0.000179
    96    -0.000213
    97    -0.000382
    98     0.000471
    99    -0.000108
   100     0.000072
   101     0.000650
   102     0.000911
   103     0.000073
   104     0.000059
   105     0.000031
   106     0.000007
   107     0.000037
   108    -0.000028
   109    -0.002478
   110    -0.002066
   111    -0.006395
   112    -0.031770
   113     0.011692
   114    -0.006959
   115     0.026179
   116    -0.013108
   117    -0.016125
   118    -0.011814
   119     0.011751
   120    -0.001009
   121    -0.014514
   122     0.002603
   123    -0.000063
   124     0.000200
   125    -0.000342
   126     0.005517
   127    -0.000087
   128    -0.001849
   129    -0.000474
   130    -0.001095
   131    -0.001938
   132     0.000632
   133    -0.000177
   134    -0.000295
   135    -0.000213
   136     0.000069
   137     0.000026
   138    -0.000125
   139    -0.000560
   140    -0.003731
   141    -0.014457
   142     0.025307
   143    -0.002282
   144    -0.003083
   145     0.000791
   146     0.006580
   147     0.005585
   148     0.000058
   149    -0.006723
   150    -0.002592
   151    -0.014257
   152     0.000057
   153    -0.001940
   154     0.001607
   155    -0.000761
   156     0.004710
   157     0.000931
   158     0.000368
   159     0.002655
   160     0.001959
   161     0.018695
   162    -0.008792
   163     0.006174
   164    -0.001677
   165     0.012026
   166    -0.010521
   167     0.003235
   168     0.024565
   169    -0.013599
   170     0.000741
   171     0.005851
   172    -0.006965
   173    -0.000399
   174     0.006860
   175    -0.021712
   176     0.012044
   177    -0.000632
   178     0.002678
   179     0.000076
   180    -0.000083
   181     0.000161
   182    -0.017026
   183    -0.038920
   184     0.000437
   185     0.000020
   186    -0.002924
   187    -0.007018
   188    -0.021606
   189     0.000168
   190    -0.000224
   191     0.000024
   192     0.003264
   193    -0.005346
   194     0.000060
   195     0.000320
   196     0.000268
Sym=    38a
Ene=   -0.709021E+00
Spin= Alpha
Occup= 1.978566
     1    -0.009028
     2    -0.009645
     3     0.000805
     4    -0.000818
     5     0.003395
     6     0.000788
     7     0.001724
     8     0.002938
     9     0.000704
    10     0.000426
    11    -0.003665
    12    -0.000549
    13    -0.000150
    14     0.002192
    15     0.000028
    16     0.000058
    17    -0.000198
    18     0.000007
    19     0.000067
    20     0.000042
    21     0.000201
    22    -0.000017
    23     0.002814
    24     0.000202
    25     0.000463
    26    -0.000671
    27     0.000215
    28    -0.000678
    29     0.001264
    30    -0.000132
    31    -0.000160
    32    -0.000198
    33    -0.000032
    34     0.000018
    35     0.000005
    36     0.001422
    37     0.009368
    38    -0.015178
    39    -0.027052
    40    -0.001761
    41     0.007638
    42    -0.000424
    43    -0.002434
    44     0.014682
    45    -0.001429
    46    -0.012416
    47     0.029627
    48     0.004781
    49    -0.001236
    50     0.002165
    51    -0.001524
    52     0.000176
    53     0.001003
    54    -0.000170
    55     0.016553
    56     0.057808
    57    -0.000549
    58    -0.001515
    59    -0.000048
    60     0.000328
    61    -0.000320
    62     0.006212
    63     0.000502
    64     0.000426
    65    -0.000683
    66    -0.001735
    67    -0.000093
    68     0.002923
    69    -0.000364
    70    -0.000354
    71    -0.000363
    72    -0.000021
    73     0.000029
    74    -0.000041
    75     0.002507
    76     0.015612
    77     0.023692
    78    -0.005089
    79     0.023505
    80    -0.007330
    81     0.016657
    82    -0.034879
    83     0.008082
    84    -0.021852
    85    -0.045759
    86     0.045551
    87    -0.061664
    88     0.034753
    89    -0.039373
    90     0.005085
    91     0.021086
    92     0.025146
    93     0.028068
    94    -0.005736
    95    -0.014520
    96    -0.005830
    97     0.386300
    98    -0.347049
    99     0.381965
   100    -0.278508
   101     0.249074
   102    -0.275319
   103    -0.011243
   104     0.011335
   105    -0.001331
   106    -0.002925
   107    -0.005213
   108    -0.008073
   109    -0.000022
   110     0.000508
   111     0.006338
   112     0.000054
   113    -0.000063
   114    -0.000036
   115     0.005606
   116     0.000972
   117    -0.005566
   118     0.000013
   119    -0.000338
   120    -0.000007
   121    -0.000153
   122    -0.000073
   123    -0.000112
   124    -0.000847
   125    -0.001839
   126    -0.003695
   127     0.007203
   128    -0.002071
   129     0.000612
   130     0.012990
   131    -0.007508
   132     0.005519
   133     0.000567
   134    -0.000237
   135    -0.000432
   136     0.000090
   137    -0.000232
   138     0.000213
   139    -0.000012
   140    -0.000231
   141     0.011597
   142    -0.027861
   143    -0.000368
   144     0.000214
   145    -0.000560
   146    -0.001736
   147     0.000079
   148     0.002311
   149     0.032962
   150    -0.008008
   151    -0.007098
   152    -0.000408
   153     0.002094
   154     0.001344
   155    -0.000200
   156    -0.001675
   157     0.001195
   158    -0.000560
   159    -0.004198
   160    -0.022280
   161     0.043992
   162    -0.000646
   163     0.002817
   164    -0.002725
   165    -0.000134
   166    -0.007949
   167     0.002464
   168     0.018114
   169     0.009595
   170     0.019334
   171    -0.001808
   172    -0.005426
   173     0.008369
   174     0.000761
   175     0.002532
   176     0.002059
   177    -0.002625
   178    -0.003922
   179    -0.000677
   180     0.001593
   181    -0.000127
   182    -0.000420
   183    -0.005225
   184     0.000099
   185    -0.000309
   186    -0.000130
   187     0.000735
   188    -0.007317
   189    -0.000065
   190    -0.000014
   191    -0.000163
   192    -0.000129
   193    -0.014656
   194     0.000325
   195    -0.000311
   196    -0.000049
Sym=    39a
Ene=   -0.853470E+00
Spin= Alpha
Occup= 1.977325
     1    -0.004802
     2     0.004831
     3     0.001395
     4     0.000668
     5    -0.000832
     6    -0.001657
     7    -0.003400
     8    -0.009580
     9    -0.000875
    10    -0.000815
    11    -0.000643
    12     0.004187
    13    -0.003707
    14     0.004700
    15    -0.000077
    16    -0.000794
    17     0.000541
    18    -0.000648
    19     0.000321
    20    -0.000412
    21     0.004124
    22     0.010014
    23    -0.000979
    24    -0.024239
    25     0.000894
    26    -0.010146
    27     0.020072
    28     0.003634
    29     0.010868
    30    -0.001429
    31    -0.000048
    32     0.001371
    33     0.001059
    34    -0.000108
    35     0.000338
    36    -0.000038
    37    -0.000225
    38     0.000873
    39    -0.001336
    40     0.000023
    41    -0.000313
    42     0.000008
    43     0.000069
    44    -0.000583
    45     0.000028
    46    -0.000175
    47    -0.001092
    48     0.000299
    49     0.000200
    50     0.000288
    51    -0.000092
    52    -0.000002
    53     0.000048
    54    -0.000061
    55    -0.001196
    56    -0.006487
    57    -0.000344
    58     0.000045
    59    -0.000010
    60     0.035173
    61     0.061515
    62     0.072461
    63    -0.151731
    64     0.351487
    65    -0.470132
    66     0.085489
    67    -0.245705
    68     0.318622
    69    -0.007488
    70     0.003900
    71     0.001230
    72     0.001109
    73    -0.004101
    74    -0.007907
    75     0.000132
    76     0.001050
    77     0.002037
    78     0.013632
    79    -0.001123
    80     0.000317
    81     0.000424
    82     0.002573
    83    -0.000441
    84    -0.001621
    85     0.008709
    86    -0.001878
    87    -0.000470
    88     0.002986
    89    -0.000974
    90    -0.003289
    91    -0.001197
    92    -0.002201
    93     0.000455
    94     0.000245
    95     0.000339
    96     0.001705
    97     0.000289
    98    -0.000124
    99     0.000897
   100    -0.000402
   101     0.000090
   102    -0.001304
   103     0.000022
   104    -0.000044
   105    -0.000124
   106     0.000063
   107    -0.000035
   108    -0.000046
   109    -0.033002
   110    -0.053966
   111     0.009709
   112     0.099013
   113     0.003834
   114     0.082778
   115    -0.007088
   116    -0.010140
   117     0.009614
   118    -0.022522
   119     0.009025
   120     0.003802
   121    -0.003970
   122    -0.024065
   123    -0.000381
   124    -0.003413
   125    -0.009366
   126     0.001649
   127     0.002179
   128    -0.002820
   129     0.010333
   130     0.001732
   131    -0.004860
   132    -0.005206
   133    -0.001339
   134    -0.001188
   135     0.001516
   136     0.000131
   137     0.000339
   138     0.000249
   139     0.014025
   140     0.080829
   141     0.124332
   142    -0.049992
   143     0.028854
   144    -0.050236
   145     0.059336
   146    -0.040956
   147     0.061022
   148    -0.076375
   149     0.003497
   150     0.004968
   151    -0.007025
   152    -0.011532
   153    -0.000463
   154     0.010188
   155    -0.014299
   156     0.024842
   157    -0.036367
   158    -0.000009
   159    -0.000215
   160    -0.000323
   161     0.002883
   162     0.004587
   163     0.001117
   164     0.002203
   165    -0.009617
   166    -0.002042
   167    -0.004442
   168    -0.006507
   169    -0.009652
   170    -0.001550
   171     0.000556
   172     0.001083
   173     0.001012
   174     0.002466
   175    -0.001877
   176    -0.001327
   177    -0.000346
   178     0.002310
   179     0.000082
   180     0.000086
   181     0.000101
   182    -0.017390
   183    -0.006852
   184     0.001439
   185     0.001663
   186    -0.001087
   187     0.034215
   188     0.040823
   189    -0.002036
   190     0.000043
   191    -0.003835
   192    -0.012736
   193    -0.010378
   194    -0.003256
   195     0.002335
   196    -0.000667
Sym=    40a
Ene=   -0.733979E+00
Spin= Alpha
Occup= 1.976952
     1     0.003513
     2    -0.012457
     3     0.000301
     4    -0.000976
     5     0.001310
     6    -0.004376
     7    -0.011165
     8    -0.002356
     9    -0.008135
    10     0.006737
    11    -0.002733
    12     0.012480
    13    -0.002143
    14     0.007825
    15    -0.000942
    16     0.000863
    17    -0.001014
    18    -0.000442
    19     0.000342
    20    -0.000961
    21     0.003322
    22     0.006370
    23    -0.036299
    24     0.227037
    25     0.132033
    26     0.586067
    27    -0.175423
    28    -0.074577
    29    -0.391720
    30    -0.006958
    31     0.003804
    32     0.007493
    33     0.001667
    34    -0.006795
    35     0.012933
    36    -0.000074
    37    -0.000652
    38    -0.003352
    39     0.019917
    40    -0.000124
    41     0.000155
    42    -0.000883
    43    -0.000008
    44     0.000551
    45    -0.000404
    46    -0.002339
    47    -0.000796
    48    -0.012825
    49    -0.001560
    50    -0.001499
    51     0.000255
    52    -0.000110
    53     0.000422
    54     0.000192
    55     0.000339
    56     0.003428
    57    -0.000022
    58    -0.000061
    59    -0.000026
    60     0.010847
    61     0.019914
    62     0.055213
    63     0.021651
    64    -0.006338
    65     0.000234
    66    -0.029005
    67     0.004656
    68    -0.006919
    69    -0.001515
    70    -0.001285
    71    -0.001194
    72     0.001090
    73    -0.000067
    74    -0.000361
    75     0.000001
    76     0.000085
    77    -0.002118
    78     0.002598
    79    -0.000058
    80     0.000085
    81    -0.000077
    82     0.000718
    83    -0.000803
    84     0.001146
    85    -0.001302
    86     0.000709
    87    -0.005733
    88    -0.000878
    89    -0.000965
    90     0.000082
    91     0.000265
    92     0.000350
    93    -0.000072
    94    -0.000177
    95     0.000026
    96    -0.002251
    97    -0.000180
    98     0.000196
    99    -0.000398
   100     0.000503
   101     0.000197
   102     0.001697
   103     0.000186
   104     0.000187
   105     0.000186
   106     0.000013
   107     0.000027
   108     0.000012
   109     0.037068
   110     0.080359
   111    -0.006924
   112     0.111347
   113    -0.063650
   114     0.037836
   115    -0.022434
   116     0.012643
   117    -0.086618
   118     0.023720
   119     0.007073
   120    -0.027468
   121    -0.028433
   122     0.002623
   123    -0.010764
   124     0.000101
   125     0.000113
   126     0.000308
   127     0.000030
   128     0.000543
   129    -0.000670
   130     0.000068
   131     0.000705
   132    -0.000284
   133    -0.000019
   134    -0.000040
   135    -0.000068
   136    -0.000019
   137    -0.000012
   138     0.000098
   139    -0.000207
   140    -0.001381
   141    -0.000027
   142     0.012622
   143     0.000395
   144     0.000993
   145    -0.001391
   146    -0.002204
   147    -0.001154
   148     0.002019
   149    -0.001805
   150    -0.003199
   151    -0.009099
   152     0.002813
   153     0.000829
   154    -0.001628
   155    -0.002112
   156     0.002516
   157     0.000706
   158     0.000244
   159     0.001789
   160    -0.001852
   161     0.032990
   162    -0.000889
   163    -0.001981
   164    -0.000537
   165     0.001052
   166     0.003709
   167     0.001336
   168     0.016472
   169     0.018871
   170    -0.002252
   171    -0.000420
   172    -0.000194
   173    -0.001652
   174     0.001928
   175    -0.001176
   176     0.001744
   177     0.002521
   178    -0.025316
   179    -0.000420
   180    -0.000056
   181    -0.001024
   182    -0.001759
   183    -0.017506
   184     0.000095
   185    -0.000144
   186    -0.000080
   187    -0.000018
   188    -0.072074
   189    -0.002463
   190     0.000049
   191     0.005606
   192     0.002353
   193    -0.004797
   194     0.000238
   195    -0.000086
   196     0.000150
Sym=    41a
Ene=   -0.592346E+00
Spin= Alpha
Occup= 1.976935
     1     0.007643
     2    -0.047755
     3     0.005232
     4    -0.001241
     5    -0.000295
     6    -0.004282
     7    -0.009214
     8    -0.010942
     9     0.021938
    10    -0.014219
    11     0.008312
    12    -0.021476
    13     0.012724
    14    -0.007917
    15    -0.000842
    16    -0.000375
    17     0.000801
    18    -0.001594
    19     0.002394
    20    -0.000507
    21    -0.000209
    22    -0.000565
    23     0.000102
    24     0.000982
    25    -0.000301
    26    -0.000656
    27    -0.000891
    28    -0.000876
    29     0.001926
    30     0.000048
    31     0.000012
    32     0.000001
    33    -0.000058
    34    -0.000030
    35     0.000082
    36     0.000033
    37     0.000270
    38     0.000777
    39    -0.008114
    40    -0.000445
    41    -0.000000
    42    -0.000102
    43    -0.000659
    44     0.000122
    45    -0.000365
    46    -0.002948
    47    -0.000217
    48     0.001895
    49     0.000310
    50     0.000088
    51     0.000341
    52     0.000056
    53    -0.000256
    54    -0.000066
    55    -0.001511
    56    -0.006229
    57     0.000052
    58    -0.000104
    59     0.000099
    60    -0.008180
    61    -0.016602
    62    -0.027798
    63    -0.008487
    64    -0.018918
    65     0.010335
    66     0.010110
    67     0.021425
    68    -0.012939
    69    -0.000718
    70     0.001261
    71     0.000404
    72     0.000115
    73    -0.000661
    74    -0.001155
    75    -0.000015
    76    -0.000203
    77    -0.003580
    78     0.008562
    79    -0.000609
    80    -0.001352
    81     0.000030
    82     0.001324
    83     0.002713
    84     0.000055
    85     0.005433
    86     0.007813
    87     0.003065
    88     0.001962
    89    -0.001328
    90    -0.000812
    91     0.001602
    92    -0.000499
    93    -0.001297
    94    -0.002043
    95    -0.003717
    96    -0.005387
    97     0.005056
    98    -0.002399
    99    -0.008265
   100    -0.003405
   101     0.003308
   102     0.009632
   103    -0.000051
   104     0.000207
   105     0.000556
   106    -0.000240
   107    -0.000318
   108     0.000243
   109    -0.002322
   110    -0.008470
   111    -0.000724
   112     0.002214
   113    -0.008440
   114     0.003149
   115     0.001624
   116     0.009593
   117    -0.012351
   118     0.001044
   119    -0.002203
   120    -0.001171
   121     0.001707
   122     0.000471
   123     0.000818
   124    -0.006743
   125    -0.013672
   126    -0.025332
   127     0.001724
   128     0.009487
   129     0.010999
   130     0.007107
   131     0.010409
   132     0.010350
   133    -0.000420
   134     0.000819
   135     0.001018
   136     0.000484
   137     0.001170
   138     0.001533
   139     0.017747
   140     0.103973
   141     0.143916
   142    -0.012851
   143     0.071021
   144     0.059695
   145     0.008576
   146    -0.120767
   147    -0.097174
   148    -0.014769
   149    -0.044439
   150    -0.007538
   151     0.004834
   152     0.042564
   153     0.022490
   154    -0.015433
   155     0.051175
   156     0.010969
   157     0.003854
   158     0.002229
   159     0.007597
   160    -0.023077
   161    -0.082377
   162    -0.123823
   163    -0.000365
   164    -0.005147
   165     0.222091
   166     0.000209
   167     0.009518
   168     0.168044
   169     0.073208
   170    -0.001322
   171     0.062891
   172    -0.030109
   173    -0.037050
   174     0.000224
   175     0.005932
   176    -0.000370
   177     0.000023
   178     0.007011
   179     0.000210
   180    -0.000302
   181     0.000099
   182     0.450668
   183     0.269491
   184    -0.008367
   185     0.018633
   186     0.000280
   187    -0.000177
   188    -0.008739
   189     0.000193
   190    -0.000012
   191     0.000234
   192    -0.020076
   193    -0.019632
   194    -0.003551
   195    -0.000796
   196     0.000339
Sym=    42a
Ene=   -0.583125E+00
Spin= Alpha
Occup= 1.976530
     1    -0.002436
     2    -0.001421
     3     0.001817
     4     0.000312
     5     0.000720
     6    -0.000124
     7    -0.000835
     8     0.003944
     9     0.001678
    10    -0.000812
    11     0.000326
    12    -0.002104
    13     0.000875
    14    -0.000505
    15    -0.000132
    16    -0.000167
    17    -0.000299
    18    -0.000008
    19     0.000062
    20     0.000018
    21    -0.000039
    22    -0.000399
    23     0.002219
    24     0.001076
    25     0.000092
    26     0.001295
    27    -0.001060
    28    -0.000240
    29    -0.001169
    30    -0.000104
    31    -0.000111
    32    -0.000109
    33     0.000031
    34     0.000031
    35    -0.000013
    36     0.001943
    37     0.012974
    38    -0.020720
    39    -0.033571
    40    -0.009363
    41     0.005879
    42     0.002446
    43    -0.017402
    44     0.010176
    45     0.004984
    46    -0.033115
    47     0.023995
    48     0.009064
    49     0.002838
    50    -0.000495
    51    -0.000678
    52    -0.002774
    53    -0.003217
    54     0.001089
    55     0.013911
    56     0.035727
    57     0.001351
    58     0.000374
    59     0.001559
    60    -0.005092
    61    -0.010505
    62    -0.018981
    63     0.001179
    64    -0.000325
    65     0.014913
    66    -0.000646
    67    -0.004183
    68    -0.015129
    69     0.000092
    70     0.000195
    71     0.001021
    72    -0.000191
    73     0.000456
    74     0.000001
    75     0.000167
    76     0.000938
    77     0.006501
    78    -0.015726
    79     0.014704
    80    -0.034066
    81     0.010517
    82    -0.019746
    83     0.052295
    84    -0.016809
    85    -0.031727
    86     0.061996
    87    -0.012091
    88    -0.028265
    89    -0.006036
    90     0.035994
    91     0.040409
    92     0.011866
    93    -0.044552
    94     0.005041
    95     0.008855
    96     0.023733
    97    -0.017577
    98     0.000710
    99     0.004930
   100     0.019183
   101    -0.003044
   102    -0.003899
   103    -0.001287
   104    -0.000258
   105    -0.000530
   106     0.000290
   107     0.000358
   108    -0.000382
   109     0.000714
   110     0.006598
   111    -0.031581
   112    -0.004098
   113     0.000359
   114    -0.003327
   115    -0.010267
   116     0.003804
   117    -0.011109
   118     0.001264
   119     0.000377
   120    -0.000485
   121     0.000488
   122    -0.000311
   123     0.000370
   124     0.007620
   125     0.016559
   126     0.013872
   127    -0.209278
   128     0.502139
   129    -0.208656
   130    -0.164914
   131     0.402305
   132    -0.166842
   133     0.008980
   134    -0.009333
   135     0.001243
   136    -0.008261
   137     0.004073
   138     0.003014
   139    -0.000622
   140    -0.003812
   141    -0.024924
   142     0.032419
   143     0.010418
   144    -0.030780
   145     0.022414
   146    -0.008499
   147     0.044236
   148    -0.029019
   149    -0.060686
   150     0.062239
   151    -0.024399
   152     0.007023
   153     0.028519
   154    -0.035667
   155    -0.012235
   156    -0.014260
   157     0.032285
   158    -0.000138
   159    -0.000892
   160     0.001614
   161    -0.028126
   162    -0.001780
   163     0.003215
   164     0.001302
   165     0.003377
   166    -0.006001
   167    -0.002337
   168    -0.013153
   169    -0.014321
   170    -0.005484
   171     0.000220
   172    -0.001345
   173     0.000592
   174    -0.001096
   175    -0.000405
   176    -0.001045
   177    -0.006999
   178     0.004144
   179     0.000693
   180    -0.000456
   181    -0.000120
   182     0.002978
   183     0.020563
   184    -0.000730
   185    -0.000046
   186    -0.000752
   187    -0.002651
   188     0.001364
   189     0.000455
   190    -0.000109
   191     0.000148
   192     0.006352
   193     0.046551
   194     0.001814
   195    -0.000166
   196    -0.000626
Sym=    43a
Ene=   -0.608707E+00
Spin= Alpha
Occup= 1.975925
     1    -0.001395
     2     0.006799
     3    -0.000008
     4    -0.000066
     5    -0.000692
     6    -0.019374
     7    -0.042849
     8    -0.055809
     9     0.002240
    10     0.000259
    11    -0.012378
    12    -0.008429
    13    -0.006693
    14     0.016334
    15    -0.000642
    16    -0.001015
    17     0.000698
    18     0.001136
    19    -0.002158
    20    -0.003108
    21    -0.012933
    22    -0.031161
    23    -0.024094
    24    -0.005113
    25    -0.006078
    26    -0.058974
    27     0.003432
    28    -0.003292
    29     0.053900
    30    -0.000667
    31    -0.003462
    32     0.001142
    33     0.000683
    34    -0.001845
    35     0.001028
    36     0.000020
    37     0.000180
    38     0.000951
    39    -0.005128
    40     0.000025
    41    -0.000100
    42     0.000281
    43     0.000002
    44    -0.000226
    45     0.000218
    46     0.000809
    47    -0.000519
    48     0.003673
    49     0.000470
    50     0.000480
    51    -0.000172
    52    -0.000017
    53    -0.000134
    54    -0.000013
    55    -0.000391
    56    -0.002712
    57     0.000068
    58     0.000025
    59     0.000007
    60    -0.022613
    61    -0.048573
    62    -0.065064
    63    -0.011491
    64    -0.024558
    65    -0.024125
    66     0.012903
    67     0.019732
    68     0.027565
    69    -0.002571
    70    -0.001776
    71     0.003420
    72    -0.000491
    73     0.001763
    74    -0.000255
    75     0.000029
    76     0.000139
    77     0.002450
    78    -0.006975
    79    -0.000215
    80    -0.000001
    81     0.000094
    82     0.000035
    83     0.000184
    84    -0.000821
    85     0.001852
    86    -0.000154
    87     0.006703
    88     0.000800
    89     0.000549
    90    -0.000391
    91    -0.000139
    92     0.000172
    93    -0.000110
    94     0.000313
    95     0.000292
    96     0.002898
    97     0.000278
    98     0.000059
    99     0.000689
   100    -0.000670
   101    -0.000153
   102    -0.001408
   103    -0.000141
   104    -0.000168
   105    -0.000174
   106    -0.000015
   107    -0.000034
   108    -0.000039
   109     0.146910
   110     0.300985
   111     0.012512
   112    -0.118615
   113     0.001190
   114     0.323307
   115     0.008534
   116     0.000767
   117    -0.017689
   118     0.006109
   119     0.002198
   120     0.037075
   121     0.003941
   122    -0.013251
   123     0.000942
   124    -0.000674
   125    -0.001348
   126    -0.003117
   127     0.000088
   128    -0.000339
   129     0.001188
   130    -0.000322
   131    -0.001085
   132     0.002219
   133    -0.000018
   134     0.000004
   135     0.000178
   136    -0.000014
   137     0.000003
   138    -0.000061
   139     0.000677
   140     0.004559
   141     0.008890
   142     0.008579
   143     0.000383
   144    -0.002997
   145     0.000580
   146    -0.001950
   147     0.008547
   148    -0.004458
   149    -0.008801
   150     0.008269
   151     0.003701
   152    -0.000279
   153     0.004474
   154    -0.001277
   155    -0.001331
   156     0.000190
   157    -0.002299
   158     0.000403
   159     0.002616
   160     0.008776
   161    -0.012593
   162    -0.000448
   163    -0.001808
   164     0.005944
   165     0.001844
   166     0.004011
   167    -0.013868
   168    -0.004192
   169     0.001173
   170    -0.012735
   171    -0.001122
   172    -0.001184
   173     0.004052
   174    -0.000373
   175    -0.000329
   176    -0.002302
   177    -0.000701
   178     0.008514
   179     0.000129
   180     0.000036
   181     0.000386
   182    -0.000767
   183     0.000738
   184    -0.000109
   185     0.000443
   186    -0.000554
   187     0.425748
   188     0.242032
   189    -0.006586
   190    -0.001240
   191     0.020568
   192    -0.000473
   193     0.002767
   194    -0.000137
   195     0.000252
   196    -0.000061
Sym=    44a
Ene=   -0.600682E+00
Spin= Alpha
Occup= 1.975723
     1    -0.002548
     2     0.004180
     3     0.000759
     4     0.000061
     5     0.001810
     6     0.000245
     7    -0.000145
     8     0.004781
     9     0.000070
    10     0.000348
    11    -0.000611
    12    -0.001383
    13     0.000479
    14     0.000852
    15    -0.000226
    16    -0.000222
    17    -0.000254
    18     0.000006
    19    -0.000014
    20     0.000030
    21     0.000016
    22    -0.001288
    23     0.007214
    24     0.000235
    25    -0.000001
    26     0.000414
    27     0.000035
    28    -0.001198
    29     0.000823
    30    -0.000462
    31    -0.000445
    32    -0.000446
    33     0.000007
    34     0.000011
    35    -0.000005
    36     0.004076
    37     0.027075
    38    -0.043146
    39    -0.038245
    40    -0.001183
    41     0.001126
    42     0.000907
    43    -0.004759
    44     0.005167
    45     0.000509
    46    -0.017988
    47     0.014385
    48    -0.005487
    49     0.000687
    50    -0.003132
    51    -0.002153
    52    -0.005020
    53     0.006257
    54    -0.006478
    55     0.426204
    56     0.217112
    57    -0.009698
    58     0.000765
    59    -0.018228
    60    -0.000626
    61    -0.001374
    62    -0.002098
    63     0.000064
    64    -0.000216
    65     0.001597
    66    -0.000920
    67     0.000548
    68    -0.003265
    69     0.000035
    70    -0.000015
    71     0.000145
    72    -0.000014
    73     0.000068
    74    -0.000024
    75     0.037236
    76     0.227934
    77     0.375616
    78    -0.005410
    79    -0.062355
    80    -0.000663
    81    -0.123786
    82     0.108110
    83    -0.000323
    84     0.211437
    85     0.056496
    86     0.003806
    87     0.141749
    88    -0.000848
    89    -0.019582
    90     0.069046
    91    -0.007176
    92     0.055287
    93     0.000072
    94    -0.015471
    95    -0.035657
    96    -0.034051
    97     0.018883
    98     0.010980
    99     0.019985
   100    -0.023139
   101    -0.012713
   102    -0.025123
   103    -0.000276
   104    -0.000738
   105    -0.000675
   106     0.001435
   107     0.001564
   108     0.001647
   109     0.000097
   110     0.004927
   111    -0.014829
   112    -0.000923
   113     0.000313
   114    -0.000869
   115     0.002761
   116     0.003909
   117    -0.023302
   118     0.000214
   119     0.000171
   120     0.000523
   121     0.000226
   122    -0.000209
   123     0.000046
   124    -0.017276
   125    -0.038144
   126    -0.045890
   127    -0.009081
   128     0.002030
   129    -0.012217
   130    -0.008454
   131     0.005433
   132    -0.018092
   133    -0.002056
   134    -0.001802
   135     0.003072
   136     0.000161
   137    -0.000926
   138    -0.000265
   139     0.000605
   140     0.004183
   141     0.003777
   142     0.038280
   143     0.001158
   144    -0.001967
   145    -0.000459
   146    -0.001168
   147     0.005660
   148     0.007029
   149    -0.035868
   150     0.011620
   151     0.012073
   152    -0.000228
   153     0.002708
   154     0.002250
   155    -0.000709
   156    -0.003371
   157     0.002005
   158    -0.000100
   159    -0.000438
   160    -0.012249
   161     0.027073
   162     0.000615
   163     0.000654
   164    -0.000699
   165    -0.002860
   166    -0.003510
   167    -0.001510
   168     0.009846
   169     0.003842
   170     0.012191
   171    -0.002338
   172    -0.003016
   173     0.000067
   174     0.000105
   175     0.001577
   176     0.000616
   177     0.005196
   178     0.027816
   179     0.000025
   180    -0.000325
   181     0.000215
   182    -0.002054
   183    -0.024824
   184     0.000175
   185    -0.000363
   186    -0.000200
   187    -0.000410
   188    -0.013712
   189     0.000276
   190    -0.000071
   191    -0.000253
   192    -0.001544
   193     0.011579
   194     0.000119
   195     0.000204
   196     0.000154
Sym=    45a
Ene=   -0.688498E+00
Spin= Alpha
Occup= 1.974835
     1     0.008002
     2     0.004424
     3    -0.003086
     4    -0.000725
     5    -0.001611
     6    -0.000582
     7    -0.001521
     8    -0.002290
     9     0.001947
    10    -0.000562
    11     0.003337
    12     0.000302
    13     0.000466
    14    -0.002357
    15    -0.000251
    16    -0.000245
    17     0.000081
    18    -0.000205
    19     0.000220
    20    -0.000028
    21    -0.000222
    22    -0.000167
    23    -0.002698
    24    -0.000703
    25    -0.000584
    26    -0.000517
    27     0.001478
    28     0.001177
    29    -0.000363
    30     0.000092
    31     0.000126
    32     0.000173
    33     0.000003
    34    -0.000042
    35     0.000053
    36     0.000424
    37     0.002739
    38    -0.007335
    39     0.009928
    40    -0.005434
    41    -0.000116
    42     0.000105
    43    -0.009802
    44     0.000622
    45     0.000847
    46    -0.018057
    47    -0.006892
    48    -0.002548
    49     0.002138
    50    -0.001623
    51    -0.001284
    52    -0.000486
    53    -0.001677
    54     0.001689
    55    -0.033522
    56    -0.043867
    57    -0.000682
    58     0.000802
    59    -0.004162
    60     0.003954
    61     0.011087
    62     0.001450
    63     0.000485
    64     0.001073
    65    -0.017241
    66    -0.004557
    67     0.002495
    68     0.003933
    69     0.001552
    70     0.001401
    71    -0.000931
    72     0.000123
    73    -0.000543
    74     0.000717
    75     0.008683
    76     0.055176
    77     0.087492
    78     0.006255
    79    -0.047777
    80    -0.015509
    81     0.027212
    82     0.082139
    83     0.025264
    84    -0.056005
    85     0.045460
    86     0.018136
    87    -0.011541
    88     0.038067
    89    -0.014835
    90    -0.029708
    91     0.015676
    92    -0.045686
    93    -0.018512
    94     0.004073
    95     0.006542
    96     0.022347
    97    -0.006696
    98    -0.006232
    99     0.006668
   100     0.005901
   101     0.008006
   102    -0.006090
   103     0.000022
   104    -0.000064
   105    -0.001527
   106     0.000944
   107     0.000038
   108    -0.000579
   109    -0.000561
   110    -0.003510
   111    -0.007290
   112     0.003746
   113    -0.001392
   114     0.002958
   115    -0.008825
   116    -0.001194
   117     0.008344
   118    -0.002410
   119    -0.000199
   120     0.001103
   121     0.000099
   122    -0.000300
   123    -0.000284
   124    -0.047515
   125    -0.083659
   126    -0.070135
   127     0.153024
   128     0.257713
   129     0.463337
   130     0.150555
   131     0.187067
   132     0.302307
   133    -0.002486
   134    -0.001914
   135     0.000085
   136    -0.006947
   137    -0.008609
   138    -0.006258
   139    -0.022400
   140    -0.134365
   141    -0.186286
   142     0.032445
   143    -0.023865
   144     0.046283
   145     0.103236
   146     0.038433
   147    -0.057436
   148    -0.134601
   149     0.032764
   150    -0.003929
   151    -0.027382
   152     0.024404
   153     0.014777
   154    -0.048405
   155     0.008517
   156     0.029339
   157    -0.037239
   158     0.000455
   159     0.002834
   160     0.007206
   161    -0.014901
   162    -0.009240
   163    -0.004748
   164    -0.001147
   165     0.019680
   166     0.010266
   167     0.003176
   168     0.012032
   169     0.015124
   170     0.001855
   171     0.002060
   172     0.000861
   173    -0.002976
   174    -0.001189
   175    -0.002434
   176     0.000549
   177    -0.002632
   178    -0.005725
   179    -0.001029
   180     0.000297
   181    -0.000276
   182     0.024486
   183     0.031962
   184    -0.002844
   185    -0.002126
   186    -0.002514
   187     0.002315
   188     0.010512
   189     0.000185
   190     0.000052
   191     0.000018
   192     0.020786
   193     0.001190
   194     0.000552
   195    -0.001819
   196    -0.004046
Sym=    46a
Ene=   -0.415675E+00
Spin= Alpha
Occup= 1.974489
     1    -0.005322
     2     0.035711
     3    -0.000044
     4    -0.000236
     5     0.000766
     6     0.000370
     7     0.000288
     8     0.003902
     9     0.000500
    10    -0.000170
    11    -0.001643
    12     0.000059
    13     0.000044
    14     0.002691
    15    -0.000173
    16    -0.000123
    17    -0.000252
    18     0.000001
    19     0.000045
    20    -0.000015
    21     0.000121
    22    -0.000194
    23     0.003024
    24    -0.000106
    25    -0.000014
    26    -0.000332
    27     0.000409
    28    -0.000278
    29     0.000132
    30    -0.000117
    31    -0.000137
    32    -0.000160
    33    -0.000035
    34    -0.000021
    35     0.000007
    36     0.001095
    37     0.007035
    38    -0.012455
    39     0.000383
    40    -0.200513
    41    -0.142469
    42     0.036659
    43    -0.350619
    44    -0.248508
    45     0.064378
    46    -0.517669
    47    -0.373366
    48     0.099173
    49    -0.023793
    50     0.023874
    51    -0.002424
    52     0.011546
    53     0.013815
    54     0.004080
    55     0.008970
    56     0.018890
    57    -0.000579
    58    -0.000630
    59     0.000531
    60     0.000301
    61    -0.000457
    62     0.006521
    63     0.000526
    64    -0.000177
    65    -0.000890
    66    -0.002259
    67     0.000603
    68     0.002947
    69    -0.000345
    70    -0.000411
    71    -0.000427
    72    -0.000007
    73     0.000019
    74    -0.000016
    75     0.000217
    76     0.001472
    77     0.000172
    78     0.005739
    79     0.022906
    80     0.020512
    81    -0.006086
    82    -0.036429
    83    -0.033092
    84     0.010931
    85    -0.068217
    86    -0.061805
    87     0.008476
    88     0.043780
    89    -0.050653
    90     0.008520
    91    -0.019497
    92    -0.007458
    93     0.004364
    94    -0.008532
    95    -0.014436
    96    -0.046366
    97    -0.005586
    98     0.025288
    99     0.005845
   100     0.008914
   101    -0.025077
   102    -0.006844
   103     0.001843
   104     0.001654
   105     0.001262
   106    -0.000477
   107     0.000067
   108     0.000259
   109     0.000039
   110     0.000348
   111     0.009990
   112     0.000179
   113    -0.000070
   114    -0.000182
   115     0.005435
   116    -0.002635
   117    -0.005621
   118    -0.000212
   119    -0.000309
   120     0.000139
   121     0.000118
   122    -0.000157
   123    -0.000159
   124     0.007070
   125     0.011675
   126     0.041206
   127    -0.003742
   128     0.015182
   129     0.004950
   130    -0.001853
   131     0.023685
   132     0.005969
   133    -0.000105
   134    -0.001818
   135    -0.001278
   136     0.000303
   137     0.000253
   138    -0.000623
   139    -0.000512
   140    -0.003442
   141     0.008097
   142    -0.033042
   143     0.000101
   144    -0.000502
   145     0.002719
   146    -0.003857
   147     0.002842
   148    -0.004186
   149     0.037670
   150    -0.007735
   151    -0.010648
   152     0.000579
   153     0.002499
   154    -0.001178
   155    -0.001458
   156    -0.001594
   157     0.001982
   158    -0.000477
   159    -0.002913
   160    -0.008160
   161    -0.009220
   162    -0.000609
   163     0.002526
   164     0.000304
   165     0.001603
   166    -0.006545
   167    -0.001813
   168    -0.002870
   169    -0.010773
   170    -0.002060
   171    -0.000281
   172    -0.003903
   173    -0.000604
   174    -0.000756
   175    -0.000513
   176    -0.001356
   177     0.012921
   178     0.001835
   179    -0.014204
   180    -0.010574
   181     0.004114
   182     0.002648
   183     0.020047
   184    -0.000244
   185     0.000179
   186    -0.000072
   187     0.000332
   188    -0.008556
   189    -0.000030
   190     0.000093
   191    -0.000221
   192     0.002542
   193    -0.014619
   194     0.000310
   195    -0.000272
   196    -0.000323
Sym=    47a
Ene=   -0.849643E+00
Spin= Alpha
Occup= 1.974325
     1    -0.000821
     2     0.006853
     3    -0.000107
     4     0.000120
     5    -0.001014
     6    -0.002322
     7    -0.008254
     8     0.018915
     9    -0.002648
    10     0.016104
    11     0.004516
    12     0.006111
    13    -0.005707
    14    -0.008153
    15    -0.001950
    16     0.001273
    17    -0.001797
    18     0.000271
    19     0.000664
    20     0.000564
    21     0.024629
    22     0.047485
    23    -0.084663
    24    -0.535450
    25     0.243125
    26     0.119789
    27     0.319624
    28    -0.106761
    29    -0.046994
    30     0.010617
    31     0.005113
    32    -0.002894
    33    -0.015928
    34    -0.007641
    35     0.005446
    36    -0.000024
    37    -0.000250
    38    -0.002141
    39     0.012742
    40    -0.000074
    41     0.000044
    42    -0.000180
    43    -0.000133
    44     0.000336
    45     0.000267
    46     0.000028
    47    -0.002249
    48    -0.006138
    49    -0.000808
    50    -0.000643
    51    -0.000078
    52    -0.000066
    53     0.000042
    54     0.000266
    55    -0.000330
    56    -0.002584
    57     0.000129
    58    -0.000015
    59     0.000040
    60    -0.013715
    61    -0.031511
    62    -0.023008
    63    -0.032566
    64     0.016463
    65     0.003278
    66     0.023883
    67    -0.015855
    68    -0.003754
    69     0.001681
    70    -0.000536
    71    -0.001709
    72    -0.002181
    73     0.001359
    74    -0.000799
    75    -0.000006
    76    -0.000094
    77     0.003450
    78    -0.015965
    79     0.000010
    80     0.000086
    81     0.000152
    82    -0.000276
    83    -0.000377
    84    -0.001491
    85     0.002222
    86    -0.000260
    87     0.011730
    88     0.000309
    89     0.000317
    90     0.000233
    91     0.000145
    92     0.000516
    93    -0.000275
    94    -0.000014
    95    -0.000439
    96     0.002198
    97    -0.000024
    98     0.000063
    99    -0.000111
   100    -0.000521
   101     0.000368
   102    -0.000066
   103    -0.000149
   104    -0.000167
   105    -0.000139
   106    -0.000033
   107    -0.000000
   108    -0.000019
   109     0.098793
   110     0.212936
   111    -0.058644
   112     0.130122
   113    -0.218784
   114    -0.137084
   115     0.029360
   116     0.009441
   117    -0.028138
   118    -0.002271
   119     0.032936
   120    -0.002768
   121    -0.039732
   122    -0.023876
   123     0.038667
   124    -0.000003
   125     0.000518
   126    -0.001788
   127     0.000002
   128    -0.000168
   129    -0.000168
   130     0.000375
   131    -0.000349
   132     0.002706
   133     0.000195
   134     0.000164
   135     0.000206
   136     0.000030
   137    -0.000013
   138    -0.000050
   139     0.000331
   140     0.002369
   141    -0.002552
   142     0.027166
   143    -0.000772
   144    -0.001104
   145     0.002318
   146     0.003659
   147     0.001406
   148    -0.004909
   149    -0.023426
   150     0.008763
   151     0.001542
   152    -0.003539
   153    -0.002135
   154     0.003187
   155     0.001994
   156    -0.000212
   157    -0.001128
   158    -0.000066
   159    -0.000388
   160    -0.003686
   161     0.009558
   162     0.000244
   163     0.001021
   164    -0.000890
   165    -0.001215
   166    -0.002058
   167     0.002001
   168     0.003838
   169    -0.000499
   170    -0.006726
   171    -0.000422
   172    -0.000404
   173     0.000558
   174    -0.000120
   175    -0.001044
   176    -0.000621
   177     0.000466
   178    -0.009947
   179    -0.000101
   180     0.000033
   181    -0.000459
   182    -0.000709
   183    -0.014277
   184     0.000169
   185    -0.000201
   186    -0.000100
   187    -0.016705
   188    -0.029825
   189    -0.003279
   190     0.004427
   191     0.002944
   192    -0.002535
   193     0.006523
   194    -0.000156
   195     0.000208
   196     0.000150
Sym=    48a
Ene=   -0.847082E+00
Spin= Alpha
Occup= 1.974102
     1     0.021321
     2     0.020414
     3    -0.000267
     4    -0.002371
     5     0.001663
     6    -0.026289
     7    -0.046011
     8    -0.017865
     9     0.261578
    10     0.511152
    11     0.227454
    12    -0.175259
    13    -0.334810
    14    -0.167327
    15     0.002383
    16    -0.007885
    17     0.002027
    18    -0.008808
    19    -0.003775
    20    -0.006793
    21     0.009421
    22     0.020505
    23     0.012631
    24     0.014735
    25     0.039703
    26    -0.010405
    27    -0.014342
    28    -0.030724
    29     0.013306
    30     0.000673
    31    -0.002760
    32     0.000799
    33     0.000829
    34    -0.000303
    35    -0.000240
    36     0.000079
    37     0.000608
    38     0.001335
    39    -0.011451
    40     0.000129
    41     0.000366
    42     0.000612
    43     0.000365
    44     0.000309
    45     0.000688
    46    -0.000800
    47     0.004372
    48     0.005709
    49     0.000738
    50     0.000477
    51     0.000204
    52     0.000248
    53     0.000041
    54    -0.000082
    55     0.000182
    56     0.004200
    57    -0.000006
    58    -0.000021
    59    -0.000143
    60     0.011814
    61     0.026153
    62     0.021305
    63     0.033788
    64     0.021059
    65     0.010239
    66    -0.026120
    67    -0.017676
    68    -0.002746
    69    -0.001506
    70     0.000866
    71     0.001167
    72    -0.001501
    73    -0.001028
    74    -0.000981
    75    -0.000044
    76    -0.000301
    77    -0.003950
    78     0.010256
    79    -0.000178
    80    -0.000049
    81    -0.000084
    82     0.001434
    83     0.000116
    84     0.001131
    85    -0.005599
    86     0.001917
    87    -0.009580
    88     0.000098
    89    -0.000024
    90    -0.000036
    91     0.000105
    92    -0.000512
    93    -0.000080
    94    -0.000240
    95    -0.000344
    96    -0.002206
    97    -0.000155
    98     0.000540
    99    -0.001613
   100    -0.000245
   101    -0.001375
   102     0.000714
   103    -0.000008
   104    -0.000043
   105     0.000125
   106    -0.000024
   107     0.000051
   108    -0.000012
   109    -0.060249
   110    -0.108447
   111     0.044423
   112    -0.069549
   113    -0.161374
   114     0.065358
   115     0.004449
   116    -0.017338
   117    -0.028172
   118     0.006695
   119    -0.033233
   120     0.007981
   121    -0.025360
   122     0.007789
   123     0.025676
   124    -0.000481
   125     0.000015
   126    -0.008487
   127     0.002064
   128     0.001314
   129     0.001476
   130     0.004319
   131     0.001601
   132     0.001217
   133     0.000255
   134     0.000284
   135     0.000166
   136    -0.000054
   137     0.000103
   138    -0.000001
   139     0.000589
   140     0.004001
   141     0.012224
   142    -0.014884
   143     0.002934
   144     0.001866
   145     0.000030
   146    -0.005095
   147    -0.003754
   148     0.001222
   149    -0.001299
   150    -0.002620
   151     0.010055
   152    -0.000291
   153    -0.001002
   154    -0.002078
   155    -0.000226
   156    -0.003060
   157     0.001913
   158    -0.000055
   159    -0.000728
   160    -0.007077
   161    -0.006400
   162    -0.000047
   163     0.000575
   164     0.005045
   165     0.000660
   166     0.000743
   167    -0.005804
   168     0.005436
   169     0.004115
   170    -0.018464
   171    -0.005753
   172    -0.013386
   173     0.015545
   174    -0.005363
   175     0.005469
   176     0.011702
   177    -0.000185
   178     0.005023
   179     0.000008
   180    -0.000151
   181     0.000172
   182     0.006955
   183     0.004761
   184     0.000082
   185     0.000850
   186     0.000722
   187     0.015052
   188    -0.014193
   189     0.001652
   190     0.003508
   191    -0.003245
   192    -0.001682
   193     0.004849
   194     0.000118
   195    -0.000109
   196    -0.000097
Sym=    49a
Ene=   -0.502111E+00
Spin= Alpha
Occup= 1.973983
     1     0.003097
     2     0.017428
     3    -0.000569
     4     0.000759
     5     0.000119
     6     0.000049
     7    -0.000717
     8     0.005813
     9    -0.001003
    10     0.001616
    11    -0.000996
    12     0.002129
    13    -0.003031
    14     0.000548
    15     0.000053
    16    -0.000334
    17    -0.000513
    18     0.000241
    19    -0.000320
    20     0.000251
    21    -0.000797
    22    -0.000675
    23    -0.009528
    24     0.003658
    25    -0.000976
    26     0.002244
    27    -0.002343
    28     0.001083
    29    -0.001706
    30     0.000569
    31     0.000257
    32     0.000257
    33    -0.000072
    34     0.000089
    35    -0.000122
    36     0.000158
    37     0.001109
    38     0.000871
    39    -0.018234
    40    -0.000859
    41     0.000784
    42     0.000197
    43    -0.001635
    44     0.001118
    45     0.000380
    46    -0.004911
    47     0.007352
    48     0.004089
    49     0.001017
    50     0.000310
    51    -0.000388
    52    -0.000087
    53    -0.000436
    54     0.000260
    55    -0.001529
    56     0.000499
    57     0.000073
    58    -0.000055
    59    -0.000078
    60    -0.012269
    61    -0.026186
    62    -0.045477
    63     0.021194
    64    -0.021162
    65     0.006430
    66    -0.020291
    67     0.021338
    68    -0.005324
    69     0.001170
    70     0.000429
    71    -0.000274
    72    -0.001704
    73     0.001214
    74    -0.000736
    75     0.000741
    76     0.005067
    77     0.007944
    78     0.034653
    79    -0.001343
    80    -0.001365
    81     0.002455
    82     0.005425
    83     0.001965
    84    -0.006828
    85    -0.001701
    86     0.008972
    87    -0.023152
    88     0.000311
    89     0.000184
    90     0.001847
    91     0.000387
    92    -0.001695
    93    -0.002820
    94     0.000104
    95    -0.000496
    96     0.002524
    97     0.000266
    98     0.000655
    99    -0.000150
   100     0.001029
   101    -0.001756
   102    -0.001935
   103    -0.000187
   104    -0.000290
   105    -0.000333
   106     0.000107
   107    -0.000033
   108    -0.000113
   109     0.002486
   110     0.006320
   111     0.004227
   112    -0.009953
   113    -0.000513
   114    -0.009676
   115    -0.006402
   116     0.005295
   117     0.023839
   118     0.001198
   119     0.000239
   120     0.000736
   121     0.000377
   122     0.001193
   123     0.000653
   124    -0.012726
   125    -0.026653
   126    -0.046877
   127    -0.008730
   128     0.008649
   129     0.009067
   130    -0.007985
   131     0.011778
   132     0.007432
   133    -0.000197
   134     0.000141
   135     0.000728
   136    -0.001235
   137    -0.001765
   138     0.001454
   139     0.032702
   140     0.196457
   141     0.317127
   142     0.010274
   143    -0.109599
   144     0.056695
   145     0.042833
   146     0.171712
   147    -0.090596
   148    -0.067817
   149     0.096663
   150    -0.056943
   151    -0.048284
   152     0.057752
   153     0.014928
   154    -0.005165
   155    -0.040817
   156    -0.034963
   157     0.015757
   158    -0.000573
   159    -0.003361
   160     0.004370
   161    -0.004033
   162     0.018708
   163    -0.001616
   164     0.000866
   165    -0.034675
   166     0.005380
   167    -0.001467
   168    -0.042616
   169    -0.014963
   170     0.001569
   171    -0.009056
   172     0.004591
   173     0.006034
   174    -0.000626
   175    -0.000631
   176     0.000522
   177    -0.001652
   178     0.008939
   179     0.000210
   180    -0.000133
   181     0.000297
   182    -0.028806
   183    -0.034849
   184     0.004467
   185    -0.000260
   186    -0.000576
   187    -0.003837
   188     0.013271
   189     0.000242
   190    -0.000168
   191     0.000200
   192     0.421606
   193     0.270005
   194    -0.013427
   195     0.006822
   196     0.004937
Sym=    50a
Ene=   -0.824228E+00
Spin= Alpha
Occup= 1.973871
     1     0.016228
     2     0.005264
     3    -0.000394
     4     0.000180
     5     0.003217
     6    -0.019973
     7    -0.026754
     8    -0.073421
     9    -0.076868
    10    -0.176449
    11     0.582376
    12     0.043094
    13     0.106033
    14    -0.416542
    15     0.006690
    16     0.009743
    17    -0.010068
    18     0.002043
    19    -0.001477
    20    -0.001805
    21    -0.000120
    22    -0.001315
    23     0.010872
    24    -0.012766
    25    -0.008253
    26    -0.002235
    27     0.014956
    28     0.006922
    29     0.002097
    30    -0.000642
    31     0.000853
    32    -0.000762
    33    -0.000579
    34     0.000704
    35     0.000685
    36     0.000058
    37     0.000439
    38     0.000794
    39    -0.006965
    40     0.000182
    41     0.000491
    42     0.000424
    43     0.000407
    44     0.000767
    45     0.000501
    46     0.000082
    47     0.002681
    48     0.003839
    49     0.000548
    50     0.000526
    51    -0.000154
    52     0.000210
    53    -0.000045
    54    -0.000023
    55    -0.000547
    56     0.002467
    57    -0.000006
    58    -0.000080
    59    -0.000046
    60     0.002149
    61     0.004140
    62     0.011856
    63     0.004062
    64    -0.000584
    65    -0.000843
    66    -0.005004
    67     0.005089
    68    -0.000751
    69     0.000406
    70    -0.000281
    71    -0.000113
    72    -0.000224
    73     0.000523
    74     0.000515
    75    -0.000018
    76    -0.000165
    77    -0.000904
    78     0.000102
    79     0.000003
    80     0.000150
    81    -0.000222
    82     0.000770
    83    -0.000087
    84     0.000740
    85    -0.002724
    86     0.001534
    87    -0.003116
    88     0.000208
    89    -0.000009
    90     0.000325
    91    -0.000188
    92    -0.000483
    93    -0.000614
    94    -0.001383
    95    -0.002349
    96    -0.006902
    97    -0.000911
    98     0.000090
    99    -0.004128
   100     0.001965
   101     0.001076
   102     0.005137
   103     0.000257
   104     0.000215
   105     0.000400
   106     0.000027
   107     0.000139
   108     0.000109
   109     0.024948
   110     0.040850
   111     0.011177
   112     0.051646
   113     0.092529
   114    -0.015517
   115    -0.002426
   116    -0.011836
   117    -0.025784
   118    -0.000063
   119     0.024517
   120    -0.015436
   121     0.016413
   122     0.004704
   123     0.003167
   124    -0.000375
   125     0.000065
   126    -0.005439
   127     0.001522
   128     0.001551
   129     0.000880
   130     0.003275
   131     0.001221
   132     0.001010
   133     0.000222
   134     0.000280
   135     0.000098
   136    -0.000040
   137     0.000052
   138    -0.000013
   139     0.000133
   140     0.001152
   141     0.001475
   142     0.003850
   143     0.000574
   144     0.002023
   145    -0.001575
   146    -0.000516
   147    -0.003724
   148     0.003150
   149    -0.004650
   150     0.001830
   151     0.002858
   152    -0.002412
   153     0.001071
   154    -0.002207
   155     0.001286
   156    -0.004428
   157    -0.000581
   158    -0.007507
   159    -0.042059
   160    -0.068438
   161     0.050130
   162     0.013727
   163     0.028420
   164    -0.065583
   165    -0.023241
   166    -0.045784
   167     0.108115
   168    -0.010375
   169    -0.022838
   170     0.038440
   171     0.016975
   172     0.008414
   173    -0.028868
   174    -0.008973
   175     0.017629
   176     0.031773
   177    -0.000638
   178     0.004688
   179     0.000036
   180    -0.000164
   181     0.000208
   182     0.016845
   183     0.001159
   184     0.001477
   185    -0.001137
   186     0.003335
   187    -0.032726
   188    -0.056692
   189    -0.001920
   190    -0.002338
   191     0.002332
   192    -0.000719
   193     0.002201
   194     0.000176
   195    -0.000111
   196     0.000174
Sym=    51a
Ene=   -0.719745E+00
Spin= Alpha
Occup= 1.973380
     1    -0.007030
     2     0.000433
     3     0.002507
     4     0.000394
     5     0.001521
     6     0.000388
     7     0.000651
     8     0.002952
     9    -0.001789
    10    -0.000206
    11    -0.003017
    12     0.000124
    13     0.000107
    14     0.002389
    15    -0.000046
    16     0.000029
    17    -0.000184
    18     0.000085
    19    -0.000144
    20    -0.000028
    21     0.000129
    22     0.000286
    23     0.000396
    24    -0.000153
    25     0.000366
    26    -0.000674
    27    -0.000059
    28    -0.000534
    29     0.000605
    30    -0.000018
    31     0.000035
    32    -0.000010
    33     0.000016
    34     0.000006
    35     0.000039
    36     0.001405
    37     0.009073
    38    -0.020862
    39     0.022332
    40    -0.006982
    41     0.007322
    42     0.001489
    43    -0.014128
    44     0.014368
    45     0.002951
    46    -0.010531
    47     0.015188
    48     0.006636
    49     0.000692
    50    -0.001036
    51    -0.001980
    52    -0.002663
    53    -0.003938
    54     0.004249
    55    -0.027062
    56     0.016451
    57     0.002215
    58    -0.000205
    59    -0.005167
    60     0.001239
    61     0.002843
    62     0.002945
    63    -0.002931
    64    -0.001150
    65    -0.004050
    66     0.001909
    67     0.001850
    68     0.001022
    69     0.000046
    70     0.000213
    71    -0.000289
    72    -0.000068
    73    -0.000393
    74    -0.000001
    75     0.023952
    76     0.147974
    77     0.222785
    78    -0.053793
    79    -0.055278
    80     0.010133
    81     0.107076
    82     0.087292
    83    -0.014049
    84    -0.174097
    85    -0.008845
    86    -0.028368
    87    -0.068774
    88    -0.017066
    89    -0.041724
    90     0.057103
    91    -0.013195
    92    -0.058780
    93     0.010464
    94    -0.011836
    95    -0.026575
    96    -0.022708
    97     0.027453
    98     0.015913
    99    -0.026743
   100    -0.021112
   101    -0.010591
   102     0.027094
   103     0.000436
   104     0.000293
   105    -0.000657
   106     0.001639
   107    -0.000899
   108    -0.000822
   109    -0.000262
   110     0.000391
   111    -0.006513
   112     0.002047
   113     0.000494
   114     0.001172
   115    -0.001013
   116     0.003029
   117    -0.003007
   118    -0.000593
   119     0.000326
   120     0.000096
   121     0.000185
   122    -0.000465
   123     0.000178
   124     0.045012
   125     0.078313
   126     0.028805
   127    -0.486327
   128    -0.116140
   129     0.214787
   130    -0.347454
   131    -0.103968
   132     0.106544
   133     0.013484
   134    -0.003998
   135    -0.002731
   136     0.007484
   137    -0.007563
   138    -0.001835
   139    -0.004278
   140    -0.026543
   141    -0.047071
   142     0.005590
   143     0.022591
   144     0.022249
   145     0.017400
   146    -0.029044
   147    -0.036686
   148    -0.032630
   149    -0.040928
   150    -0.019328
   151    -0.015419
   152     0.016609
   153    -0.009094
   154    -0.010975
   155    -0.016034
   156    -0.032737
   157    -0.024706
   158    -0.000380
   159    -0.002310
   160    -0.002766
   161    -0.005863
   162     0.006229
   163     0.004181
   164     0.001598
   165    -0.012013
   166    -0.008790
   167    -0.004059
   168    -0.016745
   169    -0.015375
   170    -0.001149
   171    -0.000668
   172    -0.001165
   173     0.001794
   174     0.000329
   175     0.001398
   176    -0.000580
   177    -0.007347
   178    -0.006400
   179    -0.000064
   180     0.000025
   181    -0.000548
   182    -0.014629
   183    -0.024183
   184     0.001011
   185    -0.000686
   186    -0.000178
   187     0.000898
   188    -0.000087
   189     0.000049
   190    -0.000088
   191    -0.000050
   192     0.015012
   193     0.034767
   194     0.002305
   195    -0.001817
   196    -0.000916
Sym=    52a
Ene=   -0.794886E+00
Spin= Alpha
Occup= 1.973346
     1    -0.000297
     2    -0.045876
     3    -0.000416
     4     0.001206
     5    -0.000549
     6     0.000691
     7     0.002341
     8    -0.001805
     9     0.000479
    10     0.001112
    11    -0.002764
    12    -0.001630
    13    -0.001908
    14     0.000186
    15     0.000290
    16     0.000242
    17     0.000248
    18    -0.000027
    19     0.000003
    20     0.000057
    21    -0.000015
    22     0.000767
    23    -0.004427
    24     0.000177
    25     0.000354
    26    -0.000255
    27    -0.000335
    28     0.000187
    29     0.000202
    30     0.000276
    31     0.000249
    32     0.000277
    33     0.000001
    34     0.000013
    35    -0.000020
    36    -0.001282
    37    -0.008057
    38     0.023826
    39    -0.041615
    40     0.001348
    41    -0.009152
    42     0.000674
    43     0.003596
    44    -0.019320
    45     0.000362
    46    -0.007341
    47    -0.009003
    48     0.008511
    49     0.006129
    50    -0.004035
    51     0.003335
    52    -0.000230
    53     0.000989
    54    -0.000758
    55     0.032741
    56     0.013338
    57     0.004376
    58     0.002912
    59     0.003910
    60     0.000158
    61     0.000257
    62     0.000636
    63    -0.000029
    64     0.000097
    65    -0.000313
    66     0.001318
    67     0.001126
    68     0.001448
    69    -0.000114
    70    -0.000049
    71    -0.000014
    72    -0.000016
    73    -0.000058
    74    -0.000013
    75    -0.021137
    76    -0.129064
    77    -0.222997
    78     0.111013
    79    -0.069160
    80    -0.093845
    81    -0.007447
    82     0.118295
    83     0.153545
    84     0.014933
    85     0.011520
    86     0.025861
    87    -0.016098
    88    -0.000460
    89    -0.044291
    90     0.046073
    91    -0.064471
    92    -0.002591
    93     0.002569
    94    -0.004499
    95    -0.001270
    96     0.041266
    97     0.304513
    98     0.495840
    99     0.154003
   100    -0.195962
   101    -0.324742
   102    -0.106947
   103    -0.001178
   104    -0.013773
   105     0.007427
   106    -0.015306
   107    -0.002255
   108    -0.003400
   109    -0.000164
   110    -0.001591
   111    -0.000086
   112    -0.000150
   113    -0.000473
   114     0.000742
   115    -0.001515
   116     0.002738
   117     0.012168
   118     0.000210
   119     0.000219
   120    -0.000330
   121    -0.000361
   122     0.000152
   123     0.000043
   124     0.004998
   125     0.016187
   126    -0.022722
   127    -0.017628
   128    -0.010411
   129     0.010110
   130    -0.006460
   131    -0.007832
   132     0.001238
   133    -0.000406
   134     0.002134
   135     0.000762
   136    -0.001074
   137     0.002634
   138     0.001514
   139     0.000161
   140     0.001054
   141     0.011203
   142    -0.022513
   143     0.001222
   144     0.000939
   145    -0.001287
   146    -0.002571
   147     0.000175
   148     0.005112
   149     0.010145
   150    -0.016944
   151    -0.011426
   152    -0.000832
   153     0.000286
   154     0.002190
   155    -0.001969
   156    -0.003063
   157    -0.000858
   158    -0.000633
   159    -0.004341
   160    -0.025354
   161     0.070177
   162    -0.000343
   163    -0.000557
   164    -0.002861
   165    -0.001840
   166     0.001093
   167     0.001332
   168     0.028467
   169     0.018778
   170     0.030109
   171    -0.003632
   172    -0.003048
   173     0.003642
   174     0.000649
   175     0.002717
   176     0.000861
   177     0.005098
   178     0.005924
   179    -0.000081
   180    -0.001377
   181     0.000437
   182    -0.002911
   183    -0.029044
   184     0.000748
   185    -0.000121
   186     0.000193
   187     0.000625
   188     0.010133
   189    -0.000171
   190    -0.000074
   191     0.000246
   192     0.000786
   193    -0.005075
   194     0.000327
   195     0.000178
   196     0.000192
Sym=    53a
Ene=   -0.578013E+00
Spin= Alpha
Occup= 1.972424
     1    -0.439580
     2    -0.290349
     3    -0.001633
     4     0.018783
     5     0.007897
     6     0.008749
     7     0.018863
     8     0.026563
     9     0.009324
    10    -0.006128
    11    -0.031430
    12    -0.007389
    13     0.003577
    14     0.032148
    15     0.000853
    16     0.002215
    17    -0.002705
    18     0.000345
    19     0.000443
    20    -0.001585
    21     0.004506
    22     0.010180
    23     0.007809
    24     0.002877
    25     0.011311
    26    -0.016235
    27    -0.003357
    28    -0.009771
    29     0.014763
    30     0.000352
    31     0.000677
    32    -0.000627
    33    -0.000317
    34     0.000334
    35     0.000498
    36    -0.001033
    37    -0.006560
    38     0.012813
    39    -0.009064
    40    -0.001651
    41    -0.003742
    42    -0.006501
    43    -0.003246
    44    -0.006805
    45    -0.012685
    46    -0.003377
    47    -0.011711
    48    -0.011590
    49     0.000844
    50     0.000316
    51     0.001218
    52    -0.000998
    53    -0.000177
    54    -0.001462
    55     0.003901
    56     0.000079
    57    -0.000660
    58     0.000220
    59    -0.001027
    60     0.005427
    61     0.011087
    62     0.017834
    63     0.016252
    64     0.004622
    65    -0.015999
    66    -0.013478
    67    -0.005218
    68     0.015651
    69    -0.000136
    70     0.000244
    71    -0.000266
    72    -0.000072
    73     0.000803
    74    -0.000005
    75     0.000208
    76     0.002088
    77     0.007446
    78     0.004944
    79     0.000472
    80    -0.000835
    81    -0.001122
    82    -0.003230
    83     0.001648
    84     0.001012
    85    -0.002534
    86     0.000528
    87    -0.000388
    88    -0.001791
    89     0.001993
    90    -0.005340
    91    -0.000207
    92    -0.003426
    93     0.001097
    94     0.005889
    95     0.012104
    96     0.017957
    97     0.004480
    98    -0.007550
    99     0.020724
   100    -0.004891
   101     0.004811
   102    -0.020552
   103    -0.000006
   104     0.000546
   105    -0.000995
   106     0.000273
   107    -0.000694
   108     0.000153
   109     0.002289
   110     0.009757
   111     0.005339
   112     0.002908
   113     0.005557
   114    -0.002910
   115    -0.006724
   116    -0.002598
   117     0.020343
   118     0.002139
   119     0.001116
   120    -0.002541
   121     0.000117
   122     0.000638
   123     0.000651
   124     0.004710
   125     0.008388
   126     0.023036
   127    -0.018071
   128    -0.000877
   129    -0.012837
   130    -0.023627
   131    -0.001415
   132    -0.013877
   133    -0.000314
   134    -0.000113
   135    -0.000164
   136     0.000190
   137    -0.000598
   138     0.000323
   139    -0.000571
   140    -0.001481
   141     0.010885
   142    -0.038163
   143    -0.008877
   144     0.007039
   145     0.001064
   146     0.012608
   147    -0.009344
   148    -0.002080
   149     0.023650
   150     0.001517
   151    -0.002797
   152    -0.029263
   153     0.006633
   154     0.002629
   155     0.008914
   156     0.006100
   157     0.000952
   158    -0.023740
   159    -0.144152
   160    -0.216585
   161     0.017042
   162     0.010866
   163     0.139552
   164     0.057782
   165    -0.016946
   166    -0.248847
   167    -0.104842
   168    -0.046699
   169    -0.157075
   170    -0.045067
   171     0.026462
   172    -0.062029
   173     0.017057
   174    -0.034392
   175    -0.010043
   176    -0.040239
   177     0.000679
   178     0.019403
   179     0.000300
   180     0.002001
   181     0.002812
   182     0.063814
   183     0.120367
   184     0.000565
   185    -0.002672
   186    -0.002346
   187     0.004228
   188     0.016045
   189    -0.000374
   190     0.000158
   191     0.000811
   192    -0.001389
   193    -0.007453
   194    -0.001911
   195     0.001139
   196     0.001128
Sym=    54a
Ene=   -0.497761E+00
Spin= Alpha
Occup= 1.971491
     1    -0.047475
     2    -0.060145
     3    -0.004633
     4    -0.003594
     5    -0.000055
     6    -0.022588
     7    -0.047993
     8    -0.072122
     9    -0.015519
    10    -0.024802
    11     0.025664
    12     0.019207
    13     0.026074
    14    -0.032004
    15     0.000109
    16     0.001581
    17    -0.000426
    18     0.001486
    19    -0.001815
    20    -0.002801
    21     0.000887
    22     0.001938
    23     0.002002
    24    -0.003737
    25    -0.001901
    26    -0.002770
    27     0.003380
    28     0.000412
    29     0.002795
    30    -0.000168
    31     0.000316
    32    -0.000405
    33     0.000019
    34     0.000149
    35     0.000238
    36    -0.000375
    37    -0.002402
    38     0.005149
    39    -0.000669
    40     0.000159
    41    -0.000565
    42    -0.002267
    43     0.000270
    44    -0.001350
    45    -0.004364
    46     0.000958
    47    -0.000738
    48    -0.006383
    49     0.000708
    50     0.000425
    51     0.000092
    52    -0.000308
    53     0.000037
    54    -0.001083
    55    -0.000221
    56    -0.001373
    57    -0.000239
    58     0.000041
    59    -0.000268
    60     0.003157
    61     0.006086
    62     0.016129
    63     0.002225
    64     0.001508
    65    -0.007006
    66    -0.003775
    67    -0.004851
    68     0.009592
    69     0.000045
    70    -0.000511
    71    -0.000566
    72     0.000092
    73     0.000535
    74     0.000471
    75     0.000018
    76     0.000442
    77     0.001840
    78     0.007281
    79     0.000475
    80     0.000653
    81    -0.001633
    82    -0.000758
    83    -0.000548
    84     0.003208
    85    -0.003447
    86    -0.005711
    87    -0.001183
    88    -0.001531
    89     0.001398
    90    -0.001539
    91    -0.000410
    92    -0.003513
    93    -0.001180
    94    -0.003172
    95    -0.007805
    96    -0.005103
    97    -0.003605
    98    -0.003821
    99    -0.008190
   100     0.002852
   101     0.003406
   102     0.001743
   103    -0.000398
   104    -0.000464
   105     0.000012
   106     0.000320
   107     0.000581
   108     0.000681
   109     0.005073
   110     0.014729
   111     0.016141
   112     0.010377
   113     0.023097
   114    -0.001647
   115    -0.006316
   116    -0.012542
   117     0.014402
   118     0.000666
   119     0.003606
   120    -0.000261
   121     0.000853
   122     0.000525
   123     0.000494
   124     0.003301
   125     0.006696
   126     0.016816
   127    -0.004895
   128    -0.000791
   129    -0.005874
   130    -0.008011
   131    -0.002689
   132    -0.009147
   133    -0.000127
   134    -0.000124
   135    -0.000087
   136    -0.000125
   137    -0.000652
   138    -0.000258
   139    -0.003018
   140    -0.019028
   141    -0.026022
   142    -0.038009
   143    -0.009296
   144    -0.003429
   145    -0.001048
   146     0.018016
   147     0.012460
   148     0.002664
   149     0.033096
   150     0.010479
   151    -0.003783
   152    -0.010772
   153    -0.004699
   154    -0.000245
   155    -0.000860
   156    -0.000397
   157    -0.000543
   158     0.064092
   159     0.402125
   160     0.685816
   161     0.261203
   162     0.053544
   163     0.091546
   164    -0.001752
   165    -0.097497
   166    -0.169456
   167     0.000342
   168    -0.188705
   169    -0.230842
   170     0.006456
   171     0.045867
   172     0.022939
   173     0.030543
   174    -0.023772
   175     0.001587
   176    -0.002344
   177    -0.001544
   178    -0.000324
   179    -0.000088
   180     0.001124
   181     0.001019
   182     0.069499
   183     0.037321
   184    -0.007110
   185    -0.002727
   186    -0.000363
   187    -0.004429
   188    -0.000746
   189    -0.000571
   190    -0.000760
   191     0.000046
   192     0.003468
   193     0.004378
   194     0.000092
   195     0.000329
   196     0.000245
Sym=    55a
Ene=   -0.589613E+00
Spin= Alpha
Occup= 1.968903
     1    -0.008336
     2     0.020674
     3    -0.000347
     4     0.001926
     5     0.001567
     6     0.000302
     7     0.000128
     8     0.004246
     9     0.000155
    10    -0.000969
    11    -0.002493
    12     0.000181
    13     0.000001
    14     0.002903
    15    -0.000164
    16    -0.000064
    17    -0.000344
    18     0.000024
    19     0.000031
    20    -0.000075
    21    -0.000843
    22    -0.001539
    23    -0.003468
    24     0.000059
    25     0.000427
    26     0.003368
    27    -0.000233
    28     0.000218
    29    -0.002550
    30     0.000023
    31     0.000043
    32     0.000270
    33     0.000008
    34    -0.000036
    35     0.000104
    36     0.003929
    37     0.029949
    38    -0.046674
    39    -0.138556
    40    -0.026724
    41    -0.010767
    42    -0.206631
    43    -0.045676
    44    -0.016831
    45    -0.349837
    46    -0.025022
    47    -0.037187
    48    -0.365926
    49    -0.029962
    50    -0.032354
    51     0.050372
    52     0.005989
    53     0.007954
    54     0.016446
    55     0.024911
    56     0.037780
    57     0.000608
    58     0.000216
    59     0.001002
    60    -0.000028
    61     0.000243
    62    -0.001071
    63    -0.000045
    64     0.001239
    65     0.000701
    66     0.000105
    67    -0.001480
    68    -0.000793
    69     0.000097
    70     0.000136
    71     0.000096
    72    -0.000021
    73     0.000022
    74     0.000049
    75    -0.001639
    76    -0.010347
    77    -0.023412
    78    -0.003732
    79    -0.009051
    80     0.012494
    81     0.009275
    82     0.020447
    83    -0.025897
    84    -0.011065
    85     0.007633
    86    -0.012221
    87    -0.022866
    88    -0.000538
    89    -0.011656
    90     0.010534
    91     0.004844
    92     0.025469
    93    -0.024629
    94    -0.000399
    95    -0.000633
    96    -0.001165
    97     0.003021
    98    -0.000173
    99    -0.004576
   100    -0.001640
   101    -0.000657
   102     0.005000
   103     0.000402
   104    -0.000089
   105     0.000113
   106     0.000124
   107     0.000217
   108    -0.000213
   109     0.000138
   110     0.000329
   111     0.003669
   112     0.000858
   113    -0.000186
   114    -0.000206
   115    -0.001561
   116    -0.000718
   117     0.000929
   118     0.000348
   119     0.000309
   120    -0.000337
   121    -0.000197
   122     0.000078
   123    -0.000094
   124    -0.003403
   125    -0.006578
   126    -0.012318
   127     0.010652
   128    -0.004699
   129    -0.001383
   130     0.010860
   131    -0.008064
   132     0.000985
   133    -0.000149
   134     0.000330
   135     0.000411
   136    -0.000025
   137     0.000084
   138    -0.000572
   139    -0.000051
   140    -0.000202
   141    -0.002751
   142    -0.000016
   143    -0.001185
   144     0.000189
   145    -0.000361
   146     0.003094
   147    -0.000182
   148    -0.000209
   149    -0.000210
   150     0.003931
   151    -0.000688
   152    -0.002382
   153     0.000632
   154    -0.000507
   155     0.000286
   156     0.002511
   157     0.000278
   158    -0.000654
   159    -0.004116
   160    -0.003291
   161    -0.028787
   162     0.000758
   163     0.006435
   164     0.002445
   165    -0.000412
   166    -0.013030
   167    -0.005441
   168    -0.015938
   169    -0.025046
   170    -0.006943
   171     0.001171
   172    -0.003587
   173     0.001199
   174    -0.002692
   175    -0.000954
   176    -0.002084
   177     0.419891
   178     0.144026
   179     0.009217
   180    -0.001265
   181     0.035281
   182     0.003468
   183     0.016299
   184    -0.000228
   185    -0.000013
   186    -0.000135
   187    -0.000362
   188    -0.000952
   189     0.000039
   190     0.000046
   191     0.000029
   192    -0.001573
   193     0.000430
   194    -0.000171
   195    -0.000067
   196     0.000104
Sym=    56a
Ene=   -0.531072E+00
Spin= Alpha
Occup= 1.968746
     1     0.003922
     2    -0.011767
     3     0.000387
     4    -0.000518
     5    -0.000969
     6    -0.000227
     7    -0.000350
     8    -0.001472
     9     0.000021
    10     0.000378
    11     0.001623
    12    -0.000064
    13     0.000175
    14    -0.002042
    15     0.000044
    16    -0.000013
    17     0.000115
    18    -0.000021
    19    -0.000002
    20     0.000048
    21    -0.000134
    22    -0.000486
    23     0.000692
    24     0.000015
    25    -0.000141
    26     0.000501
    27     0.000130
    28    -0.000158
    29    -0.000401
    30    -0.000063
    31    -0.000075
    32    -0.000024
    33    -0.000002
    34    -0.000020
    35     0.000004
    36    -0.002958
    37    -0.024122
    38     0.050147
    39     0.051133
    40    -0.125502
    41     0.181320
    42     0.021177
    43    -0.218461
    44     0.315046
    45     0.035674
    46    -0.261858
    47     0.387749
    48     0.076844
    49    -0.001887
    50    -0.033107
    51     0.028727
    52     0.040994
    53     0.010787
    54    -0.012819
    55     0.069659
    56     0.040221
    57     0.003245
    58    -0.004052
    59     0.000395
    60    -0.000457
    61    -0.001046
    62    -0.001909
    63    -0.000148
    64    -0.000873
    65     0.000732
    66    -0.000683
    67     0.000498
    68    -0.000947
    69    -0.000011
    70    -0.000003
    71     0.000025
    72    -0.000031
    73    -0.000001
    74    -0.000057
    75    -0.024899
    76    -0.152618
    77    -0.251128
    78     0.021886
    79    -0.083633
    80     0.100313
    81    -0.015038
    82     0.158956
    83    -0.190012
    84     0.029888
    85     0.064567
    86    -0.058023
    87     0.041028
    88    -0.027121
    89    -0.063666
    90     0.030286
    91     0.073903
    92     0.000786
    93     0.001902
    94     0.009444
    95     0.021899
    96     0.018394
    97     0.007946
    98    -0.040548
    99     0.004606
   100    -0.006931
   101     0.037981
   102    -0.008229
   103     0.001935
   104    -0.002000
   105     0.001205
   106     0.000542
   107     0.000236
   108    -0.000016
   109     0.000034
   110     0.000848
   111    -0.007275
   112    -0.000363
   113    -0.000187
   114    -0.000192
   115    -0.001225
   116     0.001719
   117    -0.002568
   118    -0.000117
   119    -0.000068
   120     0.000086
   121     0.000129
   122    -0.000194
   123     0.000058
   124     0.011793
   125     0.024659
   126     0.037397
   127    -0.031999
   128     0.020537
   129     0.010916
   130    -0.034929
   131     0.015904
   132     0.006342
   133    -0.001723
   134    -0.000404
   135     0.001322
   136     0.002331
   137     0.001934
   138    -0.002065
   139    -0.000389
   140    -0.002594
   141    -0.002494
   142    -0.021113
   143     0.002802
   144    -0.000814
   145     0.003796
   146    -0.005526
   147     0.001485
   148    -0.006811
   149    -0.009169
   150     0.011312
   151    -0.017841
   152     0.002852
   153     0.003535
   154    -0.006747
   155    -0.002908
   156    -0.004474
   157     0.001381
   158     0.000352
   159     0.002150
   160     0.002531
   161     0.009529
   162    -0.000588
   163    -0.003089
   164    -0.001028
   165     0.000962
   166     0.006213
   167     0.002647
   168     0.003600
   169     0.014255
   170     0.002766
   171    -0.000322
   172     0.002189
   173    -0.000167
   174     0.001683
   175     0.000425
   176     0.001120
   177     0.033672
   178     0.036452
   179    -0.007713
   180     0.011695
   181     0.002449
   182    -0.001121
   183     0.004544
   184    -0.000156
   185     0.000132
   186     0.000080
   187    -0.000487
   188     0.000695
   189     0.000079
   190    -0.000060
   191    -0.000019
   192     0.002514
   193     0.016484
   194     0.000229
   195    -0.000258
   196    -0.000024
Sym=    57a
Ene=   -0.341118E-01
Spin= Alpha
Occup= 0.024794
     1    -0.013044
     2     0.032207
     3    -0.001111
     4     0.001890
     5     0.002594
     6    -0.000541
     7    -0.003046
     8     0.005357
     9    -0.000087
    10    -0.000902
    11    -0.001712
    12    -0.000068
    13     0.000733
    14     0.000947
    15    -0.000213
    16    -0.000356
    17     0.000162
    18    -0.000188
    19    -0.000210
    20    -0.000153
    21    -0.000122
    22    -0.001557
    23     0.005900
    24     0.000816
    25     0.000009
    26     0.000594
    27     0.002061
    28    -0.000491
    29     0.002450
    30    -0.000529
    31    -0.000479
    32     0.000117
    33     0.000081
    34    -0.000455
    35     0.000148
    36     0.038984
    37     0.331252
    38    -0.827757
    39     0.028859
    40    -0.157025
    41     0.225641
    42    -0.010415
    43    -0.409359
    44     0.593180
    45    -0.016263
    46    -0.054839
    47     0.055894
    48    -0.043736
    49     0.170998
    50     0.270667
    51     0.119441
    52    -0.132199
    53     0.015069
    54     0.007431
    55    -0.031167
    56    -0.002062
    57    -0.012009
    58     0.015510
    59    -0.003225
    60     0.000645
    61    -0.001127
    62     0.008930
    63     0.001349
    64    -0.003761
    65    -0.000636
    66     0.000832
    67    -0.004674
    68     0.007976
    69    -0.001021
    70     0.000540
    71    -0.001401
    72    -0.000577
    73    -0.000109
    74    -0.001685
    75     0.037102
    76     0.290532
    77     0.765032
    78    -0.103277
    79     0.158515
    80    -0.200467
    81     0.012974
    82    -0.469681
    83     0.593049
    84    -0.022691
    85    -0.015442
    86     0.020106
    87     0.052112
    88    -0.145729
    89    -0.097668
    90    -0.242494
    91    -0.142405
    92     0.029666
    93    -0.005420
    94    -0.001140
    95    -0.015555
    96     0.071676
    97    -0.091476
    98     0.073277
    99    -0.009517
   100     0.010135
   101     0.009317
   102     0.006455
   103    -0.019462
   104     0.012438
   105    -0.007238
   106    -0.010344
   107    -0.003315
   108    -0.001186
   109     0.000440
   110     0.005938
   111    -0.003723
   112     0.001627
   113    -0.000886
   114     0.004795
   115     0.004998
   116    -0.000113
   117    -0.016774
   118    -0.000818
   119     0.000312
   120     0.000027
   121     0.000266
   122    -0.000316
   123     0.000283
   124     0.001243
   125    -0.000967
   126     0.076437
   127     0.047015
   128    -0.056447
   129     0.011109
   130    -0.015309
   131    -0.044071
   132     0.077756
   133     0.007161
   134     0.001061
   135    -0.020155
   136    -0.015064
   137    -0.006223
   138     0.017160
   139    -0.000722
   140    -0.006303
   141    -0.016777
   142     0.026800
   143    -0.003755
   144     0.003774
   145    -0.007995
   146     0.010801
   147    -0.003095
   148     0.028291
   149    -0.002835
   150     0.000802
   151     0.013781
   152    -0.004180
   153    -0.005691
   154     0.023763
   155     0.007641
   156     0.020751
   157    -0.007564
   158    -0.000530
   159    -0.004097
   160    -0.020045
   161     0.010994
   162    -0.000761
   163     0.002818
   164     0.002405
   165     0.001977
   166    -0.007956
   167    -0.008632
   168     0.004165
   169    -0.005765
   170     0.004895
   171     0.004520
   172    -0.003011
   173     0.002560
   174    -0.004063
   175    -0.000607
   176    -0.002502
   177    -0.013674
   178     0.009756
   179    -0.009493
   180     0.006773
   181    -0.012998
   182     0.004044
   183    -0.012519
   184    -0.001129
   185    -0.000428
   186     0.000879
   187    -0.001965
   188    -0.013391
   189     0.000071
   190    -0.000034
   191    -0.000138
   192    -0.004292
   193     0.004292
   194     0.000465
   195    -0.001621
   196    -0.000411
Sym=    58a
Ene=   -0.306082E-01
Spin= Alpha
Occup= 0.024442
     1    -0.040685
     2     0.046430
     3    -0.001185
     4     0.006155
     5     0.004230
     6    -0.001231
     7    -0.005527
     8     0.006272
     9    -0.001569
    10    -0.001981
    11    -0.002142
    12    -0.000308
    13     0.000442
    14     0.001509
    15    -0.000330
    16     0.000613
    17     0.000476
    18     0.000112
    19    -0.000345
    20    -0.001012
    21    -0.002356
    22    -0.009218
    23     0.006870
    24    -0.002628
    25    -0.001627
    26     0.007071
    27    -0.001957
    28    -0.001107
    29     0.001054
    30    -0.000377
    31     0.000472
    32     0.001624
    33     0.000007
    34    -0.000499
    35     0.001039
    36     0.041944
    37     0.350216
    38    -0.880748
    39     0.000828
    40     0.060139
    41     0.010554
    42     0.305070
    43     0.155758
    44     0.038007
    45     0.828441
    46     0.039184
    47    -0.020745
    48     0.098535
    49     0.103911
    50     0.096035
    51     0.312209
    52    -0.012749
    53     0.061098
    54     0.001590
    55    -0.040594
    56    -0.002923
    57     0.003538
    58     0.001105
    59     0.007666
    60     0.001612
    61     0.004564
    62     0.003800
    63     0.002222
    64     0.000182
    65     0.000766
    66    -0.000759
    67    -0.000817
    68    -0.001491
    69    -0.001221
    70    -0.000371
    71    -0.001677
    72     0.000057
    73    -0.000656
    74     0.000279
    75     0.001022
    76     0.008196
    77     0.020271
    78    -0.018032
    79     0.011846
    80    -0.010616
    81    -0.002579
    82    -0.035457
    83     0.030636
    84     0.005416
    85     0.003561
    86     0.005315
    87     0.027582
    88    -0.014763
    89    -0.002827
    90     0.014376
    91     0.001159
    92    -0.010362
    93     0.032165
    94    -0.000495
    95    -0.002361
    96     0.004930
    97    -0.008488
    98     0.000192
    99    -0.001562
   100    -0.001842
   101    -0.001140
   102     0.001752
   103    -0.001928
   104     0.003258
   105    -0.000756
   106    -0.000600
   107    -0.001299
   108    -0.000626
   109     0.000943
   110     0.007794
   111    -0.005233
   112     0.007519
   113    -0.001000
   114     0.004873
   115     0.002292
   116     0.000053
   117    -0.018676
   118    -0.001454
   119    -0.000625
   120    -0.001786
   121    -0.000674
   122     0.000129
   123    -0.000312
   124     0.003452
   125     0.009434
   126     0.009319
   127     0.001910
   128     0.000407
   129     0.006364
   130     0.000177
   131    -0.001678
   132     0.006150
   133    -0.000127
   134    -0.001460
   135    -0.006736
   136    -0.001486
   137    -0.000445
   138     0.000972
   139    -0.001004
   140    -0.008488
   141    -0.035643
   142     0.029311
   143    -0.001516
   144     0.004094
   145     0.002407
   146     0.006550
   147    -0.012067
   148    -0.007646
   149    -0.017945
   150     0.004137
   151     0.008718
   152     0.006025
   153     0.004195
   154     0.006904
   155     0.003840
   156     0.003575
   157    -0.003883
   158     0.000565
   159     0.006148
   160     0.019963
   161    -0.024629
   162     0.002110
   163     0.008531
   164     0.004308
   165    -0.005398
   166    -0.021244
   167    -0.011585
   168    -0.005029
   169    -0.012614
   170    -0.003286
   171    -0.005012
   172    -0.011934
   173    -0.003487
   174    -0.003668
   175    -0.001852
   176    -0.006186
   177     0.758035
   178     0.070373
   179     0.021050
   180    -0.006473
   181     0.085335
   182     0.004345
   183    -0.004630
   184    -0.000068
   185    -0.000438
   186    -0.000229
   187    -0.003703
   188    -0.013848
   189    -0.000372
   190     0.000014
   191    -0.000447
   192     0.000898
   193     0.005153
   194     0.000005
   195     0.000529
   196     0.000072
Sym=    59a
Ene=   -0.123083E-01
Spin= Alpha
Occup= 0.007041
     1     0.143613
     2    -0.071481
     3    -0.009850
     4    -0.044941
     5    -0.010783
     6     0.041536
     7     0.179001
     8    -0.119736
     9     0.002134
    10     0.018820
    11    -0.230834
    12    -0.016676
    13     0.007786
    14    -0.284577
    15    -0.029777
    16    -0.021128
    17    -0.052165
    18     0.014258
    19    -0.009403
    20    -0.012814
    21    -0.001585
    22    -0.012475
    23     0.022416
    24     0.038606
    25    -0.003582
    26     0.015259
    27     0.038699
    28     0.014703
    29     0.025561
    30    -0.002326
    31     0.003556
    32    -0.004797
    33    -0.007399
    34     0.002706
    35    -0.000850
    36     0.000399
    37     0.004328
    38    -0.016005
    39    -0.000775
    40     0.004732
    41    -0.003630
    42     0.007347
    43     0.016907
    44    -0.011993
    45     0.024635
    46    -0.015835
    47     0.007683
    48    -0.021421
    49     0.020125
    50     0.041859
    51    -0.048431
    52    -0.044038
    53     0.009160
    54    -0.003273
    55    -0.025202
    56     0.001762
    57     0.007236
    58    -0.000144
    59     0.000484
    60     0.006598
    61     0.023085
    62     0.007975
    63    -0.012795
    64    -0.034639
    65    -0.000713
    66    -0.031686
    67    -0.048239
    68    -0.019055
    69    -0.001913
    70    -0.009746
    71    -0.005923
    72    -0.006790
    73     0.000602
    74     0.006933
    75    -0.004253
    76    -0.041983
    77    -0.118360
    78    -0.060614
    79    -0.017178
    80    -0.002964
    81    -0.007794
    82     0.058660
    83     0.015535
    84     0.031046
    85    -0.003625
    86     0.014193
    87     0.018301
    88     0.054906
    89     0.031224
    90     0.044184
    91    -0.018420
    92     0.038361
    93     0.020218
    94    -0.022444
    95    -0.095055
    96     0.059930
    97    -0.006467
    98     0.013497
    99    -0.019902
   100    -0.005885
   101     0.031144
   102    -0.010248
   103     0.031146
   104     0.020156
   105     0.033634
   106    -0.009054
   107    -0.006106
   108    -0.011504
   109     0.008318
   110     0.043418
   111    -0.103427
   112     0.057828
   113     0.044105
   114    -0.067444
   115     0.019619
   116     0.038107
   117    -0.113555
   118    -0.003941
   119     0.020687
   120    -0.027307
   121    -0.007290
   122     0.010924
   123     0.027563
   124     0.008283
   125     0.039296
   126    -0.030116
   127    -0.013438
   128     0.009374
   129     0.003787
   130    -0.000413
   131    -0.010829
   132     0.024487
   133    -0.013059
   134    -0.020034
   135    -0.000733
   136    -0.001841
   137     0.000307
   138    -0.005586
   139    -0.006563
   140    -0.065383
   141    -0.283613
   142     0.168122
   143    -0.034822
   144    -0.029135
   145    -0.001533
   146     0.148765
   147     0.104808
   148     0.012355
   149    -0.086578
   150    -0.015698
   151     0.014108
   152     0.029924
   153     0.074992
   154     0.081531
   155    -0.024358
   156    -0.010582
   157     0.004975
   158     0.116606
   159     1.200612
   160     3.894661
   161    -0.313482
   162     0.080497
   163     0.061538
   164     0.124005
   165    -0.322849
   166    -0.264946
   167    -0.405296
   168     0.316320
   169     0.340251
   170     0.019838
   171    -1.390916
   172    -1.480089
   173    -1.397026
   174    -0.015333
   175     0.049200
   176     0.057057
   177    -0.024117
   178     0.042985
   179    -0.004834
   180    -0.004221
   181    -0.007412
   182     0.205080
   183    -0.135632
   184    -0.048176
   185     0.026439
   186    -0.000108
   187     0.017007
   188    -0.032847
   189    -0.003702
   190    -0.010955
   191    -0.003011
   192     0.003789
   193    -0.003401
   194     0.005653
   195     0.009402
   196     0.001503
Sym=    60a
Ene=   -0.246198E-01
Spin= Alpha
Occup= 0.022109
     1     0.775185
     2     0.094062
     3     0.006052
     4    -0.032925
     5    -0.028898
     6    -0.010821
     7    -0.029858
     8    -0.023204
     9    -0.003037
    10    -0.038639
    11    -0.046202
    12    -0.002306
    13    -0.007774
    14    -0.015665
    15     0.011696
    16     0.025915
    17    -0.010724
    18     0.006173
    19    -0.000726
    20    -0.009072
    21    -0.006220
    22    -0.024137
    23     0.016566
    24    -0.015706
    25    -0.023661
    26     0.018370
    27    -0.007188
    28    -0.005503
    29    -0.002308
    30    -0.001516
    31     0.004117
    32     0.004242
    33     0.001196
    34    -0.000011
    35    -0.000251
    36    -0.002056
    37    -0.018766
    38     0.041127
    39     0.035750
    40     0.001908
    41     0.005556
    42     0.007586
    43     0.003094
    44     0.014265
    45     0.018682
    46     0.006198
    47    -0.009328
    48    -0.022117
    49    -0.006691
    50    -0.009915
    51    -0.022838
    52    -0.003458
    53    -0.002261
    54     0.001005
    55    -0.009640
    56    -0.010285
    57     0.001926
    58    -0.000337
    59     0.003306
    60     0.003141
    61     0.009399
    62     0.007554
    63    -0.013787
    64    -0.003481
    65    -0.000947
    66     0.001277
    67    -0.000017
    68    -0.006534
    69    -0.002300
    70    -0.001013
    71    -0.004805
    72     0.001463
    73    -0.002960
    74     0.001675
    75    -0.003576
    76    -0.030708
    77    -0.077349
    78    -0.049012
    79    -0.003849
    80    -0.000180
    81    -0.011357
    82     0.008225
    83     0.000335
    84     0.035529
    85     0.017450
    86     0.002759
    87     0.033543
    88     0.024636
    89     0.021295
    90     0.024089
    91    -0.000395
    92     0.014550
    93    -0.002733
    94     0.008235
    95     0.029113
    96    -0.002368
    97     0.000927
    98     0.003073
    99     0.024955
   100     0.005582
   101     0.007877
   102     0.019636
   103    -0.003226
   104    -0.004392
   105    -0.005373
   106    -0.001552
   107    -0.000214
   108    -0.000269
   109     0.005460
   110     0.027883
   111    -0.052449
   112     0.019903
   113     0.027265
   114     0.000518
   115     0.000918
   116     0.013296
   117    -0.012995
   118    -0.000810
   119    -0.001754
   120    -0.005941
   121     0.002344
   122    -0.002249
   123    -0.005833
   124     0.012336
   125     0.037605
   126     0.038229
   127     0.017346
   128    -0.001784
   129    -0.002005
   130    -0.008438
   131    -0.009550
   132     0.006801
   133    -0.009621
   134    -0.006782
   135    -0.011927
   136     0.000644
   137     0.004833
   138     0.000658
   139    -0.001771
   140    -0.015306
   141    -0.076298
   142     0.041919
   143     0.004390
   144     0.022618
   145     0.006766
   146     0.000681
   147    -0.066157
   148    -0.024789
   149    -0.019555
   150     0.005808
   151     0.000509
   152     0.005937
   153     0.022827
   154    -0.002093
   155     0.002825
   156     0.001896
   157     0.000697
   158    -0.051831
   159    -0.442224
   160    -1.367523
   161     0.232363
   162     0.053057
   163     0.249079
   164     0.160203
   165    -0.176913
   166    -0.787132
   167    -0.483701
   168     0.030914
   169    -0.029259
   170    -0.034611
   171     0.309063
   172     0.249307
   173     0.323663
   174    -0.017654
   175    -0.002785
   176    -0.064922
   177    -0.038758
   178    -0.015378
   179    -0.001099
   180    -0.004172
   181    -0.009289
   182     0.063563
   183    -0.024395
   184     0.020887
   185    -0.020890
   186    -0.010136
   187    -0.006631
   188     0.009473
   189    -0.000248
   190    -0.001303
   191    -0.000722
   192    -0.020701
   193     0.008254
   194     0.002381
   195    -0.003796
   196    -0.001994
Sym=    61a
Ene=   -0.857006E-02
Spin= Alpha
Occup= 0.003419
     1    -0.005489
     2    -0.048074
     3     0.000928
     4    -0.000544
     5    -0.005446
     6    -0.000741
     7    -0.002378
     8    -0.006025
     9    -0.002185
    10    -0.002348
    11     0.006774
    12    -0.002411
    13    -0.008352
    14     0.013606
    15    -0.001517
    16    -0.000693
    17     0.004086
    18     0.001529
    19    -0.000590
    20    -0.003490
    21    -0.000799
    22     0.001505
    23    -0.019896
    24    -0.000095
    25     0.000175
    26     0.000797
    27     0.000204
    28     0.001791
    29    -0.001277
    30     0.004426
    31     0.001858
    32     0.002118
    33     0.000396
    34     0.002338
    35     0.001348
    36    -0.003067
    37    -0.033297
    38     0.151959
    39    -0.188460
    40     0.014559
    41    -0.038890
    42    -0.003347
    43     0.057822
    44    -0.153466
    45    -0.016584
    46    -0.083230
    47     0.220629
    48     0.049055
    49    -0.007177
    50    -0.077220
    51    -0.001709
    52     0.049014
    53    -0.011417
    54    -0.005350
    55     0.000968
    56    -0.041852
    57    -0.003288
    58    -0.015768
    59    -0.003899
    60     0.002240
    61     0.008239
    62    -0.002951
    63    -0.002065
    64     0.000930
    65    -0.000374
    66    -0.004271
    67     0.004052
    68    -0.002612
    69    -0.000551
    70    -0.000903
    71    -0.008479
    72     0.002709
    73    -0.006711
    74     0.004554
    75     0.004758
    76     0.058837
    77     0.017719
    78     0.290821
    79    -0.023934
    80    -0.066511
    81    -0.006271
    82     0.194860
    83     0.405267
    84     0.024087
    85    -0.059398
    86    -0.015379
    87    -0.118045
    88    -0.094293
    89    -0.270592
    90    -0.035470
    91    -0.124969
    92     0.065113
    93     0.056068
    94    -0.005769
    95    -0.150213
    96     0.430344
    97     0.187064
    98     0.242159
    99     0.078587
   100     0.417113
   101     0.536375
   102     0.166340
   103    -0.038658
   104    -0.244121
   105     0.182254
   106    -0.588952
   107    -0.294905
   108    -0.419697
   109     0.001703
   110    -0.001799
   111     0.025206
   112     0.002912
   113     0.002896
   114     0.005084
   115    -0.010616
   116    -0.007707
   117     0.054911
   118    -0.004547
   119    -0.002742
   120    -0.002153
   121    -0.000253
   122     0.000193
   123     0.000406
   124     0.013384
   125     0.060182
   126    -0.037900
   127    -0.050848
   128    -0.013724
   129     0.048378
   130     0.092111
   131     0.009769
   132    -0.093565
   133    -0.009248
   134    -0.005198
   135    -0.036570
   136     0.004457
   137     0.036317
   138    -0.005688
   139    -0.002875
   140    -0.034488
   141    -0.141780
   142    -0.075320
   143     0.000033
   144    -0.000070
   145     0.004370
   146    -0.010282
   147    -0.011419
   148    -0.035389
   149     0.061863
   150    -0.009330
   151    -0.038204
   152     0.060789
   153     0.055760
   154     0.029809
   155    -0.004158
   156     0.000465
   157    -0.003576
   158    -0.003352
   159    -0.040002
   160    -0.112180
   161    -0.035871
   162    -0.001896
   163    -0.000563
   164    -0.011739
   165     0.012612
   166     0.010110
   167     0.046345
   168    -0.032054
   169    -0.010732
   170    -0.027733
   171     0.057813
   172     0.083724
   173     0.044736
   174     0.011975
   175    -0.001835
   176     0.007302
   177     0.019923
   178     0.007229
   179    -0.001253
   180     0.010501
   181     0.002866
   182    -0.014733
   183     0.065728
   184     0.003645
   185    -0.001949
   186    -0.001342
   187    -0.001064
   188     0.033806
   189    -0.000236
   190     0.000321
   191     0.001337
   192    -0.012188
   193    -0.010384
   194     0.002121
   195    -0.003201
   196     0.000098
Sym=    62a
Ene=   -0.742489E-02
Spin= Alpha
Occup= 0.003125
     1    -0.025544
     2     0.018204
     3    -0.014264
     4     0.007117
     5    -0.000532
     6     0.008020
     7     0.035407
     8    -0.022007
     9     0.006468
    10     0.007038
    11    -0.020436
    12     0.016455
    13     0.014033
    14    -0.040079
    15    -0.011266
    16    -0.003391
    17    -0.015333
    18    -0.012506
    19    -0.008859
    20     0.015172
    21     0.000616
    22     0.004936
    23    -0.014089
    24    -0.000708
    25     0.000724
    26    -0.003546
    27    -0.001296
    28     0.003736
    29    -0.006455
    30     0.002067
    31    -0.003466
    32     0.000549
    33     0.001261
    34     0.002110
    35     0.002666
    36     0.000598
    37     0.009408
    38    -0.036139
    39     0.003757
    40    -0.007172
    41    -0.002132
    42     0.010116
    43    -0.028167
    44    -0.005779
    45     0.042641
    46     0.043498
    47    -0.013563
    48    -0.047106
    49     0.043524
    50     0.105222
    51    -0.101255
    52    -0.050779
    53    -0.055210
    54     0.044214
    55    -0.133949
    56     0.047629
    57    -0.008487
    58     0.009027
    59     0.016063
    60     0.000232
    61    -0.005399
    62     0.027775
    63    -0.004078
    64     0.004957
    65     0.016080
    66     0.003288
    67     0.005232
    68     0.049378
    69    -0.014892
    70    -0.008187
    71     0.014288
    72     0.001195
    73     0.004828
    74    -0.006488
    75    -0.000674
    76    -0.012478
    77     0.072181
    78     0.055315
    79    -0.026235
    80     0.014688
    81    -0.020612
    82     0.165526
    83    -0.070375
    84     0.008745
    85    -0.036534
    86     0.009915
    87    -0.137020
    88    -0.116637
    89    -0.038838
    90     0.315159
    91     0.003196
    92    -0.025659
    93     0.110845
    94     0.004332
    95     0.024246
    96    -0.023982
    97    -0.052844
    98    -0.035277
    99     0.031487
   100    -0.075992
   101    -0.030453
   102     0.079667
   103     0.016668
   104    -0.054596
   105     0.033296
   106    -0.022871
   107     0.047759
   108     0.047769
   109     0.000162
   110    -0.011194
   111     0.050076
   112    -0.009822
   113     0.001568
   114    -0.018731
   115     0.005844
   116    -0.005869
   117     0.032885
   118     0.010972
   119    -0.000109
   120    -0.006968
   121    -0.000179
   122    -0.000073
   123    -0.002567
   124    -0.052082
   125    -0.184434
   126    -0.044902
   127    -0.092150
   128     0.028521
   129     0.076370
   130     0.323668
   131    -0.050408
   132    -0.280974
   133     0.753650
   134    -0.281814
   135    -0.221197
   136     0.543971
   137    -0.130254
   138     0.104012
   139    -0.003848
   140    -0.038826
   141    -0.203429
   142    -0.086297
   143     0.014687
   144     0.013814
   145     0.024982
   146    -0.076088
   147    -0.088635
   148    -0.141416
   149     0.126131
   150    -0.027001
   151    -0.018690
   152     0.106239
   153     0.025678
   154    -0.024576
   155     0.028677
   156    -0.039230
   157    -0.023333
   158    -0.001142
   159    -0.013035
   160    -0.045371
   161     0.015312
   162    -0.006566
   163    -0.008690
   164     0.013529
   165     0.026451
   166     0.036285
   167    -0.048757
   168    -0.008966
   169    -0.014434
   170     0.016898
   171    -0.000159
   172     0.037603
   173     0.029047
   174    -0.036164
   175    -0.004209
   176     0.007710
   177     0.031598
   178    -0.015528
   179     0.006426
   180    -0.005577
   181    -0.002551
   182    -0.044243
   183     0.064688
   184    -0.010849
   185    -0.023248
   186    -0.006194
   187     0.008656
   188     0.008592
   189    -0.000504
   190    -0.000787
   191     0.000638
   192    -0.012989
   193    -0.030924
   194     0.013659
   195    -0.017497
   196    -0.006492
Sym=    63a
Ene=   -0.372330E-01
Spin= Alpha
Occup= 0.022735
     1     0.049773
     2    -0.023056
     3    -0.003104
     4    -0.007481
     5     0.019100
     6     0.090358
     7     0.339318
     8    -0.143264
     9     0.152654
    10     0.355722
    11    -0.657852
    12     0.044844
    13     0.116011
    14    -0.387651
    15    -0.039094
    16    -0.030257
    17    -0.105902
    18     0.008459
    19     0.006380
    20     0.017585
    21    -0.000593
    22    -0.007563
    23     0.032151
    24    -0.023231
    25    -0.019954
    26    -0.001321
    27     0.018338
    28     0.006257
    29     0.005783
    30    -0.006809
    31     0.008147
    32    -0.004525
    33    -0.000029
    34     0.005977
    35     0.004803
    36    -0.000056
    37    -0.000253
    38     0.006977
    39    -0.027595
    40     0.002286
    41     0.002853
    42     0.001310
    43     0.005644
    44     0.005504
    45     0.001824
    46     0.000039
    47     0.009524
    48     0.011340
    49     0.002835
    50     0.002393
    51    -0.001883
    52     0.001354
    53     0.000028
    54    -0.000379
    55    -0.006272
    56     0.012135
    57     0.000548
    58    -0.000660
    59     0.001187
    60     0.003040
    61     0.005378
    62     0.020673
    63     0.005248
    64    -0.006633
    65    -0.005560
    66    -0.000521
    67     0.010331
    68    -0.000901
    69     0.000113
    70    -0.003092
    71    -0.001972
    72     0.000953
    73     0.003261
    74     0.004197
    75    -0.000444
    76    -0.003889
    77    -0.017673
    78     0.017329
    79     0.003832
    80     0.004364
    81    -0.005028
    82    -0.009055
    83    -0.012023
    84     0.018492
    85    -0.014705
    86     0.001373
    87    -0.021345
    88     0.002861
    89     0.007631
    90    -0.000018
    91     0.003882
    92     0.001712
    93    -0.004331
    94    -0.008371
    95    -0.025051
    96    -0.011026
    97    -0.005030
    98     0.000761
    99    -0.030631
   100     0.001500
   101    -0.003476
   102    -0.001398
   103     0.002958
   104     0.002592
   105     0.005113
   106     0.000964
   107     0.002319
   108     0.002029
   109     0.067909
   110     0.235455
   111    -0.079174
   112     0.093708
   113     0.201296
   114    -0.014157
   115    -0.000258
   116     0.012765
   117    -0.032443
   118    -0.038806
   119    -0.012452
   120    -0.054484
   121     0.017515
   122     0.004171
   123     0.006103
   124     0.005924
   125     0.023635
   126    -0.005367
   127     0.013361
   128     0.008300
   129     0.002317
   130     0.006034
   131     0.003388
   132     0.001766
   133    -0.003029
   134    -0.001747
   135    -0.005286
   136     0.001580
   137     0.003234
   138    -0.000774
   139     0.000622
   140     0.005201
   141     0.014180
   142     0.016468
   143     0.013757
   144     0.011829
   145     0.002684
   146    -0.039105
   147    -0.029923
   148    -0.010874
   149    -0.004248
   150    -0.000473
   151    -0.005979
   152    -0.004278
   153     0.003321
   154    -0.014172
   155     0.009685
   156    -0.012029
   157    -0.006878
   158    -0.015112
   159    -0.108179
   160    -0.273106
   161     0.118449
   162     0.053120
   163     0.064450
   164    -0.204117
   165    -0.135951
   166    -0.149788
   167     0.500423
   168    -0.012461
   169    -0.014647
   170     0.029959
   171     0.086572
   172     0.070838
   173    -0.010308
   174    -0.009541
   175     0.030016
   176     0.063535
   177    -0.003825
   178     0.017145
   179     0.000020
   180    -0.000373
   181     0.000653
   182     0.074735
   183    -0.021250
   184     0.003313
   185     0.000173
   186     0.019095
   187    -0.038484
   188    -0.028486
   189    -0.011536
   190    -0.020364
   191     0.004867
   192     0.000372
   193    -0.002383
   194     0.000603
   195    -0.001283
   196    -0.000637
Sym=    64a
Ene=   -0.223541E-01
Spin= Alpha
Occup= 0.021328
     1    -0.040801
     2     0.013998
     3     0.029542
     4     0.007028
     5     0.000980
     6    -0.000410
     7    -0.002961
     8    -0.001765
     9     0.006549
    10    -0.002026
    11    -0.004450
    12     0.012287
    13    -0.000386
    14    -0.003836
    15    -0.001979
    16    -0.000782
    17    -0.000616
    18    -0.002133
    19     0.000124
    20    -0.000377
    21    -0.001512
    22     0.001221
    23    -0.031466
    24    -0.001735
    25     0.000285
    26     0.000071
    27     0.007047
    28     0.012926
    29     0.003131
    30     0.000907
    31     0.004220
    32     0.004900
    33     0.000394
    34    -0.002590
    35     0.001939
    36     0.000831
    37     0.007826
    38    -0.012747
    39    -0.012928
    40     0.005785
    41    -0.001458
    42    -0.007800
    43     0.011874
    44    -0.007194
    45    -0.023714
    46     0.007487
    47     0.027752
    48     0.017488
    49     0.007151
    50     0.010243
    51     0.000696
    52    -0.003957
    53     0.011164
    54    -0.011282
    55    -0.013616
    56     0.063043
    57     0.003753
    58     0.000412
    59     0.005806
    60     0.016920
    61     0.053490
    62     0.004038
    63    -0.062928
    64     0.038162
    65     0.026693
    66    -0.022475
    67     0.016702
    68    -0.033638
    69    -0.021175
    70    -0.011779
    71     0.006643
    72     0.016361
    73    -0.018651
    74    -0.000289
    75    -0.006687
    76    -0.059693
    77    -0.236024
    78    -0.015100
    79     0.021028
    80     0.001905
    81    -0.033493
    82    -0.082660
    83     0.001579
    84     0.139813
    85    -0.079762
    86    -0.034644
    87    -0.069662
    88     0.023536
    89     0.070165
    90     0.048631
    91    -0.028650
    92     0.038826
    93     0.051041
    94    -0.001952
    95     0.000960
    96    -0.038931
    97     0.002602
    98    -0.010563
    99    -0.008442
   100     0.001379
   101    -0.015382
   102     0.000523
   103     0.002200
   104    -0.000368
   105     0.003438
   106    -0.003130
   107    -0.001868
   108    -0.000667
   109    -0.006006
   110    -0.041880
   111     0.004204
   112     0.043776
   113    -0.013727
   114     0.036025
   115    -0.025208
   116    -0.031927
   117     0.063205
   118    -0.006762
   119     0.007647
   120     0.003818
   121    -0.007144
   122    -0.012694
   123    -0.004767
   124     0.045464
   125     0.147562
   126    -0.017254
   127     0.141334
   128     0.015737
   129    -0.012900
   130    -0.083095
   131     0.000607
   132     0.180076
   133    -0.027694
   134    -0.023330
   135    -0.030456
   136     0.025201
   137     0.040934
   138    -0.015642
   139    -0.073773
   140    -0.671091
   141    -2.373364
   142     0.383289
   143     0.202522
   144    -0.105268
   145    -0.058422
   146    -0.710708
   147     0.408369
   148     0.257307
   149    -0.015187
   150     0.021781
   151     0.028586
   152     0.502899
   153     0.576999
   154     0.675383
   155     0.059079
   156     0.039481
   157    -0.027877
   158    -0.003514
   159    -0.035246
   160    -0.083785
   161    -0.108764
   162    -0.026225
   163     0.008067
   164     0.008991
   165     0.078801
   166    -0.013499
   167    -0.024860
   168    -0.044410
   169    -0.012984
   170     0.004082
   171     0.096762
   172     0.012606
   173     0.024386
   174     0.039314
   175     0.022697
   176     0.000363
   177     0.010712
   178    -0.026132
   179    -0.002570
   180     0.002975
   181     0.001236
   182     0.044309
   183     0.055433
   184    -0.033290
   185    -0.000321
   186     0.006485
   187    -0.003954
   188     0.044555
   189     0.001173
   190     0.000829
   191    -0.000697
   192     0.806936
   193     0.187680
   194    -0.003883
   195     0.005531
   196    -0.005682
Sym=    65a
Ene=   -0.406047E-01
Spin= Alpha
Occup= 0.022770
     1     0.046568
     2     0.024760
     3    -0.002666
     4    -0.008031
     5     0.014373
     6     0.218792
     7     0.777019
     8    -0.098179
     9    -0.290484
    10    -0.552084
    11    -0.203839
    12    -0.127432
    13    -0.227499
    14    -0.170251
    15    -0.113327
    16    -0.184610
    17    -0.117619
    18    -0.055426
    19     0.009911
    20     0.022799
    21     0.025497
    22     0.089348
    23    -0.058113
    24     0.087181
    25     0.143373
    26    -0.069245
    27     0.011448
    28    -0.013803
    29     0.009311
    30     0.011687
    31    -0.043225
    32     0.000452
    33    -0.006224
    34    -0.014335
    35     0.004944
    36     0.000081
    37     0.000783
    38     0.000447
    39    -0.012023
    40     0.000937
    41     0.001826
    42     0.000794
    43     0.002132
    44     0.003694
    45     0.000869
    46    -0.000746
    47     0.006622
    48     0.005439
    49     0.000955
    50     0.000257
    51     0.001788
    52     0.000589
    53     0.000832
    54    -0.000300
    55    -0.001851
    56     0.009394
    57     0.000049
    58    -0.000187
    59     0.000596
    60     0.039782
    61     0.134468
    62    -0.017237
    63     0.127572
    64     0.088592
    65     0.036140
    66    -0.020419
    67    -0.010276
    68     0.005001
    69    -0.036706
    70    -0.011289
    71    -0.009113
    72    -0.023032
    73    -0.009856
    74    -0.012384
    75    -0.000330
    76    -0.002447
    77    -0.013577
    78     0.028120
    79     0.000829
    80     0.001608
    81    -0.002575
    82     0.000693
    83    -0.004771
    84     0.009493
    85    -0.010656
    86     0.001885
    87    -0.024610
    88     0.001527
    89     0.001544
    90    -0.000003
    91     0.001597
    92    -0.000121
    93    -0.000968
    94    -0.002968
    95    -0.008812
    96    -0.005061
    97    -0.002234
    98     0.001262
    99    -0.013383
   100     0.000651
   101    -0.002758
   102    -0.001464
   103     0.001037
   104     0.001161
   105     0.001972
   106     0.000100
   107     0.000633
   108     0.000526
   109    -0.157533
   110    -0.491811
   111     0.085019
   112    -0.160082
   113    -0.495840
   114     0.168796
   115     0.012337
   116    -0.013614
   117    -0.011182
   118     0.085969
   119     0.032170
   120     0.096161
   121    -0.054136
   122     0.012832
   123     0.043829
   124     0.002397
   125     0.010004
   126    -0.004705
   127     0.006647
   128     0.004398
   129     0.002787
   130     0.007851
   131     0.000836
   132    -0.007381
   133    -0.001671
   134    -0.001423
   135    -0.001400
   136     0.000475
   137     0.002005
   138     0.000049
   139     0.001930
   140     0.017232
   141     0.067516
   142    -0.052915
   143     0.008685
   144     0.004080
   145     0.005325
   146    -0.025580
   147    -0.007859
   148    -0.021187
   149     0.013064
   150    -0.005645
   151     0.013112
   152    -0.013052
   153    -0.014050
   154    -0.019620
   155    -0.000828
   156    -0.004678
   157    -0.004214
   158    -0.002441
   159    -0.015220
   160    -0.019218
   161    -0.040203
   162     0.020171
   163     0.017906
   164    -0.063374
   165    -0.052207
   166    -0.040777
   167     0.162821
   168    -0.019925
   169    -0.020438
   170     0.009585
   171     0.013323
   172    -0.002214
   173    -0.009462
   174    -0.014021
   175     0.018877
   176     0.045372
   177    -0.001079
   178    -0.000490
   179    -0.000195
   180    -0.000429
   181    -0.000644
   182     0.029850
   183     0.028919
   184     0.000865
   185     0.001631
   186     0.004788
   187     0.032833
   188    -0.013032
   189     0.006925
   190     0.020137
   191    -0.002581
   192     0.000179
   193     0.006081
   194    -0.001104
   195    -0.000011
   196    -0.000374
Sym=    66a
Ene=   -0.397976E-01
Spin= Alpha
Occup= 0.022418
     1    -0.010110
     2     0.015457
     3     0.000595
     4     0.001904
     5    -0.001245
     6     0.015037
     7     0.052349
     8     0.015931
     9    -0.047832
    10     0.027889
    11     0.028493
    12    -0.006575
    13    -0.020258
    14    -0.018152
    15    -0.021007
    16     0.007534
    17    -0.019455
    18    -0.008698
    19     0.009052
    20     0.016201
    21    -0.181292
    22    -0.609312
    23    -0.167178
    24     0.585088
    25    -0.409745
    26    -0.140776
    27     0.176586
    28     0.003043
    29     0.061950
    30     0.130779
    31     0.121101
    32     0.080448
    33    -0.069130
    34    -0.028406
    35     0.023326
    36     0.000066
    37     0.000776
    38    -0.000927
    39    -0.002803
    40    -0.000054
    41     0.000168
    42     0.000134
    43    -0.000414
    44     0.000384
    45     0.000064
    46     0.000911
    47     0.000322
    48     0.001356
    49     0.001621
    50     0.002411
    51    -0.001027
    52    -0.000747
    53     0.000156
    54    -0.000262
    55    -0.001262
    56    -0.002588
    57    -0.000008
    58     0.000108
    59     0.000394
    60    -0.062801
    61    -0.206050
    62    -0.007301
    63    -0.134424
    64     0.078237
    65     0.000807
    66     0.005595
    67     0.003102
    68    -0.012640
    69     0.057204
    70     0.030317
    71     0.019467
    72    -0.029271
    73     0.010452
    74    -0.017598
    75    -0.000109
    76    -0.001140
    77     0.001129
    78    -0.010382
    79     0.000545
    80     0.000321
    81     0.000060
    82    -0.001742
    83    -0.000213
    84    -0.001923
    85     0.002930
    86    -0.000233
    87     0.010363
    88     0.003831
    89     0.003207
    90    -0.001305
    91    -0.001432
    92    -0.001325
    93     0.001266
    94    -0.000492
    95    -0.001753
    96     0.001107
    97     0.000457
    98    -0.000719
    99    -0.002375
   100    -0.000862
   101    -0.001364
   102    -0.001303
   103     0.000253
   104    -0.000076
   105     0.000197
   106    -0.000031
   107    -0.000070
   108    -0.000024
   109     0.228781
   110     0.853675
   111    -0.157578
   112     0.278632
   113    -0.546111
   114    -0.375632
   115     0.005721
   116     0.024599
   117    -0.012812
   118    -0.130219
   119    -0.078262
   120    -0.131762
   121    -0.083211
   122    -0.041193
   123     0.072591
   124     0.001288
   125     0.005038
   126     0.002791
   127     0.003399
   128    -0.001106
   129     0.001123
   130     0.004368
   131    -0.009403
   132    -0.002566
   133    -0.001221
   134    -0.001005
   135     0.000949
   136     0.000947
   137     0.001532
   138    -0.000876
   139     0.002007
   140     0.014926
   141     0.031329
   142     0.039583
   143     0.008658
   144    -0.015003
   145     0.018791
   146    -0.025355
   147     0.042914
   148    -0.059245
   149    -0.021638
   150     0.005804
   151    -0.009973
   152    -0.018217
   153    -0.011121
   154     0.009667
   155    -0.001027
   156     0.004661
   157    -0.024964
   158    -0.001403
   159    -0.010467
   160    -0.030515
   161     0.014418
   162     0.007794
   163     0.012848
   164    -0.019514
   165    -0.021247
   166    -0.033232
   167     0.055156
   168     0.000303
   169    -0.004294
   170    -0.013855
   171     0.009914
   172     0.001972
   173     0.002064
   174    -0.003589
   175    -0.000342
   176     0.004401
   177    -0.001252
   178     0.004159
   179     0.000252
   180     0.000135
   181     0.000536
   182     0.008575
   183    -0.019504
   184     0.001186
   185     0.001050
   186     0.001042
   187     0.006592
   188     0.010922
   189    -0.010662
   190     0.024902
   191     0.011679
   192    -0.004520
   193     0.001693
   194     0.001120
   195     0.000751
   196    -0.001137
Sym=    67a
Ene=   -0.138193E-01
Spin= Alpha
Occup= 0.011942
     1    -0.039540
     2     0.080938
     3    -0.003241
     4     0.008400
     5     0.005386
     6     0.000581
     7     0.003687
     8    -0.004072
     9     0.000643
    10    -0.000851
    11    -0.005116
    12     0.003583
    13    -0.004410
    14    -0.007949
    15    -0.000971
    16    -0.001381
    17     0.000880
    18    -0.000580
    19    -0.001204
    20    -0.000386
    21    -0.000740
    22     0.002005
    23    -0.020934
    24     0.002215
    25    -0.000221
    26     0.003440
    27     0.001547
    28     0.004257
    29     0.003786
    30     0.001415
    31     0.000623
    32     0.002630
    33     0.000554
    34    -0.000812
    35     0.000172
    36     0.049547
    37     0.487513
    38    -1.597550
    39     0.779987
    40    -0.058465
    41     0.026738
    42     0.050275
    43    -0.211100
    44     0.123505
    45     0.195299
    46     0.238677
    47    -0.251488
    48    -0.305628
    49     0.814322
    50     0.333247
    51     0.047429
    52     0.674448
    53    -0.077689
    54    -0.061270
    55     0.021711
    56    -0.055196
    57    -0.002590
    58     0.008709
    59     0.000493
    60    -0.003432
    61    -0.013867
    62     0.000696
    63     0.003508
    64    -0.009027
    65     0.011112
    66     0.006541
    67    -0.010615
    68     0.015723
    69     0.001684
    70     0.004465
    71     0.004092
    72    -0.001441
    73     0.001018
    74    -0.004523
    75    -0.004319
    76    -0.036955
    77    -0.212252
    78     0.013704
    79     0.004228
    80    -0.004274
    81    -0.004856
    82    -0.000372
    83    -0.034973
    84     0.026857
    85     0.076538
    86    -0.056866
    87     0.013284
    88     0.010438
    89     0.021278
    90     0.003274
    91     0.106909
    92     0.027217
    93    -0.008063
    94     0.000677
    95     0.007724
    96    -0.028113
    97    -0.000462
    98     0.013453
    99     0.012375
   100     0.006864
   101    -0.020221
   102     0.012994
   103    -0.010554
   104     0.008430
   105    -0.007753
   106    -0.008031
   107    -0.002324
   108    -0.001116
   109     0.002052
   110     0.007244
   111     0.022228
   112     0.002099
   113    -0.003793
   114     0.011882
   115    -0.006499
   116    -0.003566
   117     0.036557
   118    -0.001219
   119    -0.000514
   120    -0.003927
   121    -0.001371
   122     0.000622
   123     0.001364
   124     0.004028
   125     0.015531
   126     0.020168
   127    -0.031074
   128     0.033443
   129    -0.008193
   130     0.004489
   131    -0.075362
   132     0.035894
   133    -0.008953
   134     0.008865
   135    -0.024884
   136    -0.013070
   137     0.009238
   138     0.014105
   139    -0.000818
   140    -0.008856
   141    -0.030533
   142    -0.036854
   143     0.003560
   144     0.000609
   145    -0.010389
   146    -0.016049
   147     0.004444
   148     0.030290
   149     0.038075
   150    -0.003772
   151    -0.009828
   152     0.002041
   153    -0.003274
   154     0.027373
   155     0.002226
   156     0.016108
   157    -0.021298
   158     0.001378
   159     0.013230
   160     0.047224
   161    -0.060348
   162    -0.002229
   163    -0.000544
   164     0.002524
   165     0.010444
   166     0.005865
   167    -0.008363
   168    -0.024372
   169    -0.026436
   170     0.000830
   171    -0.008476
   172    -0.015396
   173    -0.011029
   174    -0.010064
   175    -0.001307
   176    -0.003819
   177    -0.083544
   178    -0.089066
   179    -0.022386
   180    -0.016863
   181    -0.034427
   182     0.001170
   183     0.037164
   184    -0.003284
   185    -0.000200
   186     0.001809
   187    -0.008535
   188     0.019690
   189    -0.000745
   190    -0.000299
   191     0.000313
   192     0.012593
   193     0.000151
   194     0.002093
   195    -0.000711
   196     0.001891
Sym=    68a
Ene=   -0.316390E-01
Spin= Alpha
Occup= 0.020970
     1    -0.046646
     2     0.016993
     3     0.009881
     4     0.006911
     5     0.007882
     6    -0.002022
     7    -0.003946
     8    -0.008708
     9    -0.015922
    10     0.001674
    11    -0.003405
    12    -0.010677
    13    -0.004050
    14     0.001702
    15     0.002911
    16     0.005050
    17     0.002029
    18     0.002371
    19    -0.003300
    20    -0.000621
    21    -0.000119
    22     0.002171
    23    -0.013465
    24    -0.002856
    25     0.000652
    26     0.001631
    27    -0.006582
    28     0.003084
    29    -0.000044
    30     0.000260
    31     0.002273
    32     0.000205
    33    -0.000309
    34    -0.000052
    35     0.000021
    36    -0.000190
    37    -0.000894
    38     0.017072
    39    -0.059163
    40     0.005654
    41     0.004617
    42    -0.006946
    43     0.010094
    44     0.009238
    45    -0.021637
    46     0.012075
    47     0.019897
    48     0.018517
    49    -0.005577
    50     0.006703
    51     0.005211
    52     0.003577
    53     0.010448
    54    -0.011907
    55     0.013447
    56     0.000312
    57    -0.010207
    58    -0.000709
    59     0.014088
    60    -0.000024
    61    -0.002855
    62     0.021599
    63    -0.010261
    64     0.040059
    65     0.050488
    66     0.024833
    67    -0.018163
    68     0.030425
    69    -0.007155
    70    -0.016835
    71     0.012681
    72     0.002904
    73     0.002462
    74     0.003296
    75    -0.012938
    76    -0.104906
    77    -0.319739
    78     0.125922
    79     0.055840
    80     0.010110
    81    -0.040136
    82    -0.164643
    83    -0.021350
    84     0.143340
    85    -0.024639
    86    -0.008488
    87    -0.014624
    88     0.011579
    89     0.066671
    90     0.087720
    91    -0.018555
    92     0.041545
    93     0.025776
    94    -0.006662
    95    -0.016516
    96    -0.019231
    97     0.006322
    98     0.002466
    99    -0.017077
   100     0.001210
   101    -0.018395
   102    -0.007586
   103     0.001573
   104    -0.001609
   105     0.008349
   106    -0.003254
   107    -0.001923
   108     0.000600
   109     0.002481
   110     0.013957
   111     0.048403
   112    -0.007824
   113     0.009567
   114    -0.016042
   115     0.018830
   116     0.005585
   117     0.021495
   118     0.011691
   119    -0.001017
   120    -0.009951
   121     0.000223
   122    -0.000535
   123     0.001780
   124    -0.167765
   125    -0.625340
   126    -0.004035
   127     0.092292
   128     0.342337
   129     0.706038
   130    -0.152234
   131    -0.082494
   132    -0.082530
   133     0.094321
   134     0.106639
   135     0.140175
   136     0.005184
   137     0.011581
   138     0.028721
   139     0.044328
   140     0.360478
   141     1.164601
   142    -0.323069
   143     0.041826
   144    -0.104981
   145    -0.213313
   146    -0.121489
   147     0.314170
   148     0.650060
   149     0.072244
   150    -0.017527
   151    -0.009884
   152    -0.306469
   153    -0.279164
   154    -0.083710
   155    -0.011503
   156    -0.062645
   157     0.131643
   158    -0.001102
   159    -0.010794
   160    -0.040747
   161     0.048023
   162     0.010977
   163     0.017168
   164     0.010943
   165    -0.026735
   166    -0.041360
   167    -0.030508
   168     0.003870
   169    -0.012086
   170     0.004675
   171     0.012104
   172     0.006539
   173     0.021862
   174    -0.006550
   175     0.011678
   176    -0.006044
   177    -0.001701
   178     0.025651
   179     0.003782
   180    -0.000375
   181     0.000861
   182    -0.036061
   183     0.007530
   184     0.007971
   185     0.011669
   186     0.015687
   187    -0.003260
   188     0.004932
   189    -0.000903
   190    -0.000714
   191    -0.000188
   192     0.025940
   193    -0.011999
   194    -0.008056
   195     0.015553
   196     0.021155
Sym=    69a
Ene=   -0.246326E-01
Spin= Alpha
Occup= 0.020002
     1    -0.028229
     2     0.091779
     3    -0.000125
     4    -0.003535
     5     0.001441
     6    -0.001588
     7    -0.011559
     8     0.025107
     9     0.001482
    10    -0.001236
    11     0.004322
    12     0.001136
    13     0.004194
    14     0.010449
    15    -0.000998
    16    -0.001055
    17     0.000376
    18     0.000223
    19     0.000254
    20    -0.000767
    21     0.000180
    22    -0.004602
    23     0.026490
    24     0.000407
    25    -0.000856
    26     0.000975
    27     0.002715
    28    -0.005017
    29     0.004923
    30    -0.002098
    31    -0.002309
    32    -0.000900
    33     0.000218
    34    -0.000196
    35     0.000091
    36    -0.003191
    37    -0.025082
    38     0.070670
    39     0.001115
    40     0.028599
    41    -0.005081
    42     0.038811
    43     0.072179
    44    -0.014682
    45     0.114869
    46    -0.010818
    47     0.017575
    48    -0.072279
    49    -0.022413
    50     0.028407
    51    -0.042647
    52    -0.013717
    53    -0.034544
    54     0.053664
    55     0.802922
    56     0.019820
    57    -0.028287
    58    -0.008353
    59    -0.050891
    60     0.000460
    61    -0.002387
    62     0.013053
    63     0.004578
    64    -0.012994
    65    -0.008302
    66    -0.006617
    67    -0.001236
    68    -0.000702
    69     0.000527
    70     0.003137
    71    -0.005755
    72    -0.001515
    73    -0.001033
    74    -0.001064
    75    -0.059588
    76    -0.521320
    77    -1.500968
    78     0.110813
    79     0.155798
    80     0.010420
    81     0.244851
    82    -0.503117
    83    -0.032897
    84    -0.842997
    85     0.063469
    86    -0.031710
    87     0.096195
    88     0.423861
    89     0.473168
    90     0.320355
    91     0.010583
    92    -0.082788
    93    -0.007404
    94     0.000959
    95     0.024172
    96    -0.103380
    97    -0.022470
    98     0.024799
    99    -0.098146
   100    -0.019028
   101    -0.056510
   102    -0.001533
   103    -0.008348
   104     0.020209
   105    -0.001805
   106    -0.012315
   107    -0.022397
   108    -0.026440
   109     0.000556
   110     0.012785
   111    -0.028758
   112     0.002460
   113    -0.001766
   114     0.009576
   115     0.007727
   116     0.001592
   117    -0.067766
   118    -0.005462
   119    -0.000947
   120     0.003676
   121     0.000832
   122    -0.000289
   123    -0.000698
   124     0.048112
   125     0.161744
   126     0.002240
   127     0.101134
   128     0.028459
   129     0.062070
   130     0.046000
   131    -0.072895
   132    -0.118753
   133     0.008519
   134    -0.018425
   135    -0.086524
   136    -0.001219
   137    -0.000393
   138    -0.007557
   139    -0.008960
   140    -0.079423
   141    -0.351544
   142     0.114049
   143    -0.013302
   144     0.028267
   145     0.038647
   146     0.050810
   147    -0.104122
   148    -0.159332
   149    -0.093706
   150     0.023270
   151     0.016375
   152     0.090574
   153     0.051089
   154     0.038951
   155     0.001901
   156     0.001201
   157    -0.056497
   158     0.001221
   159     0.012812
   160     0.042999
   161    -0.077134
   162     0.000296
   163     0.001699
   164    -0.000221
   165    -0.001318
   166    -0.006407
   167     0.002065
   168    -0.022804
   169    -0.027430
   170    -0.019898
   171    -0.016993
   172    -0.015151
   173    -0.018153
   174    -0.003407
   175    -0.005369
   176    -0.008936
   177    -0.036821
   178    -0.001907
   179     0.007850
   180    -0.011215
   181    -0.009226
   182     0.007069
   183     0.000410
   184    -0.003860
   185    -0.004370
   186    -0.003759
   187    -0.001783
   188    -0.049118
   189     0.000143
   190     0.000416
   191    -0.000608
   192    -0.020369
   193     0.044813
   194     0.004476
   195    -0.003023
   196    -0.002575
Sym=    70a
Ene=   -0.234137E-01
Spin= Alpha
Occup= 0.017788
     1    -0.022408
     2     0.020559
     3     0.001101
     4     0.001674
     5    -0.004017
     6     0.013348
     7     0.049313
     8    -0.031589
     9    -0.069423
    10     0.085802
    11     0.055386
    12     0.002603
    13     0.033725
    14     0.043681
    15    -0.029856
    16     0.014729
    17    -0.009105
    18    -0.017017
    19     0.013920
    20     0.021594
    21    -0.024533
    22    -0.078821
    23    -0.091554
    24     0.007378
    25    -0.131104
    26     0.143360
    27     0.038017
    28     0.039526
    29     0.129182
    30    -0.003361
    31     0.065897
    32    -0.002667
    33    -0.015142
    34     0.022175
    35    -0.006365
    36    -0.000942
    37    -0.009153
    38     0.017202
    39     0.033896
    40    -0.000901
    41     0.000892
    42    -0.003154
    43    -0.001872
    44     0.003779
    45    -0.010225
    46     0.002299
    47    -0.014138
    48    -0.003202
    49    -0.014280
    50    -0.016463
    51     0.007168
    52     0.008004
    53    -0.005779
    54     0.001439
    55    -0.000105
    56    -0.009770
    57    -0.002130
    58     0.000847
    59    -0.000012
    60     0.136839
    61     0.450599
    62     0.062208
    63     0.132222
    64     0.042839
    65     0.185249
    66     0.024960
    67    -0.032556
    68     0.050779
    69    -0.066225
    70    -0.061944
    71    -0.153276
    72     0.006173
    73    -0.077440
    74     0.032090
    75     0.000267
    76     0.002856
    77     0.014819
    78    -0.044187
    79     0.002002
    80    -0.000181
    81    -0.003540
    82    -0.006682
    83    -0.003669
    84     0.012299
    85    -0.000233
    86    -0.002570
    87     0.024505
    88    -0.019052
    89    -0.006143
    90     0.013813
    91     0.015110
    92     0.005182
    93    -0.007310
    94    -0.000862
    95    -0.004569
    96     0.006240
    97    -0.002825
    98     0.001130
    99     0.000525
   100    -0.001557
   101     0.000479
   102    -0.002524
   103    -0.001698
   104     0.000656
   105     0.001220
   106     0.000803
   107     0.001090
   108     0.001255
   109    -0.291254
   110    -1.289035
   111     0.216699
   112     0.619406
   113    -0.027571
   114    -0.482308
   115     0.005502
   116    -0.020016
   117     0.023446
   118     0.215737
   119     0.275213
   120     0.252775
   121     0.004551
   122    -0.007641
   123     0.027936
   124     0.000214
   125    -0.001751
   126    -0.009253
   127     0.005663
   128     0.000509
   129     0.002293
   130    -0.023071
   131     0.037545
   132     0.014546
   133     0.003824
   134     0.004968
   135    -0.010476
   136    -0.002083
   137    -0.003349
   138     0.009503
   139    -0.008182
   140    -0.071045
   141    -0.251552
   142     0.036538
   143    -0.028628
   144     0.055681
   145    -0.047605
   146     0.102235
   147    -0.178197
   148     0.165879
   149    -0.029078
   150     0.024478
   151     0.033162
   152     0.078018
   153     0.040523
   154     0.044236
   155     0.027710
   156    -0.040572
   157     0.073278
   158    -0.000199
   159    -0.000395
   160     0.004216
   161    -0.045958
   162     0.004517
   163     0.007217
   164    -0.017942
   165    -0.016121
   166    -0.023372
   167     0.051701
   168    -0.002109
   169    -0.011468
   170     0.012041
   171     0.002680
   172     0.008261
   173    -0.020359
   174     0.011157
   175    -0.002524
   176    -0.003977
   177    -0.005056
   178    -0.025332
   179     0.001364
   180    -0.000185
   181    -0.002191
   182    -0.003610
   183     0.016634
   184    -0.000434
   185    -0.003673
   186     0.001534
   187     0.806645
   188     0.051343
   189    -0.053650
   190    -0.004965
   191     0.001140
   192    -0.020242
   193     0.021317
   194     0.003220
   195    -0.005325
   196    -0.000027
Sym=    71a
Ene=   -0.224737E-01
Spin= Alpha
Occup= 0.016708
     1     0.034307
     2    -0.023027
     3    -0.012211
     4    -0.001950
     5    -0.006449
     6    -0.001990
     7    -0.007886
     8     0.000146
     9    -0.001124
    10     0.000578
    11     0.003289
    12     0.008508
    13    -0.000302
    14     0.005757
    15     0.000733
    16     0.000163
    17     0.002949
    18    -0.000710
    19    -0.001821
    20    -0.000333
    21    -0.001152
    22    -0.005094
    23     0.002904
    24     0.010708
    25    -0.001459
    26     0.010450
    27     0.016758
    28    -0.002387
    29     0.020070
    30     0.000273
    31    -0.000858
    32     0.001903
    33     0.000308
    34    -0.002472
    35    -0.000032
    36     0.005012
    37     0.050818
    38    -0.127981
    39    -0.020387
    40     0.007778
    41     0.011108
    42    -0.005739
    43     0.004822
    44     0.036154
    45    -0.004126
    46     0.030641
    47     0.015339
    48    -0.028035
    49     0.053254
    50     0.091209
    51    -0.013886
    52    -0.041877
    53     0.039186
    54    -0.014212
    55     0.004772
    56    -0.016767
    57     0.012707
    58    -0.003374
    59    -0.005158
    60    -0.004540
    61    -0.037906
    62     0.057939
    63     0.009018
    64    -0.040544
    65     0.013613
    66     0.008598
    67    -0.035637
    68     0.061427
    69     0.001612
    70     0.012431
    71     0.001823
    72    -0.005479
    73     0.003064
    74    -0.015691
    75    -0.003551
    76    -0.036346
    77    -0.144646
    78     0.052624
    79     0.009441
    80     0.005520
    81    -0.000941
    82    -0.071944
    83     0.045153
    84    -0.007695
    85     0.029405
    86    -0.056670
    87     0.017506
    88     0.112767
    89     0.085137
    90    -0.077829
    91    -0.149722
    92    -0.010825
    93     0.114927
    94    -0.003704
    95    -0.005197
    96    -0.011482
    97     0.027345
    98    -0.039468
    99    -0.053253
   100    -0.023227
   101    -0.020341
   102    -0.016049
   103     0.009925
   104    -0.007719
   105    -0.004529
   106    -0.010170
   107    -0.014418
   108    -0.009528
   109     0.002741
   110     0.013337
   111     0.032737
   112     0.007963
   113    -0.011371
   114     0.033679
   115     0.013678
   116    -0.008225
   117     0.017826
   118    -0.012993
   119    -0.003137
   120     0.001564
   121     0.003513
   122    -0.001983
   123     0.001754
   124     0.020986
   125     0.074213
   126     0.008900
   127    -0.304164
   128     0.817257
   129    -0.335206
   130     0.217377
   131    -0.651720
   132     0.274311
   133    -0.038812
   134     0.020834
   135    -0.039322
   136     0.015015
   137     0.004084
   138    -0.013273
   139    -0.005442
   140    -0.054210
   141    -0.211259
   142    -0.005507
   143    -0.001222
   144     0.034358
   145    -0.026858
   146    -0.022065
   147    -0.047805
   148     0.042980
   149     0.061108
   150    -0.060367
   151     0.044602
   152     0.031712
   153     0.003433
   154     0.122543
   155     0.018397
   156     0.039926
   157    -0.095542
   158    -0.002402
   159    -0.023161
   160    -0.082750
   161     0.055177
   162    -0.004263
   163    -0.004297
   164     0.000801
   165     0.015622
   166     0.005967
   167    -0.005160
   168     0.007045
   169     0.021783
   170     0.010095
   171     0.015731
   172     0.029727
   173     0.020536
   174    -0.010000
   175    -0.001007
   176    -0.001522
   177     0.041226
   178     0.006765
   179    -0.008401
   180     0.006464
   181     0.003941
   182    -0.010793
   183    -0.011559
   184    -0.007187
   185    -0.006033
   186     0.005675
   187    -0.011471
   188    -0.003774
   189    -0.001564
   190     0.000195
   191     0.000139
   192     0.020389
   193    -0.009963
   194     0.007088
   195    -0.000633
   196     0.006765
Sym=    72a
Ene=   -0.195178E-01
Spin= Alpha
Occup= 0.017572
     1     0.066034
     2     0.052569
     3    -0.046542
     4     0.010238
     5    -0.000699
     6     0.001257
     7     0.012407
     8    -0.024329
     9    -0.044038
    10     0.023867
    11    -0.013037
    12    -0.013071
    13     0.005528
    14    -0.006182
    15     0.006508
    16     0.001176
    17    -0.002830
    18     0.003027
    19    -0.014266
    20     0.006250
    21    -0.004622
    22    -0.015131
    23    -0.006089
    24     0.001718
    25    -0.009446
    26     0.017381
    27     0.007968
    28     0.003463
    29     0.011563
    30     0.001701
    31     0.002967
    32     0.005109
    33    -0.001534
    34    -0.002531
    35    -0.001037
    36     0.000132
    37     0.001820
    38    -0.010377
    39     0.014215
    40     0.003279
    41     0.000151
    42     0.010861
    43     0.008230
    44    -0.000731
    45     0.034406
    46     0.001893
    47     0.003974
    48    -0.025757
    49     0.015326
    50     0.022706
    51    -0.031354
    52    -0.018035
    53     0.006132
    54     0.003038
    55     0.019406
    56     0.007716
    57    -0.000794
    58    -0.001155
    59    -0.006541
    60     0.009043
    61     0.029722
    62    -0.006394
    63     0.057620
    64     0.039977
    65     0.033875
    66    -0.017058
    67    -0.047707
    68     0.038808
    69     0.006739
    70    -0.024664
    71     0.006290
    72    -0.009612
    73     0.018299
    74     0.012893
    75     0.004678
    76     0.040415
    77     0.127509
    78    -0.037005
    79    -0.015500
    80     0.006855
    81     0.027637
    82     0.048316
    83    -0.015616
    84    -0.089125
    85    -0.005480
    86    -0.017029
    87     0.002923
    88    -0.045203
    89    -0.034593
    90    -0.017749
    91    -0.036097
    92    -0.019117
    93     0.016724
    94     0.002611
    95     0.009655
    96     0.001237
    97    -0.001379
    98     0.000981
    99     0.001296
   100    -0.011326
   101     0.009020
   102     0.002779
   103     0.006372
   104    -0.006341
   105    -0.002209
   106     0.000851
   107    -0.000252
   108    -0.004608
   109     0.011303
   110     0.047331
   111     0.000537
   112     0.005809
   113     0.008177
   114     0.006119
   115    -0.009021
   116    -0.018116
   117     0.037693
   118    -0.021380
   119    -0.006594
   120    -0.006739
   121    -0.006958
   122    -0.002723
   123    -0.004069
   124    -0.040730
   125    -0.130433
   126    -0.116924
   127    -0.094779
   128    -0.013006
   129     0.032516
   130     0.007258
   131    -0.016019
   132     0.032254
   133     0.031994
   134     0.007483
   135     0.048918
   136    -0.015253
   137    -0.034938
   138    -0.021387
   139    -0.029126
   140    -0.248329
   141    -0.818921
   142     0.098333
   143    -0.189476
   144    -0.191003
   145    -0.044167
   146     0.583877
   147     0.608953
   148     0.167871
   149     0.018686
   150     0.006276
   151     0.022946
   152     0.063981
   153     0.152923
   154     0.315047
   155    -0.130446
   156    -0.008026
   157     0.013365
   158    -0.029591
   159    -0.266833
   160    -0.816979
   161     0.020286
   162     0.047007
   163    -0.078637
   164     0.017066
   165    -0.164775
   166     0.238698
   167    -0.056425
   168    -0.105663
   169    -0.029874
   170    -0.001315
   171     0.188758
   172     0.214959
   173     0.235830
   174    -0.151230
   175    -0.028179
   176     0.003416
   177    -0.007652
   178     0.004811
   179    -0.004177
   180     0.000676
   181    -0.002228
   182     0.779967
   183     0.092712
   184    -0.074907
   185    -0.009233
   186    -0.012500
   187    -0.002326
   188     0.022009
   189    -0.002977
   190     0.000402
   191     0.000596
   192     0.022010
   193     0.012805
   194     0.024531
   195     0.020249
   196     0.004554
Sym=    73a
Ene=   -0.309806E-01
Spin= Alpha
Occup= 0.019230
     1     0.038612
     2    -0.051448
     3    -0.000650
     4    -0.010878
     5     0.005995
     6    -0.024268
     7    -0.080577
     8     0.004242
     9    -0.076299
    10     0.037700
    11    -0.019849
    12     0.007226
    13    -0.002201
    14     0.007151
    15     0.000138
    16     0.029298
    17     0.014207
    18    -0.013292
    19    -0.000617
    20    -0.020051
    21    -0.043472
    22    -0.138340
    23    -0.078021
    24    -0.297722
    25    -0.217464
    26    -0.703530
    27    -0.313616
    28    -0.087923
    29    -0.517107
    30    -0.017961
    31     0.037218
    32     0.067622
    33     0.016389
    34    -0.032994
    35     0.067730
    36     0.000036
    37     0.000320
    38    -0.004930
    39     0.013664
    40     0.000157
    41     0.000426
    42    -0.001163
    43     0.001625
    44     0.001643
    45    -0.000169
    46    -0.004265
    47    -0.002078
    48    -0.010006
    49    -0.002214
    50    -0.003860
    51     0.004867
    52     0.001709
    53     0.000222
    54     0.000933
    55     0.001683
    56     0.007459
    57    -0.000436
    58    -0.000013
    59    -0.000387
    60     0.105205
    61     0.344606
    62     0.049135
    63     0.159566
    64    -0.011356
    65     0.059775
    66    -0.029207
    67    -0.009584
    68    -0.007903
    69    -0.079363
    70    -0.053253
    71    -0.059383
    72     0.018686
    73    -0.017371
    74     0.010930
    75     0.000058
    76     0.000765
    77    -0.006146
    78     0.019870
    79    -0.001337
    80    -0.000147
    81    -0.001021
    82     0.006809
    83    -0.001541
    84     0.006229
    85    -0.009298
    86     0.002357
    87    -0.023235
    88    -0.006391
    89    -0.005202
    90     0.005726
    91     0.005183
    92     0.002167
    93    -0.004082
    94     0.000027
    95     0.000815
    96    -0.004624
    97    -0.001371
    98     0.002521
    99     0.001663
   100     0.001377
   101     0.002712
   102     0.002455
   103    -0.000109
   104     0.000296
   105     0.000970
   106     0.000047
   107     0.000521
   108     0.000328
   109     0.058053
   110     0.254493
   111    -0.064823
   112     0.363666
   113    -0.142770
   114     0.231540
   115    -0.045687
   116     0.020097
   117    -0.067646
   118     0.006473
   119    -0.017581
   120    -0.115676
   121    -0.061265
   122     0.004514
   123    -0.043195
   124    -0.001700
   125    -0.005537
   126    -0.010665
   127    -0.002950
   128    -0.001108
   129     0.000574
   130    -0.005882
   131     0.018995
   132    -0.001232
   133     0.002460
   134     0.001819
   135    -0.000973
   136    -0.001588
   137    -0.002038
   138     0.002692
   139    -0.001956
   140    -0.013435
   141    -0.020822
   142     0.011320
   143    -0.013803
   144     0.024167
   145    -0.025712
   146     0.039373
   147    -0.067574
   148     0.077043
   149     0.012744
   150    -0.007380
   151    -0.021649
   152     0.021073
   153     0.009255
   154    -0.012622
   155     0.000008
   156    -0.006379
   157     0.032553
   158     0.002484
   159     0.020071
   160     0.048336
   161     0.050004
   162    -0.011626
   163    -0.017430
   164     0.023805
   165     0.029841
   166     0.043870
   167    -0.065639
   168     0.030317
   169     0.031522
   170    -0.005602
   171    -0.019630
   172    -0.020097
   173    -0.001883
   174     0.004807
   175    -0.004944
   176     0.007122
   177     0.011931
   178    -0.026717
   179    -0.000016
   180    -0.000596
   181     0.002318
   182    -0.021552
   183    -0.015083
   184     0.001278
   185    -0.001440
   186    -0.002150
   187    -0.165749
   188    -0.055802
   189    -0.022261
   190     0.011760
   191    -0.002458
   192     0.002252
   193    -0.027528
   194    -0.000162
   195    -0.001621
   196     0.003187
Sym=    74a
Ene=   -0.322687E-01
Spin= Alpha
Occup= 0.019223
     1     0.030005
     2    -0.041825
     3    -0.002856
     4    -0.007241
     5     0.004034
     6     0.001897
     7     0.005262
     8     0.003435
     9    -0.010387
    10     0.005074
    11     0.004137
    12    -0.011555
    13     0.009329
    14    -0.000492
    15    -0.001236
    16     0.003954
    17    -0.001561
    18     0.005035
    19    -0.003231
    20    -0.000579
    21     0.000856
    22     0.000739
    23     0.031201
    24     0.007786
    25     0.008732
    26     0.002906
    27    -0.024695
    28    -0.010399
    29    -0.025936
    30     0.007177
    31    -0.004694
    32    -0.011323
    33    -0.002867
    34     0.003915
    35    -0.003448
    36    -0.001141
    37    -0.011155
    38     0.025655
    39     0.019469
    40    -0.000570
    41     0.000746
    42    -0.001889
    43     0.000199
    44     0.002429
    45    -0.007688
    46     0.001438
    47    -0.012659
    48     0.006358
    49    -0.015814
    50    -0.021613
    51     0.009915
    52     0.010926
    53    -0.006843
    54     0.001929
    55    -0.002043
    56     0.005504
    57    -0.001415
    58     0.000707
    59     0.000395
    60     0.154647
    61     0.559058
    62    -0.076258
    63    -0.215428
    64     0.425065
    65    -0.605394
    66    -0.053676
    67     0.245068
    68    -0.323169
    69    -0.085339
    70    -0.125880
    71    -0.138286
    72     0.016230
    73    -0.010051
    74     0.054163
    75    -0.000187
    76    -0.000774
    77     0.000405
    78    -0.061236
    79     0.002082
    80    -0.000179
    81    -0.007184
    82    -0.003466
    83    -0.006575
    84     0.027940
    85    -0.022726
    86     0.000008
    87     0.013147
    88    -0.034001
    89    -0.007180
    90     0.035537
    91     0.025616
    92     0.013639
    93    -0.015912
    94    -0.000949
    95    -0.003415
    96    -0.000894
    97    -0.001994
    98     0.003992
    99     0.000564
   100     0.003452
   101     0.004019
   102     0.002078
   103    -0.002669
   104     0.000411
   105     0.002608
   106     0.000801
   107     0.002056
   108     0.002425
   109     0.052392
   110     0.169814
   111    -0.146534
   112    -0.142002
   113     0.028744
   114    -0.088124
   115    -0.035149
   116     0.020852
   117    -0.041163
   118    -0.012984
   119    -0.038039
   120    -0.041206
   121     0.006863
   122     0.011776
   123    -0.003341
   124    -0.004959
   125    -0.018965
   126    -0.045990
   127     0.003582
   128     0.013940
   129    -0.001421
   130    -0.039351
   131     0.085151
   132     0.035088
   133     0.014866
   134     0.015014
   135    -0.011297
   136    -0.003083
   137    -0.005879
   138     0.016068
   139    -0.025902
   140    -0.194820
   141    -0.545013
   142     0.247002
   143    -0.077025
   144     0.146885
   145    -0.155718
   146     0.208258
   147    -0.368418
   148     0.416017
   149    -0.078130
   150     0.027889
   151    -0.026023
   152     0.153839
   153     0.121385
   154     0.086827
   155     0.043298
   156    -0.082391
   157     0.147033
   158     0.002465
   159     0.023860
   160     0.069632
   161     0.013776
   162    -0.008806
   163    -0.014375
   164     0.001125
   165     0.018098
   166     0.033745
   167    -0.005431
   168     0.030335
   169     0.028771
   170    -0.003269
   171    -0.031493
   172    -0.028352
   173    -0.019368
   174     0.005356
   175     0.009402
   176     0.004711
   177    -0.003113
   178    -0.013900
   179     0.001449
   180    -0.001434
   181     0.000000
   182     0.020713
   183    -0.051286
   184     0.000362
   185    -0.007574
   186     0.007126
   187    -0.015502
   188    -0.002133
   189     0.015357
   190     0.000578
   191     0.013431
   192    -0.013163
   193    -0.007235
   194     0.009183
   195    -0.014538
   196     0.009444
Sym=    75a
Ene=   -0.170251E-01
Spin= Alpha
Occup= 0.009533
     1    -0.015166
     2     0.011030
     3     0.005299
     4    -0.000269
     5     0.009496
     6    -0.002608
     7    -0.008342
     8     0.001255
     9    -0.000916
    10    -0.002957
    11     0.016437
    12     0.002124
    13     0.001044
    14     0.015654
    15     0.002030
    16     0.001221
    17     0.002510
    18     0.001165
    19    -0.000422
    20    -0.000772
    21     0.000122
    22     0.000293
    23     0.001229
    24    -0.005900
    25     0.000746
    26    -0.006465
    27    -0.006814
    28     0.000138
    29    -0.009047
    30     0.000254
    31     0.000583
    32     0.000076
    33    -0.000055
    34     0.001151
    35    -0.000234
    36     0.004860
    37     0.048933
    38    -0.132993
    39     0.000449
    40     0.004573
    41     0.034885
    42    -0.005502
    43     0.029353
    44     0.125517
    45    -0.018760
    46    -0.080890
    47    -0.101969
    48     0.015187
    49     0.019598
    50     0.082537
    51     0.027683
    52     0.030888
    53    -0.000116
    54    -0.006167
    55    -0.050023
    56     0.006117
    57     0.002546
    58     0.007369
    59     0.004757
    60     0.004158
    61     0.017914
    62    -0.008043
    63    -0.007432
    64     0.002354
    65    -0.008126
    66    -0.016113
    67     0.001836
    68    -0.013547
    69    -0.002426
    70    -0.004686
    71    -0.007002
    72     0.002591
    73    -0.000666
    74     0.005687
    75     0.002118
    76     0.021895
    77     0.052247
    78    -0.018765
    79     0.033015
    80     0.001006
    81    -0.054786
    82    -0.126998
    83     0.013633
    84     0.227819
    85    -0.019032
    86     0.000810
    87    -0.033126
    88    -0.111982
    89     0.083552
    90    -0.071784
    91    -0.035803
    92     0.141047
    93     0.075854
    94    -0.018141
    95    -0.065111
    96     0.001365
    97     0.600402
    98    -0.268423
    99    -0.619295
   100     0.625109
   101    -0.309421
   102    -0.649313
   103     0.035396
   104    -0.004281
   105     0.010856
   106     0.019575
   107    -0.006310
   108    -0.022323
   109    -0.001363
   110    -0.012043
   111     0.010924
   112     0.000016
   113     0.003501
   114    -0.010421
   115    -0.000413
   116    -0.004051
   117    -0.005928
   118     0.000239
   119    -0.000308
   120     0.001712
   121    -0.002120
   122     0.000469
   123    -0.003566
   124     0.048588
   125     0.170463
   126     0.102829
   127    -0.079308
   128    -0.096268
   129     0.098356
   130     0.021538
   131     0.164384
   132     0.004919
   133    -0.041595
   134    -0.035015
   135    -0.061998
   136     0.022550
   137     0.011701
   138    -0.011586
   139    -0.003927
   140    -0.036243
   141    -0.126008
   142     0.034912
   143    -0.017019
   144     0.000110
   145     0.023515
   146     0.054849
   147    -0.006358
   148    -0.064773
   149     0.003712
   150     0.010154
   151     0.017528
   152     0.047787
   153     0.054024
   154     0.011387
   155     0.008959
   156    -0.002037
   157     0.008473
   158    -0.004525
   159    -0.042639
   160    -0.125509
   161    -0.025929
   162     0.007393
   163    -0.001548
   164     0.009071
   165    -0.023359
   166     0.007846
   167    -0.028034
   168    -0.005754
   169    -0.009234
   170     0.008055
   171     0.033474
   172     0.028028
   173     0.068636
   174     0.006261
   175     0.014572
   176    -0.002165
   177     0.001569
   178    -0.009653
   179    -0.003543
   180    -0.007737
   181    -0.002181
   182    -0.023085
   183     0.048438
   184     0.003081
   185    -0.002684
   186     0.004821
   187     0.010190
   188    -0.008041
   189    -0.000445
   190     0.000669
   191     0.000372
   192    -0.030442
   193    -0.009909
   194     0.002162
   195    -0.003027
   196    -0.002673
Sym=    76a
Ene=   -0.181006E-01
Spin= Alpha
Occup= 0.010154
     1    -0.013445
     2     0.021264
     3     0.004584
     4     0.004127
     5    -0.013055
     6     0.004386
     7     0.015582
     8     0.000817
     9    -0.815331
    10     0.406829
    11     0.020929
    12    -0.898259
    13     0.447075
    14     0.025799
    15     0.004100
    16    -0.016783
    17     0.001263
    18     0.009541
    19    -0.023722
    20     0.009623
    21     0.001498
    22    -0.006583
    23     0.114054
    24    -0.031856
    25     0.041108
    26     0.069377
    27     0.044603
    28     0.027317
    29     0.037683
    30    -0.012618
    31    -0.003285
    32    -0.018641
    33     0.026300
    34     0.010775
    35    -0.015168
    36    -0.000108
    37    -0.001104
    38     0.002924
    39     0.002611
    40    -0.000450
    41    -0.000302
    42    -0.001414
    43    -0.001359
    44    -0.000767
    45    -0.004585
    46     0.000919
    47    -0.001649
    48     0.001776
    49    -0.002778
    50    -0.002494
    51     0.002297
    52     0.000635
    53    -0.000513
    54     0.000173
    55     0.001317
    56    -0.004930
    57     0.000131
    58    -0.000029
    59     0.000114
    60    -0.012873
    61    -0.037873
    62    -0.041363
    63    -0.036547
    64    -0.022514
    65    -0.021385
    66    -0.055679
    67    -0.059319
    68    -0.030080
    69     0.008314
    70     0.005807
    71     0.037823
    72    -0.021680
    73     0.016145
    74    -0.020753
    75    -0.000178
    76    -0.001711
    77     0.006943
    78    -0.018551
    79     0.001726
    80    -0.000690
    81     0.000279
    82    -0.004586
    83     0.001209
    84    -0.006995
    85     0.010513
    86     0.005242
    87     0.017611
    88     0.011847
    89     0.001726
    90    -0.004533
    91     0.004670
    92    -0.002913
    93    -0.002784
    94    -0.000070
    95    -0.001824
    96     0.006974
    97     0.001833
    98     0.001618
    99     0.000348
   100     0.001055
   101     0.000084
   102    -0.001456
   103    -0.001513
   104     0.002043
   105    -0.001492
   106     0.000028
   107    -0.000659
   108     0.000351
   109     0.011353
   110     0.030755
   111     0.027427
   112    -0.166201
   113     0.086997
   114     0.091355
   115     0.018635
   116     0.009861
   117    -0.015022
   118     0.006155
   119    -0.061987
   120     0.004527
   121     0.057444
   122     0.009542
   123    -0.018660
   124     0.005631
   125     0.017703
   126     0.023327
   127     0.000112
   128    -0.011043
   129    -0.016165
   130     0.015940
   131     0.003522
   132    -0.018594
   133    -0.004893
   134    -0.004370
   135    -0.002982
   136     0.001466
   137     0.004165
   138     0.000475
   139     0.006476
   140     0.061883
   141     0.227394
   142    -0.061880
   143     0.020092
   144     0.003770
   145     0.023895
   146    -0.061890
   147    -0.008653
   148    -0.090185
   149    -0.003844
   150    -0.010770
   151     0.037062
   152    -0.061830
   153    -0.056341
   154    -0.072593
   155    -0.001990
   156    -0.005041
   157    -0.034370
   158     0.002406
   159     0.025125
   160     0.085275
   161    -0.022274
   162    -0.035633
   163     0.022302
   164     0.004421
   165     0.124438
   166    -0.080631
   167    -0.010722
   168    -0.008444
   169     0.014300
   170    -0.003367
   171    -0.056319
   172     0.002612
   173    -0.037729
   174    -0.033671
   175     0.071506
   176    -0.045779
   177    -0.002519
   178     0.003673
   179     0.000686
   180     0.000417
   181    -0.000324
   182    -0.014120
   183     0.003801
   184     0.004526
   185    -0.009587
   186     0.030976
   187    -0.075463
   188    -0.030556
   189     0.007334
   190     0.006871
   191    -0.002768
   192     0.004592
   193     0.009424
   194    -0.004572
   195    -0.000029
   196    -0.001031
Sym=    77a
Ene=   -0.189355E-01
Spin= Alpha
Occup= 0.011040
     1     0.024433
     2    -0.012170
     3    -0.006621
     4    -0.002983
     5     0.009116
     6     0.010324
     7     0.034204
     8     0.013047
     9    -0.015236
    10    -0.031506
    11     0.016456
    12    -0.051420
    13    -0.020257
    14     0.002063
    15     0.007294
    16    -0.022676
    17    -0.020943
    18    -0.001297
    19     0.010957
    20     0.018598
    21    -0.019633
    22    -0.065644
    23    -0.087436
    24     0.071606
    25    -0.028946
    26     0.005506
    27     0.063115
    28     0.045276
    29     0.054825
    30     0.013729
    31     0.046070
    32     0.017861
    33    -0.018744
    34    -0.024680
    35     0.003217
    36    -0.000505
    37    -0.005233
    38     0.013170
    39     0.003965
    40     0.000508
    41    -0.001312
    42    -0.003877
    43     0.000675
    44    -0.005101
    45    -0.012259
    46     0.004836
    47     0.003386
    48     0.007759
    49    -0.008518
    50    -0.013706
    51     0.008021
    52     0.005054
    53     0.001117
    54    -0.003084
    55    -0.015306
    56     0.009912
    57    -0.003058
    58     0.000837
    59     0.003848
    60     0.066399
    61     0.253754
    62    -0.078978
    63     0.193430
    64    -0.717550
    65    -0.518338
    66     0.213729
    67    -0.793518
    68    -0.558894
    69    -0.057488
    70    -0.031592
    71    -0.119976
    72    -0.017323
    73    -0.024380
    74     0.015866
    75     0.000044
    76     0.001588
    77    -0.006526
    78     0.027009
    79     0.001870
    80    -0.000240
    81    -0.011960
    82    -0.001521
    83    -0.001801
    84     0.047740
    85    -0.020916
    86    -0.008034
    87    -0.034192
    88    -0.036642
    89    -0.008612
    90     0.030972
    91     0.010598
    92     0.009208
    93    -0.000143
    94     0.000888
    95     0.004997
    96    -0.009416
    97    -0.001451
    98    -0.004888
    99    -0.001045
   100     0.003763
   101    -0.005979
   102    -0.002040
   103    -0.000739
   104    -0.004502
   105     0.001590
   106     0.000738
   107     0.002017
   108     0.000446
   109    -0.011397
   110    -0.068866
   111     0.006491
   112     0.092971
   113    -0.145607
   114    -0.151837
   115     0.002353
   116    -0.012799
   117     0.056031
   118     0.017721
   119     0.036429
   120    -0.005520
   121    -0.056178
   122    -0.031284
   123     0.019612
   124    -0.023664
   125    -0.098288
   126    -0.013245
   127     0.042921
   128     0.020638
   129     0.067445
   130    -0.049944
   131     0.031034
   132    -0.007205
   133     0.025065
   134     0.021945
   135     0.031623
   136     0.003803
   137    -0.001355
   138     0.019470
   139    -0.005832
   140    -0.063082
   141    -0.244723
   142    -0.005525
   143     0.009853
   144    -0.024955
   145    -0.010230
   146    -0.033718
   147     0.104714
   148     0.099576
   149     0.024330
   150    -0.015036
   151    -0.032058
   152     0.032296
   153     0.007789
   154     0.187573
   155     0.026059
   156    -0.023374
   157     0.051601
   158    -0.003753
   159    -0.034250
   160    -0.101631
   161    -0.000188
   162    -0.001649
   163     0.002220
   164    -0.014943
   165     0.007398
   166    -0.010020
   167     0.045953
   168    -0.018964
   169     0.007553
   170     0.001924
   171     0.033719
   172     0.024575
   173     0.027533
   174    -0.017473
   175     0.010634
   176     0.007667
   177     0.003925
   178    -0.015014
   179     0.000350
   180    -0.000747
   181    -0.000507
   182     0.031087
   183     0.018149
   184    -0.010148
   185     0.003017
   186    -0.002842
   187     0.088857
   188     0.044462
   189     0.011523
   190    -0.000205
   191     0.010924
   192     0.035193
   193     0.009654
   194     0.003474
   195     0.009121
   196    -0.013023
Sym=    78a
Ene=   -0.209826E-01
Spin= Alpha
Occup= 0.012452
     1    -0.024914
     2     0.022845
     3    -0.000380
     4     0.005944
     5    -0.005544
     6     0.018527
     7     0.063400
     8     0.030287
     9    -0.015093
    10    -0.065429
    11    -0.014504
    12    -0.055447
    13    -0.037428
    14    -0.042010
    15     0.006564
    16    -0.048832
    17    -0.022822
    18     0.010321
    19     0.021158
    20     0.016341
    21     0.010318
    22     0.028478
    23     0.065558
    24    -0.038878
    25     0.018905
    26    -0.050058
    27    -0.044102
    28    -0.023917
    29    -0.080811
    30     0.000118
    31    -0.032759
    32    -0.001034
    33    -0.007541
    34     0.003455
    35    -0.004403
    36    -0.000089
    37    -0.000455
    38    -0.000999
    39     0.004365
    40     0.000238
    41     0.000113
    42     0.001870
    43     0.001046
    44     0.001350
    45     0.006227
    46    -0.000031
    47    -0.008129
    48    -0.005268
    49     0.000662
    50     0.002294
    51    -0.001856
    52    -0.001955
    53     0.000464
    54     0.001596
    55     0.008600
    56    -0.017320
    57    -0.001297
    58    -0.000244
    59    -0.002464
    60     0.193969
    61     0.732775
    62    -0.197184
    63    -0.760347
    64    -0.331250
    65     0.223799
    66    -0.794987
    67    -0.389596
    68     0.293647
    69    -0.178918
    70    -0.202366
    71    -0.201919
    72     0.025045
    73    -0.016300
    74     0.001601
    75     0.001820
    76     0.017949
    77     0.078930
    78    -0.032026
    79    -0.001680
    80     0.002535
    81     0.006979
    82     0.008172
    83    -0.010665
    84    -0.033425
    85     0.019046
    86     0.011110
    87     0.037075
    88    -0.013188
    89    -0.019883
    90    -0.022652
    91     0.002119
    92    -0.005609
    93    -0.010423
    94    -0.000713
    95    -0.005268
    96     0.013693
    97    -0.002276
    98     0.002915
    99     0.002955
   100    -0.002974
   101     0.002618
   102    -0.002332
   103     0.000696
   104     0.001653
   105    -0.000487
   106     0.001490
   107     0.000738
   108     0.000192
   109     0.024372
   110     0.037067
   111    -0.083564
   112    -0.136957
   113    -0.039586
   114     0.023320
   115    -0.029197
   116     0.015267
   117    -0.104976
   118    -0.061379
   119    -0.054538
   120     0.014652
   121    -0.026407
   122     0.038689
   123    -0.027467
   124    -0.003464
   125    -0.007256
   126    -0.010073
   127    -0.034547
   128    -0.015026
   129     0.004576
   130     0.022659
   131     0.009767
   132    -0.025967
   133     0.006635
   134    -0.005515
   135     0.008231
   136    -0.013401
   137    -0.013824
   138    -0.002923
   139     0.007047
   140     0.073911
   141     0.275072
   142    -0.020253
   143    -0.028672
   144     0.005147
   145    -0.006797
   146     0.139273
   147    -0.022037
   148     0.021707
   149    -0.032121
   150    -0.012837
   151     0.012006
   152    -0.053224
   153    -0.103544
   154    -0.129131
   155    -0.044974
   156     0.033270
   157     0.043128
   158    -0.003005
   159    -0.026047
   160    -0.098297
   161     0.073475
   162     0.003966
   163     0.003294
   164    -0.018086
   165    -0.010692
   166    -0.006561
   167     0.057891
   168     0.014921
   169     0.007452
   170    -0.033326
   171     0.015342
   172     0.026731
   173     0.015295
   174    -0.025243
   175    -0.007655
   176     0.002578
   177    -0.002714
   178     0.009797
   179     0.000530
   180     0.000325
   181     0.001225
   182     0.032298
   183    -0.051002
   184    -0.006535
   185    -0.005462
   186    -0.010207
   187     0.041702
   188    -0.067398
   189    -0.011223
   190     0.000037
   191     0.012468
   192    -0.004816
   193    -0.032882
   194    -0.003981
   195    -0.000390
   196     0.014371
Sym=    79a
Ene=   -0.209803E-01
Spin= Alpha
Occup= 0.011580
     1    -0.022483
     2     0.016479
     3    -0.002978
     4     0.007089
     5    -0.004749
     6     0.027450
     7     0.104768
     8     0.005226
     9    -0.051185
    10    -0.100400
    11    -0.020605
    12    -0.021593
    13    -0.104329
    14    -0.041329
    15    -0.038390
    16    -0.018102
    17    -0.032210
    18    -0.029803
    19    -0.002583
    20     0.016792
    21     0.303336
    22     1.194663
    23    -0.499568
    24    -0.201310
    25    -0.701345
    26     0.186376
    27    -0.278666
    28    -0.707388
    29     0.230445
    30    -0.293276
    31    -0.281035
    32    -0.311155
    33    -0.032747
    34    -0.006877
    35     0.014438
    36     0.000473
    37     0.004632
    38    -0.011380
    39    -0.002237
    40    -0.000664
    41     0.000181
    42    -0.000444
    43    -0.002688
    44     0.000544
    45    -0.000855
    46     0.003749
    47    -0.000746
    48     0.001541
    49     0.005435
    50     0.003466
    51     0.002742
    52     0.000161
    53     0.001553
    54     0.000039
    55     0.000178
    56    -0.007280
    57     0.000943
    58    -0.000194
    59    -0.000167
    60    -0.030078
    61    -0.107054
    62     0.015755
    63    -0.032871
    64     0.008958
    65    -0.034431
    66    -0.031496
    67     0.044180
    68    -0.022849
    69     0.025796
    70     0.003878
    71     0.055759
    72    -0.009168
    73     0.029729
    74    -0.017119
    75    -0.000205
    76    -0.002191
    77     0.002884
    78    -0.027367
    79     0.000421
    80    -0.000467
    81     0.001707
    82    -0.003271
    83     0.001837
    84    -0.009133
    85     0.009785
    86     0.004009
    87     0.027319
    88     0.008639
    89     0.004915
    90    -0.003475
    91    -0.003027
    92     0.000686
    93     0.000054
    94    -0.000089
    95    -0.001778
    96     0.007499
    97     0.000594
    98    -0.000549
    99     0.000051
   100    -0.000774
   101    -0.001026
   102     0.000439
   103     0.000191
   104     0.000145
   105    -0.000439
   106    -0.000482
   107    -0.000524
   108    -0.000603
   109     0.084973
   110     0.413597
   111    -0.192254
   112    -0.046753
   113    -0.141858
   114    -0.033905
   115     0.038394
   116    -0.024474
   117    -0.139663
   118    -0.016978
   119    -0.162976
   120    -0.051947
   121    -0.052885
   122    -0.050924
   123     0.045531
   124     0.001383
   125     0.006198
   126     0.004685
   127    -0.003316
   128     0.001391
   129    -0.006467
   130     0.007129
   131    -0.012754
   132     0.000996
   133    -0.002463
   134    -0.002333
   135     0.001692
   136     0.000946
   137     0.002223
   138    -0.003075
   139     0.003021
   140     0.030243
   141     0.103796
   142     0.037962
   143     0.008268
   144    -0.008524
   145     0.010551
   146    -0.028742
   147     0.031771
   148    -0.046928
   149    -0.034580
   150     0.010817
   151     0.001577
   152    -0.039456
   153    -0.020487
   154    -0.035410
   155    -0.007196
   156     0.009927
   157    -0.020952
   158     0.001116
   159     0.012561
   160     0.020766
   161     0.059938
   162    -0.002076
   163    -0.002365
   164    -0.005560
   165     0.005126
   166     0.006604
   167     0.023887
   168     0.018507
   169     0.029322
   170    -0.038475
   171    -0.021280
   172    -0.018600
   173    -0.013303
   174    -0.010024
   175    -0.003628
   176     0.012084
   177     0.001577
   178     0.011013
   179     0.000161
   180    -0.000170
   181     0.001486
   182    -0.003910
   183    -0.033796
   184     0.001750
   185     0.002180
   186    -0.002299
   187    -0.004995
   188    -0.072383
   189     0.004265
   190    -0.000443
   191     0.014301
   192     0.007421
   193     0.008005
   194    -0.001900
   195     0.001559
   196     0.001314
Sym=    80a
Ene=   -0.106498E-01
Spin= Alpha
Occup= 0.007061
     1     0.000465
     2    -0.015165
     3    -0.001974
     4     0.001538
     5     0.006324
     6    -0.000759
     7    -0.004333
     8     0.006824
     9    -0.001232
    10     0.001282
    11     0.000475
    12    -0.003351
    13     0.003972
    14     0.001296
    15     0.000544
    16     0.000545
    17     0.001113
    18     0.000372
    19     0.000487
    20    -0.000798
    21     0.000370
    22    -0.002620
    23     0.018985
    24    -0.000165
    25     0.000378
    26     0.001527
    27     0.000718
    28    -0.003002
    29     0.004160
    30    -0.001844
    31    -0.001935
    32    -0.001254
    33     0.000063
    34    -0.000399
    35    -0.000247
    36    -0.016539
    37    -0.178303
    38     0.516147
    39    -0.051162
    40     0.132227
    41     0.107307
    42    -0.015265
    43     0.467611
    44     0.377498
    45    -0.049236
    46    -0.452345
    47    -0.369718
    48     0.044898
    49     0.487541
    50    -0.856598
    51    -0.192912
    52    -0.231922
    53    -0.103673
    54    -0.171463
    55     0.021184
    56    -0.045940
    57    -0.006464
    58    -0.007960
    59     0.005922
    60    -0.001945
    61    -0.007263
    62     0.003674
    63     0.000447
    64     0.000472
    65     0.003648
    66    -0.000454
    67     0.003559
    68     0.001811
    69     0.001193
    70     0.002321
    71     0.003122
    72     0.000001
    73     0.001298
    74    -0.002813
    75     0.000545
    76     0.003635
    77     0.030127
    78    -0.059493
    79     0.017545
    80    -0.013619
    81     0.016070
    82    -0.053683
    83     0.053375
    84    -0.072726
    85     0.105388
    86     0.027396
    87     0.111156
    88    -0.102322
    89     0.088429
    90     0.013571
    91     0.022126
    92    -0.033478
    93     0.011092
    94     0.008333
    95     0.019747
    96     0.038648
    97     0.002698
    98     0.036231
    99     0.000253
   100    -0.022184
   101     0.057075
   102    -0.004926
   103    -0.022878
   104    -0.004009
   105    -0.023319
   106     0.002477
   107    -0.002579
   108     0.000444
   109     0.000619
   110     0.012834
   111    -0.034652
   112    -0.003333
   113     0.000486
   114     0.001058
   115     0.004639
   116     0.007996
   117    -0.043449
   118    -0.001054
   119    -0.000410
   120     0.000449
   121     0.001728
   122     0.000146
   123    -0.000098
   124    -0.004458
   125    -0.022641
   126     0.025713
   127    -0.008918
   128     0.017610
   129     0.006745
   130     0.016946
   131    -0.037926
   132    -0.013126
   133     0.015550
   134     0.005606
   135    -0.002218
   136     0.007297
   137    -0.001899
   138    -0.002738
   139    -0.000906
   140    -0.009228
   141    -0.068593
   142     0.061320
   143     0.001657
   144     0.000132
   145     0.001428
   146    -0.002577
   147    -0.004522
   148    -0.015383
   149    -0.062293
   150     0.015407
   151     0.014063
   152     0.008059
   153     0.008464
   154     0.005523
   155     0.007296
   156     0.004973
   157    -0.007025
   158     0.000763
   159     0.008651
   160     0.008742
   161     0.052400
   162     0.000259
   163    -0.000351
   164    -0.000593
   165    -0.003886
   166    -0.002805
   167    -0.000712
   168     0.020074
   169     0.021738
   170     0.011725
   171    -0.013343
   172    -0.015211
   173    -0.012347
   174     0.000955
   175    -0.000188
   176     0.003057
   177     0.027586
   178     0.025976
   179    -0.026973
   180     0.017268
   181     0.015578
   182    -0.003954
   183    -0.034526
   184    -0.000968
   185    -0.000366
   186    -0.001303
   187    -0.002350
   188    -0.021756
   189     0.000907
   190    -0.000050
   191    -0.000735
   192     0.001999
   193     0.036396
   194     0.000743
   195     0.000176
   196     0.000097
Sym=    81a
Ene=   -0.250870E-01
Spin= Alpha
Occup= 0.011168
     1    -0.023358
     2    -0.083996
     3    -0.000763
     4     0.004775
     5     0.004977
     6    -0.002786
     7    -0.005111
     8    -0.015001
     9    -0.001595
    10    -0.004626
    11     0.012690
    12    -0.001096
    13    -0.000400
    14     0.006112
    15     0.002081
    16     0.002594
    17     0.003398
    18     0.001220
    19    -0.001212
    20    -0.001429
    21     0.000492
    22     0.001879
    23    -0.001216
    24    -0.001737
    25     0.000392
    26    -0.002871
    27    -0.001302
    28    -0.001585
    29    -0.003583
    30     0.000247
    31    -0.000378
    32    -0.001206
    33     0.000085
    34     0.000657
    35    -0.000273
    36    -0.000907
    37    -0.009597
    38     0.055913
    39    -0.100544
    40    -0.005329
    41     0.000779
    42    -0.003517
    43    -0.018889
    44    -0.008881
    45    -0.012565
    46     0.010422
    47     0.055823
    48     0.019635
    49     0.011329
    50    -0.035848
    51     0.003674
    52    -0.010902
    53     0.002800
    54    -0.001445
    55    -0.040851
    56    -0.000733
    57     0.011898
    58     0.006544
    59     0.013637
    60    -0.001993
    61    -0.006030
    62    -0.002684
    63    -0.001935
    64    -0.000947
    65     0.000850
    66    -0.003141
    67     0.001987
    68     0.004181
    69     0.003084
    70     0.001363
    71     0.001996
    72    -0.000377
    73     0.002487
    74    -0.000039
    75    -0.014790
    76    -0.143117
    77    -0.513863
    78     0.267194
    79    -0.015435
    80    -0.017198
    81    -0.003542
    82     0.083913
    83     0.089431
    84     0.015513
    85    -0.055138
    86    -0.036915
    87    -0.053111
    88     0.129604
    89     0.144543
    90     0.126656
    91     0.023421
    92    -0.011670
    93    -0.000818
    94    -0.512366
    95    -2.025825
    96     0.819181
    97    -0.162689
    98    -0.199722
    99    -0.020536
   100    -0.162397
   101    -0.200137
   102    -0.005619
   103     0.476818
   104     0.456057
   105     0.506701
   106    -0.037193
   107    -0.001570
   108    -0.005899
   109     0.000141
   110    -0.001179
   111    -0.007246
   112    -0.004155
   113     0.004366
   114    -0.003302
   115    -0.002060
   116     0.006451
   117     0.009630
   118     0.000340
   119    -0.001039
   120     0.000589
   121    -0.000570
   122     0.000488
   123    -0.001802
   124     0.008635
   125     0.046045
   126    -0.069093
   127    -0.000934
   128    -0.024185
   129    -0.007499
   130     0.026539
   131     0.029467
   132    -0.017760
   133    -0.012866
   134    -0.000510
   135    -0.003693
   136    -0.006208
   137     0.007489
   138     0.007906
   139    -0.000390
   140    -0.001491
   141     0.009882
   142    -0.043497
   143    -0.008335
   144     0.000147
   145     0.007836
   146     0.029948
   147    -0.000773
   148    -0.020567
   149     0.011494
   150    -0.010675
   151    -0.021423
   152    -0.004933
   153     0.002034
   154    -0.004762
   155    -0.007104
   156    -0.004285
   157    -0.002702
   158    -0.007425
   159    -0.066819
   160    -0.231849
   161     0.149010
   162     0.001485
   163    -0.000733
   164     0.015178
   165    -0.011305
   166     0.002062
   167    -0.053797
   168     0.054088
   169     0.042877
   170     0.046775
   171     0.044987
   172     0.044526
   173     0.082162
   174    -0.002243
   175     0.005102
   176    -0.002179
   177     0.002948
   178     0.005450
   179    -0.000157
   180     0.001231
   181     0.000602
   182    -0.005797
   183    -0.033285
   184     0.004811
   185    -0.003489
   186     0.001045
   187     0.005130
   188     0.009881
   189    -0.000225
   190    -0.000069
   191     0.000777
   192    -0.014064
   193    -0.003057
   194     0.000336
   195    -0.000419
   196    -0.000543
Sym=    82a
Ene=   -0.188105E-01
Spin= Alpha
Occup= 0.008372
     1    -0.018496
     2     0.014138
     3    -0.006789
     4     0.004996
     5     0.007597
     6    -0.000281
     7     0.002110
     8    -0.005751
     9     0.003759
    10    -0.004486
    11     0.010668
    12     0.005492
    13    -0.007840
    14     0.010902
    15     0.001249
    16     0.001374
    17     0.001378
    18     0.001145
    19    -0.003807
    20     0.000389
    21     0.001378
    22     0.002980
    23     0.009009
    24    -0.006803
    25     0.001654
    26    -0.006611
    27    -0.007759
    28    -0.003979
    29    -0.010368
    30    -0.001606
    31    -0.004080
    32    -0.001086
    33    -0.000020
    34     0.001247
    35    -0.000950
    36     0.000332
    37     0.006061
    38    -0.030819
    39     0.017469
    40    -0.002902
    41    -0.012686
    42    -0.004124
    43    -0.016062
    44    -0.042364
    45    -0.009461
    46     0.035110
    47     0.022887
    48    -0.007720
    49     0.038429
    50    -0.006501
    51     0.003372
    52     0.008597
    53    -0.004589
    54     0.003891
    55    -0.064542
    56    -0.032615
    57    -0.011125
    58    -0.000705
    59     0.003064
    60    -0.000563
    61    -0.003847
    62     0.004759
    63    -0.008176
    64     0.003234
    65     0.015772
    66    -0.015852
    67    -0.008720
    68     0.050266
    69     0.007091
    70    -0.008680
    71     0.004433
    72    -0.007477
    73     0.009238
    74     0.004481
    75     0.021955
    76     0.222081
    77     0.728266
    78    -0.027873
    79    -0.037000
    80    -0.009869
    81    -0.020443
    82     0.179786
    83     0.049779
    84     0.065106
    85    -0.009605
    86     0.004528
    87    -0.004992
    88    -0.321246
    89    -0.292385
    90    -0.105095
    91    -0.054182
    92     0.022642
    93     0.007333
    94     0.012198
    95     0.032536
    96     0.071733
    97    -0.047965
    98    -0.061835
    99    -0.002545
   100    -0.041205
   101     0.001165
   102     0.022998
   103    -0.001754
   104    -0.045098
   105     0.000272
   106     0.001975
   107     0.000201
   108    -0.004377
   109     0.005743
   110     0.026724
   111     0.018386
   112    -0.014823
   113     0.013163
   114    -0.008179
   115     0.010482
   116     0.005552
   117    -0.005222
   118    -0.005537
   119    -0.007517
   120    -0.007082
   121     0.001233
   122     0.003606
   123    -0.002212
   124     0.448433
   125     1.825455
   126    -0.659241
   127     0.538599
   128     0.255684
   129     0.135323
   130    -0.507842
   131    -0.282550
   132    -0.208998
   133    -0.464341
   134    -0.528421
   135    -0.453138
   136     0.003928
   137    -0.042261
   138     0.026058
   139     0.016742
   140     0.187312
   141     0.760105
   142    -0.171860
   143    -0.047246
   144     0.004962
   145     0.018953
   146     0.208983
   147    -0.007533
   148    -0.055659
   149     0.011756
   150    -0.024529
   151    -0.009769
   152    -0.214935
   153    -0.247064
   154    -0.260341
   155    -0.057572
   156    -0.059125
   157    -0.017238
   158    -0.001120
   159    -0.009386
   160    -0.037481
   161     0.035937
   162    -0.006630
   163    -0.011959
   164     0.002328
   165     0.016934
   166     0.041449
   167    -0.008534
   168    -0.006011
   169    -0.017338
   170     0.010812
   171    -0.016591
   172     0.008588
   173     0.018469
   174    -0.051382
   175    -0.002943
   176     0.001824
   177    -0.006323
   178     0.000239
   179     0.002879
   180    -0.001422
   181    -0.003338
   182     0.070558
   183    -0.015917
   184    -0.008928
   185    -0.007555
   186     0.007269
   187     0.005909
   188    -0.011918
   189    -0.002400
   190     0.000521
   191     0.000893
   192    -0.074203
   193    -0.060480
   194    -0.005061
   195     0.002272
   196    -0.001135
Sym=    83a
Ene=   -0.893404E-02
Spin= Alpha
Occup= 0.002926
     1    -0.016622
     2     0.084932
     3    -0.004829
     4    -0.005353
     5    -0.006640
     6    -0.017935
     7    -0.063237
     8     0.011767
     9    -0.005832
    10     0.039739
    11     0.005024
    12    -0.016268
    13     0.064433
    14     0.010467
    15     0.024363
    16     0.059994
    17     0.006761
    18     0.001114
    19     0.009536
    20    -0.010228
    21     0.006156
    22     0.013036
    23     0.031831
    24    -0.021107
    25    -0.012307
    26    -0.046782
    27    -0.042899
    28    -0.039227
    29    -0.081040
    30    -0.039369
    31    -0.558319
    32     0.560828
    33    -0.589677
    34     0.332870
    35    -0.284178
    36    -0.000032
    37    -0.000453
    38    -0.003402
    39     0.026608
    40     0.000099
    41    -0.000833
    42    -0.000197
    43     0.000371
    44    -0.002555
    45     0.000231
    46     0.001431
    47    -0.004188
    48    -0.009983
    49    -0.002605
    50    -0.001348
    51     0.000792
    52     0.002422
    53    -0.002379
    54     0.001918
    55    -0.002074
    56    -0.019254
    57     0.000149
    58     0.000045
    59     0.000418
    60     0.015608
    61     0.061825
    62    -0.023708
    63     0.038628
    64     0.005871
    65    -0.026826
    66     0.066769
    67     0.020310
    68    -0.069615
    69    -0.068838
    70    -0.019983
    71     0.012417
    72     0.006541
    73    -0.006521
    74    -0.003929
    75     0.000289
    76     0.003013
    77     0.026516
    78    -0.049314
    79     0.000990
    80    -0.001126
    81     0.000757
    82    -0.005594
    83     0.004854
    84    -0.008242
    85     0.017538
    86    -0.002767
    87     0.052436
    88    -0.004857
    89    -0.001499
    90    -0.002692
    91     0.000732
    92     0.001175
    93    -0.002951
    94    -0.000383
    95    -0.005682
    96     0.018581
    97    -0.001823
    98     0.000450
    99    -0.001925
   100    -0.004337
   101     0.002867
   102    -0.007000
   103     0.000725
   104    -0.003062
   105    -0.000301
   106    -0.000560
   107     0.000464
   108    -0.000522
   109    -0.023947
   110    -0.124202
   111    -0.025369
   112    -0.026415
   113     0.009899
   114    -0.015062
   115    -0.020192
   116    -0.002223
   117    -0.007609
   118    -0.044866
   119     0.061021
   120     0.118849
   121    -0.006341
   122     0.032228
   123     0.018922
   124    -0.001640
   125    -0.006649
   126     0.009081
   127    -0.004409
   128     0.003114
   129    -0.002856
   130     0.006074
   131    -0.007477
   132     0.006190
   133     0.005352
   134     0.003688
   135    -0.000407
   136    -0.004203
   137    -0.001448
   138     0.001841
   139     0.002016
   140     0.023194
   141     0.076480
   142     0.040872
   143     0.007071
   144    -0.005719
   145     0.005237
   146    -0.028116
   147     0.025910
   148    -0.024058
   149    -0.054778
   150     0.009939
   151     0.010591
   152    -0.043572
   153    -0.028583
   154    -0.018622
   155     0.005989
   156     0.010733
   157    -0.013216
   158     0.000145
   159     0.001361
   160     0.017671
   161    -0.085587
   162     0.000064
   163     0.002131
   164     0.001407
   165     0.001767
   166    -0.005278
   167    -0.008920
   168    -0.024305
   169    -0.047389
   170    -0.003587
   171    -0.003378
   172     0.003445
   173    -0.001551
   174    -0.008459
   175     0.001618
   176    -0.008452
   177    -0.002651
   178    -0.011939
   179     0.000453
   180     0.001594
   181     0.000555
   182     0.002714
   183    -0.005124
   184     0.001534
   185    -0.001452
   186     0.002965
   187    -0.023803
   188     0.024643
   189     0.006706
   190     0.002480
   191    -0.016928
   192     0.011461
   193     0.028802
   194    -0.002845
   195     0.001318
   196    -0.002650
Sym=    84a
Ene=   -0.103354E-01
Spin= Alpha
Occup= 0.003811
     1     0.016524
     2    -0.182326
     3    -0.003906
     4    -0.005699
     5    -0.029621
     6    -0.166921
     7    -0.691819
     8     0.372833
     9     0.097855
    10     0.198267
    11    -0.052979
    12     0.234409
    13     0.489771
    14    -0.134064
    15     0.596365
    16    -0.163187
    17     0.207095
    18    -0.516699
    19     0.155115
    20     0.397238
    21     0.010117
    22     0.038577
    23    -0.019094
    24     0.002438
    25     0.009383
    26    -0.008470
    27     0.001939
    28     0.017097
    29    -0.006260
    30    -0.020345
    31     0.003384
    32    -0.029033
    33    -0.018398
    34     0.003363
    35     0.010989
    36     0.000091
    37     0.000786
    38    -0.003766
    39    -0.001289
    40     0.002698
    41     0.002623
    42     0.004726
    43     0.009989
    44     0.011273
    45     0.018428
    46    -0.010096
    47    -0.015759
    48    -0.015242
    49     0.002330
    50     0.012214
    51    -0.015909
    52    -0.002748
    53    -0.006222
    54     0.005866
    55    -0.003993
    56    -0.005838
    57     0.000383
    58     0.000862
    59    -0.002681
    60     0.017546
    61     0.070387
    62    -0.028983
    63     0.025196
    64     0.037961
    65     0.003066
    66     0.041602
    67     0.050469
    68     0.018262
    69    -0.014023
    70    -0.027796
    71    -0.032466
    72     0.001109
    73     0.002335
    74    -0.001308
    75    -0.001127
    76    -0.012748
    77    -0.050663
    78     0.008231
    79    -0.004127
    80    -0.001204
    81    -0.002595
    82     0.014668
    83     0.005428
    84     0.015655
    85     0.002361
    86     0.005698
    87    -0.003947
    88     0.016161
    89     0.012508
    90     0.016548
    91    -0.007725
    92     0.010528
    93     0.003590
    94    -0.010464
    95    -0.038515
    96     0.007156
    97    -0.005705
    98     0.008405
    99    -0.016851
   100    -0.004874
   101     0.022224
   102    -0.021752
   103     0.017739
   104     0.011759
   105     0.019188
   106    -0.000379
   107     0.002804
   108     0.001018
   109    -0.074612
   110    -0.485496
   111     0.074306
   112    -0.168432
   113    -0.313684
   114     0.112705
   115    -0.007913
   116    -0.024041
   117     0.069914
   118     0.100877
   119    -0.037926
   120     0.145638
   121    -0.093975
   122    -0.012823
   123    -0.005451
   124     0.000062
   125    -0.004263
   126     0.016824
   127     0.014569
   128     0.001726
   129     0.005890
   130    -0.031757
   131    -0.002670
   132    -0.008051
   133    -0.004165
   134     0.011681
   135    -0.009988
   136     0.001320
   137     0.001879
   138    -0.003772
   139     0.001520
   140     0.023465
   141     0.108788
   142    -0.037426
   143    -0.011125
   144    -0.003615
   145    -0.004132
   146     0.037971
   147     0.007231
   148     0.010568
   149     0.015977
   150    -0.016962
   151    -0.001895
   152    -0.059068
   153    -0.031105
   154    -0.041365
   155    -0.008303
   156    -0.005589
   157     0.002583
   158     0.004505
   159     0.051033
   160     0.116930
   161     0.257592
   162     0.014659
   163     0.015702
   164     0.020746
   165    -0.054473
   166    -0.046963
   167    -0.084769
   168     0.100795
   169     0.070620
   170     0.004987
   171    -0.022085
   172     0.014369
   173    -0.195276
   174     0.041871
   175     0.019790
   176     0.010658
   177     0.011440
   178     0.008559
   179     0.000671
   180    -0.000986
   181     0.004370
   182     0.005513
   183    -0.096880
   184    -0.012453
   185     0.000134
   186    -0.006637
   187    -0.048692
   188     0.016482
   189    -0.007625
   190    -0.013080
   191    -0.001858
   192    -0.004613
   193    -0.005173
   194    -0.000847
   195    -0.007077
   196    -0.003048
Sym=    85a
Ene=   -0.962023E-02
Spin= Alpha
Occup= 0.003299
     1     0.016009
     2    -0.029893
     3     0.012371
     4     0.002763
     5     0.000342
     6    -0.000405
     7    -0.004064
     8     0.004256
     9    -0.011673
    10     0.005391
    11     0.026061
    12    -0.030614
    13     0.009563
    14     0.052369
    15    -0.005305
    16    -0.000069
    17     0.004778
    18     0.006452
    19     0.014697
    20     0.000912
    21    -0.011148
    22    -0.048976
    23    -0.000332
    24     0.052415
    25    -0.037190
    26     0.014113
    27     0.052486
    28    -0.028661
    29     0.044264
    30     0.019733
    31     0.017846
    32    -0.007621
    33    -0.013661
    34     0.002459
    35    -0.023582
    36    -0.000054
    37    -0.000425
    38     0.005873
    39    -0.016527
    40    -0.000954
    41     0.001103
    42    -0.002012
    43    -0.003091
    44     0.003276
    45    -0.008128
    46     0.001569
    47     0.001826
    48     0.013234
    49     0.000701
    50    -0.006950
    51     0.007197
    52     0.007172
    53     0.000653
    54     0.001809
    55     0.002308
    56     0.015781
    57     0.001608
    58     0.000140
    59    -0.001272
    60     0.080781
    61     0.283969
    62    -0.013984
    63     0.055315
    64    -0.021691
    65     0.104650
    66     0.094528
    67    -0.048710
    68     0.224683
    69    -0.559236
    70     0.298628
    71    -0.093615
    72    -0.141553
    73     0.471484
    74     0.660112
    75     0.000261
    76     0.002727
    77     0.006337
    78    -0.032489
    79     0.001490
    80    -0.000679
    81     0.000775
    82    -0.008935
    83     0.000476
    84    -0.000595
    85    -0.018770
    86     0.003662
    87     0.000024
    88    -0.000469
    89     0.000451
    90    -0.008829
    91    -0.001455
    92     0.001514
    93     0.005223
    94     0.001366
    95     0.006846
    96    -0.007879
    97    -0.002963
    98    -0.002294
    99     0.004964
   100    -0.005763
   101    -0.005674
   102     0.010553
   103    -0.006424
   104     0.005008
   105    -0.003621
   106    -0.001464
   107    -0.001924
   108    -0.000458
   109     0.014951
   110     0.087557
   111     0.057668
   112    -0.064299
   113    -0.005707
   114    -0.046141
   115     0.028690
   116    -0.019450
   117    -0.065232
   118     0.050926
   119     0.019034
   120    -0.097343
   121    -0.057696
   122    -0.020600
   123     0.019756
   124     0.003262
   125     0.020698
   126    -0.051972
   127    -0.003633
   128     0.005974
   129    -0.006785
   130     0.006976
   131     0.007502
   132     0.052342
   133    -0.001306
   134     0.003036
   135    -0.015840
   136     0.006152
   137    -0.002394
   138    -0.003398
   139    -0.003952
   140    -0.047736
   141    -0.231619
   142     0.086000
   143     0.002580
   144     0.005004
   145    -0.002296
   146     0.005687
   147    -0.039487
   148     0.058330
   149    -0.067948
   150     0.023732
   151     0.044061
   152     0.039233
   153     0.060811
   154     0.079892
   155     0.048627
   156    -0.032904
   157     0.050145
   158     0.000204
   159     0.001178
   160     0.014873
   161    -0.035126
   162    -0.001941
   163     0.003949
   164    -0.004724
   165     0.008977
   166    -0.015366
   167     0.019404
   168    -0.019742
   169     0.005914
   170     0.000810
   171     0.019019
   172    -0.012021
   173    -0.006285
   174     0.031235
   175     0.009453
   176     0.000231
   177    -0.002072
   178     0.009591
   179    -0.000441
   180    -0.001282
   181     0.000229
   182    -0.017881
   183    -0.008628
   184     0.001756
   185     0.017025
   186     0.003733
   187     0.020682
   188    -0.068211
   189     0.002113
   190     0.008283
   191     0.003017
   192     0.008336
   193     0.042580
   194     0.001958
   195     0.005404
   196    -0.000737
Sym=    86a
Ene=   -0.927766E-02
Spin= Alpha
Occup= 0.003211
     1     0.003046
     2    -0.061842
     3    -0.003589
     4     0.003936
     5     0.000274
     6     0.000355
     7     0.003698
     8    -0.009510
     9    -0.001333
    10     0.000935
    11    -0.000496
    12    -0.003988
    13     0.003974
    14    -0.003543
    15     0.000895
    16    -0.001083
    17     0.000589
    18     0.002188
    19     0.001348
    20    -0.001838
    21     0.000640
    22    -0.000927
    23     0.013251
    24    -0.000944
    25    -0.000763
    26     0.000873
    27    -0.001629
    28    -0.003505
    29     0.003261
    30    -0.002548
    31    -0.001604
    32    -0.002558
    33     0.000262
    34     0.000141
    35    -0.000728
    36    -0.000766
    37    -0.007817
    38     0.024406
    39    -0.010679
    40     0.005998
    41     0.000457
    42     0.004632
    43     0.023528
    44     0.002205
    45     0.020374
    46    -0.026202
    47    -0.007368
    48    -0.028453
    49    -0.001993
    50     0.029360
    51    -0.047634
    52    -0.005162
    53    -0.035375
    54     0.034927
    55     0.012066
    56    -0.000561
    57    -0.002940
    58     0.000227
    59    -0.005562
    60     0.001104
    61     0.005262
    62    -0.004189
    63     0.001207
    64     0.000110
    65    -0.003176
    66     0.004650
    67    -0.001668
    68    -0.009285
    69    -0.000088
    70    -0.001757
    71    -0.001840
    72    -0.000182
    73    -0.000393
    74     0.000122
    75     0.000980
    76     0.011425
    77     0.052497
    78    -0.044411
    79     0.003538
    80    -0.000368
    81    -0.004479
    82    -0.009727
    83    -0.003319
    84     0.005641
    85    -0.011510
    86     0.018883
    87     0.017907
    88    -0.047644
    89    -0.013070
    90     0.013054
    91     0.019180
    92    -0.035001
    93     0.040717
    94    -0.002265
    95    -0.005089
    96    -0.007606
    97    -0.002825
    98     0.004479
    99     0.010053
   100    -0.008785
   101     0.005922
   102     0.022638
   103    -0.206101
   104    -0.257765
   105     0.478209
   106     0.347697
   107    -0.745353
   108     0.287189
   109    -0.000305
   110     0.003324
   111    -0.025985
   112    -0.001149
   113     0.000109
   114    -0.000534
   115     0.002313
   116     0.006764
   117    -0.025129
   118    -0.000433
   119     0.001496
   120     0.001368
   121     0.000680
   122     0.001062
   123    -0.000066
   124     0.003361
   125     0.017578
   126    -0.033810
   127    -0.019431
   128    -0.012311
   129    -0.012469
   130     0.041225
   131     0.022052
   132     0.035205
   133    -0.026576
   134     0.004071
   135     0.003876
   136    -0.002256
   137     0.008783
   138     0.008146
   139     0.000273
   140     0.006757
   141     0.012445
   142     0.058319
   143    -0.002512
   144    -0.002911
   145     0.001405
   146     0.012243
   147     0.015853
   148     0.005530
   149    -0.083734
   150     0.020771
   151     0.039589
   152    -0.024470
   153    -0.013509
   154    -0.008419
   155     0.004351
   156     0.002250
   157     0.007151
   158    -0.000665
   159    -0.007093
   160    -0.039534
   161     0.056453
   162     0.003062
   163    -0.000132
   164    -0.000371
   165    -0.015580
   166    -0.001834
   167     0.001076
   168     0.027100
   169     0.028899
   170     0.000766
   171     0.010082
   172     0.007836
   173     0.006078
   174     0.002886
   175     0.001577
   176     0.000163
   177     0.015392
   178     0.000177
   179     0.001341
   180    -0.006590
   181     0.000712
   182    -0.016639
   183    -0.022698
   184     0.001293
   185     0.000138
   186    -0.001375
   187    -0.001200
   188    -0.008707
   189     0.000695
   190    -0.000093
   191    -0.000275
   192     0.000260
   193     0.049845
   194    -0.001098
   195    -0.000705
   196     0.000617
Sym=    87a
Ene=   -0.572631E-02
Spin= Alpha
Occup= 0.001127
     1    -0.053058
     2    -0.022557
     3     0.059973
     4     0.001593
     5     0.004666
     6     0.018217
     7     0.065963
     8    -0.014423
     9    -0.013103
    10     0.007674
    11    -0.023882
    12    -0.020248
    13     0.017642
    14    -0.039760
    15     0.125812
    16    -0.167648
    17    -0.054818
    18     0.136503
    19     0.214989
    20    -0.053536
    21    -0.012858
    22    -0.041750
    23    -0.015595
    24     0.016983
    25    -0.032603
    26    -0.017544
    27     0.014633
    28    -0.043133
    29    -0.036449
    30     0.222549
    31    -0.061007
    32    -0.091787
    33     0.052926
    34     0.259435
    35     0.122198
    36     0.000315
    37     0.004485
    38    -0.003704
    39    -0.008864
    40    -0.004301
    41     0.000884
    42    -0.007283
    43    -0.013121
    44     0.001549
    45    -0.028068
    46     0.003995
    47     0.006275
    48     0.031232
    49     0.000971
    50    -0.020572
    51     0.043772
    52     0.029170
    53     0.013348
    54    -0.010937
    55     0.010274
    56     0.023048
    57     0.004242
    58     0.000101
    59     0.010623
    60     0.027168
    61     0.048824
    62     0.170059
    63     0.057639
    64    -0.071905
    65     0.107639
    66     0.118526
    67    -0.123899
    68     0.199253
    69    -0.226879
    70    -0.115259
    71     0.119273
    72     0.002889
    73     0.115607
    74    -0.204998
    75     0.003641
    76     0.039848
    77     0.158123
    78    -0.080407
    79    -0.000073
    80    -0.014204
    81     0.010866
    82     0.039138
    83     0.066881
    84    -0.061077
    85    -0.019582
    86    -0.004725
    87     0.007211
    88    -0.030974
    89    -0.062996
    90    -0.046152
    91     0.000042
    92    -0.014514
    93    -0.016301
    94     0.006206
    95     0.011510
    96     0.027718
    97     0.008703
    98     0.019687
    99     0.009486
   100     0.029997
   101     0.052030
   102     0.018084
   103     0.101453
   104    -0.175078
   105     0.032571
   106     0.056980
   107     0.065069
   108     0.027646
   109     0.021002
   110     0.098455
   111     0.002633
   112    -0.048956
   113    -0.000823
   114    -0.059001
   115     0.008913
   116    -0.018272
   117    -0.026074
   118    -0.007933
   119    -0.024927
   120    -0.045993
   121     0.006054
   122     0.011372
   123     0.024118
   124    -0.001195
   125    -0.032797
   126     0.062929
   127     0.012957
   128     0.075131
   129     0.139803
   130     0.012683
   131    -0.102085
   132    -0.191997
   133    -0.024812
   134    -0.298768
   135     0.274612
   136    -0.021925
   137     0.145503
   138     0.129309
   139    -0.080047
   140    -0.976663
   141    -4.191638
   142     0.661724
   143    -0.070676
   144     0.045871
   145    -0.004177
   146     0.306029
   147    -0.249336
   148    -0.030209
   149    -0.139906
   150     0.084053
   151     0.067726
   152     1.534461
   153     1.405070
   154     1.348745
   155    -0.049550
   156    -0.084396
   157     0.087738
   158    -0.004955
   159    -0.063703
   160    -0.221349
   161    -0.106230
   162    -0.009637
   163    -0.005969
   164     0.012154
   165     0.044810
   166     0.025976
   167    -0.040208
   168    -0.051334
   169     0.028859
   170     0.008715
   171     0.174422
   172     0.088689
   173     0.085771
   174     0.126424
   175     0.030303
   176     0.023073
   177     0.004489
   178    -0.035450
   179    -0.002552
   180     0.003702
   181     0.002143
   182    -0.162474
   183     0.207816
   184     0.029098
   185     0.010946
   186     0.003647
   187     0.023706
   188    -0.039424
   189    -0.002046
   190     0.002706
   191    -0.001133
   192    -0.381729
   193     0.204029
   194     0.043472
   195    -0.020273
   196    -0.012969
Sym=    88a
Ene=   -0.584730E-02
Spin= Alpha
Occup= 0.001054
     1    -0.011449
     2     0.026311
     3    -0.010416
     4    -0.003846
     5    -0.001018
     6     0.006115
     7     0.023013
     8    -0.002653
     9    -0.003034
    10     0.008734
    11    -0.025346
    12    -0.008719
    13     0.019654
    14    -0.052427
    15     0.197279
    16    -0.230527
    17     0.000184
    18     0.172598
    19     0.347744
    20    -0.165062
    21    -0.003531
    22     0.001363
    23    -0.051543
    24    -0.016211
    25    -0.005921
    26     0.021341
    27    -0.035389
    28     0.005269
    29     0.044219
    30    -0.283258
    31     0.137072
    32     0.178753
    33    -0.040535
    34    -0.323340
    35    -0.212111
    36     0.001276
    37     0.014920
    38    -0.049163
    39     0.024797
    40    -0.003686
    41     0.000645
    42     0.004933
    43    -0.013940
    44     0.003707
    45     0.018085
    46     0.024074
    47    -0.016439
    48    -0.014217
    49     0.030240
    50     0.036176
    51    -0.016615
    52    -0.052569
    53     0.004784
    54    -0.004831
    55    -0.130758
    56     0.039512
    57     0.009689
    58     0.000589
    59     0.012467
    60    -0.004529
    61    -0.008862
    62    -0.022232
    63     0.009591
    64     0.033686
    65    -0.004593
    66     0.022733
    67     0.057670
    68    -0.014997
    69     0.011307
    70     0.018901
    71    -0.000270
    72    -0.064091
    73     0.001255
    74    -0.019559
    75    -0.018461
    76    -0.206425
    77    -0.664408
    78    -0.036963
    79    -0.024714
    80     0.003618
    81    -0.027250
    82     0.092675
    83    -0.004118
    84     0.111167
    85    -0.014952
    86     0.016993
    87    -0.031942
    88     0.288845
    89     0.202548
    90     0.338899
    91     0.025690
    92     0.053665
    93    -0.012744
    94    -0.010231
    95    -0.042191
    96     0.020680
    97     0.036920
    98    -0.003703
    99     0.002754
   100     0.061616
   101    -0.012288
   102     0.004158
   103    -0.159611
   104     0.406907
   105    -0.193798
   106     0.015923
   107    -0.183377
   108    -0.093880
   109     0.009771
   110     0.064095
   111    -0.000251
   112     0.016899
   113    -0.012323
   114    -0.051586
   115    -0.000052
   116     0.004593
   117     0.005195
   118    -0.024866
   119     0.001207
   120    -0.028178
   121    -0.020777
   122     0.005802
   123    -0.028661
   124    -0.003623
   125    -0.024337
   126     0.025318
   127     0.021555
   128     0.037129
   129    -0.007982
   130    -0.018708
   131    -0.083986
   132    -0.010329
   133     0.305008
   134    -0.363338
   135     0.068190
   136    -0.319712
   137     0.085335
   138     0.001858
   139    -0.000959
   140    -0.011370
   141    -0.057914
   142     0.004401
   143     0.009854
   144     0.001618
   145     0.003673
   146    -0.039389
   147     0.000382
   148    -0.039248
   149     0.029541
   150    -0.016954
   151     0.005071
   152     0.013106
   153     0.046845
   154    -0.001383
   155    -0.022452
   156     0.023816
   157     0.017172
   158    -0.001537
   159    -0.020355
   160    -0.059132
   161    -0.038888
   162    -0.006713
   163    -0.012566
   164     0.004700
   165     0.031075
   166     0.050794
   167    -0.017284
   168    -0.036736
   169    -0.044654
   170    -0.014442
   171     0.027965
   172     0.048821
   173     0.040481
   174    -0.014743
   175    -0.017531
   176     0.010003
   177    -0.003959
   178     0.005537
   179     0.000014
   180     0.002768
   181     0.001118
   182    -0.024961
   183     0.040843
   184     0.013350
   185    -0.018154
   186    -0.004697
   187     0.026310
   188     0.009221
   189     0.004440
   190    -0.002965
   191    -0.002248
   192    -0.015969
   193     0.005291
   194     0.005204
   195    -0.023996
   196    -0.006843
Sym=    89a
Ene=   -0.580037E-02
Spin= Alpha
Occup= 0.001079
     1     0.078679
     2    -0.017584
     3    -0.044899
     4    -0.018787
     5    -0.009929
     6    -0.012390
     7    -0.052613
     8     0.027599
     9    -0.012430
    10    -0.022592
    11     0.044925
    12    -0.028125
    13    -0.038894
    14     0.087218
    15     0.166315
    16    -0.166104
    17     0.062522
    18     0.149730
    19     0.301159
    20    -0.129395
    21    -0.003479
    22    -0.013320
    23     0.003601
    24    -0.010309
    25    -0.022814
    26    -0.012956
    27    -0.010107
    28    -0.042118
    29    -0.023001
    30     0.201412
    31    -0.065422
    32    -0.120186
    33     0.076962
    34     0.278487
    35     0.141515
    36    -0.000731
    37    -0.007934
    38     0.048719
    39    -0.098052
    40     0.004483
    41    -0.008078
    42    -0.004839
    43     0.017457
    44    -0.032496
    45    -0.020725
    46    -0.032516
    47     0.056317
    48     0.040781
    49    -0.019674
    50    -0.034117
    51     0.036266
    52     0.060991
    53     0.017790
    54    -0.024581
    55     0.055754
    56    -0.035901
    57    -0.000290
    58    -0.004780
    59    -0.001564
    60     0.042440
    61     0.171440
    62    -0.103726
    63     0.031832
    64     0.066668
    65    -0.062004
    66     0.035414
    67     0.125206
    68    -0.136976
    69     0.042713
    70     0.009343
    71    -0.242340
    72     0.051694
    73    -0.199230
    74     0.200534
    75     0.009527
    76     0.105824
    77     0.304165
    78     0.102512
    79     0.027132
    80    -0.011871
    81     0.016787
    82    -0.109209
    83     0.058643
    84    -0.051238
    85     0.019132
    86     0.016358
    87     0.019969
    88    -0.180570
    89    -0.116650
    90    -0.143833
    91    -0.037475
    92    -0.000820
    93    -0.053662
    94    -0.009304
    95    -0.039293
    96     0.038234
    97    -0.002813
    98     0.025267
    99    -0.034621
   100     0.004104
   101     0.059578
   102    -0.060705
   103     0.213746
   104    -0.356086
   105     0.185705
   106     0.032407
   107     0.162177
   108     0.075833
   109     0.067101
   110     0.296715
   111     0.009056
   112    -0.000301
   113     0.024221
   114    -0.024093
   115    -0.015947
   116     0.000430
   117     0.019392
   118    -0.138028
   119    -0.109823
   120    -0.108947
   121    -0.012407
   122     0.015712
   123     0.011894
   124    -0.002959
   125     0.005438
   126    -0.022816
   127    -0.061799
   128    -0.001697
   129    -0.089709
   130     0.073774
   131    -0.041486
   132     0.153265
   133     0.252390
   134    -0.168180
   135    -0.035842
   136    -0.242066
   137     0.174985
   138    -0.084270
   139     0.046559
   140     0.562789
   141     2.401932
   142    -0.410024
   143     0.057360
   144    -0.047424
   145     0.019299
   146    -0.242751
   147     0.223330
   148    -0.049224
   149     0.088095
   150    -0.050807
   151    -0.034798
   152    -0.877571
   153    -0.782764
   154    -0.776894
   155     0.003728
   156     0.058911
   157    -0.036261
   158     0.005265
   159     0.067531
   160     0.251166
   161     0.002416
   162     0.016085
   163     0.008481
   164    -0.014966
   165    -0.060199
   166    -0.032531
   167     0.052276
   168     0.015829
   169    -0.032623
   170     0.008521
   171    -0.173880
   172    -0.093701
   173    -0.096321
   174    -0.081569
   175    -0.036458
   176    -0.004912
   177    -0.002962
   178     0.049382
   179     0.001743
   180     0.001113
   181     0.003447
   182     0.110156
   183    -0.066100
   184     0.002155
   185    -0.016224
   186    -0.009380
   187     0.033767
   188    -0.000964
   189     0.007393
   190     0.006043
   191     0.024181
   192     0.213696
   193    -0.086728
   194    -0.018678
   195     0.011393
   196    -0.000963
Sym=    90a
Ene=   -0.590528E-02
Spin= Alpha
Occup= 0.001060
     1     0.013795
     2    -0.015082
     3    -0.009753
     4    -0.006921
     5    -0.007987
     6    -0.004777
     7    -0.016698
     8     0.006487
     9     0.003115
    10     0.013713
    11    -0.009853
    12    -0.000846
    13     0.030908
    14    -0.020131
    15     0.212968
    16    -0.202922
    17     0.012788
    18     0.200924
    19     0.349218
    20    -0.174742
    21    -0.007489
    22    -0.021014
    23    -0.018947
    24    -0.002630
    25    -0.016012
    26     0.025822
    27    -0.012829
    28    -0.014122
    29     0.063839
    30    -0.266388
    31     0.160057
    32     0.152970
    33    -0.066092
    34    -0.317944
    35    -0.211302
    36    -0.001113
    37    -0.012936
    38     0.041768
    39    -0.014723
    40     0.003907
    41    -0.000946
    42    -0.006662
    43     0.014894
    44    -0.003987
    45    -0.023466
    46    -0.023665
    47     0.010201
    48     0.014871
    49    -0.034456
    50    -0.035850
    51     0.027822
    52     0.059176
    53    -0.008472
    54     0.009635
    55     0.127825
    56    -0.058202
    57    -0.010215
    58     0.000816
    59    -0.012290
    60    -0.029695
    61    -0.108578
    62     0.029051
    63    -0.017784
    64     0.013216
    65    -0.000397
    66    -0.042781
    67     0.008444
    68     0.006781
    69     0.001360
    70     0.017527
    71     0.139617
    72    -0.063799
    73     0.085169
    74    -0.095738
    75     0.018641
    76     0.207562
    77     0.669930
    78     0.022186
    79     0.025347
    80    -0.005066
    81     0.028127
    82    -0.097561
    83     0.009773
    84    -0.114729
    85     0.032080
    86    -0.020030
    87     0.062488
    88    -0.294373
    89    -0.205198
    90    -0.330684
    91    -0.027462
    92    -0.049743
    93     0.014020
    94     0.007464
    95     0.029468
    96    -0.006862
    97    -0.035506
    98     0.004868
    99    -0.006327
   100    -0.058668
   101     0.019189
   102    -0.012060
   103     0.166565
   104    -0.406229
   105     0.198879
   106    -0.019430
   107     0.186438
   108     0.093625
   109    -0.049950
   110    -0.215617
   111    -0.014471
   112     0.039455
   113    -0.027986
   114     0.023456
   115     0.011502
   116     0.019964
   117    -0.059647
   118     0.067100
   119     0.098020
   120     0.083451
   121    -0.020724
   122     0.000820
   123    -0.021665
   124     0.002376
   125     0.018760
   126    -0.024905
   127    -0.015866
   128    -0.040193
   129     0.010339
   130     0.003564
   131     0.097147
   132     0.021493
   133    -0.270391
   134     0.332901
   135    -0.070013
   136     0.319712
   137    -0.059348
   138    -0.006352
   139     0.001328
   140     0.022509
   141     0.125774
   142    -0.014464
   143    -0.008397
   144     0.009545
   145    -0.016825
   146     0.029074
   147    -0.026744
   148     0.081979
   149    -0.029501
   150     0.022852
   151    -0.013675
   152    -0.072365
   153    -0.043839
   154    -0.015222
   155     0.018408
   156    -0.012538
   157    -0.005459
   158     0.001127
   159     0.014220
   160     0.024038
   161     0.075273
   162     0.003471
   163    -0.000696
   164     0.004935
   165    -0.016829
   166    -0.003776
   167    -0.019639
   168     0.035147
   169     0.027382
   170    -0.001546
   171    -0.020543
   172    -0.033759
   173    -0.020973
   174     0.004665
   175    -0.011605
   176    -0.000948
   177     0.001480
   178    -0.002158
   179     0.001346
   180    -0.002095
   181    -0.000889
   182     0.005913
   183    -0.023928
   184    -0.001829
   185    -0.007373
   186    -0.001699
   187    -0.004811
   188    -0.031151
   189    -0.008472
   190    -0.004610
   191    -0.011847
   192     0.024865
   193     0.006095
   194    -0.008162
   195     0.005163
   196     0.009020
Sym=    91a
Ene=   -0.580121E-02
Spin= Alpha
Occup= 0.001041
     1    -0.035109
     2     0.043693
     3     0.012754
     4    -0.010151
     5    -0.005158
     6     0.009310
     7     0.035535
     8    -0.010973
     9     0.002455
    10    -0.002263
    11    -0.030820
    12     0.008511
    13    -0.006647
    14    -0.061781
    15    -0.198230
    16     0.175721
    17    -0.026296
    18    -0.211601
    19    -0.337891
    20     0.132558
    21     0.012930
    22     0.047281
    23     0.003631
    24    -0.020189
    25     0.050857
    26     0.014135
    27    -0.027592
    28     0.079446
    29     0.017565
    30    -0.270854
    31     0.044656
    32     0.161377
    33    -0.043327
    34    -0.335911
    35    -0.160860
    36    -0.000761
    37    -0.008213
    38     0.048477
    39    -0.064370
    40     0.000828
    41    -0.009195
    42    -0.014831
    43     0.006021
    44    -0.037938
    45    -0.056486
    46    -0.026022
    47     0.061354
    48     0.061657
    49    -0.028640
    50    -0.067152
    51     0.079721
    52     0.085306
    53     0.021225
    54    -0.027027
    55     0.068565
    56    -0.036118
    57     0.000190
    58    -0.002402
    59     0.006177
    60    -0.022704
    61    -0.065776
    62    -0.039327
    63    -0.031804
    64     0.002378
    65    -0.004732
    66    -0.040610
    67     0.013825
    68    -0.018321
    69     0.057953
    70     0.054025
    71     0.021356
    72    -0.043188
    73     0.034081
    74    -0.001475
    75     0.012361
    76     0.137653
    77     0.444480
    78     0.005357
    79     0.030751
    80    -0.023969
    81     0.023182
    82    -0.098213
    83     0.112019
    84    -0.093544
    85     0.028767
    86     0.006906
    87     0.061872
    88    -0.198594
    89    -0.170999
    90    -0.192312
    91    -0.032932
    92    -0.012154
    93    -0.054521
    94    -0.003776
    95    -0.027984
    96     0.063274
    97     0.008820
    98     0.032874
    99    -0.020291
   100     0.036328
   101     0.086253
   102    -0.035012
   103     0.264799
   104    -0.433585
   105     0.177115
   106     0.065954
   107     0.174723
   108     0.083010
   109     0.025074
   110     0.151325
   111    -0.050131
   112     0.014893
   113     0.008238
   114    -0.049990
   115     0.008198
   116     0.001456
   117    -0.019675
   118    -0.036656
   119    -0.053883
   120    -0.058478
   121     0.009060
   122    -0.007201
   123    -0.023463
   124    -0.010129
   125    -0.044313
   126     0.047401
   127    -0.049522
   128     0.034648
   129     0.007685
   130     0.068863
   131    -0.087314
   132     0.002607
   133     0.202275
   134    -0.353272
   135     0.205039
   136    -0.230754
   137     0.253825
   138    -0.013856
   139    -0.009258
   140    -0.115213
   141    -0.489773
   142     0.084853
   143    -0.003798
   144     0.004888
   145     0.010228
   146     0.016877
   147    -0.018622
   148    -0.067191
   149    -0.018709
   150     0.008724
   151     0.004537
   152     0.209319
   153     0.186196
   154     0.134514
   155    -0.031368
   156    -0.013639
   157     0.018299
   158    -0.001237
   159    -0.015192
   160    -0.062022
   161     0.008514
   162    -0.004953
   163    -0.001520
   164     0.012344
   165     0.017275
   166     0.006586
   167    -0.045974
   168     0.004980
   169    -0.001198
   170     0.004487
   171     0.015266
   172     0.036745
   173     0.027697
   174     0.021051
   175     0.019267
   176    -0.002701
   177    -0.004352
   178     0.002062
   179     0.001290
   180     0.004942
   181    -0.000028
   182    -0.021810
   183     0.004579
   184     0.009804
   185     0.006781
   186     0.005602
   187     0.021201
   188     0.002013
   189     0.003738
   190    -0.006183
   191    -0.005085
   192    -0.059252
   193     0.013984
   194     0.010208
   195     0.001516
   196    -0.000003
Sym=    92a
Ene=   -0.347201E-02
Spin= Alpha
Occup= 0.000663
     1     0.030671
     2    -0.094940
     3    -0.006427
     4     0.005290
     5    -0.016865
     6     0.027109
     7     0.077452
     8     0.036010
     9    -0.017542
    10    -0.078540
    11     0.063330
    12    -0.041898
    13    -0.190002
    14     0.160230
    15    -0.023397
    16    -0.118775
    17    -0.043442
    18    -0.002461
    19     0.001780
    20     0.057046
    21     0.022912
    22     0.076301
    23     0.008830
    24     0.016458
    25     0.038819
    26     0.038643
    27     0.043654
    28     0.088084
    29     0.091459
    30     0.059474
    31    -0.086204
    32    -0.115509
    33     0.027672
    34     0.039327
    35    -0.053580
    36    -0.014680
    37    -0.188748
    38     0.657292
    39    -0.295812
    40     0.074172
    41    -0.078423
    42    -0.002364
    43     0.302657
    44    -0.315706
    45    -0.017024
    46    -0.422233
    47     0.465211
    48     0.118319
    49    -0.241334
    50    -0.168277
    51    -0.338891
    52     0.171130
    53    -0.141195
    54     0.061132
    55     0.013946
    56    -0.031338
    57     0.005060
    58     0.057115
    59     0.009886
    60    -0.112511
    61    -0.358643
    62    -0.091447
    63    -0.078696
    64     0.019187
    65    -0.126932
    66    -0.238734
    67     0.063352
    68    -0.328613
    69     0.192303
    70     0.100766
    71     0.409914
    72    -0.027228
    73     0.276987
    74    -0.074678
    75    -0.009489
    76    -0.088148
    77    -0.397503
    78     0.225464
    79    -0.019748
    80    -0.193875
    81    -0.030595
    82     0.122924
    83     0.897441
    84     0.148029
    85    -0.030630
    86     0.018033
    87    -0.050498
    88     0.037378
    89    -0.064189
    90     0.084524
    91    -0.070330
    92     0.018653
    93     0.046876
    94    -0.133944
    95    -0.530042
    96     0.240807
    97     0.175382
    98     0.221393
    99     0.048963
   100     0.479160
   101     0.598835
   102     0.117501
   103     0.333392
   104     0.356373
   105     0.080442
   106     0.307925
   107     0.081930
   108     0.064246
   109     0.026862
   110     0.153152
   111    -0.078493
   112     0.365987
   113     0.070849
   114     0.161432
   115    -0.050687
   116    -0.008995
   117     0.016010
   118    -0.163567
   119    -0.050117
   120    -0.010930
   121     0.001029
   122     0.040078
   123     0.023804
   124    -0.080702
   125    -0.299683
   126     0.020726
   127     0.049249
   128     0.056541
   129    -0.019791
   130    -0.106936
   131    -0.198174
   132    -0.009581
   133     0.174754
   134     0.096002
   135     0.220923
   136     0.034530
   137    -0.098195
   138    -0.174971
   139     0.015059
   140     0.201135
   141     0.882901
   142    -0.103805
   143    -0.001861
   144     0.005475
   145     0.011546
   146    -0.007099
   147     0.027061
   148    -0.131313
   149     0.011626
   150     0.030081
   151    -0.057131
   152    -0.329333
   153    -0.287331
   154    -0.338720
   155    -0.002697
   156     0.009212
   157    -0.052937
   158     0.000083
   159     0.006636
   160     0.006598
   161     0.101623
   162     0.008281
   163     0.007786
   164    -0.024965
   165    -0.040567
   166    -0.038582
   167     0.098187
   168     0.050969
   169     0.030729
   170     0.031665
   171    -0.026034
   172    -0.015532
   173    -0.070417
   174    -0.002003
   175    -0.006202
   176    -0.004896
   177     0.178377
   178     0.026302
   179    -0.003896
   180     0.005065
   181     0.030391
   182     0.054308
   183    -0.090065
   184    -0.008008
   185     0.004264
   186    -0.005333
   187     0.001373
   188     0.017722
   189    -0.088136
   190    -0.019862
   191    -0.017604
   192     0.088297
   193    -0.082680
   194    -0.012656
   195     0.017829
   196    -0.002434
Sym=    93a
Ene=   -0.246690E-02
Spin= Alpha
Occup= 0.000443
     1     0.079125
     2    -0.325619
     3     0.090356
     4    -0.146742
     5    -0.110015
     6    -0.201100
     7    -0.576800
     8    -0.375829
     9     0.016031
    10     0.008263
    11     0.059037
    12     0.056171
    13     0.038471
    14     0.121040
    15     0.412605
    16     0.512361
    17     0.455074
    18     0.093722
    19    -0.092176
    20    -0.175052
    21     0.008737
    22     0.059507
    23    -0.097593
    24    -0.073611
    25     0.029319
    26     0.076643
    27    -0.148994
    28     0.059698
    29     0.175534
    30    -0.030677
    31     0.010541
    32    -0.001684
    33     0.069065
    34     0.050007
    35    -0.071806
    36    -0.009553
    37    -0.134737
    38     0.390327
    39     0.055063
    40     0.035636
    41    -0.031389
    42     0.031100
    43     0.136970
    44    -0.127598
    45     0.115524
    46    -0.123206
    47     0.153948
    48    -0.022333
    49    -0.074517
    50    -0.065984
    51    -0.496402
    52    -0.008878
    53    -0.114908
    54     0.095592
    55    -0.176696
    56     0.086440
    57    -0.006069
    58     0.010269
    59     0.040949
    60    -0.029388
    61    -0.090251
    62    -0.053142
    63    -0.051739
    64    -0.021200
    65    -0.053909
    66    -0.172085
    67    -0.035905
    68    -0.185052
    69     0.063230
    70     0.067256
    71     0.065055
    72     0.028694
    73     0.010125
    74     0.019261
    75    -0.015161
    76    -0.200916
    77    -0.815086
    78    -0.161437
    79     0.058926
    80     0.033665
    81    -0.026773
    82    -0.388071
    83    -0.154795
    84     0.235786
    85    -0.013438
    86    -0.024265
    87     0.128133
    88     0.259971
    89     0.340030
    90     0.388717
    91     0.067294
    92     0.029605
    93     0.029968
    94     0.076899
    95     0.228920
    96     0.095703
    97    -0.068459
    98    -0.050099
    99    -0.062757
   100    -0.188025
   101    -0.200695
   102    -0.141367
   103    -0.141777
   104    -0.268188
   105    -0.139975
   106    -0.067171
   107     0.015134
   108    -0.051219
   109     0.082061
   110     0.485453
   111     0.004086
   112     0.123891
   113    -0.242374
   114     0.055693
   115    -0.005279
   116    -0.015352
   117    -0.038027
   118    -0.221094
   119    -0.230099
   120    -0.142240
   121    -0.007449
   122     0.014197
   123    -0.040388
   124     0.117806
   125     0.355186
   126     0.170287
   127     0.109706
   128    -0.059555
   129    -0.183166
   130    -0.320532
   131     0.232646
   132     0.752152
   133    -0.214750
   134    -0.306314
   135    -0.317182
   136    -0.019617
   137    -0.072437
   138    -0.080733
   139    -0.003539
   140    -0.051212
   141    -0.010297
   142     0.055328
   143    -0.041915
   144    -0.082762
   145    -0.047952
   146     0.146098
   147     0.436929
   148     0.357616
   149    -0.084807
   150     0.047844
   151     0.057723
   152     0.078238
   153     0.113161
   154     0.260517
   155    -0.005019
   156     0.004334
   157     0.066425
   158     0.004776
   159     0.063840
   160     0.259811
   161    -0.006069
   162     0.030300
   163     0.002613
   164    -0.033287
   165    -0.105415
   166     0.008557
   167     0.108706
   168    -0.024028
   169    -0.009825
   170    -0.045796
   171    -0.252753
   172     0.179877
   173    -0.263947
   174     0.324009
   175     0.120659
   176     0.092932
   177     0.244705
   178     0.001411
   179     0.002301
   180     0.022801
   181     0.085190
   182     0.156532
   183     0.137717
   184     0.104494
   185     0.068412
   186     0.048172
   187     0.040918
   188    -0.097361
   189    -0.028423
   190     0.038321
   191     0.012967
   192    -0.085384
   193     0.117024
   194     0.033588
   195     0.039585
   196     0.008496
Sym=    94a
Ene=   -0.204590E-02
Spin= Alpha
Occup= 0.000373
     1    -0.053830
     2     0.143243
     3    -0.033875
     4    -0.047972
     5     0.165272
     6    -0.065067
     7    -0.201082
     8    -0.043342
     9     0.081520
    10     0.127644
    11    -0.005106
    12     0.192205
    13     0.306758
    14    -0.031095
    15     0.140397
    16     0.131381
    17     0.175771
    18     0.034762
    19    -0.016139
    20    -0.002813
    21     0.072544
    22     0.210515
    23     0.163400
    24    -0.082068
    25     0.051582
    26     0.084730
    27    -0.163751
    28     0.088765
    29     0.204202
    30    -0.171594
    31    -0.144121
    32    -0.184645
    33     0.041646
    34     0.074252
    35    -0.053241
    36    -0.000781
    37    -0.008766
    38     0.130107
    39    -0.245692
    40     0.012073
    41    -0.037658
    42    -0.003548
    43     0.068305
    44    -0.184111
    45    -0.023884
    46    -0.211921
    47     0.399051
    48    -0.018844
    49    -0.065892
    50    -0.290243
    51     0.367034
    52     0.221109
    53     0.156261
    54    -0.103380
    55    -0.105431
    56     0.001640
    57     0.105533
    58    -0.161269
    59    -0.072816
    60     0.003683
    61    -0.001661
    62     0.064390
    63    -0.024187
    64    -0.001580
    65    -0.009082
    66    -0.087329
    67    -0.001447
    68    -0.049276
    69    -0.012125
    70    -0.023450
    71    -0.002148
    72     0.010973
    73     0.004893
    74     0.034757
    75    -0.013023
    76    -0.164818
    77    -0.716348
    78     0.015123
    79     0.063609
    80    -0.092932
    81    -0.043359
    82    -0.287467
    83     0.485086
    84     0.285385
    85    -0.017846
    86     0.038362
    87     0.060503
    88     0.371506
    89     0.195102
    90     0.042840
    91    -0.175266
    92     0.271839
    93    -0.336016
    94     0.162870
    95     0.322390
    96     0.795901
    97     0.043367
    98     0.013665
    99     0.011965
   100     0.186339
   101     0.123836
   102    -0.006676
   103    -0.348812
   104    -0.420101
   105    -0.500940
   106     0.160113
   107    -0.065776
   108    -0.035927
   109     0.000429
   110     0.029474
   111    -0.025772
   112     0.055771
   113    -0.301514
   114    -0.001337
   115     0.054975
   116     0.005751
   117    -0.223085
   118    -0.024762
   119    -0.012573
   120    -0.006359
   121     0.027006
   122     0.019585
   123    -0.112301
   124     0.079413
   125     0.129715
   126     0.656710
   127    -0.004474
   128     0.016082
   129    -0.018130
   130    -0.208996
   131    -0.122287
   132     0.212713
   133    -0.130126
   134    -0.314641
   135    -0.160882
   136     0.131389
   137    -0.255997
   138    -0.069304
   139    -0.000746
   140    -0.019518
   141    -0.144229
   142     0.042345
   143     0.013486
   144     0.001123
   145     0.011701
   146    -0.032215
   147    -0.001124
   148    -0.089210
   149    -0.018650
   150     0.033089
   151     0.011527
   152     0.016556
   153     0.084667
   154     0.033908
   155     0.013980
   156    -0.008307
   157    -0.011886
   158    -0.003933
   159    -0.045715
   160    -0.171872
   161     0.008715
   162    -0.009139
   163    -0.001067
   164     0.040871
   165     0.037681
   166     0.012006
   167    -0.164611
   168    -0.016315
   169    -0.011278
   170     0.011543
   171     0.109669
   172    -0.109933
   173     0.233353
   174    -0.189430
   175     0.098304
   176     0.186218
   177    -0.226105
   178     0.037453
   179    -0.026499
   180     0.040061
   181    -0.055403
   182    -0.127319
   183     0.054811
   184    -0.025017
   185    -0.070291
   186     0.052315
   187     0.013976
   188    -0.180666
   189    -0.012116
   190     0.069897
   191     0.007570
   192    -0.041002
   193     0.067474
   194    -0.008347
   195    -0.025532
   196    -0.027214
Sym=    95a
Ene=   -0.208614E-02
Spin= Alpha
Occup= 0.000355
     1     0.048591
     2    -0.001235
     3    -0.062653
     4    -0.080628
     5     0.163705
     6    -0.152319
     7    -0.367289
     8    -0.514840
     9     0.019809
    10     0.044646
    11     0.092149
    12     0.019008
    13     0.071079
    14     0.205636
    15     0.339892
    16     0.342673
    17     0.476636
    18    -0.028212
    19     0.014296
    20     0.016646
    21    -0.146751
    22    -0.371429
    23    -0.412221
    24     0.052268
    25    -0.023182
    26    -0.040707
    27     0.128598
    28    -0.086768
    29    -0.105352
    30     0.372519
    31     0.357212
    32     0.374020
    33    -0.023378
    34    -0.036986
    35     0.041578
    36    -0.010220
    37    -0.141007
    38     0.349829
    39     0.141110
    40     0.009382
    41    -0.011075
    42    -0.026360
    43     0.033024
    44    -0.030998
    45    -0.096693
    46    -0.010735
    47    -0.028567
    48     0.154176
    49    -0.206422
    50    -0.040566
    51    -0.398847
    52    -0.048526
    53    -0.149967
    54     0.078844
    55    -0.036600
    56     0.125690
    57    -0.033565
    58     0.140494
    59     0.108101
    60    -0.077786
    61    -0.150409
    62    -0.388158
    63    -0.012651
    64     0.036053
    65    -0.000423
    66    -0.052091
    67     0.129979
    68    -0.045510
    69     0.205659
    70     0.192061
    71     0.227607
    72     0.009778
    73    -0.011272
    74     0.019319
    75     0.008760
    76     0.089506
    77     0.432081
    78     0.017261
    79    -0.044880
    80     0.012134
    81     0.058019
    82     0.350798
    83    -0.002128
    84    -0.367652
    85     0.056934
    86     0.062670
    87    -0.070599
    88    -0.148586
    89    -0.089182
    90     0.027090
    91     0.146738
    92    -0.207343
    93     0.255533
    94     0.202315
    95     0.461667
    96     0.729113
    97     0.019207
    98     0.008232
    99     0.071478
   100     0.022857
   101     0.025381
   102     0.174890
   103    -0.549686
   104    -0.465869
   105    -0.541227
   106    -0.021310
   107     0.050392
   108     0.058251
   109     0.020161
   110     0.091204
   111     0.177382
   112    -0.056259
   113     0.146948
   114    -0.013719
   115    -0.028566
   116    -0.052619
   117     0.000142
   118    -0.097470
   119    -0.092172
   120    -0.054162
   121    -0.006140
   122    -0.006407
   123     0.006311
   124     0.008918
   125     0.063776
   126    -0.131295
   127    -0.099105
   128     0.018089
   129     0.128655
   130     0.450595
   131    -0.101575
   132    -0.692634
   133    -0.121868
   134     0.052431
   135     0.010356
   136    -0.117060
   137     0.161750
   138     0.072295
   139    -0.000860
   140    -0.019567
   141    -0.250122
   142    -0.001276
   143     0.028576
   144     0.026826
   145     0.056698
   146    -0.140264
   147    -0.167459
   148    -0.424076
   149     0.016604
   150    -0.039601
   151    -0.013146
   152     0.046230
   153     0.046741
   154    -0.002496
   155    -0.013039
   156    -0.065769
   157    -0.104815
   158    -0.002181
   159    -0.016231
   160    -0.046678
   161     0.031662
   162    -0.005861
   163     0.013085
   164     0.019510
   165     0.022669
   166    -0.045300
   167    -0.090249
   168     0.009442
   169    -0.021849
   170     0.100954
   171     0.127882
   172    -0.210967
   173     0.090676
   174    -0.180358
   175     0.127432
   176     0.227557
   177     0.204599
   178    -0.023000
   179     0.009667
   180    -0.018187
   181     0.014906
   182    -0.093422
   183    -0.074347
   184    -0.071645
   185    -0.027561
   186     0.041364
   187     0.160782
   188    -0.197836
   189    -0.034215
   190    -0.017572
   191     0.092973
   192     0.008264
   193    -0.024797
   194    -0.033941
   195    -0.020802
   196    -0.045107
Sym=    96a
Ene=   -0.180216E-02
Spin= Alpha
Occup= 0.000313
     1     0.139637
     2     0.044922
     3    -0.026340
     4     0.056870
     5     0.001286
     6    -0.141711
     7    -0.301076
     8    -0.607330
     9    -0.052060
    10     0.003022
    11    -0.006435
    12    -0.087250
    13     0.041594
    14    -0.028495
    15     0.379557
    16     0.421427
    17     0.347670
    18     0.054849
    19    -0.040612
    20     0.015151
    21    -0.134240
    22    -0.290259
    23    -0.582304
    24     0.030335
    25     0.004579
    26    -0.077283
    27     0.055381
    28     0.030775
    29    -0.177513
    30     0.350323
    31     0.325908
    32     0.390792
    33     0.032240
    34    -0.042998
    35     0.018342
    36    -0.001325
    37    -0.015807
    38     0.100428
    39    -0.163586
    40     0.000579
    41    -0.018726
    42    -0.014627
    43     0.014630
    44    -0.088066
    45    -0.054021
    46    -0.084825
    47     0.193069
    48     0.019219
    49    -0.056567
    50    -0.123568
    51     0.146462
    52     0.118094
    53     0.045874
    54    -0.002869
    55    -0.016591
    56    -0.013591
    57    -0.125718
    58    -0.110193
    59     0.037901
    60     0.002146
    61     0.044330
    62    -0.169478
    63    -0.063413
    64     0.068759
    65    -0.107734
    66    -0.214424
    67     0.234942
    68    -0.400820
    69     0.062154
    70    -0.043577
    71    -0.013002
    72     0.028837
    73     0.053416
    74     0.054036
    75    -0.001693
    76    -0.033176
    77    -0.222322
    78     0.188000
    79     0.028870
    80    -0.027362
    81    -0.002755
    82    -0.213159
    83     0.070969
    84     0.086465
    85    -0.098100
    86    -0.023648
    87    -0.009512
    88    -0.096240
    89     0.094527
    90     0.246168
    91    -0.103851
    92    -0.134371
    93    -0.196557
    94    -0.143840
    95    -0.296674
    96    -0.617069
    97    -0.040150
    98    -0.031811
    99    -0.078349
   100    -0.070401
   101    -0.033595
   102    -0.195779
   103     0.370678
   104     0.433468
   105     0.358018
   106    -0.005909
   107    -0.050360
   108    -0.076642
   109     0.066777
   110     0.293161
   111     0.017425
   112     0.134182
   113     0.063252
   114    -0.027396
   115    -0.107544
   116    -0.065144
   117     0.256482
   118    -0.236482
   119    -0.239101
   120    -0.169721
   121    -0.050669
   122    -0.005600
   123     0.098595
   124     0.147344
   125     0.384387
   126     0.457338
   127     0.011016
   128     0.038387
   129    -0.112513
   130    -0.024916
   131    -0.085891
   132     0.327598
   133    -0.436317
   134    -0.388167
   135    -0.312162
   136     0.116701
   137     0.037386
   138     0.017061
   139    -0.003193
   140    -0.069814
   141    -0.264050
   142    -0.062346
   143     0.019600
   144    -0.042009
   145     0.021375
   146    -0.111737
   147     0.241454
   148    -0.134077
   149     0.100126
   150    -0.022217
   151    -0.066834
   152     0.090275
   153     0.303829
   154     0.275524
   155    -0.081788
   156     0.152538
   157    -0.015125
   158     0.004611
   159     0.045414
   160     0.172739
   161    -0.134285
   162    -0.025450
   163     0.003968
   164    -0.000706
   165     0.104070
   166    -0.000701
   167    -0.009694
   168    -0.097655
   169    -0.070598
   170    -0.033387
   171     0.315446
   172    -0.268906
   173    -0.157545
   174    -0.073276
   175    -0.163386
   176    -0.073568
   177    -0.086503
   178     0.021735
   179    -0.010334
   180    -0.003939
   181    -0.037479
   182    -0.192227
   183     0.112688
   184    -0.059684
   185    -0.003064
   186    -0.182456
   187     0.215843
   188     0.060059
   189    -0.048833
   190    -0.074793
   191     0.100456
   192    -0.208575
   193     0.207192
   194     0.058262
   195    -0.164098
   196    -0.023396
Sym=    97a
Ene=   -0.122217E-02
Spin= Alpha
Occup= 0.000162
     1     0.060338
     2     0.057495
     3    -0.080904
     4    -0.031718
     5    -0.046636
     6     0.024364
     7     0.021712
     8     0.191533
     9     0.026544
    10    -0.017127
    11     0.047779
    12     0.036281
    13    -0.070718
    14     0.156712
    15    -0.093440
    16    -0.112455
    17    -0.028650
    18    -0.009146
    19     0.032305
    20    -0.010235
    21     0.110586
    22     0.171434
    23     0.651839
    24     0.033706
    25    -0.037782
    26     0.006719
    27     0.077996
    28    -0.074327
    29     0.000696
    30    -0.318540
    31    -0.339077
    32    -0.330672
    33    -0.031157
    34    -0.003120
    35     0.017323
    36    -0.021092
    37    -0.314667
    38     0.904070
    39     0.091156
    40    -0.007851
    41    -0.008012
    42    -0.056541
    43    -0.024283
    44    -0.046016
    45    -0.244884
    46    -0.022151
    47     0.184358
    48     0.501346
    49    -0.384712
    50    -0.438505
    51    -0.734721
    52     0.136938
    53    -0.129047
    54     0.036586
    55    -0.225240
    56     0.102633
    57     0.110742
    58    -0.180995
    59     0.161338
    60    -0.120638
    61    -0.199910
    62    -0.658009
    63     0.046257
    64     0.001765
    65     0.063831
    66     0.102254
    67     0.022408
    68     0.172193
    69     0.370957
    70     0.358197
    71     0.339500
    72     0.012998
    73    -0.043576
    74     0.024907
    75    -0.002251
    76    -0.058629
    77    -0.007222
    78     0.058520
    79     0.005429
    80     0.008074
    81     0.013059
    82    -0.020147
    83    -0.116838
    84    -0.128283
    85     0.121473
    86    -0.074393
    87     0.149290
    88     0.360866
    89     0.376973
    90     0.024364
    91    -0.156442
    92    -0.163453
    93    -0.166746
    94    -0.120518
    95    -0.159319
    96    -0.830836
    97    -0.088708
    98    -0.033797
    99    -0.092446
   100    -0.268028
   101    -0.159323
   102    -0.240162
   103     0.320788
   104     0.353272
   105     0.404894
   106    -0.060028
   107    -0.053789
   108    -0.089451
   109    -0.023832
   110    -0.158483
   111     0.088542
   112    -0.137405
   113     0.083171
   114     0.031975
   115     0.071150
   116    -0.035344
   117    -0.102739
   118     0.133866
   119     0.103292
   120     0.053216
   121    -0.013697
   122    -0.078974
   123     0.030745
   124     0.120482
   125     0.226246
   126     0.782384
   127    -0.002995
   128     0.000992
   129     0.176597
   130     0.108017
   131    -0.141243
   132    -0.880237
   133    -0.327274
   134    -0.367869
   135    -0.316381
   136    -0.023908
   137    -0.022115
   138     0.142920
   139    -0.003843
   140    -0.058521
   141    -0.541013
   142     0.041511
   143     0.026796
   144     0.055824
   145     0.050140
   146    -0.104169
   147    -0.367933
   148    -0.528284
   149     0.015455
   150     0.014243
   151     0.001743
   152     0.171528
   153    -0.000686
   154    -0.078411
   155     0.020872
   156    -0.068492
   157    -0.122595
   158    -0.000433
   159     0.004507
   160     0.060318
   161    -0.092492
   162     0.014270
   163     0.016588
   164    -0.011627
   165    -0.048629
   166    -0.073257
   167     0.057696
   168    -0.026261
   169    -0.010575
   170    -0.012144
   171    -0.051898
   172    -0.010033
   173    -0.068217
   174    -0.110466
   175     0.054217
   176     0.048628
   177     0.467551
   178     0.010454
   179     0.003403
   180     0.007933
   181     0.044121
   182     0.040329
   183    -0.051452
   184    -0.134186
   185     0.025880
   186     0.051253
   187    -0.105790
   188    -0.064932
   189     0.070901
   190    -0.004578
   191    -0.038594
   192     0.130110
   193    -0.167040
   194    -0.116024
   195     0.102778
   196    -0.021203
Sym=    98a
Ene=   -0.120944E-02
Spin= Alpha
Occup= 0.000156
     1    -0.028088
     2    -0.020754
     3    -0.057309
     4     0.008158
     5    -0.090984
     6    -0.066175
     7    -0.126722
     8    -0.313493
     9    -0.031952
    10    -0.099718
    11     0.092337
    12    -0.094045
    13    -0.271480
    14     0.296093
    15     0.175095
    16     0.158096
    17     0.240793
    18     0.015911
    19     0.036919
    20    -0.007631
    21     0.204984
    22     0.344099
    23     1.030094
    24     0.057052
    25    -0.072385
    26    -0.033158
    27     0.066581
    28    -0.006010
    29    -0.039195
    30    -0.580098
    31    -0.679922
    32    -0.572420
    33     0.013665
    34    -0.028878
    35    -0.007550
    36     0.009229
    37     0.139952
    38    -0.401194
    39    -0.031627
    40     0.021850
    41    -0.012195
    42     0.037063
    43     0.090699
    44    -0.045070
    45     0.157424
    46    -0.105304
    47    -0.015282
    48    -0.325659
    49     0.148250
    50     0.197153
    51     0.368958
    52    -0.058882
    53     0.076652
    54    -0.023941
    55    -0.038624
    56    -0.115798
    57    -0.156913
    58     0.136963
    59    -0.124134
    60    -0.044932
    61    -0.099818
    62    -0.149388
    63     0.010846
    64    -0.005289
    65     0.062489
    66    -0.061894
    67     0.013176
    68     0.105280
    69     0.226878
    70     0.093685
    71     0.068017
    72     0.017016
    73     0.030126
    74     0.005354
    75    -0.006881
    76    -0.086697
    77    -0.229427
    78    -0.101261
    79     0.012621
    80     0.004395
    81     0.013316
    82    -0.055603
    83    -0.003114
    84    -0.042739
    85    -0.013044
    86     0.078990
    87     0.077713
    88    -0.030411
    89    -0.012973
    90     0.386171
    91     0.174350
    92     0.182993
    93     0.079094
    94     0.047049
    95     0.083090
    96     0.254587
    97     0.010477
    98    -0.026323
    99     0.042512
   100     0.022599
   101    -0.084435
   102     0.115124
   103    -0.103530
   104    -0.165388
   105    -0.143402
   106    -0.009542
   107     0.046086
   108     0.080181
   109    -0.023712
   110    -0.157018
   111     0.081718
   112     0.098371
   113     0.157771
   114     0.138654
   115     0.086874
   116    -0.085854
   117    -0.126363
   118     0.200563
   119     0.115490
   120     0.030414
   121    -0.118271
   122    -0.236543
   123     0.230907
   124     0.125044
   125     0.192586
   126     1.024410
   127    -0.080585
   128     0.044228
   129     0.025263
   130     0.192330
   131    -0.227290
   132    -0.267733
   133    -0.573200
   134    -0.409683
   135    -0.078090
   136     0.000335
   137    -0.026486
   138     0.055075
   139     0.001162
   140     0.023527
   141    -0.085060
   142     0.026758
   143     0.013994
   144     0.050075
   145     0.044204
   146    -0.056148
   147    -0.285660
   148    -0.393241
   149    -0.044675
   150     0.029621
   151     0.038570
   152    -0.026155
   153    -0.098778
   154    -0.216235
   155     0.020659
   156     0.036978
   157    -0.131568
   158     0.000330
   159     0.016050
   160     0.074846
   161     0.000413
   162     0.016643
   163     0.009280
   164    -0.029546
   165    -0.065313
   166    -0.039213
   167     0.120881
   168     0.010101
   169     0.005586
   170     0.020571
   171    -0.025818
   172     0.080333
   173    -0.254614
   174    -0.017637
   175     0.048344
   176     0.068338
   177    -0.302179
   178     0.021964
   179    -0.015647
   180     0.010700
   181    -0.035417
   182     0.045181
   183    -0.100048
   184    -0.165082
   185     0.013471
   186    -0.024440
   187    -0.185064
   188    -0.036284
   189     0.158712
   190    -0.121418
   191    -0.073371
   192     0.087398
   193    -0.040316
   194    -0.028238
   195     0.012565
   196     0.011944
Sym=    99a
Ene=   -0.111127E-02
Spin= Alpha
Occup= 0.000147
     1    -0.073444
     2    -0.008807
     3     0.105100
     4    -0.044032
     5     0.017134
     6    -0.012864
     7    -0.074621
     8     0.109674
     9     0.022793
    10     0.052812
    11     0.040902
    12     0.144382
    13     0.237540
    14     0.085773
    15     0.013531
    16     0.103538
    17    -0.027754
    18     0.110284
    19     0.045953
    20     0.048526
    21    -0.021072
    22     0.123324
    23    -0.980082
    24     0.011182
    25     0.030906
    26     0.012206
    27    -0.345670
    28     0.570555
    29     0.303426
    30     0.120609
    31    -0.063932
    32     0.191658
    33     0.221777
    34     0.125699
    35    -0.220827
    36     0.002414
    37     0.035519
    38    -0.095331
    39    -0.041445
    40    -0.016360
    41     0.017110
    42    -0.005824
    43    -0.072110
    44     0.074250
    45    -0.023203
    46     0.123106
    47    -0.108839
    48     0.070935
    49     0.085500
    50     0.083885
    51    -0.006594
    52    -0.026068
    53    -0.020977
    54     0.021579
    55     0.144188
    56     0.043498
    57     0.030998
    58    -0.055467
    59     0.088078
    60     0.049777
    61    -0.040329
    62     0.706688
    63    -0.093761
    64     0.005575
    65    -0.054569
    66    -0.532673
    67     0.041332
    68    -0.369870
    69     0.103577
    70    -0.271323
    71    -0.345398
    72    -0.020878
    73     0.187286
    74     0.019417
    75     0.008959
    76     0.130020
    77     0.348549
    78    -0.030089
    79    -0.024956
    80    -0.012011
    81    -0.018214
    82     0.122649
    83     0.090608
    84     0.093364
    85    -0.042521
    86    -0.037413
    87    -0.069270
    88    -0.216682
    89    -0.239202
    90    -0.366703
    91    -0.084473
    92    -0.147554
    93    -0.015895
    94     0.002970
    95    -0.036168
    96     0.170896
    97     0.015051
    98     0.049778
    99    -0.001681
   100     0.090461
   101     0.202039
   102    -0.005612
   103    -0.029502
   104     0.027426
   105    -0.048177
   106     0.047753
   107    -0.009584
   108    -0.041897
   109     0.068588
   110     0.561814
   111    -0.054335
   112     0.785229
   113    -0.693442
   114     0.163447
   115     0.013242
   116    -0.030943
   117    -0.064430
   118    -0.040383
   119    -0.064722
   120    -0.438220
   121    -0.308483
   122    -0.413053
   123     0.369572
   124    -0.044838
   125    -0.096053
   126    -0.227971
   127     0.017296
   128    -0.026801
   129    -0.062811
   130    -0.071748
   131     0.046376
   132     0.174988
   133     0.210556
   134     0.141747
   135     0.020490
   136     0.001210
   137    -0.030454
   138     0.029505
   139    -0.002632
   140    -0.040698
   141    -0.071740
   142    -0.035396
   143    -0.004994
   144    -0.024039
   145     0.000305
   146     0.024553
   147     0.167528
   148     0.027016
   149     0.023509
   150     0.044841
   151     0.048339
   152     0.086078
   153     0.210092
   154     0.005225
   155    -0.135064
   156     0.021374
   157    -0.056630
   158    -0.005035
   159    -0.058710
   160    -0.242523
   161     0.074841
   162     0.038005
   163    -0.000422
   164     0.011399
   165    -0.165482
   166    -0.009261
   167    -0.040509
   168     0.156921
   169     0.069928
   170     0.004055
   171     0.040103
   172     0.076894
   173     0.126031
   174    -0.051793
   175     0.106444
   176     0.038697
   177     0.070067
   178     0.010744
   179     0.023641
   180    -0.013889
   181     0.025524
   182    -0.098479
   183     0.153981
   184    -0.043810
   185    -0.156877
   186     0.097212
   187    -0.039458
   188     0.024065
   189     0.249665
   190    -0.208487
   191    -0.017112
   192     0.034511
   193    -0.082558
   194    -0.100035
   195    -0.058879
   196     0.156399
Sym=   100a
Ene=   -0.108065E-02
Spin= Alpha
Occup= 0.000139
     1     0.115377
     2     0.073498
     3     0.083032
     4    -0.067654
     5     0.108149
     6     0.077929
     7    -0.021232
     8     0.998356
     9     0.045545
    10     0.150720
    11     0.032747
    12     0.238857
    13     0.688000
    14     0.013285
    15    -0.328805
    16    -0.034903
    17    -0.434956
    18     0.141423
    19     0.035145
    20     0.035999
    21     0.045168
    22     0.183819
    23    -0.326808
    24    -0.041418
    25     0.007595
    26    -0.044677
    27    -0.454519
    28     0.298454
    29     0.037314
    30    -0.282014
    31    -0.102780
    32     0.029157
    33     0.242443
    34     0.063172
    35    -0.014762
    36     0.001159
    37     0.017880
    38    -0.054584
    39     0.001013
    40     0.003309
    41    -0.002649
    42     0.008557
    43     0.015462
    44    -0.010882
    45     0.038633
    46    -0.030399
    47     0.013152
    48    -0.092245
    49     0.005876
    50     0.011436
    51     0.077022
    52    -0.000092
    53     0.009523
    54     0.003378
    55    -0.017415
    56     0.023147
    57    -0.000813
    58     0.045733
    59     0.005202
    60    -0.103205
    61    -0.093716
    62    -0.838070
    63     0.032275
    64     0.006489
    65     0.060594
    66     0.229894
    67    -0.077007
    68     0.264393
    69     0.191694
    70     0.378825
    71     0.405327
    72     0.112668
    73    -0.123854
    74    -0.001016
    75    -0.000249
    76    -0.006400
    77    -0.022206
    78    -0.008338
    79     0.014567
    80     0.012039
    81     0.000166
    82    -0.100791
    83    -0.090225
    84     0.010070
    85    -0.034511
    86     0.018492
    87    -0.002404
    88    -0.008842
    89     0.057094
    90     0.048705
    91     0.064194
    92     0.027876
    93     0.039795
    94    -0.037342
    95    -0.037412
    96    -0.304577
    97    -0.001466
    98    -0.020543
    99     0.025988
   100    -0.044080
   101    -0.106415
   102     0.044823
   103     0.120389
   104     0.095077
   105     0.129809
   106    -0.035311
   107     0.001229
   108     0.004659
   109    -0.062384
   110    -0.182955
   111     0.059194
   112    -0.299857
   113    -0.866374
   114    -0.357111
   115     0.081810
   116    -0.040607
   117    -0.060882
   118     0.100595
   119     0.102010
   120     0.284712
   121    -0.288761
   122     0.105684
   123     0.497127
   124     0.008668
   125     0.067181
   126    -0.217948
   127    -0.013776
   128     0.025503
   129    -0.025301
   130     0.032163
   131     0.038673
   132     0.265995
   133     0.011502
   134    -0.001284
   135    -0.063539
   136    -0.021197
   137    -0.011054
   138    -0.049634
   139     0.004323
   140     0.064049
   141     0.322915
   142     0.016155
   143    -0.023070
   144    -0.031747
   145    -0.014323
   146     0.080840
   147     0.156659
   148     0.164743
   149    -0.115630
   150    -0.001282
   151     0.019132
   152    -0.229384
   153    -0.120219
   154     0.096990
   155     0.035795
   156    -0.142494
   157     0.165399
   158     0.002720
   159     0.031927
   160     0.123694
   161    -0.128299
   162    -0.027212
   163     0.002406
   164     0.004245
   165     0.113800
   166    -0.006078
   167    -0.013457
   168    -0.163885
   169    -0.137427
   170    -0.049152
   171    -0.033337
   172    -0.272704
   173     0.160804
   174     0.080010
   175     0.027334
   176    -0.018391
   177    -0.076868
   178    -0.015098
   179    -0.010473
   180     0.002123
   181    -0.011993
   182     0.064629
   183     0.021704
   184     0.171793
   185     0.006902
   186     0.033085
   187     0.079865
   188    -0.143426
   189    -0.131948
   190    -0.296604
   191     0.099220
   192    -0.086699
   193     0.149476
   194     0.018948
   195    -0.021721
   196    -0.228639
Sym=   101a
Ene=   -0.914194E-03
Spin= Alpha
Occup= 0.000122
     1     0.460832
     2    -0.274501
     3     0.070021
     4    -0.064901
     5    -0.173815
     6     0.036080
     7    -0.021838
     8     0.441731
     9     0.026259
    10     0.018024
    11     0.081487
    12     0.047862
    13     0.087258
    14     0.268173
    15    -0.205023
    16    -0.070455
    17    -0.121915
    18     0.023333
    19     0.023486
    20     0.017079
    21     0.014636
    22    -0.006608
    23     0.215776
    24     0.013542
    25    -0.033204
    26     0.051679
    27     0.047458
    28    -0.198319
    29     0.089407
    30    -0.119478
    31     0.065520
    32    -0.094790
    33    -0.049676
    34     0.024769
    35     0.003974
    36     0.004398
    37     0.060866
    38    -0.078395
    39    -0.273110
    40    -0.013087
    41     0.018275
    42    -0.000966
    43    -0.057462
    44     0.072634
    45    -0.018604
    46     0.144866
    47    -0.096448
    48     0.292906
    49     0.224855
    50     0.200221
    51    -0.172432
    52    -0.032731
    53    -0.061082
    54     0.002314
    55     0.316171
    56    -0.184650
    57    -0.061643
    58    -0.025798
    59    -0.231863
    60    -0.119388
    61    -0.015188
    62    -1.311787
    63     0.053291
    64     0.036692
    65    -0.028180
    66     0.208162
    67     0.189037
    68    -0.103486
    69     0.392195
    70     0.449232
    71     0.372686
    72     0.028696
    73    -0.144296
    74     0.121420
    75    -0.001339
    76    -0.000668
    77    -0.067898
    78     0.026794
    79    -0.010529
    80    -0.010295
    81     0.006295
    82     0.063908
    83     0.122454
    84    -0.010087
    85    -0.001791
    86    -0.039257
    87    -0.087089
    88     0.027708
    89    -0.139452
    90    -0.199284
    91    -0.046632
    92    -0.107022
    93    -0.001702
    94     0.066291
    95     0.045881
    96     0.591765
    97     0.014710
    98     0.044974
    99    -0.007850
   100     0.091155
   101     0.177098
   102    -0.023089
   103    -0.211433
   104    -0.212579
   105    -0.222857
   106     0.056325
   107     0.027869
   108    -0.010640
   109     0.029385
   110     0.075906
   111     0.263406
   112    -0.386341
   113    -0.021960
   114     0.034950
   115     0.011184
   116    -0.067331
   117     0.036342
   118    -0.082509
   119     0.001305
   120    -0.017059
   121    -0.022127
   122     0.260904
   123     0.039147
   124     0.000861
   125    -0.075399
   126     0.359609
   127     0.078335
   128    -0.056603
   129    -0.018498
   130    -0.218674
   131     0.015146
   132    -0.198080
   133    -0.024569
   134    -0.056579
   135     0.037219
   136     0.024818
   137     0.021764
   138     0.069964
   139    -0.003734
   140    -0.080523
   141    -0.424686
   142    -0.215068
   143     0.040949
   144    -0.007717
   145     0.063408
   146    -0.203004
   147     0.049594
   148    -0.446601
   149     0.160489
   150     0.025845
   151     0.112757
   152     0.390239
   153     0.245331
   154     0.069211
   155    -0.018840
   156     0.233107
   157    -0.295273
   158     0.004087
   159     0.065431
   160     0.296013
   161    -0.155223
   162     0.016003
   163     0.009758
   164    -0.032045
   165    -0.057050
   166    -0.037799
   167     0.136606
   168    -0.083908
   169    -0.114694
   170    -0.017553
   171     0.197571
   172    -0.423423
   173    -0.248063
   174    -0.201314
   175     0.083950
   176    -0.115973
   177     0.363028
   178     0.038772
   179     0.064352
   180     0.013781
   181     0.196129
   182    -0.350580
   183     0.390092
   184    -0.114169
   185    -0.211763
   186     0.081115
   187    -0.134888
   188     0.071778
   189    -0.065685
   190    -0.010528
   191    -0.226864
   192    -0.199977
   193     0.247924
   194     0.224512
   195    -0.011400
   196     0.207312
Sym=   102a
Ene=   -0.930622E-03
Spin= Alpha
Occup= 0.000126
     1     0.367534
     2    -0.323178
     3     0.094121
     4    -0.112311
     5    -0.103360
     6     0.054104
     7     0.091336
     8     0.294163
     9    -0.016231
    10     0.006517
    11    -0.048721
    12    -0.014610
    13    -0.013746
    14    -0.129015
    15    -0.131180
    16    -0.240183
    17    -0.116106
    18     0.036992
    19    -0.067504
    20    -0.050756
    21    -0.007533
    22     0.025769
    23    -0.201082
    24    -0.032293
    25     0.049845
    26    -0.022961
    27    -0.093260
    28     0.218049
    29    -0.071925
    30     0.063437
    31    -0.103136
    32     0.133292
    33     0.065367
    34    -0.046282
    35     0.021113
    36     0.001197
    37     0.010623
    38     0.038585
    39    -0.191845
    40    -0.007810
    41     0.009499
    42     0.009354
    43    -0.037098
    44     0.037710
    45     0.012669
    46     0.132508
    47    -0.060948
    48     0.307668
    49     0.159641
    50     0.166305
    51    -0.338430
    52    -0.065778
    53    -0.046180
    54    -0.041668
    55     0.180858
    56    -0.146393
    57    -0.176886
    58    -0.052758
    59    -0.248300
    60     0.055497
    61     0.000466
    62     0.648293
    63    -0.018695
    64     0.010112
    65     0.030854
    66    -0.089409
    67    -0.037819
    68     0.083272
    69    -0.205287
    70    -0.248811
    71    -0.114504
    72     0.004560
    73     0.086714
    74    -0.023598
    75    -0.006937
    76    -0.086187
    77    -0.235691
    78     0.080530
    79    -0.010436
    80     0.005981
    81     0.044666
    82     0.074698
    83    -0.005734
    84    -0.250698
    85    -0.030395
    86    -0.034967
    87    -0.111814
    88     0.136408
    89     0.007123
    90     0.205137
    91     0.068439
    92    -0.085475
    93    -0.127985
    94     0.037099
    95     0.045063
    96     0.244471
    97     0.012671
    98     0.013007
    99    -0.029335
   100     0.045785
   101     0.020885
   102    -0.072876
   103    -0.081488
   104    -0.151955
   105    -0.118258
   106     0.020625
   107     0.005691
   108    -0.018557
   109    -0.075861
   110    -0.376092
   111    -0.045576
   112     0.236591
   113    -0.088476
   114    -0.156320
   115    -0.030494
   116     0.013197
   117     0.177804
   118     0.167753
   119     0.025232
   120     0.213169
   121     0.087651
   122    -0.226873
   123    -0.023399
   124     0.008461
   125     0.109143
   126    -0.423765
   127    -0.050716
   128    -0.016593
   129    -0.012087
   130     0.245972
   131     0.135651
   132     0.097600
   133    -0.008887
   134     0.011942
   135    -0.055583
   136    -0.032701
   137     0.018806
   138    -0.179085
   139    -0.003527
   140    -0.066286
   141    -0.181046
   142    -0.146379
   143     0.038460
   144     0.023375
   145    -0.057589
   146    -0.177755
   147    -0.069206
   148     0.384551
   149     0.192953
   150     0.019332
   151    -0.109851
   152     0.132524
   153    -0.022628
   154     0.326363
   155     0.114774
   156    -0.216256
   157     0.142274
   158     0.002282
   159     0.033318
   160     0.133633
   161     0.050519
   162     0.028441
   163    -0.007900
   164    -0.010394
   165    -0.119700
   166     0.025746
   167     0.038129
   168     0.098197
   169    -0.022319
   170    -0.023430
   171     0.157670
   172    -0.280911
   173    -0.101547
   174    -0.125137
   175    -0.110672
   176    -0.108046
   177     0.416359
   178     0.013800
   179     0.053941
   180     0.016826
   181     0.220283
   182    -0.291422
   183     0.282324
   184    -0.091439
   185    -0.241643
   186    -0.114157
   187     0.185259
   188    -0.041616
   189    -0.001855
   190     0.029031
   191     0.345423
   192     0.146475
   193    -0.225428
   194    -0.148203
   195     0.281568
   196    -0.123407
Sym=   103a
Ene=   -0.608856E-03
Spin= Alpha
Occup= 0.000062
     1    -0.320030
     2    -0.015422
     3     0.037216
     4    -0.023954
     5     0.024611
     6     0.015885
     7    -0.030866
     8     0.284142
     9    -0.011278
    10     0.019770
    11    -0.030564
    12     0.021561
    13     0.171324
    14    -0.093453
    15    -0.073395
    16    -0.018805
    17    -0.085667
    18     0.062426
    19    -0.028764
    20    -0.049054
    21     0.008703
    22    -0.092626
    23     0.535614
    24     0.016256
    25    -0.017488
    26    -0.040178
    27     0.200797
    28    -0.224312
    29    -0.194349
    30    -0.040648
    31    -0.037135
    32    -0.070182
    33    -0.075491
    34    -0.049123
    35     0.074834
    36    -0.000434
    37    -0.008653
    38     0.011360
    39     0.091853
    40    -0.005354
    41     0.039594
    42    -0.048274
    43    -0.014941
    44     0.176779
    45    -0.218336
    46     0.029202
    47    -0.309971
    48     0.428790
    49    -0.158206
    50     0.205839
    51    -0.113500
    52     0.039761
    53    -0.054690
    54    -0.150921
    55     0.377376
    56    -0.105418
    57     0.086688
    58    -0.059662
    59    -0.137089
    60     0.010750
    61    -0.068503
    62     0.368283
    63    -0.032529
    64     0.013407
    65     0.012093
    66    -0.175801
    67    -0.003499
    68     0.009078
    69    -0.040337
    70    -0.098832
    71    -0.007866
    72     0.003539
    73     0.072702
    74    -0.033840
    75     0.008112
    76     0.140574
    77     0.228258
    78    -0.310545
    79     0.043477
    80     0.005863
    81    -0.063613
    82    -0.392081
    83    -0.032078
    84     0.484895
    85     0.064047
    86    -0.091674
    87    -0.100842
    88    -0.910335
    89     0.363693
    90    -0.716457
    91     0.055277
    92     0.322909
    93     0.007625
    94     0.020788
    95     0.042603
    96     0.044506
    97    -0.059594
    98     0.093365
    99     0.062693
   100    -0.268856
   101     0.171062
   102     0.152964
   103    -0.196700
   104     0.026921
   105    -0.030766
   106    -0.117253
   107    -0.006879
   108     0.031533
   109     0.080413
   110     0.198881
   111    -0.312095
   112    -0.148327
   113     0.077711
   114     0.268327
   115     0.030819
   116     0.066309
   117    -0.118812
   118    -0.316877
   119    -0.383102
   120    -0.203853
   121     0.051947
   122    -0.071845
   123    -0.010128
   124     0.041696
   125    -0.081884
   126     1.036790
   127     0.021015
   128    -0.030272
   129    -0.060008
   130    -0.512118
   131     0.110793
   132     0.753900
   133    -0.127781
   134    -0.375498
   135     0.097737
   136     0.008566
   137    -0.210451
   138    -0.021467
   139     0.008061
   140     0.139994
   141     0.642701
   142     0.054456
   143    -0.056551
   144     0.024312
   145    -0.003739
   146     0.314388
   147    -0.066587
   148     0.099233
   149    -0.125119
   150     0.038922
   151    -0.030444
   152    -0.293432
   153    -0.335078
   154    -0.187906
   155     0.072196
   156    -0.022781
   157     0.043455
   158    -0.007054
   159    -0.084544
   160    -0.425173
   161     0.434848
   162     0.039637
   163     0.020204
   164     0.002844
   165    -0.205076
   166    -0.110481
   167    -0.014673
   168     0.394083
   169     0.305301
   170     0.010174
   171     0.023336
   172     0.289643
   173     0.047726
   174     0.077630
   175     0.002175
   176     0.152334
   177     0.230480
   178     0.037190
   179    -0.068813
   180    -0.155555
   181     0.025264
   182     0.012054
   183    -0.228269
   184    -0.063742
   185    -0.034714
   186    -0.104774
   187     0.002343
   188    -0.025361
   189     0.064292
   190    -0.007766
   191    -0.093513
   192    -0.168465
   193     0.171264
   194     0.239164
   195    -0.050064
   196    -0.224706
Sym=   104a
Ene=   -0.302954E-03
Spin= Alpha
Occup= 0.000015
     1     0.239730
     2    -0.113187
     3    -0.201746
     4     0.018072
     5    -0.059222
     6    -0.018689
     7     0.073301
     8    -0.471012
     9    -0.005004
    10    -0.038376
    11     0.034003
    12    -0.091012
    13    -0.276051
    14     0.099784
    15     0.109958
    16     0.015145
    17     0.112253
    18    -0.074876
    19     0.028891
    20     0.062999
    21    -0.015110
    22     0.109554
    23    -0.682057
    24    -0.020266
    25     0.030374
    26     0.051592
    27    -0.259145
    28     0.311447
    29     0.258748
    30     0.067667
    31     0.055560
    32     0.103408
    33     0.092561
    34     0.061540
    35    -0.090885
    36     0.002321
    37     0.029124
    38    -0.013161
    39    -0.174921
    40     0.016722
    41     0.017830
    42     0.009932
    43     0.085641
    44     0.073525
    45     0.035105
    46    -0.165329
    47    -0.071167
    48     0.084367
    49    -0.097469
    50     0.187313
    51     0.009278
    52     0.108519
    53    -0.081119
    54    -0.064947
    55     0.242816
    56    -0.066768
    57    -0.029231
    58     0.041582
    59    -0.259498
    60    -0.031532
    61     0.107149
    62    -0.737380
    63     0.016780
    64    -0.003307
    65    -0.024847
    66     0.158806
    67     0.051251
    68    -0.072414
    69     0.124242
    70     0.212286
    71     0.066075
    72     0.014029
    73    -0.111416
    74     0.044436
    75    -0.002626
    76    -0.035577
    77    -0.249430
    78    -0.112634
    79     0.059499
    80     0.015752
    81     0.000836
    82    -0.442968
    83    -0.124447
    84     0.101831
    85    -0.058127
    86     0.001165
    87     0.004324
    88    -0.442225
    89     0.707780
    90    -0.210561
    91     0.142362
    92     0.173805
    93     0.001755
    94     0.013612
    95     0.076916
    96    -0.199419
    97    -0.057931
    98     0.041563
    99    -0.001683
   100    -0.329431
   101    -0.083432
   102    -0.028629
   103    -0.137459
   104    -0.016998
   105     0.035428
   106    -0.149866
   107    -0.014324
   108     0.006009
   109    -0.105987
   110    -0.202118
   111     0.246691
   112     0.217148
   113    -0.054460
   114    -0.352515
   115    -0.008597
   116    -0.044150
   117     0.007251
   118     0.448180
   119     0.523301
   120     0.265502
   121    -0.039996
   122     0.090516
   123     0.025522
   124    -0.015306
   125     0.026264
   126    -0.279846
   127    -0.012846
   128     0.005672
   129    -0.117918
   130    -0.197733
   131     0.177099
   132     1.068766
   133     0.149019
   134     0.002903
   135     0.038330
   136     0.004487
   137    -0.125758
   138    -0.105768
   139    -0.011065
   140    -0.182400
   141    -0.397938
   142     0.051422
   143     0.033169
   144    -0.094494
   145    -0.034263
   146    -0.192802
   147     0.600133
   148     0.427843
   149    -0.050890
   150     0.002979
   151     0.086268
   152     0.207400
   153     0.468702
   154     0.608316
   155    -0.151371
   156     0.024681
   157     0.137565
   158     0.002592
   159     0.031076
   160     0.188266
   161    -0.251482
   162    -0.022493
   163     0.012269
   164     0.004997
   165     0.110796
   166    -0.037420
   167    -0.016690
   168    -0.247434
   169    -0.063886
   170     0.023018
   171    -0.020664
   172    -0.134994
   173     0.003304
   174    -0.076691
   175    -0.062315
   176    -0.145644
   177     0.126147
   178    -0.009088
   179    -0.092710
   180    -0.041757
   181     0.163446
   182     0.046467
   183     0.153573
   184     0.058583
   185     0.309157
   186     0.144254
   187    -0.028544
   188    -0.002879
   189    -0.064407
   190     0.016039
   191     0.121250
   192     0.093780
   193    -0.029383
   194    -0.437448
   195    -0.070794
   196     0.148838
Sym=   105a
Ene=   -0.258858E-03
Spin= Alpha
Occup= 0.000012
     1    -0.005621
     2    -0.242456
     3     0.091123
     4    -0.397255
     5     0.021802
     6    -0.042785
     7     0.177070
     8    -1.077856
     9    -0.012925
    10    -0.013991
    11    -0.063313
    12    -0.089004
    13    -0.153613
    14    -0.295931
    15     0.323579
    16     0.147263
    17     0.124860
    18    -0.063665
    19     0.058767
    20     0.142777
    21    -0.004564
    22     0.020830
    23    -0.109573
    24    -0.031812
    25     0.007076
    26     0.028863
    27    -0.136943
    28     0.063358
    29     0.066582
    30    -0.012143
    31     0.011711
    32     0.063471
    33     0.033214
    34     0.000877
    35     0.009168
    36     0.008104
    37     0.119369
    38    -0.126501
    39    -0.558354
    40     0.016344
    41    -0.005148
    42     0.058317
    43     0.080253
    44    -0.039003
    45     0.242278
    46    -0.098767
    47     0.125786
    48    -0.019363
    49     0.308214
    50     0.272104
    51    -0.038672
    52     0.066322
    53    -0.106811
    54    -0.002271
    55    -0.306055
    56     0.024075
    57     0.076779
    58    -0.042998
    59     0.132527
    60    -0.013242
    61     0.002386
    62    -0.146267
    63     0.000617
    64    -0.030579
    65     0.026745
    66     0.090958
    67    -0.126156
    68     0.140054
    69     0.021431
    70     0.066071
    71     0.056418
    72     0.043106
    73    -0.020742
    74     0.027200
    75    -0.002167
    76    -0.046896
    77     0.027538
    78    -0.044018
    79     0.006173
    80    -0.000154
    81     0.014282
    82    -0.006278
    83    -0.010829
    84    -0.134285
    85     0.087367
    86     0.060574
    87     0.262064
    88     0.185641
    89     0.053976
    90     0.333582
    91    -0.010882
    92     0.101199
    93     0.021896
    94    -0.028874
    95     0.013707
    96    -0.345921
    97    -0.010860
    98    -0.017837
    99     0.032378
   100    -0.037385
   101    -0.064107
   102     0.098200
   103     0.139231
   104     0.106535
   105     0.090984
   106    -0.016227
   107    -0.003160
   108     0.012007
   109    -0.047110
   110     0.010237
   111    -0.119128
   112     0.096375
   113     0.146160
   114    -0.149029
   115     0.110066
   116     0.105650
   117    -0.263739
   118     0.225985
   119     0.275145
   120     0.163248
   121     0.217045
   122     0.014251
   123     0.100107
   124    -0.022699
   125    -0.004625
   126    -0.257142
   127    -0.021623
   128    -0.025221
   129     0.029809
   130     0.163987
   131     0.032869
   132    -0.215671
   133     0.024488
   134     0.124982
   135     0.094332
   136    -0.017644
   137     0.038181
   138     0.005283
   139     0.002117
   140     0.031856
   141    -0.072452
   142     0.136541
   143    -0.036032
   144     0.031318
   145     0.008762
   146     0.226201
   147    -0.179781
   148    -0.045353
   149    -0.278604
   150     0.085881
   151     0.091679
   152     0.012704
   153    -0.084284
   154    -0.099829
   155    -0.043457
   156    -0.074350
   157     0.002949
   158    -0.013075
   159    -0.162867
   160    -0.731111
   161     0.654239
   162     0.105894
   163     0.038286
   164     0.079028
   165    -0.499395
   166    -0.231263
   167    -0.353393
   168     0.645179
   169     0.534853
   170     0.094366
   171    -0.141527
   172     0.218910
   173     0.578480
   174     0.021146
   175    -0.268644
   176    -0.348594
   177     0.282933
   178    -0.072514
   179     0.096224
   180     0.026624
   181     0.457321
   182     0.098017
   183    -0.309220
   184    -0.437703
   185     0.147764
   186     0.079556
   187    -0.090700
   188    -0.106606
   189     0.013963
   190     0.058285
   191     0.005937
   192    -0.234990
   193     0.312026
   194     0.174259
   195    -0.206788
   196    -0.133765
Sym=   106a
Ene=   -0.218218E-03
Spin= Alpha
Occup= 0.000009
     1     0.235454
     2    -0.203368
     3    -0.005473
     4    -0.483576
     5    -0.174395
     6    -0.003410
     7     0.035762
     8    -0.146780
     9    -0.048076
    10     0.052312
    11    -0.055884
    12    -0.182510
    13     0.237296
    14    -0.240611
    15    -0.077082
    16     0.128658
    17     0.007023
    18    -0.098015
    19     0.042408
    20     0.041833
    21     0.040513
    22    -0.041260
    23     0.471571
    24     0.049572
    25    -0.096606
    26     0.013485
    27     0.005764
    28    -0.220358
    29     0.281916
    30    -0.190524
    31    -0.041070
    32    -0.290825
    33    -0.018661
    34     0.142510
    35    -0.124771
    36    -0.007420
    37    -0.118396
    38     0.067079
    39     0.799853
    40    -0.005809
    41     0.009621
    42    -0.018991
    43    -0.034850
    44     0.070269
    45    -0.062266
    46     0.030824
    47    -0.227383
    48    -0.279258
    49    -0.347286
    50    -0.310843
    51     0.039161
    52    -0.012693
    53     0.081137
    54     0.122057
    55     0.289409
    56    -0.145272
    57    -0.159391
    58     0.116057
    59    -0.163400
    60     0.014342
    61    -0.048486
    62     0.347223
    63    -0.023096
    64     0.047417
    65    -0.010771
    66    -0.150061
    67     0.192142
    68    -0.059333
    69    -0.033188
    70    -0.096031
    71    -0.060946
    72    -0.111857
    73    -0.005515
    74    -0.092189
    75    -0.000253
    76     0.002916
    77     0.065678
    78    -0.377622
    79    -0.004151
    80     0.012403
    81     0.007922
    82     0.006541
    83    -0.080790
    84    -0.065024
    85     0.117726
    86     0.002393
    87     0.170475
    88     0.038741
    89     0.101514
    90    -0.302665
    91    -0.004473
    92    -0.219741
    93    -0.043242
    94     0.001164
    95    -0.005567
    96     0.050625
    97    -0.000709
    98     0.013486
    99     0.002631
   100    -0.028273
   101     0.020580
   102    -0.020199
   103    -0.020892
   104    -0.006589
   105     0.007169
   106    -0.012235
   107    -0.010665
   108    -0.049640
   109     0.013689
   110    -0.100443
   111    -0.180653
   112     0.154205
   113     0.025964
   114    -0.295930
   115     0.122545
   116     0.095906
   117    -0.454055
   118    -0.212853
   119     0.477405
   120    -0.687187
   121    -0.519521
   122     0.231074
   123    -0.169983
   124     0.011044
   125    -0.031740
   126     0.288011
   127     0.035807
   128     0.024548
   129     0.009744
   130    -0.134575
   131    -0.113823
   132    -0.157463
   133     0.001432
   134    -0.071922
   135    -0.074000
   136     0.016123
   137     0.029239
   138     0.040603
   139     0.001010
   140     0.020602
   141    -0.082485
   142     0.263855
   143    -0.019894
   144     0.004528
   145     0.013439
   146     0.122161
   147    -0.049294
   148    -0.158099
   149    -0.191437
   150     0.039272
   151     0.029149
   152    -0.059520
   153    -0.022913
   154    -0.117516
   155     0.070909
   156     0.058367
   157    -0.015185
   158    -0.008128
   159    -0.100568
   160    -0.451687
   161     0.424512
   162     0.038325
   163     0.062031
   164     0.045628
   165    -0.200194
   166    -0.320540
   167    -0.220253
   168     0.372991
   169     0.352719
   170     0.003075
   171     0.158026
   172    -0.130907
   173     0.331994
   174    -0.084357
   175    -0.141724
   176    -0.313400
   177    -0.341331
   178    -0.000855
   179    -0.107371
   180     0.156876
   181    -0.365373
   182    -0.113807
   183    -0.163574
   184    -0.039043
   185     0.061057
   186     0.023094
   187     0.744005
   188    -0.519478
   189    -0.103585
   190     0.003490
   191     0.488812
   192     0.035753
   193     0.018006
   194     0.045379
   195     0.014586
   196    -0.046659
Sym=   107a
Ene=   -0.217435E-03
Spin= Alpha
Occup= 0.000009
     1    -0.088159
     2    -0.051485
     3    -0.184688
     4    -0.143022
     5    -0.115892
     6    -0.009286
     7    -0.049961
     8     0.116260
     9    -0.049811
    10    -0.022702
    11    -0.034124
    12    -0.041838
    13     0.173731
    14    -0.188440
    15    -0.020294
    16     0.104766
    17     0.016436
    18     0.090690
    19    -0.090386
    20    -0.093071
    21     0.004435
    22     0.042018
    23    -0.205566
    24     0.074953
    25     0.021476
    26     0.031787
    27     0.159442
    28     0.300309
    29     0.269806
    30     0.196911
    31    -0.134518
    32    -0.108721
    33    -0.001653
    34     0.018749
    35    -0.165999
    36     0.005595
    37     0.088562
    38    -0.122796
    39    -0.347926
    40     0.003942
    41    -0.001712
    42     0.014117
    43     0.018948
    44    -0.015077
    45     0.043866
    46     0.042473
    47    -0.000198
    48     0.210184
    49     0.260647
    50     0.294666
    51    -0.109718
    52    -0.065485
    53    -0.037897
    54    -0.125339
    55    -0.304899
    56     0.067302
    57     0.186591
    58    -0.051848
    59     0.173234
    60     0.001372
    61     0.085581
    62    -0.291710
    63     0.016783
    64     0.028023
    65     0.023473
    66     0.252046
    67     0.097117
    68     0.274581
    69    -0.048140
    70     0.132797
    71    -0.059765
    72    -0.117087
    73    -0.148055
    74    -0.102792
    75     0.001869
    76     0.027222
    77     0.117084
    78    -0.037578
    79     0.000803
    80    -0.004902
    81    -0.015735
    82    -0.006884
    83     0.022887
    84     0.099722
    85     0.059845
    86     0.074490
    87     0.102836
    88    -0.057779
    89    -0.229511
    90     0.213592
    91     0.173348
    92     0.239583
    93    -0.158994
    94    -0.013160
    95     0.001318
    96    -0.125995
    97     0.003775
    98    -0.011171
    99     0.019819
   100     0.040043
   101    -0.027590
   102     0.061952
   103     0.106007
   104     0.032782
   105     0.015831
   106     0.007157
   107    -0.013030
   108     0.003318
   109    -0.024926
   110     0.060192
   111    -0.141020
   112    -0.084784
   113    -0.192869
   114    -0.168787
   115     0.018056
   116     0.015451
   117    -0.181016
   118     0.600496
   119    -0.262292
   120     0.022684
   121    -0.600925
   122     0.087751
   123    -0.284112
   124     0.000561
   125    -0.066454
   126     0.337316
   127    -0.016578
   128     0.059875
   129     0.011581
   130    -0.000644
   131    -0.305123
   132    -0.117959
   133    -0.098127
   134     0.008039
   135     0.060704
   136     0.041131
   137     0.006565
   138     0.023178
   139     0.004391
   140     0.094347
   141     0.218110
   142     0.168906
   143    -0.049138
   144    -0.015024
   145     0.022744
   146     0.247302
   147    -0.011589
   148    -0.189007
   149    -0.226749
   150    -0.003497
   151     0.002193
   152    -0.273415
   153    -0.104346
   154    -0.430233
   155     0.105923
   156     0.060944
   157    -0.029732
   158    -0.006511
   159    -0.095373
   160    -0.489806
   161     0.351235
   162    -0.030291
   163     0.060912
   164     0.026783
   165     0.071499
   166    -0.306260
   167    -0.136080
   168     0.285231
   169     0.385764
   170     0.086776
   171     0.563650
   172    -0.017365
   173    -0.006370
   174    -0.039318
   175    -0.087440
   176     0.007633
   177     0.308461
   178    -0.063505
   179     0.107892
   180    -0.138771
   181     0.275537
   182    -0.334059
   183    -0.066013
   184     0.401296
   185    -0.091916
   186     0.126236
   187    -0.005973
   188    -0.067191
   189    -0.114657
   190    -0.104990
   191    -0.004386
   192     0.166501
   193    -0.076989
   194     0.015098
   195    -0.058746
   196    -0.071313
Sym=   108a
Ene=   -0.223229E-03
Spin= Alpha
Occup= 0.000010
     1     0.193226
     2    -0.127093
     3    -0.159393
     4    -0.388893
     5    -0.127216
     6    -0.008576
     7     0.020550
     8    -0.127456
     9     0.017332
    10    -0.032876
    11    -0.012325
    12     0.172569
    13    -0.002684
    14    -0.134919
    15     0.190996
    16    -0.024451
    17    -0.040072
    18     0.150812
    19    -0.068020
    20     0.041040
    21    -0.027564
    22    -0.004132
    23    -0.142707
    24    -0.016212
    25     0.081148
    26     0.015522
    27     0.150176
    28     0.174475
    29    -0.169755
    30     0.210033
    31    -0.061610
    32     0.187933
    33    -0.022731
    34    -0.158772
    35     0.059933
    36    -0.008975
    37    -0.139959
    38     0.074978
    39     0.963452
    40    -0.012715
    41     0.006696
    42    -0.035750
    43    -0.068439
    44     0.056977
    45    -0.130262
    46     0.086070
    47    -0.212526
    48    -0.275345
    49    -0.380356
    50    -0.385508
    51     0.059670
    52    -0.040285
    53     0.113232
    54     0.088669
    55     0.201294
    56    -0.046761
    57    -0.103816
    58     0.054808
    59    -0.066280
    60    -0.003781
    61     0.061943
    62    -0.277449
    63    -0.003791
    64    -0.053453
    65     0.020743
    66     0.145867
    67    -0.191065
    68     0.182628
    69    -0.027119
    70     0.086479
    71     0.002340
    72     0.094398
    73    -0.082552
    74     0.074956
    75     0.001754
    76     0.036634
    77     0.079747
    78    -0.280647
    79    -0.013816
    80     0.004926
    81    -0.009690
    82     0.072887
    83    -0.018456
    84     0.056874
    85     0.066897
    86    -0.082017
    87    -0.012526
    88    -0.082380
    89    -0.090458
    90    -0.250058
    91    -0.117194
    92    -0.101625
    93     0.053828
    94     0.005283
    95    -0.031057
    96     0.198147
    97     0.005572
    98     0.021335
    99     0.013111
   100     0.043081
   101     0.124103
   102     0.040530
   103    -0.046864
   104    -0.001147
   105    -0.029011
   106     0.025435
   107     0.009279
   108    -0.007318
   109    -0.018255
   110     0.033887
   111    -0.062222
   112    -0.210532
   113     0.007022
   114     0.167169
   115    -0.031635
   116     0.034659
   117     0.100711
   118     0.487265
   119    -0.648958
   120     0.526153
   121     0.365693
   122    -0.102115
   123     0.089801
   124     0.014092
   125    -0.025226
   126     0.304361
   127     0.026751
   128    -0.028019
   129     0.006620
   130    -0.136854
   131     0.074267
   132    -0.066630
   133    -0.020014
   134    -0.106277
   135    -0.038649
   136    -0.005475
   137     0.007027
   138     0.043625
   139     0.000665
   140     0.018472
   141     0.010714
   142    -0.015264
   143    -0.019893
   144    -0.002836
   145     0.003877
   146     0.102390
   147    -0.029582
   148    -0.021644
   149     0.032971
   150    -0.009918
   151     0.025836
   152    -0.148961
   153    -0.042185
   154    -0.054183
   155     0.082817
   156     0.026518
   157    -0.094827
   158    -0.006164
   159    -0.080096
   160    -0.314438
   161     0.121569
   162     0.014147
   163     0.053577
   164     0.043886
   165    -0.094727
   166    -0.268260
   167    -0.204179
   168     0.203346
   169     0.214296
   170     0.080330
   171     0.312437
   172    -0.149119
   173     0.157017
   174     0.025060
   175    -0.229310
   176    -0.185685
   177    -0.392158
   178    -0.049145
   179    -0.106447
   180     0.085686
   181    -0.486060
   182    -0.162731
   183     0.087610
   184     0.065046
   185    -0.041247
   186     0.265825
   187    -0.525364
   188     0.253635
   189     0.009075
   190     0.002229
   191    -0.339426
   192     0.141650
   193    -0.105190
   194    -0.028494
   195    -0.003519
   196     0.010552
Sym=   109a
Ene=   -0.685557E-04
Spin= Alpha
Occup= 0.000001
     1     0.184388
     2    -0.067738
     3     0.369486
     4    -0.031651
     5    -0.349812
     6    -0.017290
     7    -0.034031
     8    -0.070060
     9     0.079157
    10     0.026483
    11    -0.004696
    12     0.287080
    13     0.143759
    14    -0.034135
    15     0.062607
    16     0.034441
    17     0.079982
    18     0.035623
    19     0.040190
    20     0.024554
    21     0.000317
    22    -0.017194
    23     0.108226
    24     0.013594
    25     0.015076
    26     0.002112
    27     0.141813
    28    -0.004357
    29    -0.033270
    30     0.048632
    31    -0.050111
    32    -0.004262
    33    -0.043884
    34    -0.041500
    35    -0.013804
    36     0.000533
    37     0.015398
    38    -0.102089
    39     0.172690
    40    -0.006545
    41    -0.005589
    42    -0.000455
    43    -0.050446
    44    -0.037441
    45     0.016969
    46     0.159563
    47     0.062683
    48    -0.226647
    49    -0.046251
    50    -0.027616
    51     0.207414
    52    -0.077635
    53    -0.167083
    54    -0.111760
    55    -0.009489
    56    -0.015363
    57     0.095194
    58    -0.204837
    59    -0.088906
    60     0.011597
    61    -0.005147
    62     0.141605
    63    -0.000113
    64    -0.012184
    65     0.018431
    66     0.055466
    67    -0.068250
    68     0.143649
    69    -0.039367
    70    -0.044456
    71    -0.062236
    72     0.008077
    73    -0.028879
    74     0.001107
    75    -0.000855
    76    -0.011201
    77    -0.053807
    78     0.005190
    79     0.002278
    80    -0.011674
    81     0.002823
    82     0.018731
    83     0.067413
    84    -0.025978
    85     0.087287
    86    -0.059732
    87     0.009118
    88     0.079949
    89    -0.197600
    90     0.151450
    91     0.023238
    92    -0.153557
    93     0.169028
    94     0.003413
    95    -0.028382
    96     0.153058
    97     0.013375
    98     0.003276
    99     0.003450
   100     0.075690
   101     0.048069
   102     0.016970
   103     0.009498
   104    -0.030076
   105    -0.035318
   106     0.027056
   107     0.023946
   108     0.004810
   109     0.007576
   110    -0.062080
   111    -0.016729
   112    -0.087557
   113    -0.027416
   114    -0.014125
   115    -0.054596
   116     0.010101
   117     0.033423
   118     0.226960
   119    -0.265414
   120    -0.121797
   121     0.079518
   122     0.033244
   123    -0.003771
   124     0.007996
   125     0.018751
   126    -0.061174
   127     0.037126
   128     0.013065
   129     0.000135
   130    -0.040404
   131     0.002201
   132    -0.092370
   133    -0.049283
   134     0.003426
   135    -0.054265
   136    -0.005030
   137     0.078412
   138     0.016121
   139     0.000182
   140     0.008084
   141     0.059466
   142    -0.033594
   143    -0.012388
   144     0.000713
   145    -0.012200
   146     0.044616
   147    -0.032400
   148     0.076258
   149     0.063844
   150    -0.017247
   151    -0.047154
   152    -0.047904
   153    -0.054971
   154    -0.035283
   155     0.068784
   156     0.100242
   157     0.076770
   158    -0.002275
   159    -0.026733
   160    -0.073559
   161     0.041914
   162     0.015209
   163     0.005456
   164    -0.015838
   165    -0.035940
   166    -0.013029
   167     0.050417
   168    -0.053656
   169    -0.076047
   170    -0.089820
   171    -0.102850
   172    -0.133576
   173     0.344485
   174    -0.386278
   175     0.241573
   176    -0.032822
   177    -0.179829
   178     0.033898
   179    -0.429517
   180    -0.438486
   181    -0.074488
   182     0.040103
   183    -0.045785
   184     0.072416
   185     0.299312
   186    -0.151886
   187     0.091706
   188     0.009946
   189    -0.098881
   190    -0.031497
   191     0.016597
   192     0.101878
   193    -0.106603
   194    -0.043355
   195     0.004278
   196    -0.055175
Sym=   110a
Ene=   -0.727826E-04
Spin= Alpha
Occup= 0.000001
     1     0.203435
     2    -0.095890
     3    -0.187561
     4    -0.296420
     5     0.203843
     6     0.005091
     7     0.022039
     8     0.016470
     9    -0.058584
    10    -0.020138
    11    -0.037383
    12    -0.155122
    13     0.036858
    14    -0.201366
    15    -0.043519
    16     0.075302
    17    -0.060948
    18    -0.059118
    19    -0.010208
    20    -0.101121
    21    -0.001746
    22     0.059972
    23    -0.340903
    24    -0.021112
    25    -0.010453
    26    -0.024388
    27    -0.213703
    28     0.154908
    29    -0.056160
    30     0.005380
    31    -0.006258
    32     0.046085
    33     0.121698
    34     0.012447
    35     0.067534
    36    -0.000455
    37    -0.004475
    38    -0.039221
    39     0.133064
    40    -0.011239
    41    -0.004178
    42    -0.002226
    43    -0.072827
    44    -0.031170
    45    -0.000869
    46     0.199100
    47     0.077012
    48    -0.102230
    49    -0.060141
    50    -0.049320
    51     0.106937
    52    -0.078395
    53    -0.161934
    54    -0.144430
    55    -0.049184
    56     0.053170
    57    -0.042586
    58    -0.141307
    59     0.040568
    60    -0.014790
    61    -0.017417
    62    -0.073463
    63     0.018312
    64     0.044686
    65    -0.031614
    66    -0.077283
    67     0.174907
    68    -0.281039
    69     0.025409
    70     0.060638
    71     0.102275
    72    -0.062492
    73     0.104156
    74    -0.045224
    75     0.000019
    76     0.005121
    77    -0.001714
    78    -0.001488
    79    -0.003826
    80    -0.005446
    81     0.000674
    82     0.044106
    83     0.037715
    84    -0.006226
    85    -0.036004
    86    -0.041849
    87    -0.051355
    88     0.057605
    89    -0.185289
    90     0.053846
    91     0.001449
    92     0.042783
    93     0.102749
    94     0.005368
    95    -0.017475
    96     0.122429
    97     0.019308
    98    -0.002684
    99     0.002874
   100     0.092879
   101     0.025893
   102     0.029199
   103    -0.004015
   104    -0.040569
   105    -0.027376
   106     0.027631
   107     0.018119
   108     0.024608
   109    -0.006690
   110     0.156812
   111    -0.067174
   112     0.043122
   113    -0.131934
   114     0.348661
   115    -0.029325
   116    -0.058511
   117     0.322561
   118    -0.489425
   119     0.049047
   120     0.786632
   121    -0.322906
   122    -0.425770
   123    -0.134240
   124    -0.002800
   125     0.010560
   126    -0.077250
   127    -0.016259
   128     0.000254
   129    -0.020271
   130     0.094206
   131     0.016152
   132     0.067163
   133     0.016225
   134     0.056306
   135    -0.032153
   136    -0.043880
   137    -0.047232
   138     0.014944
   139    -0.002206
   140    -0.047981
   141    -0.111248
   142    -0.119383
   143     0.041579
   144    -0.004733
   145     0.011723
   146    -0.214155
   147     0.074871
   148    -0.068069
   149     0.144904
   150    -0.033955
   151    -0.008160
   152     0.184561
   153     0.197419
   154     0.085522
   155    -0.083754
   156    -0.119664
   157     0.028430
   158     0.004061
   159     0.060184
   160     0.275963
   161    -0.071877
   162    -0.010624
   163     0.003741
   164     0.032246
   165     0.056245
   166    -0.011215
   167    -0.152500
   168    -0.116122
   169    -0.104222
   170     0.084014
   171    -0.070755
   172    -0.178262
   173    -0.132376
   174     0.130834
   175    -0.154409
   176    -0.240542
   177    -0.080968
   178     0.021301
   179    -0.416204
   180    -0.377810
   181    -0.010587
   182     0.055310
   183     0.013541
   184    -0.141597
   185    -0.111940
   186     0.044353
   187    -0.759202
   188     0.439732
   189     0.253937
   190     0.026891
   191    -0.447342
   192    -0.170311
   193     0.087362
   194     0.030982
   195     0.037157
   196     0.107227
Sym=   111a
Ene=   -0.647615E-04
Spin= Alpha
Occup= 0.000001
     1     0.126050
     2    -0.221913
     3     0.053999
     4    -0.057670
     5     0.018886
     6     0.002406
     7    -0.020314
     8     0.094754
     9     0.024475
    10    -0.015603
    11     0.013700
    12     0.079601
    13    -0.043048
    14     0.066513
    15    -0.026454
    16    -0.007634
    17    -0.007938
    18     0.014720
    19     0.019861
    20    -0.008333
    21     0.002043
    22    -0.003503
    23     0.028213
    24     0.002223
    25    -0.002660
    26     0.007547
    27     0.012934
    28    -0.007077
    29     0.003717
    30    -0.011408
    31    -0.021301
    32     0.006085
    33    -0.000845
    34    -0.014129
    35     0.000776
    36    -0.000961
    37    -0.018272
    38     0.129210
    39    -0.327965
    40    -0.022846
    41     0.009023
    42    -0.024544
    43    -0.126359
    44     0.038472
    45    -0.145191
    46     0.264175
    47     0.031340
    48     0.489676
    49     0.059880
    50    -0.019940
    51    -0.158364
    52     0.002879
    53    -0.097277
    54    -0.126037
    55    -0.176053
    56     0.155264
    57    -0.166990
    58     0.522012
    59     0.501524
    60     0.003188
    61    -0.011919
    62     0.076243
    63    -0.005244
    64    -0.011293
    65     0.005280
    66    -0.012577
    67    -0.051096
    68     0.028907
    69    -0.011769
    70    -0.011004
    71    -0.024454
    72     0.010299
    73    -0.003800
    74    -0.000847
    75     0.004804
    76     0.088294
    77    -0.021069
    78     0.019202
    79    -0.037524
    80     0.011274
    81    -0.059039
    82     0.159537
    83     0.056789
    84     0.457036
    85    -0.298103
    86     0.156044
    87    -0.249952
    88    -0.177447
    89    -0.424285
    90    -0.224396
    91    -0.513337
    92     0.620799
    93    -0.379975
    94     0.008726
    95    -0.109661
    96     0.577415
    97     0.015643
    98     0.026541
    99     0.012290
   100     0.240470
   101     0.335701
   102     0.061253
   103    -0.071739
   104     0.013073
   105    -0.099385
   106     0.107279
   107    -0.024823
   108     0.034514
   109     0.000476
   110    -0.018369
   111     0.034795
   112     0.003547
   113     0.003424
   114     0.008272
   115    -0.012681
   116     0.014272
   117     0.011333
   118     0.038773
   119    -0.051740
   120    -0.011136
   121     0.037479
   122    -0.003698
   123     0.068569
   124    -0.001888
   125    -0.068723
   126     0.375784
   127    -0.016257
   128    -0.027176
   129    -0.036843
   130    -0.261874
   131     0.093124
   132     0.556432
   133     0.038301
   134    -0.037766
   135     0.020036
   136     0.040134
   137    -0.142099
   138     0.021970
   139    -0.000083
   140     0.005807
   141     0.190385
   142    -0.008575
   143    -0.012134
   144    -0.015088
   145    -0.015844
   146     0.057446
   147     0.120042
   148     0.177800
   149     0.057656
   150    -0.066073
   151    -0.009524
   152    -0.013496
   153    -0.009411
   154     0.003801
   155    -0.006685
   156     0.002477
   157     0.048242
   158     0.000548
   159     0.008238
   160     0.049294
   161     0.064849
   162    -0.004343
   163     0.004130
   164    -0.005507
   165     0.031275
   166    -0.012192
   167     0.027215
   168    -0.033794
   169     0.002219
   170     0.014921
   171     0.055798
   172     0.019279
   173    -0.128557
   174    -0.181443
   175     0.140097
   176    -0.120756
   177     0.331345
   178     0.033391
   179    -0.366682
   180     0.145662
   181     0.140697
   182    -0.032538
   183    -0.028434
   184     0.125846
   185     0.146611
   186    -0.118610
   187     0.007263
   188    -0.003577
   189    -0.018304
   190     0.054522
   191     0.000268
   192    -0.007533
   193    -0.067172
   194    -0.007907
   195    -0.017091
   196    -0.036854
Sym=   112a
Ene=   -0.490658E-04
Spin= Alpha
Occup= 0.000001
     1    -0.050487
     2    -0.050338
     3     0.015165
     4     0.108292
     5    -0.029746
     6    -0.002760
     7     0.006959
     8    -0.056455
     9    -0.012351
    10     0.009569
    11    -0.008481
    12    -0.040318
    13     0.035915
    14    -0.035805
    15     0.008545
    16     0.012456
    17     0.019208
    18    -0.007193
    19    -0.011853
    20    -0.009837
    21    -0.001516
    22     0.000677
    23    -0.012144
    24    -0.002187
    25     0.002710
    26    -0.004736
    27    -0.007165
    28     0.010924
    29     0.003815
    30     0.014130
    31     0.009506
    32    -0.005474
    33     0.002707
    34     0.008022
    35    -0.003812
    36     0.008918
    37     0.174552
    38    -0.420677
    39    -0.251755
    40    -0.016799
    41     0.016176
    42    -0.040830
    43    -0.110958
    44     0.122457
    45    -0.179069
    46     0.381740
    47    -0.499009
    48     0.174510
    49     0.308051
    50     0.471626
    51     0.344422
    52    -0.099117
    53    -0.172677
    54     0.264709
    55    -0.122406
    56     0.077234
    57     0.046360
    58    -0.459359
    59     0.132221
    60    -0.002197
    61     0.027865
    62    -0.130709
    63    -0.007899
    64     0.024107
    65     0.001628
    66    -0.045972
    67     0.119976
    68    -0.038439
    69     0.008283
    70     0.004122
    71     0.032038
    72     0.004438
    73    -0.012433
    74     0.013107
    75     0.002052
    76     0.042059
    77     0.108254
    78    -0.152340
    79    -0.017688
    80     0.012166
    81    -0.019984
    82     0.059832
    83    -0.111290
    84     0.135799
    85    -0.007539
    86    -0.147765
    87    -0.078650
    88    -0.115966
    89    -0.255339
    90     0.063811
    91     0.414741
    92     0.228662
    93     0.267536
    94    -0.004465
    95     0.033033
    96    -0.214155
    97     0.024702
    98    -0.013201
    99     0.043502
   100     0.025447
   101    -0.129402
   102     0.151989
   103     0.070519
   104    -0.032837
   105     0.030919
   106    -0.023191
   107     0.036883
   108     0.056148
   109    -0.002516
   110     0.004094
   111    -0.026313
   112    -0.001791
   113    -0.006871
   114     0.023597
   115     0.019952
   116    -0.013434
   117    -0.003992
   118    -0.026242
   119     0.018092
   120     0.056972
   121    -0.052744
   122    -0.010891
   123    -0.071437
   124     0.002314
   125    -0.015348
   126     0.114556
   127     0.001092
   128    -0.019233
   129    -0.003415
   130    -0.054980
   131     0.103680
   132     0.131953
   133    -0.038572
   134    -0.035940
   135     0.049013
   136    -0.022456
   137    -0.033337
   138    -0.071973
   139     0.000492
   140     0.009330
   141     0.118975
   142    -0.050764
   143    -0.010831
   144    -0.011927
   145     0.008977
   146     0.037038
   147     0.087514
   148    -0.024833
   149     0.031439
   150    -0.018563
   151    -0.003879
   152    -0.052925
   153    -0.116284
   154     0.156958
   155    -0.003260
   156     0.014014
   157    -0.112938
   158     0.000081
   159    -0.002077
   160    -0.055146
   161     0.144464
   162    -0.002371
   163    -0.006323
   164    -0.002800
   165     0.000462
   166     0.031032
   167     0.008485
   168     0.070116
   169     0.048251
   170     0.010316
   171     0.001014
   172     0.005903
   173     0.042733
   174     0.020108
   175    -0.041536
   176     0.077958
   177     0.038187
   178     0.126485
   179    -0.460796
   180     0.657172
   181    -0.168110
   182     0.009998
   183    -0.002962
   184     0.052480
   185     0.027098
   186     0.010705
   187    -0.047992
   188     0.014409
   189     0.032734
   190    -0.048535
   191    -0.030497
   192     0.039956
   193    -0.047725
   194    -0.037645
   195    -0.125668
   196     0.028377
Sym=   113a
Ene=   -0.947145E-02
Spin= Alpha
Occup= 0.006461
     1     0.041049
     2    -0.035093
     3     0.005104
     4    -0.004938
     5    -0.001788
     6    -0.003197
     7    -0.015539
     8     0.012346
     9    -0.003076
    10     0.000163
    11     0.003543
    12    -0.009012
    13     0.002833
    14     0.006424
    15     0.003266
    16     0.002985
    17     0.003280
    18     0.001441
    19     0.002119
    20    -0.001192
    21     0.000450
    22    -0.004431
    23     0.030045
    24    -0.002911
    25     0.000025
    26    -0.000123
    27    -0.002394
    28    -0.004398
    29     0.002172
    30    -0.004602
    31    -0.002411
    32    -0.001159
    33    -0.000561
    34    -0.001129
    35    -0.000470
    36    -0.007245
    37    -0.084102
    38     0.289233
    39    -0.120326
    40     0.006326
    41    -0.031914
    42    -0.028547
    43     0.017997
    44    -0.110086
    45    -0.075887
    46     0.004496
    47     0.091104
    48     0.016295
    49    -0.119082
    50     0.057824
    51    -0.227842
    52     0.093758
    53     0.447510
    54    -0.674094
    55     0.057008
    56    -0.083299
    57    -0.002046
    58     0.005689
    59     0.005767
    60     0.005129
    61     0.015255
    62     0.013909
    63    -0.004342
    64     0.010068
    65    -0.011258
    66    -0.011605
    67     0.011058
    68    -0.014430
    69    -0.002772
    70    -0.004364
    71    -0.011867
    72     0.002271
    73    -0.006890
    74     0.007912
    75    -0.003006
    76    -0.037120
    77    -0.060442
    78    -0.071213
    79     0.021764
    80    -0.013364
    81     0.061877
    82    -0.081263
    83     0.042892
    84    -0.259687
    85     0.071059
    86    -0.004881
    87     0.306950
    88     0.081651
    89     0.044234
    90     0.079399
    91     0.003857
    92    -0.216136
    93     0.208638
    94    -0.001154
    95    -0.005617
    96     0.010336
    97     0.011486
    98    -0.012273
    99     0.006626
   100     0.009208
   101    -0.022423
   102     0.007055
   103    -0.004588
   104     0.010048
   105    -0.003366
   106     0.003942
   107    -0.018168
   108    -0.009097
   109    -0.003950
   110    -0.006442
   111    -0.050525
   112     0.003210
   113    -0.001538
   114     0.004865
   115     0.011881
   116     0.011994
   117    -0.070476
   118     0.001665
   119     0.005146
   120     0.006729
   121     0.000087
   122    -0.000260
   123    -0.002243
   124    -0.028530
   125    -0.122953
   126     0.022824
   127     0.116173
   128    -0.064432
   129    -0.028256
   130    -0.076886
   131     0.122609
   132    -0.097067
   133     0.040224
   134     0.011184
   135     0.026012
   136     0.011781
   137    -0.033696
   138    -0.005096
   139    -0.000517
   140    -0.003650
   141    -0.040721
   142     0.119727
   143    -0.011041
   144     0.010484
   145     0.014489
   146     0.051142
   147    -0.052488
   148    -0.048318
   149    -0.095268
   150     0.020674
   151     0.034910
   152     0.019160
   153     0.001725
   154    -0.015406
   155    -0.004594
   156    -0.022604
   157     0.006174
   158     0.000165
   159     0.003760
   160    -0.020921
   161     0.107455
   162     0.004370
   163     0.005120
   164    -0.005242
   165    -0.023228
   166    -0.030241
   167     0.013429
   168     0.059022
   169     0.049779
   170     0.008506
   171    -0.005211
   172    -0.019237
   173    -0.017883
   174     0.007625
   175    -0.001231
   176    -0.003162
   177     0.067675
   178     0.069323
   179    -0.051166
   180     0.093750
   181     0.031981
   182    -0.002043
   183    -0.086988
   184    -0.000301
   185     0.000318
   186    -0.003140
   187    -0.000693
   188    -0.037479
   189     0.000851
   190     0.000960
   191    -0.001172
   192    -0.028124
   193     0.013762
   194    -0.001423
   195    -0.002799
   196    -0.003214
Sym=   114a
Ene=   -0.934445E-02
Spin= Alpha
Occup= 0.006655
     1    -0.017554
     2     0.100932
     3     0.000873
     4    -0.006683
     5    -0.005666
     6    -0.000464
     7    -0.005175
     8     0.014451
     9    -0.000423
    10     0.000493
    11    -0.000452
    12    -0.001555
    13     0.001401
    14     0.002436
    15    -0.001132
    16    -0.000664
    17     0.000025
    18    -0.000024
    19     0.000287
    20     0.000291
    21    -0.000692
    22    -0.005862
    23     0.015396
    24     0.001963
    25     0.001702
    26     0.000995
    27     0.004512
    28     0.001157
    29     0.002781
    30     0.000530
    31     0.000549
    32    -0.000221
    33    -0.000300
    34     0.000271
    35    -0.001154
    36     0.002917
    37     0.032944
    38    -0.065030
    39    -0.051175
    40     0.030409
    41     0.000094
    42    -0.056932
    43     0.099673
    44    -0.008787
    45    -0.196099
    46    -0.068512
    47     0.043043
    48     0.175406
    49     0.225377
    50    -0.028514
    51    -0.076362
    52     0.045529
    53     0.701987
    54     0.513856
    55    -0.004700
    56     0.004039
    57    -0.002015
    58     0.005323
    59     0.006669
    60     0.001045
    61    -0.002193
    62     0.024304
    63    -0.002128
    64     0.005864
    65    -0.002696
    66    -0.008630
    67     0.009843
    68     0.002246
    69    -0.000996
    70    -0.001966
    71    -0.005190
    72     0.000620
    73    -0.003285
    74     0.002357
    75     0.000284
    76     0.001438
    77     0.020847
    78     0.023354
    79     0.002251
    80    -0.006244
    81     0.016949
    82    -0.017617
    83     0.022039
    84    -0.066136
    85     0.031792
    86     0.027067
    87     0.011227
    88    -0.042825
    89     0.064579
    90    -0.001031
    91     0.043977
    92     0.014486
    93     0.041979
    94    -0.001812
    95    -0.008106
    96    -0.005243
    97     0.012074
    98     0.019769
    99     0.022620
   100    -0.006912
   101     0.012243
   102     0.045826
   103    -0.000344
   104     0.006711
   105    -0.003276
   106     0.008180
   107    -0.001723
   108    -0.001560
   109    -0.002367
   110    -0.009708
   111     0.018766
   112     0.003826
   113     0.002647
   114     0.000130
   115     0.015688
   116    -0.000893
   117    -0.030876
   118    -0.000277
   119     0.001202
   120     0.004717
   121     0.000583
   122    -0.000706
   123     0.000886
   124    -0.005266
   125    -0.020453
   126     0.015656
   127     0.007392
   128    -0.022274
   129     0.017312
   130    -0.003140
   131     0.022158
   132    -0.031620
   133     0.013872
   134     0.010313
   135     0.002013
   136     0.002050
   137    -0.002325
   138     0.002342
   139     0.000394
   140     0.003195
   141     0.034971
   142    -0.061435
   143     0.002279
   144     0.001894
   145     0.000682
   146    -0.011582
   147    -0.008857
   148    -0.005474
   149     0.065117
   150    -0.024063
   151    -0.024754
   152     0.001635
   153     0.001461
   154    -0.007584
   155     0.001859
   156    -0.006474
   157     0.001966
   158    -0.000296
   159    -0.002549
   160    -0.019217
   161    -0.004328
   162    -0.000158
   163     0.002232
   164     0.000250
   165    -0.000838
   166    -0.010227
   167    -0.003745
   168     0.009798
   169    -0.016603
   170    -0.000360
   171     0.002992
   172     0.002225
   173    -0.004875
   174     0.004850
   175    -0.000476
   176    -0.004638
   177     0.018486
   178    -0.036048
   179    -0.171631
   180    -0.123176
   181     0.058807
   182    -0.004300
   183     0.011810
   184     0.001076
   185    -0.000638
   186    -0.001543
   187     0.003788
   188    -0.034789
   189    -0.000641
   190    -0.000339
   191    -0.000703
   192     0.000319
   193    -0.035748
   194     0.000656
   195     0.000818
   196    -0.000705
Sym=   115a
Ene=   -0.243081E-01
Spin= Alpha
Occup= 0.021468
     1    -0.092882
     2    -0.017431
     3    -0.006587
     4     0.023461
     5     0.003946
     6    -0.010031
     7    -0.021930
     8    -0.030941
     9    -0.071516
    10     0.017918
    11     0.003864
    12    -0.002116
    13     0.003716
    14    -0.029330
    15     0.013883
    16     0.003693
    17     0.003272
    18     0.005303
    19    -0.012750
    20     0.003997
    21    -0.001298
    22    -0.002576
    23    -0.009836
    24    -0.006010
    25    -0.003119
    26     0.001958
    27    -0.003890
    28     0.002698
    29    -0.000141
    30     0.001445
    31     0.001282
    32     0.000631
    33    -0.000116
    34     0.000334
    35     0.000696
    36     0.000109
    37     0.000847
    38     0.000589
    39    -0.008375
    40    -0.000291
    41    -0.001947
    42    -0.001922
    43    -0.000214
    44    -0.005489
    45    -0.004742
    46    -0.002616
    47     0.003686
    48     0.001279
    49     0.000930
    50     0.001655
    51    -0.001316
    52    -0.000993
    53     0.000492
    54    -0.002574
    55    -0.005174
    56    -0.002634
    57     0.000338
    58    -0.000084
    59     0.001837
    60    -0.002136
    61    -0.006247
    62    -0.000572
    63    -0.027690
    64    -0.028632
    65    -0.003805
    66     0.004582
    67     0.012315
    68    -0.011405
    69    -0.002873
    70     0.006732
    71    -0.001192
    72     0.004088
    73    -0.006627
    74    -0.001940
    75    -0.002566
    76    -0.022244
    77    -0.073040
    78     0.022338
    79     0.003987
    80    -0.004355
    81    -0.011839
    82    -0.012902
    83     0.013333
    84     0.040169
    85     0.000825
    86     0.000199
    87    -0.007462
    88     0.020167
    89     0.019096
    90     0.011386
    91     0.003219
    92     0.009141
    93    -0.003231
    94     0.004399
    95     0.016428
    96    -0.009980
    97    -0.000656
    98     0.001642
    99     0.025154
   100     0.005487
   101     0.005323
   102     0.008816
   103    -0.001400
   104    -0.001151
   105    -0.002349
   106    -0.001094
   107    -0.000216
   108     0.000129
   109     0.001201
   110     0.000986
   111     0.007025
   112     0.008238
   113     0.007794
   114    -0.005000
   115    -0.000119
   116     0.000619
   117     0.011197
   118    -0.000543
   119     0.004152
   120    -0.002123
   121    -0.002669
   122     0.000304
   123     0.001931
   124     0.016374
   125     0.053172
   126     0.037950
   127     0.046214
   128     0.020215
   129    -0.002180
   130    -0.013968
   131     0.006422
   132    -0.004356
   133    -0.012516
   134    -0.004634
   135    -0.015199
   136     0.005368
   137     0.013844
   138     0.004592
   139     0.007174
   140     0.050356
   141     0.136337
   142    -0.065613
   143     0.099502
   144     0.070113
   145     0.011234
   146    -0.276699
   147    -0.186859
   148    -0.036818
   149     0.022760
   150     0.007257
   151    -0.006462
   152    -0.002079
   153     0.002324
   154    -0.065371
   155     0.065581
   156     0.011349
   157    -0.004676
   158    -0.023152
   159    -0.202312
   160    -0.618623
   161     0.132477
   162     0.294907
   163    -0.130782
   164     0.067980
   165    -0.848755
   166     0.382080
   167    -0.192548
   168    -0.006833
   169     0.021173
   170     0.007122
   171     0.256192
   172     0.057000
   173     0.168047
   174     0.101627
   175     0.015392
   176     0.022002
   177    -0.000118
   178     0.003763
   179     0.000243
   180     0.000174
   181     0.000421
   182     0.308942
   183     0.005574
   184     0.000981
   185     0.041672
   186     0.000347
   187    -0.010790
   188     0.011587
   189    -0.000211
   190    -0.002155
   191    -0.001661
   192    -0.018623
   193     0.027810
   194    -0.001944
   195    -0.005099
   196    -0.003412
Sym=   116a
Ene=   -0.785650E-02
Spin= Alpha
Occup= 0.005467
     1     0.282949
     2    -0.485963
     3    -0.067689
     4    -0.146856
     5    -0.111189
     6     0.082609
     7     0.389222
     8    -0.277078
     9     0.023666
    10     0.020902
    11    -0.247162
    12     0.053982
    13     0.034381
    14    -0.399385
    15    -0.055707
    16    -0.072303
    17    -0.105672
    18    -0.021832
    19     0.001631
    20     0.032527
    21    -0.011279
    22    -0.039100
    23    -0.046319
    24     0.033326
    25    -0.007740
    26    -0.006972
    27     0.027288
    28    -0.002105
    29    -0.008930
    30     0.055150
    31     0.012567
    32    -0.007905
    33     0.000539
    34     0.038459
    35     0.015397
    36    -0.000126
    37    -0.001624
    38     0.044026
    39    -0.139330
    40    -0.020632
    41     0.018659
    42    -0.059082
    43    -0.067016
    44     0.069006
    45    -0.201318
    46     0.046632
    47    -0.058242
    48     0.221373
    49    -0.095314
    50    -0.174117
    51     0.268051
    52     0.192832
    53    -0.039918
    54     0.025413
    55     0.110226
    56    -0.037066
    57    -0.023873
    58     0.024179
    59    -0.018596
    60    -0.017775
    61    -0.046262
    62    -0.076133
    63    -0.040335
    64    -0.018188
    65     0.015210
    66    -0.046956
    67    -0.003880
    68     0.030492
    69     0.003421
    70     0.020381
    71     0.052973
    72    -0.019562
    73     0.043827
    74    -0.031066
    75     0.013754
    76     0.139495
    77     0.388643
    78     0.199485
    79     0.042752
    80    -0.030378
    81     0.029464
    82    -0.154000
    83     0.080131
    84    -0.102380
    85    -0.005402
    86    -0.001648
    87    -0.074956
    88    -0.151534
    89    -0.172178
    90    -0.153461
    91     0.043201
    92    -0.042505
    93     0.072203
    94    -0.011994
    95    -0.043305
    96    -0.006844
    97    -0.000509
    98    -0.058638
    99    -0.017465
   100     0.003492
   101    -0.096151
   102    -0.057330
   103    -0.015237
   104     0.088464
   105    -0.013774
   106    -0.005947
   107    -0.039494
   108    -0.013412
   109     0.003401
   110    -0.071519
   111     0.131877
   112     0.029924
   113     0.087265
   114    -0.192597
   115    -0.049183
   116    -0.019575
   117     0.207872
   118     0.031748
   119     0.015851
   120    -0.011897
   121    -0.000610
   122     0.016156
   123     0.022730
   124    -0.028229
   125    -0.129111
   126     0.062294
   127     0.019511
   128     0.021864
   129     0.016433
   130    -0.039285
   131    -0.025767
   132    -0.042059
   133     0.023257
   134     0.058496
   135     0.020158
   136     0.017744
   137     0.005501
   138     0.007541
   139     0.008990
   140     0.093733
   141     0.423173
   142    -0.314404
   143     0.055486
   144    -0.003130
   145     0.005622
   146    -0.239396
   147     0.033491
   148    -0.024424
   149     0.222247
   150    -0.034057
   151    -0.060643
   152    -0.217072
   153    -0.043564
   154    -0.055527
   155    -0.003701
   156     0.028579
   157    -0.023195
   158    -0.004921
   159    -0.071816
   160    -0.130902
   161    -0.072247
   162    -0.067015
   163    -0.127969
   164     0.127897
   165     0.264666
   166     0.494153
   167    -0.426901
   168    -0.267439
   169    -0.299607
   170     0.049461
   171    -0.022357
   172     0.401778
   173     0.078675
   174    -0.040239
   175     0.058261
   176     0.137082
   177     0.070283
   178     0.038116
   179     0.026865
   180    -0.001055
   181     0.035280
   182    -0.084823
   183     0.338342
   184     0.019761
   185    -0.074460
   186    -0.015862
   187     0.103251
   188     0.133887
   189    -0.014514
   190    -0.025542
   191     0.005905
   192     0.076304
   193    -0.028041
   194    -0.016380
   195    -0.022841
   196    -0.007425
Sym=   117a
Ene=   -0.399630E-01
Spin= Alpha
Occup= 0.023234
     1    -0.000654
     2    -0.035309
     3     0.000321
     4     0.002134
     5     0.000794
     6     0.000808
     7     0.003338
     8    -0.004024
     9    -0.001235
    10     0.001752
    11    -0.001773
    12    -0.000336
    13    -0.001540
    14     0.000598
    15     0.000241
    16     0.000228
    17     0.000048
    18    -0.000019
    19    -0.000516
    20     0.000027
    21    -0.000316
    22     0.000982
    23    -0.010438
    24     0.000333
    25     0.000596
    26     0.000145
    27    -0.000184
    28     0.001057
    29    -0.000522
    30     0.000889
    31     0.000938
    32     0.000776
    33     0.000017
    34    -0.000191
    35     0.000002
    36     0.001029
    37     0.011454
    38    -0.006018
    39    -0.096152
    40    -0.020403
    41    -0.029885
    42     0.001072
    43    -0.045094
    44    -0.060730
    45    -0.001019
    46    -0.051505
    47    -0.014432
    48     0.024237
    49     0.029367
    50    -0.001974
    51     0.007499
    52    -0.011898
    53     0.004189
    54    -0.002468
    55     0.044333
    56     0.005122
    57     0.017017
    58     0.016870
    59     0.008845
    60     0.000171
    61    -0.001529
    62     0.005869
    63    -0.002635
    64     0.001232
    65     0.004818
    66     0.004366
    67    -0.002835
    68     0.009378
    69    -0.000929
    70    -0.001093
    71     0.000965
    72     0.000001
    73    -0.000068
    74    -0.000576
    75    -0.038064
    76    -0.291707
    77    -0.768029
    78     0.227869
    79    -0.161636
    80    -0.223390
    81    -0.000567
    82     0.458407
    83     0.618472
    84    -0.008116
    85     0.006849
    86     0.030538
    87    -0.066026
    88     0.158469
    89     0.022166
    90     0.256462
    91    -0.172576
    92    -0.033770
    93     0.004640
    94     0.135588
    95     0.425714
    96     0.142302
    97    -0.376581
    98    -0.607692
    99    -0.148228
   100    -0.086625
   101    -0.154989
   102    -0.079608
   103    -0.073659
   104    -0.119159
   105    -0.046807
   106    -0.053223
   107    -0.011868
   108    -0.015190
   109    -0.000066
   110    -0.004332
   111     0.017388
   112    -0.000762
   113    -0.001620
   114     0.001110
   115    -0.001530
   116    -0.000722
   117     0.029740
   118     0.000346
   119    -0.000584
   120    -0.000569
   121    -0.000199
   122    -0.000098
   123    -0.000256
   124    -0.024264
   125    -0.075586
   126    -0.118977
   127    -0.042439
   128    -0.048721
   129    -0.013460
   130     0.026711
   131    -0.042189
   132    -0.030038
   133     0.002878
   134     0.019591
   135     0.028285
   136    -0.014444
   137     0.010690
   138     0.017897
   139     0.003792
   140     0.031239
   141     0.114890
   142    -0.088778
   143     0.009728
   144    -0.005799
   145    -0.023428
   146    -0.033332
   147     0.021458
   148     0.069312
   149     0.036912
   150    -0.023984
   151    -0.024232
   152    -0.028023
   153    -0.033661
   154    -0.002107
   155    -0.007594
   156    -0.014084
   157     0.001445
   158    -0.002121
   159    -0.019531
   160    -0.063712
   161     0.042518
   162     0.000191
   163    -0.001286
   164    -0.003218
   165    -0.000309
   166     0.005618
   167     0.004197
   168     0.011068
   169     0.007304
   170     0.022030
   171     0.013096
   172     0.013538
   173     0.028533
   174    -0.002171
   175     0.003284
   176    -0.001954
   177     0.011111
   178     0.009647
   179    -0.002071
   180    -0.006319
   181     0.001902
   182    -0.011366
   183     0.001258
   184     0.002015
   185     0.000582
   186     0.003317
   187     0.000689
   188     0.017650
   189    -0.000466
   190     0.000160
   191     0.000428
   192     0.009638
   193    -0.005591
   194     0.000039
   195     0.001254
   196     0.002530
Sym=   118a
Ene=   -0.385487E-01
Spin= Alpha
Occup= 0.023494
     1    -0.037418
     2     0.017793
     3     0.006637
     4     0.003569
     5     0.006764
     6    -0.001397
     7    -0.005971
     8     0.005411
     9    -0.004771
    10    -0.001318
    11    -0.003609
    12    -0.003025
    13     0.000155
    14     0.003488
    15     0.000854
    16     0.001859
    17     0.000456
    18     0.000810
    19    -0.000988
    20    -0.000626
    21     0.000170
    22    -0.000051
    23     0.003166
    24    -0.000142
    25     0.000212
    26    -0.000188
    27    -0.000551
    28     0.000086
    29     0.001647
    30    -0.000487
    31     0.000371
    32    -0.000525
    33    -0.000090
    34     0.000128
    35     0.000047
    36    -0.001859
    37    -0.017699
    38     0.026374
    39     0.067269
    40    -0.025960
    41     0.005135
    42     0.027922
    43    -0.057038
    44     0.010654
    45     0.070478
    46    -0.015796
    47    -0.020686
    48    -0.005372
    49    -0.003994
    50    -0.025873
    51    -0.008678
    52    -0.001931
    53    -0.027154
    54     0.031994
    55     0.000655
    56     0.013958
    57     0.006974
    58    -0.002020
    59    -0.027252
    60     0.001383
    61     0.002852
    62     0.009847
    63    -0.005943
    64     0.006537
    65     0.008029
    66     0.005730
    67    -0.003412
    68     0.002265
    69    -0.002024
    70    -0.002496
    71     0.001017
    72     0.000322
    73    -0.000829
    74    -0.000045
    75     0.043713
    76     0.341799
    77     0.915589
    78    -0.108100
    79    -0.152425
    80     0.012197
    81     0.216743
    82     0.462416
    83    -0.020842
    84    -0.637012
    85     0.047524
    86    -0.022363
    87    -0.048247
    88    -0.183770
    89    -0.276358
    90    -0.048627
    91    -0.033532
    92    -0.144549
    93     0.015298
    94    -0.014117
    95    -0.052974
    96     0.061473
    97     0.099589
    98    -0.007990
    99    -0.137430
   100     0.011822
   101    -0.002051
   102    -0.006013
   103     0.013906
   104    -0.009006
   105     0.000940
   106     0.009469
   107    -0.013452
   108    -0.018152
   109    -0.000263
   110     0.004344
   111    -0.010300
   112     0.002814
   113     0.003060
   114    -0.002810
   115     0.003972
   116     0.006247
   117    -0.018599
   118     0.002045
   119     0.001385
   120    -0.000509
   121     0.000729
   122    -0.000900
   123     0.000822
   124    -0.234496
   125    -0.821187
   126    -0.111954
   127     0.546497
   128     0.105617
   129    -0.341381
   130    -0.067211
   131    -0.047437
   132    -0.059964
   133     0.142810
   134     0.116415
   135     0.162321
   136    -0.002326
   137    -0.036644
   138     0.002700
   139     0.005918
   140     0.045909
   141     0.114731
   142    -0.000740
   143     0.024419
   144    -0.013082
   145    -0.040761
   146    -0.064267
   147     0.033684
   148     0.107731
   149    -0.044961
   150    -0.006956
   151     0.005497
   152    -0.041906
   153    -0.044688
   154    -0.000397
   155    -0.001581
   156    -0.028707
   157     0.017208
   158    -0.000849
   159    -0.006401
   160    -0.026508
   161     0.020542
   162     0.009387
   163     0.013223
   164     0.007483
   165    -0.024478
   166    -0.034563
   167    -0.022725
   168     0.002978
   169    -0.007569
   170     0.007789
   171     0.005931
   172    -0.005207
   173     0.009902
   174     0.001634
   175     0.004775
   176    -0.003836
   177    -0.029688
   178    -0.006317
   179    -0.000711
   180    -0.003724
   181    -0.004936
   182    -0.026322
   183    -0.032769
   184     0.001676
   185    -0.000032
   186     0.003409
   187     0.000472
   188    -0.010094
   189     0.000181
   190    -0.000268
   191    -0.000265
   192     0.019094
   193     0.028625
   194    -0.002776
   195     0.000835
   196     0.001654
Sym=   119a
Ene=   -0.870375E-02
Spin= Alpha
Occup= 0.003394
     1    -0.030189
     2     0.143023
     3    -0.003555
     4     0.022240
     5     0.004812
     6    -0.022613
     7    -0.083309
     8     0.054602
     9     0.062179
    10     0.116816
    11    -0.131089
    12     0.152497
    13     0.297982
    14    -0.276999
    15    -0.469292
    16    -0.339829
    17     0.923945
    18     0.075147
    19    -0.043456
    20    -0.058461
    21    -0.003070
    22    -0.012586
    23    -0.012951
    24     0.008801
    25    -0.033155
    26    -0.024346
    27    -0.028900
    28    -0.027999
    29    -0.027933
    30    -0.001495
    31     0.017850
    32    -0.006523
    33    -0.009420
    34     0.013293
    35     0.013172
    36    -0.000193
    37    -0.002314
    38    -0.003606
    39     0.048454
    40    -0.001510
    41    -0.001855
    42    -0.004434
    43    -0.005828
    44    -0.006603
    45    -0.014539
    46     0.008571
    47    -0.001928
    48    -0.006934
    49    -0.009576
    50    -0.011376
    51     0.011682
    52    -0.001389
    53    -0.000968
    54    -0.002851
    55    -0.005030
    56    -0.015646
    57    -0.000012
    58     0.001080
    59     0.002513
    60    -0.007259
    61    -0.019273
    62    -0.011706
    63    -0.030677
    64    -0.015733
    65    -0.040328
    66    -0.033084
    67    -0.035634
    68    -0.058551
    69     0.004764
    70    -0.012562
    71     0.039059
    72     0.003027
    73     0.048333
    74    -0.013607
    75     0.000721
    76     0.007885
    77     0.041917
    78    -0.063240
    79     0.001862
    80     0.000659
    81     0.000539
    82    -0.011294
    83    -0.003484
    84    -0.005312
    85     0.018029
    86    -0.001820
    87     0.056758
    88    -0.012598
    89    -0.009222
    90    -0.007398
    91     0.005117
    92     0.003623
    93     0.001583
    94     0.002869
    95     0.008118
    96     0.011287
    97    -0.000612
    98    -0.003098
    99     0.000584
   100    -0.002288
   101    -0.005888
   102     0.000755
   103    -0.006207
   104    -0.002708
   105    -0.007400
   106    -0.002576
   107    -0.002966
   108    -0.001239
   109    -0.090958
   110    -0.509609
   111     0.023604
   112    -0.052415
   113    -0.177608
   114    -0.038004
   115     0.014914
   116     0.002325
   117    -0.055257
   118     0.145846
   119     0.090785
   120     0.164562
   121    -0.040515
   122     0.033702
   123     0.082396
   124     0.000518
   125     0.002343
   126     0.002818
   127    -0.000148
   128     0.004171
   129     0.001173
   130    -0.007176
   131    -0.005310
   132     0.016461
   133     0.000921
   134    -0.009930
   135     0.006726
   136    -0.003755
   137     0.004186
   138     0.004774
   139    -0.000861
   140    -0.009841
   141    -0.047683
   142     0.016281
   143    -0.001497
   144    -0.004783
   145     0.001717
   146     0.010016
   147     0.027172
   148    -0.010982
   149    -0.034604
   150     0.021347
   151     0.037777
   152    -0.004687
   153     0.025046
   154     0.021580
   155    -0.001372
   156     0.006418
   157    -0.000361
   158    -0.000461
   159    -0.010026
   160    -0.014190
   161    -0.089930
   162     0.009665
   163     0.010813
   164     0.020173
   165    -0.028273
   166    -0.025742
   167    -0.109619
   168     0.001104
   169    -0.001742
   170     0.000745
   171    -0.041440
   172     0.069648
   173     0.100517
   174     0.028033
   175    -0.095184
   176    -0.167311
   177    -0.009667
   178    -0.028691
   179     0.000164
   180    -0.000168
   181    -0.006244
   182     0.033818
   183     0.032812
   184     0.012827
   185    -0.013530
   186     0.004547
   187    -0.011623
   188     0.002034
   189     0.010415
   190    -0.008578
   191    -0.025057
   192    -0.000641
   193     0.036698
   194    -0.001541
   195     0.003199
   196     0.000650
Sym=   120a
Ene=   -0.650152E-02
Spin= Alpha
Occup= 0.004689
     1     0.025952
     2     0.036904
     3    -0.065769
     4    -0.006394
     5    -0.001437
     6     0.031655
     7     0.132164
     8    -0.049111
     9     0.004593
    10     0.011152
    11    -0.026648
    12     0.027609
    13     0.025405
    14    -0.051757
    15    -0.043707
    16    -0.037288
    17    -0.032640
    18    -0.027592
    19    -0.025361
    20     0.018895
    21    -0.003242
    22    -0.003887
    23    -0.047075
    24     0.031865
    25    -0.006554
    26     0.025703
    27     0.041054
    28    -0.003519
    29     0.027086
    30     0.012720
    31    -0.002961
    32     0.006772
    33     0.001494
    34    -0.000218
    35    -0.005868
    36     0.002356
    37     0.024909
    38    -0.086533
    39     0.007648
    40     0.036166
    41    -0.014306
    42     0.101236
    43     0.123936
    44    -0.044660
    45     0.357704
    46    -0.109877
    47     0.038265
    48    -0.315848
    49     0.158318
    50     0.292195
    51    -0.390475
    52    -0.226925
    53     0.033386
    54    -0.015393
    55    -0.079659
    56     0.009488
    57     0.016947
    58    -0.030749
    59     0.005460
    60    -0.010164
    61    -0.070489
    62     0.110810
    63     0.032301
    64    -0.061563
    65     0.070524
    66     0.073546
    67    -0.130312
    68     0.160633
    69     0.007769
    70     0.000296
    71     0.012573
    72    -0.007548
    73    -0.008143
    74     0.020734
    75    -0.017805
    76    -0.189925
    77    -0.605073
    78     0.116487
    79    -0.062235
    80     0.034229
    81    -0.025184
    82     0.262815
    83    -0.079890
    84     0.087494
    85    -0.015993
    86    -0.014948
    87    -0.070256
    88     0.222500
    89     0.256824
    90     0.223858
    91    -0.088986
    92     0.011215
    93    -0.080820
    94    -0.007747
    95    -0.058219
    96     0.093336
    97    -0.007373
    98     0.106228
    99    -0.057947
   100    -0.022676
   101     0.195747
   102    -0.118580
   103     0.072253
   104    -0.115876
   105     0.050407
   106     0.010371
   107     0.053444
   108     0.019104
   109     0.034459
   110     0.150102
   111     0.059040
   112    -0.010700
   113     0.006704
   114     0.009548
   115    -0.037094
   116    -0.013152
   117     0.133894
   118    -0.048610
   119    -0.049119
   120    -0.034873
   121    -0.004053
   122    -0.004764
   123     0.010849
   124    -0.000962
   125     0.014285
   126    -0.121330
   127     0.039536
   128    -0.047660
   129     0.120759
   130    -0.043509
   131     0.099645
   132    -0.160986
   133    -0.070778
   134     0.005911
   135     0.060105
   136    -0.031479
   137    -0.056896
   138    -0.030200
   139    -0.008754
   140    -0.106923
   141    -0.516820
   142    -0.046644
   143     0.060479
   144     0.057566
   145    -0.045576
   146    -0.204471
   147    -0.203112
   148     0.201186
   149     0.160150
   150    -0.048704
   151    -0.085857
   152    -0.106485
   153     0.364081
   154     0.204380
   155    -0.040778
   156     0.049854
   157     0.142369
   158    -0.001384
   159    -0.020489
   160    -0.010781
   161    -0.236522
   162    -0.037113
   163    -0.062235
   164     0.017833
   165     0.159735
   166     0.246819
   167    -0.058308
   168    -0.214672
   169    -0.233921
   170    -0.001568
   171    -0.120397
   172     0.186403
   173     0.087564
   174    -0.191728
   175    -0.047527
   176     0.043286
   177     0.012938
   178     0.051631
   179    -0.029036
   180     0.016862
   181     0.002356
   182    -0.131546
   183     0.291999
   184     0.022554
   185    -0.127949
   186    -0.038785
   187    -0.014375
   188     0.063108
   189    -0.008143
   190    -0.006741
   191     0.002320
   192    -0.085583
   193     0.159358
   194    -0.011193
   195    -0.217096
   196    -0.043703
Sym=   121a
Ene=   -0.855643E-02
Spin= Alpha
Occup= 0.003129
     1     0.026431
     2     0.062327
     3    -0.000818
     4    -0.001184
     5     0.009708
     6     0.042109
     7     0.138208
     8     0.039127
     9     0.027255
    10     0.065292
    11     0.015813
    12     0.058331
    13     0.146886
    14     0.051288
    15     0.278373
    16    -0.321838
    17    -0.165190
    18    -0.380142
    19    -0.325572
    20    -0.697787
    21    -0.007206
    22    -0.033962
    23    -0.018692
    24     0.054222
    25    -0.050214
    26    -0.012630
    27     0.029776
    28    -0.036915
    29     0.006974
    30     0.012811
    31     0.022657
    32    -0.024871
    33    -0.005760
    34     0.038639
    35     0.004964
    36    -0.000121
    37    -0.000954
    38     0.008324
    39    -0.020204
    40    -0.001982
    41    -0.001464
    42    -0.004685
    43    -0.007117
    44    -0.006666
    45    -0.018122
    46     0.005469
    47     0.013089
    48     0.021516
    49    -0.002968
    50    -0.010709
    51     0.015725
    52     0.004243
    53     0.003900
    54    -0.004541
    55     0.005443
    56     0.007127
    57    -0.001156
    58    -0.000164
    59     0.000613
    60    -0.006567
    61    -0.017511
    62    -0.013543
    63    -0.047358
    64    -0.014609
    65    -0.021128
    66    -0.060309
    67    -0.029898
    68    -0.012608
    69     0.026650
    70    -0.017837
    71     0.018497
    72     0.012943
    73     0.038421
    74    -0.005174
    75     0.000851
    76     0.009455
    77     0.028012
    78     0.017229
    79     0.003269
    80     0.000483
    81     0.001506
    82    -0.012302
    83    -0.002533
    84    -0.006348
    85    -0.007743
    86    -0.000166
    87    -0.014484
    88    -0.013095
    89    -0.009481
    90    -0.012542
    91     0.004307
    92    -0.006171
    93    -0.000686
    94     0.005403
    95     0.021772
    96    -0.010969
    97     0.003021
    98    -0.005394
    99     0.008896
   100     0.002621
   101    -0.014470
   102     0.012926
   103    -0.008456
   104    -0.004561
   105    -0.010672
   106    -0.001028
   107    -0.003296
   108    -0.001567
   109    -0.075836
   110    -0.435064
   111     0.112241
   112     0.032234
   113    -0.037554
   114    -0.067691
   115     0.020653
   116    -0.010123
   117    -0.079834
   118     0.165316
   119     0.160542
   120     0.041709
   121    -0.044581
   122     0.070880
   123     0.161504
   124     0.000904
   125     0.007538
   126    -0.016225
   127    -0.006903
   128    -0.000582
   129    -0.005003
   130     0.015732
   131    -0.001954
   132     0.010390
   133     0.002012
   134    -0.007936
   135     0.004205
   136    -0.003224
   137     0.000661
   138    -0.001849
   139     0.000311
   140     0.002161
   141     0.007306
   142    -0.022389
   143     0.003864
   144    -0.000872
   145     0.000340
   146    -0.011440
   147     0.011263
   148     0.000055
   149     0.001359
   150     0.014528
   151     0.002705
   152     0.009461
   153    -0.001691
   154    -0.004939
   155     0.001198
   156     0.001971
   157    -0.001750
   158    -0.002200
   159    -0.024255
   160    -0.054239
   161    -0.113354
   162    -0.001153
   163     0.005250
   164    -0.005601
   165     0.006058
   166    -0.023514
   167     0.013076
   168    -0.048368
   169    -0.007499
   170    -0.006403
   171     0.012583
   172    -0.035397
   173     0.123682
   174    -0.046113
   175    -0.030346
   176    -0.044277
   177    -0.007059
   178     0.006443
   179    -0.000109
   180    -0.000724
   181    -0.002289
   182    -0.025666
   183     0.090942
   184     0.008090
   185    -0.000117
   186     0.000491
   187     0.070990
   188    -0.050914
   189     0.003808
   190     0.001689
   191    -0.005374
   192     0.004742
   193     0.004521
   194    -0.000347
   195     0.004414
   196     0.002269
Sym=   122a
Ene=   -0.864058E-02
Spin= Alpha
Occup= 0.003258
     1    -0.014608
     2     0.030435
     3     0.001563
     4     0.001560
     5     0.010174
     6     0.024788
     7     0.092076
     8     0.004663
     9    -0.015354
    10    -0.130643
    11    -0.006945
    12     0.016724
    13    -0.184586
    14    -0.024432
    15    -0.037290
    16    -0.055530
    17    -0.006584
    18    -0.032134
    19    -0.033776
    20     0.025140
    21    -0.010668
    22    -0.103459
    23     0.247924
    24     0.138857
    25    -0.069249
    26    -0.064966
    27     0.340506
    28    -0.127968
    29    -0.183853
    30    -0.619722
    31     0.484874
    32     0.111370
    33     0.144634
    34     0.537998
    35    -0.202400
    36    -0.000098
    37    -0.001323
    38     0.002407
    39     0.006405
    40    -0.000879
    41    -0.000078
    42    -0.000126
    43    -0.003075
    44    -0.000670
    45    -0.000280
    46     0.001605
    47     0.002847
    48    -0.002496
    49    -0.001476
    50    -0.004749
    51     0.000047
    52     0.000062
    53     0.001451
    54    -0.002466
    55     0.002780
    56     0.002158
    57    -0.000417
    58    -0.000593
    59     0.000091
    60     0.001412
    61     0.012433
    62    -0.021285
    63    -0.016143
    64    -0.004739
    65    -0.020879
    66    -0.020549
    67     0.003265
    68    -0.031444
    69     0.005282
    70    -0.006017
    71    -0.006686
    72    -0.008931
    73     0.023566
    74    -0.012977
    75     0.000213
    76     0.002676
    77     0.006145
    78     0.017225
    79     0.000614
    80     0.000081
    81     0.000184
    82    -0.001272
    83    -0.000373
    84    -0.001189
    85    -0.001224
    86    -0.001789
    87    -0.012122
    88    -0.004423
    89    -0.003158
    90    -0.005069
    91    -0.000175
    92    -0.002794
    93    -0.000305
    94     0.001935
    95     0.007460
    96    -0.003358
    97     0.000761
    98    -0.001637
    99     0.002567
   100     0.001067
   101    -0.003495
   102     0.003594
   103    -0.002395
   104    -0.002906
   105    -0.003681
   106     0.000313
   107    -0.000808
   108    -0.000090
   109     0.013316
   110    -0.076345
   111    -0.003773
   112    -0.065793
   113     0.166632
   114     0.148420
   115    -0.035771
   116     0.007102
   117     0.058574
   118     0.096927
   119    -0.229471
   120     0.121300
   121     0.012794
   122    -0.086833
   123    -0.029215
   124    -0.000729
   125    -0.002569
   126    -0.000522
   127    -0.003763
   128     0.002613
   129     0.000761
   130     0.007711
   131    -0.003475
   132    -0.002597
   133    -0.000103
   134    -0.001381
   135     0.004677
   136    -0.000022
   137    -0.001675
   138     0.000675
   139     0.000156
   140     0.000409
   141     0.006118
   142    -0.005149
   143     0.001675
   144    -0.003262
   145     0.003077
   146    -0.009041
   147     0.016805
   148    -0.014916
   149     0.016633
   150    -0.011161
   151    -0.017900
   152     0.001029
   153     0.000673
   154     0.011814
   155     0.000925
   156     0.001141
   157    -0.006473
   158    -0.000389
   159    -0.004105
   160    -0.002314
   161    -0.051484
   162     0.001620
   163    -0.003581
   164    -0.005054
   165    -0.006027
   166     0.012830
   167     0.020299
   168    -0.008567
   169    -0.015905
   170     0.009469
   171     0.003500
   172    -0.004999
   173     0.014956
   174    -0.006305
   175    -0.002872
   176     0.007951
   177     0.002143
   178    -0.014116
   179     0.000019
   180     0.000431
   181    -0.000501
   182    -0.001009
   183     0.012373
   184     0.000337
   185     0.001273
   186    -0.004644
   187    -0.135129
   188     0.028071
   189    -0.000596
   190     0.020537
   191    -0.019122
   192     0.003420
   193    -0.015344
   194    -0.000733
   195     0.000888
   196    -0.000678
Sym=   123a
Ene=   -0.156974E-01
Spin= Alpha
Occup= 0.013568
     1    -0.049460
     2     0.064229
     3    -0.001249
     4     0.006677
     5     0.009123
     6    -0.001066
     7    -0.003827
     8     0.002697
     9     0.000758
    10    -0.001386
    11     0.004397
    12     0.001193
    13    -0.001156
    14     0.004927
    15    -0.000135
    16     0.000822
    17     0.001461
    18     0.000315
    19    -0.000310
    20    -0.000570
    21    -0.000067
    22     0.000969
    23    -0.005335
    24    -0.003135
    25     0.000452
    26    -0.004263
    27    -0.003863
    28     0.002719
    29    -0.007549
    30     0.001016
    31     0.001207
    32    -0.000468
    33    -0.000108
    34     0.001088
    35    -0.000622
    36     0.002042
    37     0.021084
    38    -0.097172
    39     0.099192
    40     0.258469
    41     0.204733
    42    -0.044641
    43     0.833582
    44     0.672734
    45    -0.145276
    46    -0.569848
    47    -0.511158
    48     0.094727
    49    -0.246797
    50     0.306313
    51    -0.007871
    52     0.215723
    53    -0.004349
    54     0.016276
    55    -0.023919
    56     0.020052
    57    -0.005513
    58    -0.006965
    59    -0.001385
    60     0.001508
    61     0.008524
    62    -0.007226
    63    -0.002726
    64     0.005699
    65    -0.010283
    66    -0.003899
    67     0.010334
    68    -0.009418
    69     0.000240
    70    -0.001810
    71    -0.001079
    72     0.000230
    73     0.000397
    74     0.001583
    75     0.004176
    76     0.042235
    77     0.120020
    78     0.037219
    79    -0.032765
    80    -0.003624
    81    -0.006268
    82     0.167122
    83     0.034116
    84     0.014675
    85    -0.114727
    86    -0.096967
    87    -0.066960
    88     0.117392
    89    -0.294635
    90     0.039997
    91    -0.100777
    92    -0.051525
    93    -0.025967
    94     0.010000
    95     0.044630
    96     0.001608
    97    -0.088469
    98    -0.067054
    99     0.010589
   100     0.030855
   101    -0.077402
   102     0.001789
   103    -0.017030
   104    -0.012687
   105     0.000141
   106    -0.033548
   107    -0.001746
   108     0.000156
   109    -0.001173
   110    -0.010539
   111     0.023340
   112    -0.000363
   113     0.003944
   114    -0.013445
   115     0.001233
   116    -0.003611
   117     0.009160
   118     0.002848
   119     0.000888
   120     0.000867
   121    -0.000119
   122     0.001004
   123     0.000008
   124    -0.012365
   125    -0.050338
   126    -0.030555
   127     0.046442
   128    -0.017110
   129    -0.036857
   130     0.005862
   131     0.069142
   132    -0.046078
   133     0.014195
   134    -0.015426
   135     0.041957
   136    -0.001791
   137    -0.008930
   138    -0.006788
   139     0.001351
   140     0.014826
   141     0.089777
   142    -0.075788
   143     0.000386
   144     0.001021
   145     0.012663
   146    -0.004573
   147    -0.006462
   148    -0.037362
   149     0.064256
   150    -0.017341
   151    -0.029677
   152    -0.012109
   153    -0.000537
   154    -0.037213
   155    -0.008721
   156    -0.010425
   157     0.018080
   158     0.000120
   159     0.002592
   160     0.016811
   161    -0.039928
   162    -0.002650
   163     0.000223
   164     0.003239
   165     0.011031
   166     0.004988
   167    -0.010012
   168    -0.014914
   169    -0.022214
   170     0.000160
   171    -0.003712
   172    -0.013574
   173     0.005756
   174    -0.003862
   175    -0.001752
   176    -0.004091
   177    -0.024523
   178    -0.024278
   179    -0.007165
   180    -0.025694
   181    -0.005442
   182    -0.005348
   183     0.033379
   184     0.002590
   185     0.001679
   186     0.000212
   187     0.008713
   188     0.000389
   189    -0.000126
   190    -0.000002
   191     0.000330
   192    -0.012138
   193    -0.036409
   194    -0.002017
   195    -0.001548
   196    -0.002405
Sym=   124a
Ene=   -0.857003E-02
Spin= Alpha
Occup= 0.004195
     1    -0.001898
     2    -0.068307
     3     0.033246
     4    -0.002719
     5     0.001649
     6    -0.002132
     7    -0.005897
     8    -0.010112
     9    -0.014061
    10     0.008456
    11    -0.016847
    12    -0.023970
    13     0.010701
    14    -0.027847
    15     0.006057
    16     0.002730
    17     0.000613
    18     0.005977
    19     0.003790
    20    -0.004463
    21    -0.002116
    22    -0.004246
    23    -0.016725
    24     0.005459
    25    -0.002688
    26     0.003149
    27     0.001366
    28     0.007209
    29     0.006154
    30     0.001802
    31     0.006735
    32     0.003572
    33     0.001107
    34    -0.002006
    35    -0.001756
    36     0.002296
    37     0.024726
    38    -0.095540
    39     0.060044
    40    -0.030236
    41     0.019166
    42    -0.016331
    43    -0.110969
    44     0.073890
    45    -0.055512
    46     0.103616
    47    -0.079520
    48     0.036299
    49    -0.003825
    50    -0.012997
    51     0.086184
    52     0.036991
    53     0.002600
    54     0.014206
    55     0.013028
    56     0.026597
    57    -0.030829
    58     0.003275
    59    -0.004882
    60     0.006737
    61     0.049123
    62    -0.090232
    63     0.030966
    64    -0.000112
    65    -0.020433
    66     0.061859
    67     0.040582
    68    -0.084156
    69    -0.004332
    70    -0.019115
    71     0.004188
    72     0.005456
    73     0.013290
    74    -0.009559
    75     0.012970
    76     0.133389
    77     0.653979
    78    -0.062760
    79    -0.039706
    80     0.003789
    81     0.025030
    82     0.294456
    83    -0.011230
    84    -0.231977
    85    -0.011530
    86     0.002541
    87    -0.061038
    88    -0.212238
    89    -0.160308
    90    -0.002217
    91    -0.089742
    92    -0.172769
    93    -0.016179
    94    -0.004588
    95    -0.021539
    96     0.037832
    97    -0.049318
    98    -0.012379
    99    -0.022132
   100    -0.064824
   101     0.057261
   102    -0.023809
   103     0.035768
   104    -0.054193
   105     0.043287
   106    -0.001649
   107     0.029051
   108     0.016979
   109    -0.006937
   110    -0.019606
   111    -0.061978
   112    -0.001541
   113    -0.006549
   114    -0.028163
   115    -0.018382
   116     0.000901
   117     0.005021
   118     0.021673
   119     0.017496
   120     0.006782
   121    -0.004219
   122     0.000390
   123    -0.000652
   124     0.033874
   125     0.169164
   126    -0.149242
   127    -0.176393
   128     0.055361
   129     0.246136
   130     0.421490
   131    -0.170167
   132    -0.749245
   133    -0.015715
   134     0.019054
   135    -0.142591
   136    -0.329218
   137    -0.512815
   138    -0.410870
   139    -0.020724
   140    -0.243424
   141    -1.296522
   142     0.330931
   143     0.029448
   144     0.002529
   145     0.010801
   146    -0.132897
   147    -0.103582
   148    -0.245318
   149    -0.142099
   150     0.010257
   151     0.022219
   152     0.361920
   153     0.387052
   154     0.192266
   155     0.099089
   156     0.194867
   157    -0.116707
   158     0.000077
   159    -0.001429
   160    -0.003073
   161     0.002806
   162    -0.003184
   163     0.012075
   164     0.002976
   165     0.018227
   166    -0.042607
   167    -0.011725
   168     0.004087
   169     0.039116
   170     0.006877
   171     0.062527
   172    -0.022137
   173    -0.003611
   174     0.107263
   175     0.024777
   176     0.006766
   177    -0.018090
   178    -0.031480
   179     0.003707
   180    -0.004958
   181    -0.006290
   182    -0.096800
   183    -0.072772
   184     0.011196
   185     0.032539
   186     0.008434
   187     0.003978
   188     0.031461
   189     0.006104
   190     0.000464
   191    -0.000945
   192     0.068639
   193     0.127986
   194     0.010357
   195    -0.013453
   196     0.003650
Sym=   125a
Ene=   -0.843350E-02
Spin= Alpha
Occup= 0.004275
     1     0.027750
     2    -0.034265
     3     0.006367
     4    -0.002013
     5    -0.016483
     6     0.001569
     7     0.009393
     8    -0.017786
     9    -0.001635
    10    -0.000134
    11    -0.007867
    12    -0.000443
    13    -0.004463
    14    -0.013914
    15     0.001297
    16    -0.003267
    17    -0.001653
    18    -0.000561
    19     0.003587
    20     0.000302
    21     0.000027
    22     0.008068
    23    -0.036606
    24     0.004543
    25    -0.003371
    26    -0.000040
    27     0.004405
    28     0.002469
    29    -0.005647
    30     0.003267
    31     0.002891
    32     0.000872
    33    -0.000086
    34    -0.000343
    35     0.000770
    36     0.000445
    37     0.018016
    38     0.005370
    39    -0.239008
    40     0.102850
    41    -0.139153
    42     0.042984
    43     0.361811
    44    -0.504799
    45     0.137629
    46    -0.321735
    47     0.508046
    48    -0.051367
    49     0.187540
    50     0.125906
    51    -0.135981
    52    -0.015289
    53    -0.001049
    54    -0.032923
    55     0.286198
    56    -0.117784
    57     0.001428
    58    -0.044670
    59    -0.091167
    60     0.004688
    61     0.019820
    62    -0.015743
    63     0.008878
    64     0.000304
    65    -0.003364
    66     0.013306
    67     0.008417
    68    -0.012769
    69    -0.000773
    70    -0.004473
    71    -0.013684
    72     0.003145
    73    -0.006705
    74     0.002837
    75     0.095476
    76     1.052127
    77     3.552982
    78     0.043757
    79     0.072595
    80    -0.005157
    81     0.007662
    82    -0.354256
    83     0.013846
    84    -0.020076
    85    -0.015336
    86    -0.001990
    87    -0.068130
    88    -1.315772
    89    -1.374486
    90    -1.472701
    91     0.022313
    92     0.136932
    93    -0.073016
    94    -0.019984
    95    -0.022459
    96    -0.107108
    97    -0.131389
    98    -0.238511
    99    -0.009344
   100    -0.141546
   101    -0.332247
   102     0.003923
   103    -0.044967
   104     0.194763
   105    -0.005096
   106    -0.032063
   107    -0.062285
   108    -0.035923
   109     0.000702
   110    -0.010419
   111     0.027799
   112     0.005277
   113    -0.002456
   114     0.004214
   115    -0.016379
   116    -0.013679
   117     0.078347
   118    -0.000527
   119     0.000623
   120    -0.002884
   121    -0.003275
   122    -0.002514
   123     0.000785
   124    -0.021064
   125    -0.121839
   126     0.293975
   127    -0.137168
   128     0.000072
   129     0.134730
   130     0.037850
   131    -0.044307
   132    -0.031849
   133     0.080994
   134     0.057776
   135    -0.032007
   136    -0.027025
   137     0.087492
   138    -0.027191
   139    -0.007679
   140    -0.090679
   141    -0.393175
   142    -0.022371
   143     0.009769
   144     0.006218
   145     0.005188
   146    -0.036298
   147    -0.038023
   148    -0.071015
   149     0.075441
   150    -0.001364
   151    -0.035125
   152     0.144091
   153     0.131702
   154     0.082516
   155    -0.002561
   156     0.019427
   157    -0.016114
   158    -0.000199
   159    -0.003419
   160     0.014748
   161    -0.056022
   162    -0.002233
   163     0.001445
   164     0.002672
   165     0.012522
   166    -0.002205
   167    -0.004788
   168    -0.024750
   169    -0.000702
   170    -0.005323
   171     0.024306
   172     0.003842
   173     0.003662
   174     0.028660
   175     0.006776
   176     0.000105
   177     0.039077
   178     0.050081
   179    -0.028985
   180     0.036528
   181     0.007125
   182    -0.026762
   183     0.071664
   184    -0.000959
   185     0.006883
   186     0.004020
   187    -0.005428
   188     0.054294
   189     0.002253
   190    -0.000344
   191     0.000201
   192    -0.007055
   193    -0.008590
   194     0.004431
   195    -0.004346
   196    -0.004308
Sym=   126a
Ene=   -0.102734E-01
Spin= Alpha
Occup= 0.006287
     1    -0.055268
     2    -0.015263
     3     0.008253
     4     0.019065
     5    -0.014064
     6     0.052768
     7     0.211149
     8    -0.072592
     9    -0.010685
    10     0.008556
    11     0.006501
    12     0.015875
    13     0.043024
    14     0.023719
    15    -0.067788
    16    -0.100154
    17    -0.015914
    18    -0.020563
    19    -0.005111
    20    -0.022045
    21     0.006485
    22     0.029758
    23     0.008877
    24     0.164639
    25    -0.009621
    26     0.314679
    27     0.230923
    28    -0.022368
    29     0.437689
    30    -0.017171
    31    -0.013718
    32     0.013659
    33    -0.037174
    34    -0.036803
    35    -0.008384
    36    -0.001129
    37    -0.010498
    38     0.021321
    39     0.039159
    40    -0.003162
    41     0.003318
    42    -0.031552
    43    -0.010318
    44     0.013410
    45    -0.111071
    46     0.016216
    47    -0.033386
    48     0.088679
    49    -0.056273
    50    -0.064176
    51     0.100712
    52     0.043876
    53    -0.010386
    54     0.006685
    55     0.000474
    56    -0.006293
    57    -0.008814
    58     0.007601
    59     0.001928
    60     0.070782
    61     0.110491
    62     0.455947
    63     0.126648
    64    -0.087115
    65     0.153498
    66    -0.020180
    67    -0.217670
    68     0.121756
    69    -0.027655
    70     0.001965
    71    -0.226649
    72     0.008193
    73    -0.196296
    74     0.107629
    75     0.004483
    76     0.046333
    77     0.167371
    78    -0.097328
    79     0.007640
    80    -0.003681
    81    -0.001407
    82    -0.027039
    83    -0.000099
    84    -0.000666
    85    -0.000110
    86    -0.013849
    87     0.038739
    88    -0.077488
    89    -0.064570
    90    -0.011635
    91     0.030836
    92    -0.007076
    93     0.017635
    94    -0.000295
    95     0.004439
    96    -0.017298
    97    -0.002453
    98    -0.018183
    99    -0.003395
   100    -0.000902
   101    -0.029842
   102    -0.004052
   103    -0.009530
   104     0.016206
   105    -0.000665
   106     0.000812
   107    -0.005292
   108    -0.002000
   109     0.227264
   110     1.147107
   111    -0.367412
   112     0.216111
   113    -0.056408
   114     0.777042
   115    -0.057285
   116     0.000340
   117     0.092481
   118    -0.562175
   119    -0.362682
   120    -0.095298
   121    -0.002193
   122    -0.068465
   123     0.064312
   124    -0.008982
   125    -0.033591
   126    -0.035225
   127     0.020333
   128    -0.011697
   129     0.036561
   130    -0.028411
   131     0.068618
   132     0.015435
   133     0.015589
   134     0.020324
   135    -0.008857
   136     0.008312
   137    -0.015840
   138     0.022412
   139    -0.017863
   140    -0.187736
   141    -0.811510
   142     0.356786
   143    -0.044768
   144     0.065117
   145    -0.058687
   146     0.193827
   147    -0.261402
   148     0.272758
   149    -0.109964
   150     0.043476
   151    -0.054154
   152     0.250891
   153     0.158147
   154     0.214458
   155     0.030579
   156    -0.062103
   157     0.124910
   158    -0.000080
   159    -0.007998
   160    -0.060261
   161     0.051680
   162    -0.013927
   163    -0.014943
   164     0.032422
   165     0.044252
   166     0.045643
   167    -0.093932
   168     0.012878
   169     0.003268
   170     0.006843
   171     0.040949
   172     0.030484
   173     0.010637
   174     0.013769
   175     0.001077
   176    -0.025797
   177    -0.019590
   178    -0.019214
   179     0.006204
   180    -0.004310
   181    -0.005593
   182    -0.035648
   183    -0.088382
   184    -0.004979
   185    -0.011995
   186    -0.000695
   187    -0.483351
   188     0.001440
   189    -0.099513
   190    -0.038209
   191    -0.000473
   192    -0.059941
   193    -0.027263
   194     0.015540
   195    -0.009429
   196    -0.000797
Sym=   127a
Ene=   -0.115800E-01
Spin= Alpha
Occup= 0.006762
     1    -0.049284
     2    -0.006421
     3     0.001742
     4     0.006624
     5     0.009567
     6     0.008645
     7     0.040816
     8    -0.031020
     9     0.006397
    10    -0.000193
    11    -0.006001
    12     0.013155
    13     0.005042
    14    -0.013057
    15    -0.007037
    16    -0.010185
    17    -0.008635
    18    -0.000891
    19    -0.002935
    20     0.003004
    21    -0.000160
    22    -0.004238
    23     0.019758
    24    -0.009782
    25     0.001201
    26    -0.012832
    27    -0.010702
    28    -0.002651
    29    -0.023528
    30     0.002798
    31    -0.002580
    32     0.000204
    33     0.000084
    34     0.004249
    35     0.000324
    36    -0.000358
    37    -0.005254
    38     0.021723
    39    -0.007485
    40    -0.001947
    41     0.002347
    42    -0.004604
    43    -0.002620
    44     0.000620
    45    -0.014432
    46    -0.020713
    47     0.029554
    48    -0.006083
    49    -0.005698
    50    -0.019459
    51     0.002610
    52     0.011319
    53     0.020247
    54    -0.003515
    55    -0.151184
    56    -0.019625
    57     0.004977
    58    -0.003961
    59     0.027394
    60     0.002672
    61     0.029726
    62    -0.072342
    63    -0.025353
    64    -0.007456
    65     0.018287
    66    -0.070676
    67     0.032045
    68    -0.020312
    69     0.001654
    70    -0.005431
    71    -0.000027
    72    -0.007937
    73     0.012337
    74    -0.001770
    75    -0.015542
    76    -0.148566
    77    -0.648512
    78     0.025848
    79     0.024207
    80     0.004435
    81    -0.115334
    82    -0.158365
    83    -0.002913
    84     0.557628
    85    -0.048125
    86     0.020380
    87    -0.018467
    88     0.017472
    89     0.158039
    90     0.181297
    91    -0.076776
    92     0.179302
    93    -0.010358
    94     0.026353
    95     0.107798
    96    -0.030089
    97    -0.091782
    98    -0.036488
    99     0.026763
   100    -0.136726
   101    -0.010293
   102     0.046048
   103    -0.014868
   104    -0.066107
   105    -0.005160
   106    -0.014317
   107    -0.000040
   108     0.003504
   109     0.005077
   110     0.009649
   111    -0.029912
   112    -0.005606
   113     0.017662
   114    -0.016803
   115    -0.011569
   116    -0.017956
   117    -0.026742
   118    -0.009965
   119    -0.005003
   120    -0.003567
   121    -0.003164
   122     0.004315
   123    -0.004698
   124    -0.170996
   125    -0.993602
   126     1.403981
   127     0.330426
   128     0.121853
   129     0.049798
   130    -0.577961
   131    -0.336465
   132    -0.191309
   133     0.225205
   134     0.410241
   135    -0.145746
   136    -0.098816
   137     0.217891
   138    -0.301520
   139    -0.026003
   140    -0.265664
   141    -1.296787
   142     0.342131
   143    -0.068824
   144     0.053117
   145     0.131060
   146     0.315258
   147    -0.270602
   148    -0.700925
   149    -0.097945
   150     0.050774
   151     0.061344
   152     0.388872
   153     0.325273
   154     0.067725
   155    -0.079614
   156     0.005768
   157    -0.199972
   158    -0.001353
   159    -0.016679
   160    -0.049466
   161    -0.068679
   162    -0.011485
   163    -0.020500
   164     0.009435
   165     0.043435
   166     0.078424
   167    -0.029439
   168    -0.064864
   169    -0.034852
   170    -0.002743
   171     0.014968
   172     0.038428
   173     0.035316
   174    -0.039542
   175    -0.001059
   176     0.013683
   177    -0.024550
   178    -0.036740
   179    -0.002494
   180    -0.001658
   181    -0.006848
   182     0.032876
   183     0.042132
   184    -0.022123
   185    -0.031002
   186    -0.003305
   187     0.014226
   188    -0.016517
   189    -0.001089
   190    -0.000765
   191     0.001123
   192    -0.167965
   193    -0.002283
   194     0.019010
   195    -0.016051
   196    -0.020233
Sym=   128a
Ene=   -0.807514E-02
Spin= Alpha
Occup= 0.005493
     1     0.214772
     2    -0.011481
     3    -0.055471
     4    -0.033277
     5    -0.035318
     6    -0.103061
     7    -0.483120
     8     0.347889
     9    -0.005901
    10    -0.040286
    11     0.266889
    12    -0.012871
    13    -0.100628
    14     0.488154
    15     0.072700
    16     0.130244
    17     0.110567
    18     0.001907
    19    -0.028409
    20    -0.009794
    21     0.005556
    22     0.022739
    23     0.004781
    24    -0.036040
    25     0.018953
    26    -0.002285
    27    -0.033312
    28     0.002157
    29     0.004651
    30    -0.017509
    31    -0.004056
    32     0.004360
    33     0.005682
    34    -0.016767
    35    -0.003265
    36    -0.001182
    37    -0.011767
    38     0.054387
    39    -0.074084
    40    -0.020430
    41     0.007597
    42    -0.057228
    43    -0.070670
    44     0.022572
    45    -0.202005
    46     0.060845
    47    -0.005427
    48     0.194016
    49    -0.084055
    50    -0.155098
    51     0.219677
    52     0.130780
    53    -0.028312
    54     0.020073
    55     0.049450
    56    -0.006059
    57    -0.018561
    58     0.019899
    59    -0.003536
    60    -0.009209
    61    -0.034884
    62     0.018390
    63     0.023547
    64    -0.015394
    65     0.068972
    66     0.028472
    67    -0.013929
    68     0.109467
    69    -0.016534
    70    -0.001942
    71     0.040396
    72     0.009323
    73     0.026207
    74    -0.039195
    75     0.012936
    76     0.135820
    77     0.420594
    78     0.053273
    79     0.034364
    80    -0.014214
    81     0.009567
    82    -0.130943
    83     0.020880
    84    -0.035443
    85    -0.028036
    86     0.005509
    87    -0.033082
    88    -0.179227
    89    -0.169079
    90    -0.131880
    91     0.046019
    92    -0.019918
    93     0.065365
    94    -0.004991
    95    -0.007182
    96    -0.034561
    97    -0.013282
    98    -0.069517
    99     0.002883
   100    -0.019698
   101    -0.129087
   102     0.007772
   103    -0.031880
   104     0.069791
   105    -0.012274
   106    -0.004426
   107    -0.030163
   108    -0.013538
   109     0.005880
   110     0.074309
   111     0.082097
   112    -0.076460
   113    -0.054648
   114     0.102012
   115     0.001860
   116    -0.027884
   117     0.010845
   118    -0.007593
   119    -0.036173
   120    -0.016919
   121     0.022293
   122    -0.011487
   123    -0.024121
   124    -0.021645
   125    -0.102429
   126     0.043387
   127     0.016490
   128     0.048878
   129     0.052866
   130    -0.030573
   131    -0.041395
   132     0.004931
   133     0.031130
   134     0.015644
   135     0.019222
   136     0.021344
   137    -0.000266
   138     0.010005
   139    -0.024611
   140    -0.282601
   141    -1.192865
   142     0.059391
   143     0.037639
   144     0.008577
   145    -0.012934
   146    -0.109647
   147     0.004880
   148     0.059237
   149     0.130280
   150     0.000151
   151     0.003472
   152     0.210831
   153     0.495141
   154     0.422451
   155    -0.000149
   156     0.038133
   157     0.031905
   158     0.028856
   159     0.337806
   160     1.190539
   161    -0.390070
   162     0.102020
   163     0.070422
   164    -0.146851
   165    -0.351064
   166    -0.268770
   167     0.508758
   168     0.027645
   169     0.065285
   170    -0.075627
   171    -0.822256
   172    -0.341244
   173    -0.399528
   174    -0.206142
   175    -0.134280
   176    -0.088927
   177    -0.007802
   178     0.010935
   179     0.017619
   180    -0.009295
   181     0.001179
   182     0.123120
   183     0.384932
   184     0.100225
   185    -0.143946
   186    -0.033811
   187    -0.033650
   188    -0.044161
   189     0.009334
   190     0.029079
   191     0.004916
   192     0.009857
   193     0.073851
   194     0.005673
   195    -0.033669
   196    -0.010102
Sym=   129a
Ene=   -0.920418E-02
Spin= Alpha
Occup= 0.003818
     1    -0.002303
     2     0.001883
     3    -0.003196
     4     0.001630
     5    -0.007163
     6    -0.003464
     7    -0.016007
     8     0.024660
     9     0.012017
    10     0.027289
    11     0.007900
    12     0.016608
    13     0.039892
    14     0.016333
    15     0.013554
    16     0.002056
    17    -0.005032
    18     0.024232
    19     0.016417
    20    -0.003065
    21    -0.004780
    22    -0.021094
    23     0.025091
    24     0.084460
    25    -0.018141
    26     0.156278
    27     0.160175
    28    -0.038138
    29     0.310488
    30    -0.343284
    31    -0.228140
    32     0.590084
    33     0.165325
    34     0.012553
    35     0.640707
    36     0.000128
    37     0.002311
    38     0.000128
    39    -0.028882
    40     0.001758
    41    -0.000888
    42    -0.001192
    43     0.006157
    44    -0.003055
    45    -0.005900
    46    -0.004422
    47     0.002130
    48     0.015402
    49     0.005991
    50     0.009366
    51    -0.000028
    52    -0.001331
    53    -0.001327
    54     0.003868
    55    -0.004103
    56    -0.008944
    57     0.000399
    58     0.000583
    59     0.000264
    60    -0.009799
    61    -0.027781
    62    -0.020693
    63    -0.070166
    64     0.019990
    65    -0.052377
    66    -0.105980
    67     0.061554
    68    -0.062856
    69     0.015131
    70    -0.016844
    71     0.039792
    72    -0.010064
    73     0.071970
    74    -0.025012
    75    -0.000190
    76    -0.002329
    77    -0.001478
    78    -0.013054
    79    -0.000559
    80    -0.000401
    81    -0.000271
    82     0.000619
    83     0.003299
    84     0.000106
    85     0.006028
    86     0.002812
    87     0.021581
    88     0.005820
    89     0.002960
    90     0.002309
    91    -0.000082
    92     0.003124
    93    -0.001664
    94    -0.001833
    95    -0.009018
    96     0.010518
    97    -0.001316
    98     0.002081
    99    -0.004081
   100    -0.002305
   101     0.004170
   102    -0.007868
   103     0.002222
   104     0.002192
   105     0.001622
   106    -0.000452
   107    -0.000243
   108    -0.000095
   109    -0.083980
   110    -0.424284
   111     0.030874
   112     0.085157
   113    -0.007226
   114     0.023728
   115     0.005609
   116     0.011047
   117    -0.094839
   118     0.245084
   119     0.159357
   120    -0.016604
   121    -0.077200
   122     0.121577
   123    -0.125924
   124     0.000255
   125     0.000328
   126     0.009519
   127     0.001250
   128    -0.002731
   129    -0.004534
   130    -0.003448
   131    -0.005926
   132    -0.003418
   133     0.001762
   134     0.000570
   135    -0.000883
   136    -0.002568
   137     0.002177
   138    -0.003421
   139     0.004226
   140     0.049415
   141     0.207420
   142    -0.004146
   143     0.000879
   144    -0.000519
   145     0.004213
   146    -0.010008
   147     0.018374
   148    -0.040903
   149    -0.030645
   150     0.011434
   151     0.002617
   152    -0.070494
   153    -0.053848
   154    -0.062200
   155    -0.003632
   156     0.010413
   157    -0.021108
   158     0.000044
   159    -0.000962
   160     0.002893
   161    -0.016814
   162    -0.001698
   163    -0.004705
   164     0.001630
   165     0.007650
   166     0.019937
   167    -0.005386
   168    -0.015049
   169    -0.020619
   170    -0.005028
   171    -0.005435
   172     0.019888
   173     0.001838
   174    -0.001403
   175     0.000447
   176    -0.000040
   177    -0.011843
   178     0.039288
   179    -0.000161
   180    -0.000307
   181     0.000376
   182     0.002196
   183    -0.003102
   184     0.002578
   185    -0.002389
   186     0.000191
   187     0.048519
   188    -0.011643
   189     0.017528
   190    -0.005835
   191    -0.004864
   192     0.010008
   193     0.004280
   194    -0.003624
   195     0.000396
   196     0.003053
Sym=   130a
Ene=   -0.896456E-02
Spin= Alpha
Occup= 0.003452
     1     0.029091
     2    -0.004292
     3     0.002364
     4     0.002970
     5     0.001992
     6    -0.003541
     7    -0.024623
     8     0.036473
     9     0.024248
    10     0.011857
    11     0.016331
    12     0.047652
    13     0.005617
    14     0.043519
    15     0.010170
    16    -0.002576
    17    -0.004186
    18     0.005685
    19     0.000945
    20     0.001394
    21     0.024466
    22     0.091953
    23     0.031584
    24    -0.113321
    25     0.037170
    26    -0.019476
    27    -0.136486
    28    -0.010609
    29    -0.065691
    30    -0.032587
    31    -0.035913
    32    -0.028767
    33     0.012199
    34     0.041827
    35     0.050645
    36     0.000185
    37     0.002530
    38    -0.005141
    39    -0.017808
    40     0.001154
    41    -0.001097
    42     0.004767
    43     0.003279
    44    -0.003454
    45     0.016682
    46    -0.001070
    47     0.004829
    48    -0.008251
    49     0.011960
    50     0.021835
    51    -0.022443
    52    -0.017896
    53    -0.001915
    54     0.000276
    55    -0.009045
    56     0.008141
    57    -0.002865
    58    -0.000419
    59     0.003566
    60    -0.033892
    61    -0.098005
    62    -0.068088
    63    -0.092124
    64     0.076823
    65    -0.059617
    66    -0.165787
    67     0.162719
    68    -0.147366
    69     0.133520
    70     0.651887
    71    -0.619390
    72    -0.414804
    73     0.156062
    74    -0.319379
    75    -0.000125
    76    -0.000100
    77     0.014731
    78     0.054420
    79    -0.007697
    80     0.003407
    81    -0.006274
    82     0.047990
    83    -0.012634
    84     0.010958
    85    -0.005973
    86    -0.002684
    87    -0.045087
    88     0.005008
    89    -0.005917
    90     0.003591
    91    -0.001347
    92    -0.008456
    93     0.003796
    94    -0.000205
    95    -0.000407
    96    -0.005555
    97     0.000178
    98     0.003064
    99    -0.003472
   100     0.001521
   101     0.006216
   102    -0.006508
   103     0.003198
   104    -0.004697
   105     0.003253
   106     0.001846
   107     0.002888
   108     0.000586
   109     0.001364
   110    -0.029498
   111     0.002847
   112     0.010892
   113     0.029822
   114     0.040843
   115    -0.034333
   116     0.015231
   117     0.047274
   118    -0.088408
   119    -0.031569
   120     0.036584
   121     0.094754
   122     0.085507
   123     0.023226
   124    -0.020059
   125    -0.077031
   126    -0.016956
   127     0.015124
   128     0.005188
   129     0.076958
   130    -0.014260
   131     0.028168
   132    -0.133941
   133    -0.007070
   134     0.013422
   135     0.073353
   136     0.017482
   137    -0.023600
   138     0.018455
   139    -0.004626
   140    -0.057453
   141    -0.205880
   142    -0.039746
   143     0.009272
   144    -0.016637
   145     0.015729
   146    -0.055359
   147     0.079241
   148    -0.119342
   149     0.074883
   150    -0.031256
   151    -0.019514
   152     0.038562
   153     0.015374
   154     0.246275
   155     0.033597
   156     0.016678
   157    -0.044669
   158     0.001001
   159     0.012061
   160     0.053861
   161    -0.032233
   162     0.002901
   163     0.002287
   164    -0.004259
   165    -0.008699
   166    -0.007722
   167     0.015737
   168    -0.008924
   169    -0.003077
   170     0.006037
   171    -0.007972
   172    -0.028847
   173    -0.020618
   174    -0.003606
   175    -0.002673
   176    -0.000243
   177     0.003731
   178     0.008960
   179    -0.000679
   180    -0.000584
   181     0.001312
   182     0.012505
   183     0.040216
   184    -0.002408
   185     0.000596
   186     0.000155
   187     0.038714
   188     0.002716
   189    -0.017015
   190    -0.006238
   191     0.019279
   192     0.028361
   193    -0.013350
   194     0.002647
   195    -0.001759
   196     0.000322
Sym=   131a
Ene=   -0.200924E-01
Spin= Alpha
Occup= 0.011901
     1     0.039208
     2    -0.022387
     3    -0.004498
     4     0.001869
     5    -0.023848
     6     0.004352
     7     0.015298
     8    -0.005565
     9    -0.000000
    10     0.003531
    11    -0.018336
    12    -0.002175
    13    -0.004697
    14    -0.019692
    15    -0.002928
    16    -0.004033
    17    -0.002910
    18    -0.001361
    19     0.001286
    20     0.001608
    21    -0.000663
    22    -0.000750
    23    -0.007525
    24     0.002395
    25    -0.001778
    26     0.003868
    27     0.002093
    28    -0.000065
    29     0.003370
    30    -0.000019
    31    -0.000346
    32     0.001818
    33    -0.000462
    34    -0.000966
    35     0.000783
    36     0.005611
    37     0.055379
    38    -0.142669
    39    -0.012457
    40    -0.002387
    41     0.021725
    42     0.015483
    43     0.001023
    44     0.083746
    45     0.050767
    46    -0.048927
    47    -0.063409
    48    -0.031919
    49     0.045976
    50     0.096319
    51    -0.005267
    52    -0.012489
    53    -0.016961
    54     0.014750
    55     0.045669
    56    -0.015775
    57    -0.008692
    58    -0.021580
    59     0.004264
    60     0.002355
    61     0.008805
    62    -0.005151
    63     0.002796
    64     0.000981
    65    -0.000150
    66     0.004334
    67    -0.000229
    68    -0.007542
    69    -0.002113
    70    -0.000416
    71    -0.003045
    72    -0.000324
    73    -0.003284
    74     0.001261
    75    -0.006405
    76    -0.062401
    77    -0.188882
    78     0.025391
    79     0.008399
    80    -0.023097
    81     0.032185
    82    -0.057679
    83     0.095971
    84    -0.154038
    85     0.017822
    86    -0.050717
    87     0.060439
    88    -0.007508
    89     0.169500
    90     0.043305
    91    -0.105520
    92    -0.111333
    93    -0.119485
    94    -0.003292
    95    -0.013046
    96     0.007657
    97     0.470723
    98    -0.446038
    99     0.627766
   100     0.481690
   101    -0.431330
   102     0.620928
   103     0.044797
   104    -0.031938
   105     0.011130
   106    -0.005459
   107     0.014958
   108     0.030425
   109    -0.000707
   110    -0.002106
   111    -0.015225
   112     0.005268
   113    -0.006153
   114     0.012985
   115    -0.010487
   116    -0.000143
   117     0.016648
   118    -0.000673
   119     0.002746
   120     0.000188
   121    -0.000621
   122    -0.000031
   123     0.002637
   124    -0.011822
   125    -0.045896
   126    -0.013298
   127     0.043270
   128     0.007315
   129    -0.001246
   130    -0.021509
   131    -0.016673
   132    -0.037653
   133     0.015189
   134     0.014264
   135    -0.000632
   136    -0.013965
   137    -0.008561
   138     0.002066
   139     0.000072
   140     0.000536
   141    -0.025194
   142     0.048827
   143     0.002969
   144     0.002085
   145    -0.004292
   146    -0.005450
   147    -0.010865
   148     0.003196
   149    -0.044633
   150     0.002588
   151     0.006386
   152    -0.002862
   153    -0.004787
   154     0.000382
   155    -0.001076
   156     0.002862
   157    -0.004994
   158     0.007232
   159     0.066876
   160     0.208900
   161    -0.028364
   162    -0.001780
   163    -0.004167
   164    -0.013689
   165     0.006173
   166     0.008848
   167     0.044282
   168    -0.004384
   169    -0.004149
   170    -0.022089
   171    -0.052553
   172    -0.036042
   173    -0.103479
   174     0.001253
   175    -0.007394
   176    -0.004668
   177     0.009313
   178     0.025720
   179    -0.001486
   180    -0.007915
   181    -0.001714
   182     0.000295
   183    -0.030330
   184    -0.002338
   185     0.000480
   186    -0.000711
   187    -0.009555
   188     0.019412
   189    -0.000183
   190    -0.000544
   191    -0.000260
   192     0.007734
   193     0.015278
   194    -0.000267
   195     0.001170
   196     0.000041
Sym=   132a
Ene=   -0.210770E-01
Spin= Alpha
Occup= 0.009356
     1    -0.030493
     2    -0.014235
     3    -0.001757
     4    -0.000555
     5     0.031436
     6    -0.429997
     7    -1.624178
     8     0.449893
     9    -0.195215
    10    -0.338868
    11    -0.401231
    12    -0.237265
    13    -0.425476
    14    -0.439432
    15     0.433258
    16     0.477619
    17     0.426262
    18     0.024872
    19    -0.024597
    20    -0.063546
    21    -0.009957
    22    -0.026417
    23    -0.061724
    24     0.079488
    25    -0.011638
    26     0.075904
    27     0.066819
    28     0.031825
    29     0.110501
    30     0.031182
    31     0.002466
    32     0.001797
    33    -0.008082
    34     0.001163
    35     0.000113
    36    -0.000410
    37    -0.003852
    38     0.019862
    39    -0.041035
    40     0.000561
    41    -0.002153
    42    -0.001159
    43     0.002366
    44    -0.008920
    45    -0.005759
    46    -0.005657
    47     0.018810
    48     0.016904
    49    -0.000722
    50    -0.001662
    51    -0.003322
    52    -0.001463
    53     0.000592
    54    -0.001451
    55    -0.001306
    56     0.018578
    57    -0.000553
    58    -0.000870
    59     0.000824
    60     0.025760
    61     0.092529
    62    -0.021910
    63     0.012938
    64    -0.004297
    65     0.019816
    66    -0.009209
    67    -0.028106
    68     0.014591
    69    -0.024094
    70    -0.006411
    71    -0.030178
    72    -0.020452
    73    -0.016240
    74     0.000187
    75    -0.000385
    76    -0.003233
    77    -0.024278
    78     0.050244
    79     0.000263
    80     0.000742
    81    -0.003221
    82     0.001631
    83    -0.001965
    84     0.014246
    85    -0.023565
    86     0.002270
    87    -0.045707
    88    -0.000929
    89     0.003119
    90     0.005066
    91     0.002986
    92    -0.003882
    93    -0.006132
    94     0.004430
    95     0.019680
    96    -0.018511
    97     0.004179
    98    -0.000226
    99     0.004377
   100     0.005354
   101    -0.004816
   102     0.007674
   103    -0.006333
   104    -0.007137
   105    -0.003721
   106     0.001142
   107     0.002354
   108     0.001686
   109    -0.030375
   110    -0.079171
   111     0.113926
   112     0.105152
   113     0.004969
   114    -0.038766
   115     0.002013
   116    -0.050200
   117     0.012121
   118     0.030643
   119     0.102014
   120     0.019829
   121     0.022319
   122     0.004355
   123     0.060825
   124     0.000343
   125     0.004143
   126    -0.019929
   127     0.001784
   128    -0.007290
   129    -0.001003
   130     0.006737
   131     0.012702
   132     0.001279
   133     0.001821
   134    -0.000096
   135     0.000426
   136    -0.000189
   137     0.000309
   138     0.002466
   139     0.000654
   140     0.006317
   141     0.030880
   142    -0.055202
   143     0.000636
   144     0.008342
   145    -0.001122
   146     0.000032
   147    -0.025172
   148     0.009465
   149     0.017872
   150    -0.002691
   151     0.010617
   152    -0.000687
   153    -0.011224
   154    -0.006246
   155     0.003641
   156    -0.012231
   157     0.008465
   158    -0.006428
   159    -0.062098
   160    -0.180515
   161    -0.009865
   162    -0.026745
   163    -0.030255
   164    -0.016317
   165     0.085985
   166     0.100171
   167     0.064789
   168    -0.010219
   169     0.007349
   170    -0.026697
   171     0.030446
   172     0.016296
   173     0.158192
   174    -0.026054
   175     0.005465
   176     0.020984
   177    -0.004069
   178     0.016393
   179    -0.000539
   180    -0.000382
   181    -0.000664
   182    -0.045281
   183     0.042267
   184     0.007642
   185    -0.002641
   186     0.008743
   187    -0.039145
   188    -0.000411
   189    -0.000527
   190    -0.004408
   191    -0.020841
   192    -0.004998
   193     0.001206
   194    -0.000069
   195    -0.000284
   196     0.000288
Sym=   133a
Ene=   -0.168002E-01
Spin= Alpha
Occup= 0.006731
     1     0.021348
     2     0.016513
     3    -0.003343
     4    -0.000588
     5    -0.006720
     6    -0.014835
     7    -0.064020
     8     0.026394
     9     0.075222
    10     0.062157
    11     0.050177
    12     0.118928
    13     0.060592
    14     0.079922
    15    -0.010295
    16     0.048061
    17     0.011661
    18     0.007585
    19    -0.027815
    20    -0.011007
    21    -0.011661
    22    -0.050780
    23     0.039889
    24     0.100118
    25    -0.000499
    26     0.140972
    27     0.125244
    28    -0.009557
    29     0.184543
    30     0.025742
    31     0.023210
    32    -0.007994
    33    -0.007208
    34    -0.015768
    35    -0.009133
    36     0.000297
    37     0.003218
    38     0.007933
    39    -0.076654
    40    -0.000530
    41    -0.000507
    42     0.008803
    43    -0.002778
    44    -0.003332
    45     0.029664
    46    -0.002402
    47     0.020348
    48    -0.006618
    49     0.024078
    50     0.022289
    51    -0.033895
    52    -0.012695
    53     0.002021
    54    -0.002999
    55     0.001318
    56    -0.005557
    57     0.003203
    58    -0.002611
    59    -0.000324
    60     0.442806
    61     1.793514
    62    -0.860899
    63     0.263490
    64     0.092449
    65     0.082923
    66     0.306465
    67     0.207349
    68     0.017261
    69    -0.451397
    70    -0.611894
    71    -0.388339
    72    -0.048250
    73     0.204456
    74    -0.258744
    75    -0.002270
    76    -0.022954
    77    -0.082367
    78     0.106701
    79    -0.001948
    80    -0.000202
    81     0.000642
    82     0.009205
    83     0.006361
    84    -0.003607
    85     0.017115
    86     0.018296
    87    -0.033005
    88     0.054614
    89     0.028777
    90    -0.007276
    91    -0.014850
    92    -0.003684
    93    -0.004836
    94    -0.001172
    95    -0.007469
    96     0.011382
    97     0.000907
    98     0.006018
    99    -0.001614
   100     0.002189
   101     0.007542
   102    -0.002878
   103     0.004230
   104    -0.002654
   105    -0.000022
   106    -0.000777
   107     0.000928
   108    -0.000241
   109     0.146001
   110     0.775178
   111    -0.133106
   112    -0.145624
   113     0.037864
   114     0.014045
   115     0.014048
   116     0.025558
   117    -0.012977
   118    -0.151389
   119    -0.176174
   120    -0.198246
   121     0.049481
   122    -0.047414
   123     0.019969
   124     0.005099
   125     0.007009
   126     0.085020
   127    -0.007236
   128    -0.002266
   129    -0.026103
   130     0.025815
   131    -0.060739
   132    -0.069833
   133    -0.014626
   134    -0.007906
   135     0.005670
   136     0.001542
   137     0.016905
   138    -0.011726
   139     0.025587
   140     0.263176
   141     1.060030
   142    -0.327004
   143     0.053709
   144    -0.052678
   145     0.073925
   146    -0.233812
   147     0.202417
   148    -0.335481
   149     0.129090
   150    -0.067305
   151    -0.002703
   152    -0.313178
   153    -0.255285
   154    -0.297956
   155     0.001782
   156     0.039928
   157    -0.128848
   158     0.001063
   159     0.009597
   160     0.026598
   161     0.049676
   162     0.001034
   163     0.000876
   164     0.007033
   165    -0.005972
   166    -0.005355
   167    -0.017574
   168     0.017885
   169     0.002234
   170    -0.012047
   171    -0.028687
   172    -0.001306
   173    -0.001474
   174     0.005270
   175    -0.016009
   176    -0.013832
   177    -0.001958
   178     0.059694
   179     0.000166
   180     0.001201
   181     0.002789
   182    -0.015126
   183     0.013966
   184     0.015818
   185     0.014470
   186    -0.004214
   187    -0.119331
   188     0.021122
   189     0.026811
   190    -0.000420
   191     0.010579
   192     0.052781
   193    -0.024712
   194    -0.013760
   195     0.013966
   196    -0.007596
Sym=   134a
Ene=   -0.103375E-01
Spin= Alpha
Occup= 0.004718
     1     0.001116
     2     0.020706
     3    -0.017875
     4     0.002751
     5    -0.008996
     6    -0.007820
     7    -0.033689
     8     0.025083
     9     0.054890
    10     0.075760
    11     0.009957
    12     0.090844
    13     0.090724
    14     0.032301
    15    -0.008595
    16     0.040230
    17    -0.011915
    18     0.003726
    19    -0.020289
    20     0.010388
    21    -0.002392
    22    -0.020417
    23     0.017516
    24     0.056862
    25    -0.035964
    26     0.036722
    27     0.066919
    28    -0.023934
    29     0.069688
    30     0.006600
    31     0.019282
    32    -0.037426
    33    -0.015728
    34     0.010267
    35    -0.002016
    36     0.000177
    37     0.002176
    38    -0.004335
    39    -0.013068
    40     0.001591
    41    -0.001707
    42     0.004263
    43     0.005647
    44    -0.006033
    45     0.015018
    46    -0.006902
    47     0.006590
    48    -0.012588
    49     0.009701
    50     0.014957
    51    -0.015963
    52    -0.009908
    53     0.000246
    54    -0.000883
    55    -0.006545
    56    -0.015782
    57    -0.000196
    58    -0.000528
    59    -0.000125
    60     0.027890
    61     0.064319
    62     0.108388
    63    -0.126989
    64     0.080121
    65    -0.151891
    66    -0.430099
    67     0.196671
    68    -0.430144
    69    -0.766345
    70     0.319333
    71     0.312738
    72    -0.064366
    73    -0.334639
    74    -0.195851
    75    -0.000464
    76    -0.005207
    77    -0.021410
    78     0.027909
    79    -0.002245
    80     0.001261
    81    -0.001422
    82     0.005967
    83    -0.000186
    84     0.010096
    85     0.011351
    86     0.009120
    87     0.010398
    88     0.004147
    89     0.004593
    90     0.006128
    91    -0.005848
    92     0.008842
    93    -0.007415
    94    -0.003865
    95    -0.017486
    96     0.017356
    97    -0.002283
    98     0.001678
    99    -0.011019
   100    -0.003780
   101     0.005661
   102    -0.018459
   103     0.008654
   104    -0.001305
   105     0.006529
   106    -0.000066
   107     0.001331
   108    -0.000044
   109    -0.084102
   110    -0.559261
   111     0.118622
   112     0.252295
   113    -0.030828
   114     0.191338
   115     0.052071
   116    -0.000193
   117    -0.056919
   118     0.112425
   119     0.170180
   120    -0.000705
   121     0.040091
   122    -0.183960
   123     0.041932
   124     0.000796
   125     0.000865
   126     0.026603
   127     0.002460
   128     0.006115
   129    -0.001979
   130    -0.024334
   131    -0.041799
   132    -0.024316
   133     0.007693
   134    -0.008726
   135     0.002946
   136    -0.020190
   137     0.007473
   138    -0.003892
   139     0.015684
   140     0.176020
   141     0.779519
   142    -0.199538
   143    -0.005217
   144    -0.029863
   145     0.031121
   146    -0.006782
   147     0.174073
   148    -0.206967
   149     0.018810
   150    -0.005160
   151     0.026341
   152    -0.232029
   153    -0.201388
   154    -0.183561
   155    -0.094707
   156     0.098501
   157    -0.071209
   158     0.000203
   159     0.003119
   160     0.013723
   161    -0.012643
   162     0.005689
   163    -0.002792
   164     0.003442
   165    -0.020020
   166     0.012620
   167    -0.013601
   168    -0.022845
   169    -0.018228
   170    -0.005422
   171    -0.030180
   172     0.016043
   173    -0.008308
   174    -0.046321
   175    -0.022067
   176    -0.000718
   177    -0.002594
   178     0.015160
   179    -0.000410
   180     0.000482
   181    -0.000381
   182     0.046923
   183     0.043488
   184    -0.006393
   185    -0.009286
   186    -0.013370
   187    -0.044996
   188    -0.044360
   189     0.025519
   190    -0.001093
   191    -0.011720
   192     0.009225
   193    -0.010948
   194    -0.016805
   195     0.010401
   196     0.011015
Sym=   135a
Ene=   -0.102807E-01
Spin= Alpha
Occup= 0.004785
     1     0.029057
     2    -0.007279
     3     0.003553
     4    -0.001820
     5     0.007164
     6     0.006026
     7     0.021944
     8    -0.017305
     9    -0.060343
    10    -0.061059
    11     0.026533
    12    -0.077681
    13    -0.071259
    14     0.035346
    15     0.016284
    16    -0.033672
    17     0.016716
    18     0.000125
    19     0.007928
    20    -0.006580
    21     0.053811
    22     0.331587
    23    -0.553957
    24    -0.173516
    25     0.282578
    26     0.047167
    27    -0.408527
    28     0.664995
    29     0.168189
    30    -0.224590
    31     0.346212
    32    -0.221903
    33    -0.537164
    34     0.066609
    35     0.353874
    36     0.000113
    37     0.001300
    38     0.001320
    39    -0.021641
    40     0.000304
    41    -0.000566
    42     0.002366
    43     0.000948
    44    -0.002469
    45     0.006712
    46    -0.000017
    47     0.005071
    48     0.003989
    49     0.008604
    50     0.008406
    51    -0.011002
    52    -0.004798
    53     0.002258
    54    -0.000137
    55    -0.003141
    56     0.007821
    57     0.001594
    58    -0.000209
    59     0.000823
    60    -0.025999
    61    -0.093177
    62    -0.018333
    63    -0.015960
    64     0.025978
    65     0.019904
    66    -0.020069
    67     0.056486
    68     0.028960
    69     0.015277
    70     0.030990
    71     0.068946
    72     0.003485
    73     0.017557
    74    -0.011454
    75    -0.000522
    76    -0.005705
    77    -0.013678
    78    -0.014761
    79    -0.001244
    80     0.000873
    81     0.001157
    82     0.004864
    83    -0.002202
    84    -0.005518
    85    -0.006567
    86     0.002425
    87     0.004136
    88     0.012872
    89     0.008337
    90     0.004220
    91     0.000582
    92    -0.000774
    93    -0.001824
    94     0.001258
    95     0.005374
    96    -0.003802
    97     0.000563
    98     0.001070
    99     0.003684
   100    -0.000805
   101    -0.001043
   102     0.006270
   103    -0.002099
   104    -0.000768
   105    -0.002223
   106     0.000298
   107    -0.000036
   108     0.000056
   109     0.225068
   110     1.470712
   111    -0.215087
   112     0.226287
   113    -0.179679
   114    -0.210326
   115     0.014513
   116    -0.029865
   117    -0.032269
   118    -0.283713
   119    -0.412161
   120    -0.361650
   121    -0.108548
   122    -0.080087
   123     0.085791
   124     0.004712
   125     0.021442
   126    -0.011486
   127    -0.005790
   128     0.000366
   129    -0.009008
   130     0.012501
   131    -0.007910
   132     0.003882
   133    -0.005642
   134    -0.008541
   135    -0.003307
   136     0.001267
   137     0.001513
   138    -0.000840
   139     0.000067
   140     0.000018
   141    -0.015346
   142     0.056839
   143    -0.000636
   144     0.000914
   145     0.002465
   146     0.003887
   147    -0.002842
   148    -0.016241
   149    -0.041338
   150     0.019458
   151     0.004152
   152     0.010168
   153     0.004194
   154    -0.007972
   155    -0.009719
   156     0.008128
   157    -0.010397
   158    -0.000555
   159    -0.005156
   160    -0.007532
   161    -0.029041
   162    -0.001181
   163     0.001027
   164    -0.005023
   165     0.005222
   166    -0.008593
   167     0.020886
   168    -0.020627
   169     0.008247
   170    -0.002156
   171    -0.001085
   172    -0.009191
   173     0.016032
   174    -0.003615
   175     0.000349
   176    -0.015031
   177    -0.004454
   178     0.025791
   179    -0.000419
   180     0.000262
   181     0.000322
   182     0.001456
   183     0.006759
   184     0.003771
   185     0.001077
   186     0.002843
   187     0.063057
   188    -0.038869
   189     0.001508
   190    -0.014406
   191     0.032235
   192    -0.002188
   193     0.006922
   194     0.000516
   195     0.001543
   196     0.004869
Sym=   136a
Ene=   -0.168590E-01
Spin= Alpha
Occup= 0.008192
     1    -0.046336
     2     0.099503
     3    -0.001696
     4     0.007852
     5     0.007336
     6     0.001252
     7     0.003628
     8     0.006561
     9     0.001297
    10     0.000407
    11    -0.003792
    12     0.003108
    13    -0.000252
    14    -0.003700
    15    -0.002471
    16    -0.002469
    17    -0.000287
    18    -0.000665
    19    -0.001110
    20    -0.000548
    21     0.000733
    22     0.004972
    23    -0.008269
    24     0.000969
    25    -0.001623
    26     0.002396
    27     0.000244
    28    -0.000539
    29     0.002317
    30    -0.001662
    31    -0.002129
    32     0.001068
    33     0.000398
    34    -0.001191
    35     0.001342
    36    -0.113429
    37    -1.190157
    38     3.392475
    39    -0.341945
    40    -0.085074
    41     0.107502
    42     0.152556
    43    -0.293089
    44     0.365587
    45     0.515962
    46     0.286326
    47    -0.325595
    48    -0.375624
    49    -1.146405
    50    -1.136323
    51    -1.283051
    52     0.228485
    53     0.055743
    54     0.026820
    55     0.010405
    56    -0.025321
    57    -0.006481
    58     0.011546
    59    -0.005044
    60    -0.005270
    61    -0.018934
    62    -0.001061
    63     0.005735
    64    -0.008946
    65     0.011992
    66     0.008895
    67    -0.008574
    68     0.013850
    69     0.002736
    70     0.006921
    71     0.008548
    72    -0.001362
    73     0.002986
    74    -0.006688
    75     0.014222
    76     0.136329
    77     0.388888
    78    -0.168393
    79     0.032437
    80    -0.045282
    81    -0.020936
    82    -0.108889
    83     0.129744
    84     0.088576
    85     0.045685
    86    -0.059135
    87     0.053251
    88    -0.141421
    89    -0.156660
    90    -0.152005
    91     0.004132
    92     0.074788
    93    -0.020124
    94     0.001081
    95    -0.009450
    96     0.060919
    97    -0.000613
    98    -0.030542
    99     0.008631
   100     0.031940
   101    -0.025067
   102     0.012140
   103    -0.019464
   104     0.014542
   105    -0.008803
   106    -0.006915
   107    -0.000247
   108    -0.003007
   109     0.003527
   110     0.020978
   111     0.006187
   112    -0.001730
   113    -0.004353
   114     0.007378
   115     0.000908
   116    -0.001937
   117    -0.004770
   118    -0.001363
   119    -0.002615
   120    -0.006443
   121    -0.000497
   122     0.000068
   123     0.000663
   124     0.014636
   125     0.037517
   126     0.106501
   127    -0.047358
   128     0.030959
   129     0.004644
   130    -0.010799
   131    -0.049368
   132     0.078380
   133    -0.011648
   134    -0.010528
   135    -0.036416
   136    -0.018443
   137     0.005361
   138     0.016074
   139    -0.001643
   140    -0.016614
   141    -0.067894
   142     0.035755
   143     0.004364
   144     0.001031
   145    -0.005514
   146    -0.016589
   147     0.003751
   148     0.018978
   149    -0.002168
   150     0.006178
   151     0.018768
   152     0.007288
   153     0.007938
   154     0.033173
   155     0.008489
   156     0.025308
   157    -0.017586
   158     0.002090
   159     0.020761
   160     0.067178
   161    -0.061647
   162    -0.002582
   163    -0.004637
   164     0.001278
   165     0.011218
   166     0.019023
   167    -0.005695
   168    -0.022422
   169    -0.039451
   170     0.000195
   171    -0.016503
   172    -0.026625
   173    -0.021338
   174    -0.007043
   175     0.000184
   176    -0.002005
   177     0.091642
   178     0.017694
   179     0.007759
   180    -0.022173
   181     0.047737
   182    -0.003031
   183     0.012636
   184    -0.003469
   185    -0.000717
   186     0.001470
   187    -0.008958
   188    -0.007267
   189     0.000559
   190     0.000224
   191    -0.000588
   192     0.018383
   193     0.009435
   194     0.000882
   195    -0.000552
   196     0.001338
Sym=   137a
Ene=   -0.946312E-02
Spin= Alpha
Occup= 0.004025
     1     0.000796
     2    -0.034882
     3    -0.000623
     4    -0.003728
     5     0.000400
     6     0.002746
     7     0.010804
     8    -0.003465
     9     0.003036
    10     0.000867
    11     0.000852
    12     0.003604
    13     0.003651
    14     0.000481
    15    -0.003254
    16    -0.003434
    17    -0.003591
    18    -0.002958
    19    -0.001202
    20     0.003391
    21    -0.000880
    22    -0.006760
    23     0.016369
    24     0.000122
    25    -0.001087
    26     0.000934
    27     0.001434
    28    -0.004560
    29     0.002515
    30     0.000693
    31    -0.000124
    32     0.000516
    33    -0.000226
    34    -0.000492
    35    -0.000066
    36    -0.001579
    37    -0.015365
    38     0.069937
    39    -0.068602
    40     0.004378
    41    -0.035540
    42     0.002315
    43     0.013390
    44    -0.136036
    45     0.007140
    46    -0.001023
    47     0.154662
    48    -0.000532
    49     0.038836
    50    -0.067095
    51     0.001148
    52     0.002410
    53     0.028950
    54     0.006995
    55     0.016070
    56    -0.034167
    57     0.005045
    58    -0.013932
    59     0.009433
    60    -0.001315
    61    -0.003041
    62    -0.002503
    63    -0.001633
    64    -0.002165
    65     0.005597
    66    -0.009275
    67     0.001808
    68    -0.003302
    69    -0.001115
    70     0.000778
    71     0.005312
    72    -0.001039
    73     0.003027
    74    -0.003217
    75    -0.003386
    76    -0.035356
    77    -0.163559
    78     0.018438
    79     0.003541
    80    -0.029763
    81     0.002003
    82     0.008947
    83     0.179651
    84     0.005244
    85     0.015972
    86     0.024116
    87     0.076159
    88     0.142969
    89    -0.124173
    90     0.057601
    91     0.001022
    92    -0.119818
    93    -0.176770
    94     0.006494
    95    -0.028723
    96     0.189411
    97     0.099216
    98     0.061092
    99    -0.068601
   100     0.240764
   101     0.156064
   102    -0.148034
   103    -0.515897
   104     0.173811
   105     0.266408
   106    -0.399056
   107     0.201633
   108     0.611705
   109     0.000176
   110     0.003148
   111    -0.023175
   112    -0.001306
   113     0.003540
   114     0.000555
   115     0.002653
   116     0.004850
   117    -0.033669
   118    -0.001040
   119     0.000493
   120     0.001451
   121     0.000343
   122    -0.001374
   123     0.000056
   124    -0.020685
   125    -0.105874
   126     0.074369
   127     0.069614
   128     0.058849
   129    -0.045395
   130    -0.080503
   131    -0.174603
   132    -0.049161
   133     0.043488
   134    -0.034792
   135     0.051632
   136    -0.002035
   137    -0.030535
   138    -0.020791
   139    -0.003687
   140    -0.039826
   141    -0.223901
   142     0.082222
   143    -0.007989
   144    -0.002258
   145     0.012112
   146     0.042185
   147    -0.004501
   148    -0.093055
   149    -0.042538
   150     0.014162
   151     0.022752
   152     0.051927
   153     0.056410
   154     0.009534
   155    -0.006678
   156    -0.001296
   157    -0.023102
   158    -0.000198
   159     0.001037
   160    -0.019946
   161     0.076155
   162     0.005302
   163    -0.001392
   164     0.007674
   165    -0.025242
   166     0.001135
   167    -0.030508
   168     0.045217
   169     0.024939
   170     0.028659
   171    -0.018354
   172    -0.010653
   173    -0.002974
   174    -0.007929
   175     0.010614
   176     0.003673
   177     0.006746
   178     0.007341
   179    -0.002139
   180     0.006023
   181     0.004526
   182    -0.004164
   183    -0.020850
   184    -0.000542
   185    -0.007434
   186     0.006077
   187     0.000832
   188    -0.019926
   189     0.000047
   190    -0.000782
   191     0.000430
   192    -0.009612
   193     0.017888
   194     0.000450
   195     0.001047
   196    -0.002958
Sym=   138a
Ene=   -0.903705E-02
Spin= Alpha
Occup= 0.003817
     1     0.019112
     2     0.001527
     3     0.000163
     4     0.000814
     5     0.002172
     6     0.001386
     7     0.004997
     8    -0.002880
     9     0.007952
    10     0.006437
    11    -0.004535
    12     0.016307
    13     0.009997
    14    -0.004673
    15    -0.005411
    16     0.006563
    17    -0.004119
    18    -0.005026
    19    -0.013682
    20     0.008499
    21    -0.000989
    22    -0.001226
    23    -0.010930
    24    -0.000761
    25    -0.001403
    26    -0.001407
    27    -0.002430
    28    -0.002422
    29    -0.003305
    30     0.005125
    31     0.000536
    32     0.002528
    33     0.002921
    34     0.000069
    35    -0.001628
    36    -0.000564
    37     0.000930
    38     0.021233
    39    -0.101031
    40     0.047817
    41    -0.029861
    42    -0.011328
    43     0.178550
    44    -0.104254
    45    -0.048874
    46    -0.179518
    47     0.072945
    48     0.086185
    49    -0.069852
    50     0.102945
    51     0.030915
    52    -0.012281
    53     0.044458
    54    -0.068942
    55    -0.050963
    56     0.013855
    57    -0.002593
    58    -0.010073
    59    -0.003468
    60    -0.020377
    61    -0.058702
    62    -0.054903
    63     0.023415
    64    -0.023957
    65     0.093766
    66     0.056893
    67    -0.002219
    68     0.169123
    69    -0.024047
    70    -0.007712
    71     0.112355
    72    -0.018545
    73     0.079976
    74    -0.083927
    75    -0.002158
    76    -0.023243
    77    -0.154683
    78     0.112170
    79    -0.017197
    80    -0.013558
    81    -0.023701
    82     0.055261
    83     0.080799
    84     0.126889
    85    -0.075094
    86     0.022571
    87    -0.091100
    88    -0.143941
    89     0.022422
    90     0.169877
    91     0.130971
    92     0.019255
    93    -0.165497
    94    -0.005593
    95    -0.036627
    96     0.036699
    97     0.047436
    98     0.068231
    99    -0.044635
   100     0.083308
   101     0.113507
   102    -0.098437
   103     0.075868
   104    -0.086596
   105     0.018611
   106     0.043989
   107     0.032851
   108     0.001248
   109     0.011427
   110     0.072051
   111     0.039289
   112    -0.061616
   113    -0.000211
   114    -0.028790
   115     0.012870
   116    -0.007052
   117     0.023293
   118     0.023306
   119    -0.017718
   120    -0.030700
   121     0.005286
   122    -0.001229
   123     0.000015
   124    -0.011423
   125    -0.049008
   126     0.004466
   127     0.019830
   128     0.000056
   129    -0.054990
   130    -0.043347
   131     0.006984
   132     0.164575
   133     0.190159
   134     0.297741
   135    -0.447566
   136    -0.341714
   137    -0.153677
   138     0.553194
   139    -0.008497
   140    -0.092727
   141    -0.295772
   142    -0.059551
   143     0.004155
   144     0.006388
   145    -0.023534
   146    -0.027350
   147     0.001954
   148     0.132825
   149     0.094753
   150    -0.018453
   151    -0.022165
   152     0.091638
   153     0.007468
   154     0.249451
   155     0.029237
   156     0.089878
   157    -0.093710
   158     0.000797
   159     0.008889
   160     0.050343
   161    -0.046209
   162    -0.001143
   163    -0.001249
   164     0.004622
   165     0.008366
   166     0.007448
   167    -0.014017
   168    -0.026037
   169    -0.004804
   170    -0.004925
   171    -0.006167
   172    -0.019849
   173    -0.003609
   174    -0.011588
   175     0.001862
   176     0.003427
   177    -0.008945
   178     0.021501
   179    -0.010818
   180     0.009648
   181     0.001161
   182     0.021023
   183     0.062367
   184    -0.006503
   185    -0.001615
   186    -0.000570
   187    -0.004697
   188     0.008985
   189     0.002478
   190     0.001410
   191    -0.003220
   192     0.052040
   193     0.001095
   194     0.004231
   195    -0.000674
   196    -0.001331
Sym=   139a
Ene=   -0.198446E-01
Spin= Alpha
Occup= 0.007347
     1    -0.056390
     2     0.017691
     3    -0.003795
     4     0.012640
     5    -0.001025
     6     0.047803
     7     0.188958
     8    -0.057573
     9    -0.014499
    10    -0.141854
    11    -0.040029
    12     0.028632
    13    -0.170437
    14    -0.063181
    15    -0.047544
    16    -0.066202
    17    -0.045033
    18    -0.040318
    19    -0.004317
    20     0.012484
    21    -0.428077
    22    -1.622418
    23     0.477689
    24    -0.492431
    25    -0.219492
    26     0.311667
    27    -0.541864
    28    -0.254697
    29     0.329302
    30     0.473157
    31     0.490064
    32     0.471534
    33    -0.021012
    34     0.022180
    35    -0.000058
    36    -0.000366
    37    -0.002950
    38     0.013167
    39    -0.024616
    40    -0.000824
    41    -0.001080
    42    -0.004611
    43    -0.003003
    44    -0.003868
    45    -0.017452
    46     0.000970
    47     0.006747
    48     0.019797
    49    -0.001812
    50    -0.003090
    51     0.003873
    52     0.000246
    53    -0.000760
    54     0.000921
    55     0.003711
    56     0.001102
    57    -0.000344
    58     0.000803
    59    -0.000397
    60    -0.015767
    61    -0.042085
    62    -0.055842
    63    -0.024833
    64    -0.000018
    65    -0.027051
    66    -0.006756
    67     0.005029
    68    -0.010518
    69     0.002833
    70     0.001451
    71     0.049605
    72    -0.005216
    73     0.019440
    74    -0.008975
    75     0.000589
    76     0.006251
    77     0.017587
    78     0.026524
    79     0.000595
    80    -0.000356
    81     0.001573
    82    -0.001763
    83     0.001225
    84    -0.006353
    85     0.000535
    86     0.001956
    87    -0.012495
    88    -0.004619
    89    -0.005651
    90    -0.012240
    91    -0.000508
    92    -0.004713
    93     0.004391
    94    -0.001231
    95    -0.004564
    96     0.000104
    97    -0.000405
    98    -0.001223
    99    -0.002464
   100    -0.001188
   101    -0.003545
   102    -0.005260
   103     0.000883
   104     0.003894
   105     0.000140
   106    -0.000081
   107    -0.001478
   108    -0.000774
   109     0.020765
   110     0.154652
   111     0.078129
   112    -0.129858
   113    -0.032693
   114     0.094939
   115    -0.018907
   116     0.000134
   117     0.042345
   118     0.006011
   119    -0.139817
   120    -0.002178
   121    -0.017561
   122    -0.021354
   123     0.019170
   124     0.000877
   125     0.004069
   126     0.001612
   127    -0.003795
   128     0.000066
   129    -0.004472
   130     0.007445
   131    -0.006973
   132    -0.008000
   133    -0.000953
   134    -0.000028
   135     0.000773
   136     0.000363
   137     0.001764
   138    -0.002444
   139     0.002911
   140     0.030360
   141     0.127540
   142    -0.055276
   143     0.006343
   144    -0.003237
   145     0.006145
   146    -0.024751
   147     0.014529
   148    -0.025795
   149     0.032979
   150    -0.016101
   151    -0.006397
   152    -0.038150
   153    -0.025525
   154    -0.040884
   155    -0.005157
   156     0.004562
   157    -0.009800
   158     0.002513
   159     0.024522
   160     0.086028
   161    -0.037507
   162    -0.004342
   163    -0.004721
   164    -0.005045
   165     0.016585
   166     0.024978
   167     0.019196
   168    -0.016709
   169    -0.011940
   170    -0.003013
   171    -0.022582
   172    -0.021645
   173    -0.021733
   174    -0.010460
   175    -0.003469
   176     0.013585
   177    -0.012248
   178     0.019149
   179    -0.000342
   180    -0.000191
   181    -0.003137
   182    -0.013312
   183     0.024043
   184     0.000472
   185     0.001168
   186    -0.004685
   187    -0.105034
   188     0.000883
   189     0.018904
   190    -0.017964
   191    -0.012677
   192     0.000395
   193    -0.011815
   194    -0.001575
   195    -0.000740
   196    -0.000057
Sym=   140a
Ene=   -0.939850E-02
Spin= Alpha
Occup= 0.003302
     1    -0.011364
     2     0.051793
     3     0.010676
     4     0.004755
     5    -0.000467
     6     0.000152
     7    -0.000043
     8     0.003108
     9     0.019648
    10    -0.031219
    11     0.013836
    12    -0.001007
    13    -0.049694
    14     0.033070
    15     0.464705
    16    -0.470420
    17     0.003575
    18     0.483354
    19    -0.545418
    20     0.262610
    21    -0.020632
    22    -0.074204
    23    -0.051122
    24     0.009061
    25    -0.081009
    26    -0.042325
    27    -0.054163
    28    -0.086431
    29    -0.031707
    30    -0.016387
    31     0.064456
    32     0.035568
    33    -0.004014
    34     0.002101
    35     0.003809
    36    -0.000096
    37    -0.001075
    38     0.002646
    39     0.004041
    40    -0.000185
    41    -0.000048
    42    -0.000958
    43    -0.000653
    44    -0.000509
    45    -0.003366
    46     0.000206
    47     0.001676
    48     0.000995
    49    -0.001957
    50    -0.004683
    51     0.003114
    52     0.000791
    53     0.001342
    54    -0.001943
    55     0.001816
    56     0.002364
    57     0.000189
    58    -0.000433
    59     0.000206
    60     0.018696
    61     0.073583
    62    -0.029283
    63     0.045426
    64     0.031526
    65     0.029426
    66     0.062238
    67     0.070345
    68     0.030290
    69    -0.030389
    70     0.002957
    71    -0.044394
    72    -0.012713
    73    -0.047628
    74    -0.006780
    75     0.000161
    76     0.001777
    77     0.011718
    78     0.000004
    79     0.000040
    80    -0.000157
    81     0.001264
    82     0.003101
    83     0.000328
    84    -0.009174
    85    -0.000838
    86    -0.001332
    87    -0.001472
    88     0.001832
    89    -0.001709
    90    -0.003309
    91     0.002100
    92    -0.006243
    93    -0.002397
    94     0.001521
    95     0.003643
    96     0.004999
    97    -0.000168
    98     0.000953
    99     0.002289
   100    -0.000914
   101    -0.001262
   102     0.000286
   103    -0.003189
   104    -0.003082
   105    -0.003339
   106     0.001035
   107    -0.000311
   108    -0.000296
   109    -0.019171
   110    -0.094050
   111     0.084572
   112     0.016939
   113    -0.009363
   114    -0.050714
   115     0.040878
   116    -0.029805
   117     0.004396
   118    -0.045957
   119     0.147970
   120     0.030293
   121    -0.112408
   122    -0.012932
   123     0.022490
   124     0.002239
   125     0.009215
   126     0.000713
   127    -0.007984
   128    -0.007134
   129    -0.007379
   130     0.022109
   131     0.007085
   132    -0.012291
   133    -0.001311
   134     0.000606
   135    -0.007162
   136    -0.003962
   137    -0.003831
   138    -0.001262
   139     0.001713
   140     0.017253
   141     0.070276
   142    -0.041266
   143     0.009818
   144     0.005380
   145     0.004257
   146    -0.039761
   147    -0.019419
   148    -0.022999
   149     0.003380
   150    -0.005235
   151     0.026147
   152    -0.003588
   153    -0.024250
   154    -0.027211
   155     0.010400
   156    -0.005343
   157    -0.012321
   158     0.000098
   159     0.002334
   160     0.037446
   161    -0.106983
   162    -0.011765
   163     0.007934
   164    -0.005927
   165     0.045593
   166    -0.025013
   167     0.021829
   168    -0.071510
   169    -0.017934
   170     0.002687
   171    -0.055226
   172     0.036242
   173     0.001803
   174    -0.021966
   175     0.091011
   176    -0.037703
   177     0.000080
   178    -0.008227
   179     0.000426
   180     0.001117
   181    -0.000761
   182     0.012437
   183     0.033892
   184    -0.013534
   185     0.001457
   186     0.013603
   187     0.017925
   188    -0.014407
   189    -0.003916
   190     0.004481
   191    -0.007173
   192     0.000838
   193     0.012696
   194    -0.000449
   195     0.001197
   196    -0.001821
Sym=   141a
Ene=   -0.938140E-02
Spin= Alpha
Occup= 0.003199
     1    -0.004550
     2     0.046833
     3     0.010344
     4    -0.002322
     5    -0.003513
     6    -0.014374
     7    -0.046027
     8    -0.013924
     9     0.039603
    10     0.016247
    11     0.028927
    12     0.059771
    13     0.007251
    14     0.057160
    15     0.030739
    16     0.040491
    17     0.009127
    18     0.009011
    19    -0.007800
    20     0.009632
    21     0.013445
    22     0.042505
    23     0.023445
    24    -0.036155
    25     0.019165
    26    -0.034996
    27    -0.043683
    28     0.018397
    29    -0.085284
    30    -0.010221
    31    -0.041183
    32    -0.019133
    33     0.014459
    34     0.029221
    35     0.049991
    36    -0.000166
    37    -0.001881
    38     0.007705
    39    -0.004385
    40    -0.001066
    41     0.000534
    42    -0.001700
    43    -0.003252
    44     0.001053
    45    -0.006042
    46    -0.001096
    47     0.004928
    48     0.004814
    49    -0.003772
    50    -0.008622
    51     0.006522
    52     0.006057
    53    -0.000838
    54    -0.001111
    55     0.005726
    56     0.008173
    57    -0.000341
    58     0.000470
    59    -0.001356
    60     0.009226
    61     0.040021
    62    -0.028558
    63    -0.018424
    64    -0.005991
    65     0.006418
    66    -0.026009
    67    -0.029957
    68     0.007952
    69     0.108431
    70    -0.401996
    71     0.261367
    72    -0.836292
    73    -0.241006
    74     0.206558
    75     0.000524
    76     0.005434
    77     0.027703
    78     0.011848
    79     0.000593
    80    -0.001287
    81     0.002508
    82     0.005047
    83     0.002898
    84    -0.020092
    85    -0.006440
    86     0.001000
    87    -0.019053
    88    -0.003993
    89    -0.003165
    90    -0.001214
    91     0.001566
    92    -0.014260
    93     0.002684
    94    -0.000259
    95    -0.000269
    96    -0.004991
    97     0.000728
    98    -0.001044
    99     0.000053
   100     0.000237
   101    -0.004565
   102    -0.001005
   103    -0.001877
   104     0.003911
   105    -0.000488
   106     0.000849
   107    -0.000591
   108     0.000054
   109    -0.015284
   110    -0.088066
   111     0.007240
   112    -0.020423
   113     0.024343
   114     0.013355
   115    -0.020893
   116    -0.017343
   117     0.058233
   118     0.034382
   119    -0.000198
   120     0.042234
   121     0.054896
   122     0.005295
   123     0.054395
   124     0.000592
   125     0.011821
   126    -0.045033
   127    -0.017133
   128     0.001368
   129    -0.001767
   130     0.060584
   131     0.005937
   132    -0.000664
   133     0.001092
   134     0.007982
   135    -0.007053
   136    -0.000646
   137    -0.011998
   138    -0.000798
   139    -0.003856
   140    -0.046108
   141    -0.191718
   142     0.042175
   143     0.005294
   144     0.000320
   145    -0.000235
   146    -0.016216
   147     0.000167
   148     0.009687
   149    -0.014211
   150    -0.013519
   151    -0.009623
   152     0.054789
   153     0.076196
   154     0.076931
   155    -0.003089
   156    -0.054308
   157    -0.004840
   158     0.000142
   159    -0.000135
   160     0.025037
   161    -0.107150
   162     0.001433
   163     0.003986
   164    -0.002738
   165    -0.000368
   166    -0.010858
   167     0.009953
   168    -0.034743
   169    -0.042158
   170     0.004550
   171     0.016483
   172     0.000921
   173    -0.001897
   174     0.025384
   175    -0.002565
   176    -0.009080
   177     0.002765
   178    -0.015910
   179    -0.000436
   180     0.001239
   181     0.000620
   182     0.003893
   183     0.004648
   184     0.013727
   185     0.016833
   186    -0.001931
   187    -0.021095
   188     0.058283
   189     0.003907
   190     0.000857
   191    -0.006629
   192    -0.026949
   193     0.018699
   194     0.012371
   195    -0.008005
   196    -0.005101
Sym=   142a
Ene=   -0.931277E-02
Spin= Alpha
Occup= 0.003230
     1     0.040346
     2    -0.045804
     3     0.004466
     4     0.001744
     5    -0.001450
     6    -0.004998
     7    -0.018231
     8    -0.002555
     9    -0.001921
    10    -0.003632
    11     0.008308
    12    -0.003222
    13    -0.011779
    14     0.017192
    15     0.005280
    16     0.006395
    17     0.011453
    18     0.004301
    19     0.001101
    20    -0.006502
    21    -0.000002
    22     0.005093
    23    -0.022958
    24    -0.001029
    25    -0.000795
    26     0.000663
    27    -0.002826
    28     0.001131
    29    -0.001753
    30     0.001144
    31     0.002033
    32     0.001785
    33    -0.000589
    34     0.000238
    35     0.000347
    36    -0.000996
    37    -0.013842
    38     0.045258
    39    -0.034218
    40    -0.002731
    41     0.002699
    42     0.001402
    43    -0.008494
    44     0.008281
    45     0.004920
    46    -0.007576
    47     0.014050
    48     0.001834
    49    -0.022794
    50    -0.023722
    51    -0.016808
    52     0.014884
    53     0.000443
    54     0.011997
    55     0.075209
    56    -0.015698
    57    -0.009204
    58     0.002484
    59    -0.016147
    60     0.002066
    61     0.007281
    62    -0.003463
    63     0.000063
    64     0.000969
    65    -0.003174
    66     0.002838
    67    -0.000901
    68    -0.002787
    69     0.000942
    70    -0.001322
    71    -0.008313
    72     0.003505
    73    -0.008724
    74     0.007200
    75     0.003287
    76     0.038905
    77     0.105131
    78     0.087834
    79     0.000246
    80     0.000971
    81     0.002046
    82     0.005782
    83    -0.002205
    84    -0.010517
    85    -0.014150
    86     0.002194
    87    -0.041284
    88    -0.052081
    89    -0.010668
    90    -0.119727
    91    -0.033248
    92    -0.062613
    93    -0.005176
    94    -0.005733
    95    -0.020771
    96    -0.002550
    97    -0.019258
    98     0.020677
    99    -0.032151
   100    -0.036692
   101     0.038669
   102    -0.059171
   103     0.657086
   104    -0.014801
   105    -0.617909
   106    -0.314397
   107    -0.350684
   108     0.462437
   109     0.000371
   110    -0.006574
   111     0.028476
   112     0.002076
   113    -0.002539
   114     0.008201
   115    -0.010240
   116    -0.010949
   117     0.056291
   118    -0.002588
   119    -0.000631
   120     0.000080
   121    -0.000384
   122     0.000165
   123    -0.000045
   124     0.002482
   125     0.012663
   126    -0.020091
   127     0.011506
   128    -0.016358
   129     0.016513
   130    -0.018298
   131     0.024251
   132    -0.051946
   133     0.005852
   134     0.006517
   135    -0.023599
   136     0.010048
   137     0.006892
   138     0.016702
   139     0.000225
   140     0.001821
   141     0.003189
   142    -0.021663
   143    -0.000661
   144    -0.001236
   145     0.000742
   146     0.002818
   147    -0.001081
   148    -0.011837
   149     0.022590
   150    -0.013609
   151    -0.000493
   152     0.017125
   153    -0.013400
   154    -0.010575
   155     0.000435
   156    -0.006537
   157    -0.002954
   158     0.001560
   159     0.016169
   160     0.084806
   161    -0.076157
   162     0.001357
   163     0.001811
   164    -0.008132
   165     0.000430
   166    -0.003171
   167     0.033790
   168    -0.038146
   169    -0.008537
   170    -0.020597
   171    -0.011947
   172    -0.018940
   173    -0.023668
   174     0.006563
   175    -0.005467
   176    -0.006217
   177     0.004214
   178     0.006973
   179    -0.000178
   180    -0.000323
   181     0.001523
   182     0.006781
   183     0.039930
   184    -0.002708
   185     0.006048
   186     0.001814
   187    -0.004649
   188     0.035443
   189    -0.000025
   190     0.001318
   191     0.000437
   192    -0.000643
   193    -0.019584
   194     0.001280
   195     0.003218
   196    -0.000373
Sym=   143a
Ene=   -0.434898E-02
Spin= Alpha
Occup= 0.000808
     1    -0.025548
     2     0.032440
     3    -0.012795
     4     0.017312
     5     0.001524
     6    -0.019531
     7    -0.070545
     8     0.044771
     9     0.054594
    10     0.067289
    11     0.014827
    12     0.103323
    13     0.134287
    14     0.033084
    15     0.030544
    16     0.140735
    17    -0.074785
    18     0.097830
    19     0.002769
    20     0.048273
    21    -0.028103
    22    -0.116635
    23     0.047270
    24     0.105324
    25    -0.065782
    26     0.032392
    27     0.169064
    28    -0.121447
    29     0.081187
    30     0.148774
    31     0.137179
    32    -0.144415
    33    -0.152099
    34     0.072445
    35     0.040277
    36     0.005886
    37     0.074118
    38    -0.284177
    39     0.217445
    40    -0.021151
    41     0.032962
    42    -0.003716
    43    -0.087779
    44     0.136255
    45    -0.011566
    46     0.139851
    47    -0.224828
    48    -0.049245
    49     0.051306
    50     0.070776
    51     0.159798
    52    -0.068628
    53     0.078205
    54    -0.057115
    55    -0.012479
    56     0.002827
    57     0.016949
    58    -0.015702
    59    -0.014666
    60    -0.130373
    61    -0.494052
    62     0.199132
    63    -0.010558
    64    -0.105019
    65    -0.018630
    66     0.008172
    67    -0.317466
    68     0.093543
    69     0.212420
    70     0.138291
    71     0.380703
    72    -0.105588
    73     0.384751
    74    -0.233632
    75     0.004281
    76     0.033372
    77     0.127178
    78    -0.155438
    79    -0.026602
    80     0.060468
    81     0.049838
    82     0.078542
    83    -0.281674
    84    -0.200943
    85     0.040393
    86    -0.043495
    87     0.082811
    88    -0.004662
    89     0.009653
    90     0.018744
    91     0.001771
    92    -0.003226
    93    -0.008440
    94     0.025677
    95     0.105346
    96    -0.050426
    97    -0.036131
    98    -0.039718
    99    -0.005118
   100    -0.113757
   101    -0.114640
   102    -0.007241
   103    -0.089543
   104    -0.057356
   105     0.000587
   106    -0.089185
   107    -0.019675
   108     0.020826
   109    -0.330390
   110    -1.595880
   111     0.110867
   112     0.025831
   113    -0.092500
   114     0.410472
   115    -0.003065
   116     0.035982
   117    -0.008064
   118     0.522637
   119     0.550144
   120     0.673075
   121     0.006540
   122    -0.021975
   123     0.031551
   124     0.167784
   125     0.664932
   126    -0.230214
   127    -0.069711
   128    -0.125503
   129    -0.049974
   130     0.134859
   131     0.340382
   132     0.212387
   133    -0.121873
   134    -0.341148
   135    -0.513706
   136    -0.080017
   137     0.265093
   138    -0.200214
   139     0.020384
   140     0.262105
   141     1.186354
   142    -0.101576
   143    -0.006055
   144     0.038920
   145    -0.146020
   146     0.024446
   147    -0.119964
   148     0.708484
   149    -0.036162
   150    -0.001084
   151    -0.037297
   152    -0.435728
   153    -0.408438
   154    -0.377871
   155     0.023829
   156    -0.028707
   157     0.154155
   158     0.000512
   159     0.005663
   160    -0.021380
   161     0.130243
   162     0.001291
   163     0.000118
   164     0.009704
   165    -0.015052
   166    -0.008623
   167    -0.032032
   168     0.070140
   169     0.008549
   170     0.000188
   171    -0.002201
   172    -0.019564
   173    -0.010816
   174    -0.028673
   175    -0.001791
   176    -0.015932
   177    -0.093227
   178    -0.026686
   179    -0.005245
   180    -0.003022
   181    -0.021940
   182     0.026757
   183    -0.167331
   184    -0.018622
   185    -0.008487
   186     0.008207
   187    -0.237624
   188    -0.014063
   189    -0.051478
   190    -0.008908
   191    -0.052094
   192     0.108670
   193    -0.045188
   194     0.001483
   195    -0.023497
   196     0.048941
Sym=   144a
Ene=   -0.407758E-02
Spin= Alpha
Occup= 0.000738
     1     0.004466
     2     0.143047
     3    -0.019246
     4     0.018386
     5     0.034566
     6     0.033246
     7     0.124441
     8    -0.064498
     9    -0.033954
    10    -0.113121
    11     0.031022
    12    -0.062797
    13    -0.224155
    14     0.059829
    15     0.009172
    16    -0.191676
    17     0.011335
    18    -0.077934
    19     0.006270
    20     0.077661
    21     0.034200
    22     0.147774
    23    -0.098433
    24    -0.036227
    25     0.103672
    26     0.023525
    27    -0.057369
    28     0.210664
    29     0.050447
    30     0.038052
    31    -0.209691
    32    -0.000108
    33     0.178458
    34     0.046623
    35    -0.084903
    36     0.003294
    37     0.042563
    38    -0.166828
    39     0.135967
    40    -0.030828
    41     0.008638
    42     0.000442
    43    -0.129763
    44     0.033664
    45     0.008735
    46     0.192595
    47    -0.070298
    48    -0.065485
    49     0.113652
    50    -0.006265
    51     0.061708
    52    -0.065305
    53     0.030170
    54     0.025260
    55    -0.003613
    56    -0.003975
    57    -0.043626
    58    -0.031005
    59     0.022202
    60    -0.148416
    61    -0.464813
    62    -0.177094
    63     0.029030
    64    -0.023982
    65    -0.020154
    66     0.058302
    67    -0.081422
    68    -0.017541
    69     0.159454
    70     0.236872
    71     0.547769
    72    -0.070164
    73     0.232302
    74    -0.148749
    75     0.002122
    76     0.026759
    77     0.095867
    78    -0.112019
    79     0.099581
    80     0.111667
    81    -0.056446
    82    -0.484294
    83    -0.522376
    84     0.265871
    85     0.007546
    86    -0.019159
    87     0.045354
    88    -0.101378
    89     0.055626
    90    -0.049806
    91     0.057921
    92     0.037326
    93    -0.021867
    94     0.085703
    95     0.356139
    96    -0.207704
    97    -0.103106
    98    -0.178559
    99    -0.064096
   100    -0.287964
   101    -0.468756
   102    -0.141598
   103    -0.143199
   104    -0.269696
   105    -0.063395
   106    -0.210100
   107    -0.079015
   108    -0.107210
   109     0.346403
   110     1.799600
   111    -0.145010
   112     0.309477
   113     0.075351
   114    -0.217620
   115     0.000585
   116     0.001965
   117    -0.031292
   118    -0.678818
   119    -0.607516
   120    -0.659580
   121     0.005218
   122     0.061089
   123     0.022250
   124    -0.173800
   125    -0.601646
   126    -0.087841
   127     0.054349
   128    -0.057416
   129    -0.128511
   130    -0.214460
   131     0.163051
   132     0.424554
   133     0.321529
   134     0.209026
   135     0.574179
   136    -0.065487
   137    -0.177989
   138     0.050838
   139     0.021805
   140     0.309344
   141     1.537689
   142    -0.144917
   143    -0.006398
   144     0.052890
   145    -0.013283
   146     0.021416
   147    -0.115546
   148     0.183474
   149    -0.017846
   150     0.023647
   151    -0.003549
   152    -0.538402
   153    -0.519221
   154    -0.523268
   155     0.027298
   156     0.027625
   157     0.053954
   158     0.001824
   159     0.025408
   160     0.095036
   161    -0.047769
   162    -0.001669
   163     0.006507
   164    -0.002424
   165    -0.001786
   166    -0.037449
   167     0.019136
   168     0.000888
   169    -0.009532
   170    -0.007681
   171    -0.010697
   172    -0.131057
   173    -0.018449
   174    -0.055714
   175    -0.012671
   176    -0.029639
   177    -0.052042
   178    -0.027014
   179     0.007448
   180    -0.007235
   181    -0.021337
   182     0.041987
   183    -0.111898
   184    -0.037355
   185     0.009566
   186     0.005344
   187     0.250607
   188    -0.089564
   189    -0.086839
   190    -0.018490
   191     0.036762
   192     0.162895
   193    -0.144159
   194    -0.032618
   195     0.000175
   196     0.014404
Sym=   145a
Ene=   -0.276683E-02
Spin= Alpha
Occup= 0.000540
     1     0.038155
     2    -0.165932
     3    -0.016645
     4     0.002723
     5    -0.044874
     6    -0.127828
     7    -0.382615
     8    -0.178230
     9     0.051351
    10     0.063173
    11    -0.023353
    12     0.162425
    13     0.197723
    14    -0.081507
    15     0.307179
    16     0.334623
    17     0.219434
    18     0.132565
    19    -0.093669
    20    -0.086781
    21     0.109149
    22     0.354203
    23     0.096394
    24    -0.130815
    25     0.102048
    26     0.123422
    27    -0.251863
    28     0.209836
    29     0.293053
    30    -0.219930
    31    -0.204229
    32    -0.274386
    33     0.095519
    34     0.096656
    35    -0.125296
    36     0.012667
    37     0.167950
    38    -0.533496
    39     0.064317
    40    -0.040814
    41     0.063184
    42     0.012572
    43    -0.165173
    44     0.265514
    45     0.050469
    46     0.210269
    47    -0.386666
    48    -0.094750
    49     0.183035
    50     0.263624
    51     0.254445
    52    -0.119206
    53     0.075636
    54    -0.063571
    55     0.082088
    56    -0.073647
    57     0.014007
    58     0.003284
    59    -0.028856
    60    -0.042602
    61    -0.093531
    62    -0.180454
    63    -0.140888
    64     0.106192
    65    -0.203925
    66    -0.449924
    67     0.333079
    68    -0.633662
    69     0.160883
    70    -0.049584
    71     0.199539
    72     0.095382
    73     0.121121
    74     0.162884
    75     0.010870
    76     0.139667
    77     0.718543
    78     0.004521
    79    -0.091332
    80     0.039061
    81     0.044155
    82     0.520291
    83    -0.177451
    84    -0.345067
    85     0.049071
    86     0.056503
    87    -0.027263
    88    -0.117748
    89    -0.190680
    90    -0.237060
    91    -0.000620
    92    -0.040859
    93    -0.001662
    94    -0.062589
    95    -0.163506
    96    -0.161413
    97    -0.016949
    98     0.018959
    99     0.014991
   100    -0.041507
   101     0.057963
   102     0.044690
   103     0.074629
   104     0.184856
   105     0.188409
   106    -0.033005
   107     0.011458
   108     0.047244
   109     0.052757
   110     0.299629
   111    -0.215914
   112     0.390991
   113    -0.407170
   114     0.125066
   115    -0.034470
   116    -0.006972
   117    -0.055540
   118    -0.265547
   119    -0.180202
   120    -0.079984
   121    -0.005890
   122     0.062925
   123    -0.113264
   124    -0.068825
   125    -0.211410
   126    -0.060238
   127    -0.095365
   128     0.112004
   129     0.267303
   130     0.368659
   131    -0.362340
   132    -1.027240
   133     0.098960
   134     0.237293
   135     0.135240
   136    -0.039552
   137     0.164379
   138     0.241751
   139    -0.001591
   140    -0.031293
   141    -0.411780
   142     0.164911
   143     0.024225
   144    -0.024134
   145     0.133251
   146    -0.134121
   147     0.035958
   148    -0.922341
   149    -0.072206
   150    -0.010117
   151     0.002655
   152     0.034632
   153     0.091503
   154     0.052794
   155    -0.062601
   156    -0.001455
   157    -0.230774
   158     0.002719
   159     0.028998
   160     0.072291
   161     0.185321
   162    -0.000701
   163    -0.001906
   164    -0.003412
   165     0.006310
   166     0.017931
   167    -0.008229
   168     0.036647
   169     0.042711
   170    -0.032793
   171     0.012496
   172     0.007714
   173    -0.107691
   174     0.044095
   175    -0.035907
   176    -0.001422
   177    -0.106325
   178     0.002616
   179     0.004200
   180    -0.011965
   181    -0.010574
   182     0.025181
   183    -0.128803
   184    -0.024752
   185     0.018890
   186    -0.061857
   187     0.047573
   188    -0.016529
   189    -0.080432
   190     0.066258
   191    -0.001526
   192     0.005075
   193    -0.003025
   194    -0.029316
   195    -0.008811
   196    -0.057728
Sym=   146a
Ene=   -0.301086E-02
Spin= Alpha
Occup= 0.000544
     1     0.146836
     2    -0.281518
     3    -0.015865
     4    -0.043196
     5    -0.023209
     6    -0.215705
     7    -0.626617
     8    -0.395033
     9     0.056605
    10     0.113453
    11     0.007461
    12     0.122849
    13     0.291716
    14    -0.030393
    15     0.394424
    16     0.584536
    17     0.476511
    18     0.105025
    19    -0.072178
    20    -0.181746
    21    -0.066018
    22    -0.167426
    23    -0.226660
    24    -0.006497
    25    -0.038454
    26    -0.004961
    27    -0.050836
    28    -0.094958
    29    -0.025134
    30     0.085918
    31     0.185282
    32     0.200870
    33     0.012613
    34     0.050457
    35     0.042851
    36     0.006262
    37     0.087421
    38    -0.219577
    39    -0.125672
    40    -0.002258
    41     0.011586
    42     0.008961
    43    -0.009522
    44     0.049210
    45     0.035320
    46     0.006056
    47    -0.052644
    48    -0.035041
    49     0.106265
    50     0.093800
    51     0.201456
    52     0.020459
    53     0.035948
    54    -0.022398
    55     0.124258
    56    -0.102635
    57    -0.001968
    58    -0.016756
    59    -0.049513
    60    -0.084208
    61    -0.267763
    62    -0.076986
    63     0.175795
    64    -0.136423
    65     0.264841
    66     0.515175
    67    -0.448106
    68     0.817431
    69     0.114761
    70     0.283538
    71     0.181830
    72    -0.045787
    73    -0.079535
    74    -0.117363
    75     0.001963
    76     0.050537
    77     0.176455
    78     0.145663
    79    -0.013711
    80    -0.040141
    81    -0.029555
    82     0.089164
    83     0.168918
    84     0.099655
    85    -0.014607
    86    -0.026873
    87    -0.097991
    88    -0.113847
    89    -0.154284
    90    -0.183708
    91    -0.083105
    92     0.060755
    93    -0.034873
    94    -0.140380
    95    -0.403796
    96    -0.246477
    97     0.051991
    98     0.062488
    99    -0.008109
   100     0.147979
   101     0.196597
   102    -0.007190
   103     0.319589
   104     0.347849
   105     0.301441
   106     0.075115
   107     0.002505
   108     0.009068
   109     0.071073
   110     0.473643
   111     0.165730
   112    -0.488672
   113    -0.261521
   114    -0.143340
   115     0.069805
   116     0.016620
   117     0.058333
   118    -0.039542
   119    -0.199556
   120    -0.186641
   121    -0.004167
   122    -0.067024
   123    -0.012837
   124    -0.191816
   125    -0.610772
   126    -0.285081
   127     0.044442
   128    -0.016087
   129     0.043497
   130    -0.122681
   131     0.033162
   132    -0.116176
   133     0.449762
   134     0.342854
   135     0.506268
   136     0.044626
   137    -0.037588
   138    -0.072238
   139     0.009914
   140     0.173767
   141     0.797362
   142    -0.184486
   143    -0.030829
   144     0.114222
   145    -0.066192
   146     0.156471
   147    -0.545900
   148     0.393969
   149     0.084176
   150    -0.028103
   151    -0.026422
   152    -0.315807
   153    -0.440747
   154    -0.530577
   155     0.029500
   156    -0.051911
   157     0.150348
   158     0.004833
   159     0.059144
   160     0.183986
   161     0.349106
   162     0.003261
   163     0.005465
   164    -0.009287
   165    -0.013886
   166    -0.007145
   167     0.002843
   168     0.118038
   169     0.033358
   170    -0.025156
   171     0.037788
   172    -0.132792
   173    -0.179087
   174     0.050125
   175     0.044803
   176     0.045064
   177    -0.058591
   178     0.039067
   179     0.004266
   180    -0.005187
   181     0.007420
   182     0.113755
   183    -0.322455
   184    -0.122212
   185     0.024930
   186     0.017666
   187     0.060769
   188    -0.106801
   189     0.067404
   190     0.043403
   191     0.048840
   192     0.159891
   193    -0.219592
   194    -0.030728
   195    -0.015094
   196     0.035843
Sym=   147a
Ene=   -0.236083E-02
Spin= Alpha
Occup= 0.000476
     1    -0.181635
     2     0.272060
     3    -0.070863
     4     0.156633
     5    -0.003489
     6     0.012626
     7     0.020391
     8     0.117350
     9     0.086876
    10     0.157943
    11    -0.223090
    12     0.255482
    13     0.478322
    14    -0.592604
    15     0.016262
    16     0.095356
    17    -0.207522
    18     0.125205
    19    -0.048373
    20    -0.045955
    21     0.161694
    22     0.484240
    23     0.229092
    24    -0.139514
    25     0.077841
    26     0.067539
    27    -0.329740
    28     0.183893
    29     0.175162
    30    -0.416343
    31    -0.330121
    32    -0.360031
    33     0.098748
    34     0.129383
    35    -0.059265
    36    -0.012091
    37    -0.159221
    38     0.413279
    39     0.165826
    40     0.020322
    41    -0.035435
    42    -0.043652
    43     0.075326
    44    -0.131244
    45    -0.157956
    46    -0.052675
    47     0.099765
    48     0.145776
    49    -0.221083
    50    -0.138069
    51    -0.312118
    52    -0.000698
    53    -0.145745
    54     0.104747
    55     0.006032
    56     0.068567
    57    -0.078043
    58     0.122579
    59     0.085384
    60     0.061483
    61     0.120016
    62     0.300768
    63     0.069105
    64    -0.062827
    65     0.061294
    66     0.217471
    67    -0.225747
    68     0.213545
    69    -0.187763
    70    -0.129510
    71    -0.163214
    72    -0.014276
    73     0.005376
    74    -0.006364
    75     0.006282
    76     0.065428
    77     0.192425
    78    -0.118688
    79     0.022785
    80     0.005310
    81     0.017527
    82    -0.128246
    83    -0.049248
    84    -0.057175
    85    -0.001363
    86    -0.016107
    87     0.061192
    88    -0.224621
    89    -0.063044
    90     0.076644
    91     0.127080
    92    -0.178310
    93     0.240567
    94     0.011486
    95     0.063784
    96    -0.089759
    97     0.013601
    98    -0.021115
    99     0.020013
   100    -0.009787
   101    -0.080137
   102     0.061330
   103    -0.013545
   104    -0.004644
   105    -0.033363
   106    -0.055361
   107     0.030789
   108     0.012855
   109     0.048652
   110     0.308683
   111    -0.263464
   112    -0.106694
   113    -0.601152
   114    -0.174488
   115     0.062813
   116     0.086033
   117    -0.065878
   118    -0.051294
   119    -0.115934
   120    -0.129399
   121     0.006608
   122     0.021971
   123    -0.114986
   124     0.042163
   125     0.188031
   126    -0.218824
   127     0.006612
   128    -0.056874
   129    -0.126993
   130     0.040621
   131     0.215201
   132     0.384802
   133    -0.146322
   134    -0.055960
   135    -0.069880
   136    -0.062901
   137     0.068724
   138    -0.096739
   139    -0.000221
   140    -0.003879
   141     0.029434
   142     0.107760
   143     0.004262
   144     0.037486
   145    -0.063910
   146     0.015478
   147    -0.131293
   148     0.454285
   149    -0.087894
   150     0.033453
   151    -0.004955
   152    -0.001155
   153     0.020798
   154     0.023150
   155     0.022184
   156     0.031371
   157     0.142150
   158    -0.003448
   159    -0.062520
   160    -0.320645
   161     0.216037
   162    -0.025985
   163    -0.015573
   164     0.070023
   165     0.094856
   166     0.060912
   167    -0.290160
   168     0.084680
   169     0.079678
   170    -0.049851
   171     0.217025
   172     0.062111
   173     0.239645
   174    -0.170497
   175    -0.166458
   176    -0.192843
   177     0.127753
   178    -0.048289
   179     0.005465
   180    -0.030016
   181    -0.033540
   182    -0.168586
   183    -0.143949
   184    -0.041299
   185    -0.045745
   186    -0.051909
   187     0.007228
   188     0.066717
   189     0.022119
   190     0.084133
   191    -0.017661
   192    -0.056680
   193     0.095519
   194     0.026681
   195    -0.044217
   196     0.028297
Sym=   148a
Ene=   -0.423590E-02
Spin= Alpha
Occup= 0.000748
     1    -0.012020
     2     0.070365
     3    -0.009768
     4     0.008704
     5    -0.012724
     6    -0.010458
     7    -0.059505
     8     0.125166
     9     0.052862
    10     0.115482
    11    -0.010841
    12     0.101305
    13     0.228843
    14    -0.015452
    15    -0.014618
    16     0.139059
    17    -0.109724
    18     0.111277
    19     0.020016
    20     0.003685
    21    -0.027186
    22    -0.143036
    23     0.174062
    24     0.075268
    25    -0.102193
    26     0.000366
    27     0.136684
    28    -0.206793
    29     0.013970
    30     0.036522
    31     0.203774
    32    -0.129253
    33    -0.221990
    34    -0.007376
    35     0.078655
    36    -0.004055
    37    -0.051551
    38     0.167504
    39    -0.041655
    40     0.001125
    41    -0.026940
    42     0.002902
    43     0.001694
    44    -0.111065
    45     0.016066
    46    -0.002217
    47     0.158289
    48    -0.017737
    49     0.011297
    50    -0.089728
    51    -0.125750
    52     0.018914
    53    -0.054591
    54     0.072171
    55    -0.011169
    56    -0.009772
    57    -0.046582
    58    -0.005594
    59     0.035781
    60     0.040569
    61     0.129846
    62     0.070903
    63    -0.094411
    64     0.065997
    65    -0.067675
    66    -0.247454
    67     0.174926
    68    -0.190489
    69     0.064094
    70    -0.178896
    71    -0.148518
    72     0.050287
    73     0.040486
    74     0.101221
    75    -0.003061
    76    -0.022121
    77    -0.101784
    78     0.035355
    79     0.098643
    80     0.025462
    81    -0.084052
    82    -0.445279
    83    -0.120034
    84     0.379759
    85    -0.015647
    86     0.020029
    87    -0.006265
    88    -0.059885
    89     0.040452
    90    -0.010917
    91     0.036398
    92     0.033486
    93    -0.008346
    94     0.032493
    95     0.141087
    96    -0.100929
    97    -0.040195
    98    -0.085987
    99    -0.056451
   100    -0.102043
   101    -0.221229
   102    -0.119743
   103     0.017177
   104    -0.171214
   105    -0.022137
   106    -0.065267
   107    -0.024540
   108    -0.091690
   109    -0.459655
   110    -2.354162
   111     0.159437
   112    -0.098664
   113    -0.061208
   114     0.442656
   115     0.000728
   116    -0.005261
   117    -0.040371
   118     0.780121
   119     0.789588
   120     0.910871
   121    -0.010756
   122    -0.048983
   123    -0.011944
   124    -0.253478
   125    -0.951544
   126     0.146119
   127     0.106758
   128     0.059786
   129    -0.072344
   130    -0.299581
   131    -0.153864
   132     0.211114
   133     0.403583
   134     0.302944
   135     0.824740
   136    -0.074784
   137    -0.286550
   138     0.184458
   139     0.002563
   140     0.049029
   141     0.326093
   142    -0.066635
   143     0.000155
   144     0.003537
   145     0.102531
   146     0.003752
   147     0.041707
   148    -0.403093
   149     0.034808
   150     0.006658
   151     0.027585
   152    -0.108240
   153    -0.059839
   154    -0.117551
   155    -0.003315
   156     0.053559
   157    -0.075855
   158     0.000447
   159     0.002942
   160     0.003419
   161    -0.007695
   162    -0.003125
   163    -0.004198
   164     0.012343
   165     0.009970
   166     0.012594
   167    -0.043074
   168    -0.000512
   169    -0.022135
   170    -0.028974
   171     0.007231
   172    -0.008972
   173     0.011431
   174    -0.020019
   175    -0.021580
   176    -0.013843
   177     0.061300
   178    -0.031390
   179     0.009111
   180    -0.001117
   181     0.003681
   182    -0.006226
   183    -0.001957
   184    -0.009576
   185    -0.006193
   186    -0.013043
   187    -0.318980
   188     0.027095
   189     0.018328
   190     0.003344
   191    -0.058789
   192     0.018349
   193    -0.055364
   194    -0.021865
   195    -0.003009
   196    -0.028509
Sym=   149a
Ene=   -0.178351E-02
Spin= Alpha
Occup= 0.000317
     1    -0.119267
     2     0.092379
     3     0.023396
     4     0.154634
     5    -0.134150
     6    -0.005638
     7     0.035189
     8    -0.183601
     9    -0.012589
    10     0.014250
    11    -0.164562
    12     0.035513
    13     0.154892
    14    -0.483993
    15     0.095591
    16     0.190742
    17    -0.188549
    18     0.093788
    19    -0.004965
    20    -0.016267
    21    -0.107655
    22    -0.221158
    23    -0.551216
    24     0.047034
    25    -0.011810
    26    -0.073546
    27     0.040230
    28     0.031964
    29    -0.162115
    30     0.277269
    31     0.258092
    32     0.320957
    33     0.027746
    34     0.004322
    35     0.016226
    36    -0.006249
    37    -0.089896
    38     0.268950
    39     0.032682
    40     0.013022
    41    -0.016749
    42    -0.007979
    43     0.060529
    44    -0.081361
    45    -0.032957
    46    -0.138081
    47     0.171041
    48     0.013235
    49    -0.145953
    50    -0.217834
    51    -0.053708
    52     0.085136
    53    -0.007826
    54    -0.018337
    55    -0.176132
    56     0.011122
    57     0.178669
    58     0.010807
    59    -0.020002
    60    -0.114692
    61    -0.235363
    62    -0.533529
    63     0.029142
    64     0.011885
    65    -0.019178
    66     0.028085
    67     0.033393
    68    -0.081726
    69     0.367743
    70     0.297998
    71     0.280964
    72     0.004770
    73     0.033271
    74     0.027303
    75    -0.007855
    76    -0.108522
    77    -0.373787
    78    -0.016672
    79     0.022326
    80    -0.024891
    81    -0.014376
    82    -0.062446
    83     0.167042
    84     0.072421
    85     0.133678
    86     0.066341
    87     0.139845
    88     0.397482
    89     0.189831
    90    -0.046954
    91    -0.027756
    92     0.235026
    93     0.009649
    94     0.182536
    95     0.382067
    96     0.782672
    97     0.012237
    98    -0.000771
    99     0.001606
   100     0.039372
   101    -0.011400
   102     0.022703
   103    -0.462023
   104    -0.527193
   105    -0.472526
   106     0.044583
   107     0.010643
   108     0.043968
   109     0.091396
   110     0.466761
   111    -0.152225
   112    -0.047410
   113    -0.123364
   114    -0.071484
   115    -0.059770
   116     0.039698
   117     0.295393
   118    -0.210905
   119    -0.271791
   120    -0.280456
   121    -0.072490
   122    -0.090795
   123     0.087872
   124     0.017211
   125    -0.040228
   126     0.495611
   127     0.013101
   128     0.039066
   129     0.138935
   130    -0.156663
   131    -0.172397
   132    -0.370375
   133    -0.000432
   134    -0.073181
   135    -0.086065
   136    -0.000893
   137    -0.124372
   138     0.076461
   139     0.002270
   140     0.039783
   141     0.048101
   142     0.049692
   143    -0.008254
   144     0.008717
   145     0.027534
   146     0.045267
   147    -0.080164
   148    -0.297786
   149     0.021932
   150    -0.051530
   151    -0.046556
   152    -0.084008
   153    -0.073600
   154    -0.185059
   155    -0.030141
   156     0.056739
   157    -0.020926
   158     0.001476
   159    -0.000249
   160    -0.088494
   161     0.207192
   162    -0.000644
   163    -0.021013
   164     0.033369
   165    -0.007953
   166     0.074831
   167    -0.150440
   168     0.146976
   169     0.071426
   170     0.000190
   171    -0.024783
   172     0.208908
   173    -0.001526
   174     0.117397
   175    -0.293458
   176    -0.394513
   177    -0.000893
   178    -0.038936
   179    -0.012286
   180     0.015966
   181    -0.020248
   182     0.053811
   183    -0.156437
   184     0.010083
   185     0.006719
   186    -0.141212
   187     0.153962
   188     0.179818
   189     0.036081
   190    -0.054922
   191     0.062256
   192     0.113629
   193    -0.179467
   194    -0.059339
   195     0.009986
   196     0.013136
Sym=   150a
Ene=   -0.161732E-02
Spin= Alpha
Occup= 0.000290
     1    -0.175995
     2     0.147394
     3    -0.044797
     4     0.131775
     5    -0.069403
     6    -0.114837
     7    -0.227000
     8    -0.518961
     9     0.022824
    10    -0.072649
    11    -0.003611
    12     0.047804
    13    -0.122881
    14    -0.025073
    15     0.277072
    16     0.398759
    17     0.284890
    18    -0.016156
    19     0.041435
    20    -0.041601
    21    -0.029897
    22    -0.061751
    23    -0.147830
    24    -0.012075
    25    -0.007071
    26    -0.079100
    27    -0.020367
    28    -0.026774
    29    -0.184963
    30     0.045165
    31     0.111706
    32     0.085496
    33     0.034782
    34    -0.041917
    35     0.047319
    36     0.001376
    37     0.020313
    38    -0.084028
    39     0.081416
    40    -0.007882
    41     0.006727
    42    -0.007359
    43    -0.041213
    44     0.026254
    45    -0.027702
    46     0.102537
    47    -0.045098
    48     0.009145
    49     0.092178
    50    -0.035876
    51     0.039729
    52    -0.079023
    53    -0.010519
    54     0.007065
    55     0.076706
    56     0.040447
    57     0.148436
    58     0.132053
    59    -0.103307
    60     0.097824
    61     0.194059
    62     0.443110
    63    -0.023961
    64     0.009735
    65    -0.061523
    66     0.011331
    67     0.008958
    68    -0.109489
    69    -0.366304
    70    -0.267679
    71    -0.195243
    72     0.011637
    73     0.027304
    74    -0.038113
    75    -0.000016
    76     0.011544
    77     0.003380
    78    -0.090130
    79     0.061678
    80     0.058802
    81    -0.039057
    82    -0.409536
    83    -0.351251
    84     0.254835
    85    -0.041637
    86    -0.031416
    87    -0.095040
    88     0.250091
    89    -0.040793
    90    -0.338828
    91     0.148822
    92     0.203740
    93     0.243543
    94    -0.123288
    95    -0.155907
    96    -0.908463
    97     0.016219
    98    -0.069669
    99     0.073600
   100    -0.056984
   101    -0.358769
   102     0.169746
   103     0.423928
   104     0.190296
   105     0.453048
   106    -0.081566
   107     0.032272
   108     0.034731
   109     0.007655
   110    -0.011083
   111     0.047119
   112    -0.001879
   113     0.069518
   114    -0.097058
   115    -0.085666
   116    -0.039325
   117     0.180166
   118    -0.127693
   119    -0.073676
   120     0.072144
   121    -0.065301
   122     0.117508
   123     0.067699
   124     0.067244
   125     0.120052
   126     0.490731
   127     0.029591
   128    -0.065575
   129    -0.041993
   130    -0.258398
   131     0.211403
   132     0.340507
   133    -0.056996
   134    -0.244744
   135    -0.219042
   136    -0.144745
   137    -0.300962
   138     0.005058
   139    -0.004450
   140    -0.079292
   141    -0.279265
   142    -0.053183
   143     0.026158
   144     0.018140
   145    -0.001115
   146    -0.070658
   147    -0.054122
   148     0.081117
   149     0.139067
   150    -0.013264
   151     0.009392
   152     0.191684
   153     0.140250
   154     0.194321
   155     0.010724
   156    -0.165229
   157     0.016216
   158    -0.003968
   159    -0.052855
   160    -0.203887
   161     0.006347
   162     0.013283
   163    -0.010050
   164     0.020543
   165    -0.049764
   166     0.042129
   167    -0.095855
   168     0.083836
   169     0.017452
   170     0.097978
   171     0.107541
   172     0.215333
   173    -0.011539
   174    -0.208638
   175     0.155389
   176    -0.068468
   177    -0.022003
   178    -0.024038
   179     0.007441
   180    -0.006666
   181    -0.021597
   182    -0.139333
   183     0.034854
   184    -0.128816
   185    -0.122727
   186     0.251944
   187     0.138442
   188     0.045264
   189    -0.128574
   190    -0.067347
   191     0.059372
   192    -0.113686
   193    -0.001039
   194    -0.018757
   195     0.034353
   196    -0.077444
Sym=   151a
Ene=   -0.152420E-02
Spin= Alpha
Occup= 0.000293
     1    -0.307314
     2     0.216689
     3    -0.078143
     4     0.134993
     5    -0.030354
     6    -0.027645
     7    -0.037005
     8    -0.159483
     9     0.085810
    10     0.016245
    11    -0.103430
    12     0.230879
    13     0.136404
    14    -0.330536
    15     0.102215
    16     0.212368
    17    -0.059580
    18     0.003935
    19     0.074048
    20    -0.021947
    21    -0.070413
    22    -0.139192
    23    -0.344633
    24     0.003807
    25    -0.004807
    26    -0.040825
    27    -0.007558
    28    -0.028725
    29    -0.104635
    30     0.164909
    31     0.226531
    32     0.188108
    33     0.021655
    34     0.006875
    35     0.028697
    36     0.006048
    37     0.088545
    38    -0.276757
    39     0.053365
    40    -0.001363
    41    -0.002459
    42     0.017967
    43    -0.009765
    44     0.000280
    45     0.065306
    46     0.037799
    47    -0.065774
    48    -0.119514
    49     0.090411
    50     0.196966
    51     0.143360
    52    -0.069706
    53     0.096046
    54    -0.068908
    55     0.022519
    56    -0.007972
    57    -0.182750
    58    -0.131976
    59     0.084031
    60    -0.071220
    61    -0.085084
    62    -0.540141
    63    -0.000198
    64     0.022154
    65    -0.039869
    66    -0.005755
    67     0.107830
    68    -0.181776
    69     0.175050
    70     0.219672
    71     0.233187
    72     0.016439
    73    -0.021761
    74     0.060119
    75     0.003512
    76     0.057546
    77     0.263006
    78    -0.028901
    79    -0.065485
    80    -0.040766
    81     0.015314
    82     0.396482
    83     0.243590
    84    -0.141842
    85    -0.063010
    86    -0.034280
    87    -0.035200
    88    -0.366749
    89    -0.223382
    90     0.195778
    91    -0.030258
    92    -0.192971
    93    -0.298585
    94     0.013782
    95    -0.044331
    96     0.337723
    97     0.014096
    98     0.081961
    99    -0.039745
   100     0.134852
   101     0.339359
   102    -0.093788
   103    -0.055250
   104     0.063385
   105    -0.158903
   106     0.089112
   107    -0.050066
   108    -0.059045
   109     0.040425
   110     0.165566
   111    -0.075658
   112    -0.093995
   113    -0.110089
   114    -0.089991
   115    -0.088373
   116     0.016609
   117     0.170112
   118    -0.183106
   119    -0.137915
   120    -0.071460
   121    -0.049206
   122     0.042377
   123    -0.004207
   124     0.000545
   125     0.020092
   126    -0.032861
   127    -0.103854
   128     0.015083
   129    -0.029013
   130     0.431956
   131    -0.174167
   132    -0.286944
   133    -0.180072
   134     0.017175
   135     0.176534
   136     0.067495
   137     0.105166
   138    -0.056581
   139    -0.003253
   140    -0.053938
   141    -0.339312
   142     0.116574
   143     0.037218
   144     0.002283
   145     0.050861
   146    -0.165996
   147    -0.009510
   148    -0.353131
   149    -0.060787
   150     0.020866
   151     0.010553
   152     0.268074
   153     0.015597
   154     0.010037
   155     0.086538
   156    -0.052446
   157    -0.256561
   158    -0.003791
   159    -0.057692
   160    -0.186243
   161    -0.113036
   162     0.004492
   163    -0.023628
   164     0.065152
   165     0.006878
   166     0.103810
   167    -0.259850
   168    -0.027792
   169    -0.019803
   170     0.064449
   171    -0.265994
   172     0.462314
   173     0.247083
   174    -0.138985
   175     0.059516
   176    -0.173348
   177    -0.122305
   178    -0.051624
   179    -0.010940
   180    -0.012958
   181    -0.031082
   182     0.043707
   183    -0.019179
   184     0.050720
   185    -0.020659
   186     0.278776
   187     0.142069
   188     0.064105
   189    -0.058482
   190    -0.020190
   191     0.062601
   192     0.057923
   193    -0.033390
   194     0.032334
   195     0.211607
   196     0.025559
Sym=   152a
Ene=   -0.165406E-02
Spin= Alpha
Occup= 0.000282
     1    -0.076658
     2    -0.040188
     3    -0.077044
     4    -0.074325
     5     0.154837
     6     0.057715
     7     0.121637
     8     0.220688
     9     0.037660
    10     0.138895
    11    -0.050469
    12     0.112454
    13     0.305491
    14    -0.156281
    15    -0.107339
    16    -0.210045
    17    -0.158163
    18     0.024354
    19    -0.008182
    20     0.059211
    21    -0.113357
    22    -0.210569
    23    -0.565677
    24     0.026710
    25     0.030775
    26     0.064370
    27     0.046670
    28     0.067175
    29     0.150003
    30     0.359784
    31     0.282831
    32     0.310664
    33    -0.024957
    34     0.057789
    35    -0.057584
    36     0.004991
    37     0.072116
    38    -0.201537
    39    -0.052687
    40     0.000107
    41     0.001321
    42     0.016013
    43    -0.006358
    44     0.005154
    45     0.058656
    46     0.057395
    47    -0.024090
    48    -0.051093
    49     0.174141
    50     0.114965
    51     0.054986
    52    -0.108265
    53     0.015663
    54    -0.018948
    55     0.083671
    56    -0.003362
    57     0.011298
    58     0.121788
    59    -0.143931
    60    -0.161551
    61    -0.304649
    62    -0.799451
    63    -0.014766
    64     0.031629
    65    -0.017004
    66    -0.174449
    67     0.152637
    68    -0.193753
    69     0.579042
    70     0.421848
    71     0.370445
    72    -0.021172
    73     0.009809
    74     0.102396
    75    -0.004054
    76    -0.036850
    77    -0.208051
    78     0.037748
    79     0.044206
    80     0.051963
    81    -0.023009
    82    -0.340591
    83    -0.308208
    84     0.214573
    85    -0.127712
    86     0.016343
    87    -0.188066
    88     0.095690
    89    -0.039073
    90    -0.007876
    91     0.149371
    92     0.200483
    93     0.186444
    94    -0.149350
    95    -0.232547
    96    -0.931811
    97     0.016518
    98    -0.066794
    99     0.086112
   100    -0.034897
   101    -0.304913
   102     0.197610
   103     0.479266
   104     0.300289
   105     0.484738
   106    -0.074204
   107     0.042769
   108     0.055737
   109     0.057512
   110     0.306564
   111     0.010289
   112     0.102873
   113    -0.151166
   114     0.078386
   115     0.010732
   116     0.029030
   117     0.021088
   118    -0.106391
   119    -0.115203
   120    -0.284303
   121     0.059557
   122    -0.120577
   123    -0.115220
   124     0.093386
   125     0.182956
   126     0.601329
   127     0.037397
   128    -0.015276
   129    -0.083928
   130    -0.238561
   131     0.053455
   132     0.378299
   133    -0.302708
   134    -0.272874
   135    -0.160433
   136    -0.055785
   137    -0.134890
   138     0.045579
   139    -0.007144
   140    -0.109811
   141    -0.324453
   142    -0.035681
   143     0.020776
   144    -0.036223
   145     0.016475
   146    -0.106438
   147     0.243704
   148    -0.121328
   149     0.155405
   150    -0.033581
   151    -0.040580
   152     0.329838
   153     0.195356
   154     0.196352
   155     0.053428
   156     0.136321
   157    -0.083657
   158    -0.007480
   159    -0.099792
   160    -0.349177
   161     0.050756
   162    -0.009330
   163    -0.002202
   164     0.027876
   165     0.038922
   166     0.011968
   167    -0.106435
   168     0.025476
   169     0.049505
   170    -0.004662
   171    -0.000059
   172     0.153059
   173     0.404706
   174    -0.110995
   175    -0.121893
   176     0.165362
   177    -0.022313
   178    -0.012269
   179     0.005231
   180    -0.003178
   181     0.009136
   182    -0.103553
   183     0.135191
   184     0.149898
   185     0.039722
   186    -0.135644
   187     0.050543
   188    -0.027850
   189     0.096170
   190     0.077393
   191     0.025732
   192     0.066355
   193    -0.147720
   194     0.005078
   195     0.177168
   196     0.106365
Sym=   153a
Ene=   -0.999569E-03
Spin= Alpha
Occup= 0.000139
     1     0.249160
     2    -0.044238
     3    -0.214231
     4    -0.045490
     5    -0.022154
     6    -0.071475
     7    -0.105193
     8    -0.438855
     9    -0.042679
    10    -0.015281
    11     0.033781
    12    -0.090650
    13    -0.059410
    14     0.100259
    15     0.238389
    16     0.180201
    17     0.230350
    18     0.012741
    19    -0.003957
    20     0.056948
    21     0.075873
    22     0.111015
    23     0.464608
    24     0.016083
    25    -0.023735
    26    -0.013137
    27     0.046511
    28    -0.041046
    29    -0.054906
    30    -0.234810
    31    -0.250982
    32    -0.203762
    33    -0.006124
    34    -0.041337
    35     0.016070
    36     0.013400
    37     0.201960
    38    -0.578292
    39    -0.056633
    40     0.008544
    41     0.017910
    42     0.059033
    43     0.022284
    44     0.094750
    45     0.258788
    46     0.056359
    47    -0.254895
    48    -0.405170
    49     0.276087
    50     0.377959
    51     0.330415
    52    -0.116163
    53    -0.007254
    54     0.077012
    55     0.035717
    56    -0.009409
    57     0.179435
    58     0.032197
    59     0.279624
    60    -0.003458
    61    -0.019228
    62     0.027227
    63    -0.036028
    64    -0.003329
    65     0.035717
    66    -0.076132
    67    -0.017054
    68     0.128004
    69    -0.002413
    70    -0.017042
    71     0.037534
    72     0.035919
    73    -0.007856
    74     0.004897
    75     0.011819
    76     0.172325
    77     0.331886
    78     0.035417
    79    -0.022983
    80    -0.000222
    81    -0.070328
    82     0.039030
    83     0.038810
    84     0.399582
    85     0.069956
    86    -0.042394
    87     0.194023
    88    -0.216345
    89    -0.326684
    90    -0.581183
    91     0.172740
    92    -0.132951
    93    -0.093836
    94     0.049225
    95     0.026864
    96     0.450260
    97     0.034869
    98     0.049144
    99    -0.089507
   100     0.117314
   101     0.138077
   102    -0.264526
   103    -0.148368
   104    -0.183042
   105    -0.157934
   106     0.026290
   107    -0.044904
   108    -0.106415
   109    -0.019559
   110    -0.168590
   111     0.189285
   112    -0.000236
   113     0.130427
   114     0.034676
   115     0.048760
   116    -0.088516
   117     0.023626
   118     0.098242
   119     0.028166
   120     0.069190
   121     0.014108
   122    -0.027766
   123     0.105792
   124    -0.021016
   125    -0.113492
   126     0.128431
   127     0.166046
   128    -0.021620
   129    -0.021028
   130    -0.595869
   131     0.107523
   132     0.312822
   133     0.223330
   134    -0.036107
   135    -0.078232
   136     0.025569
   137    -0.070198
   138    -0.180632
   139    -0.007900
   140    -0.128483
   141    -0.414720
   142    -0.090843
   143     0.017795
   144     0.004962
   145    -0.045265
   146    -0.058911
   147     0.023049
   148     0.287475
   149     0.253705
   150     0.023447
   151    -0.026215
   152     0.342107
   153     0.098224
   154     0.394913
   155     0.172626
   156     0.001222
   157     0.050384
   158     0.004047
   159     0.051052
   160     0.244203
   161    -0.151452
   162    -0.031164
   163     0.011333
   164     0.000965
   165     0.147537
   166    -0.029720
   167    -0.003311
   168    -0.191348
   169    -0.099468
   170    -0.010602
   171     0.005544
   172    -0.171562
   173    -0.077264
   174    -0.148082
   175    -0.200064
   176    -0.001068
   177    -0.195919
   178     0.028304
   179     0.012692
   180     0.001502
   181     0.088528
   182    -0.091297
   183     0.183746
   184     0.060728
   185     0.150694
   186    -0.157221
   187    -0.034625
   188    -0.046852
   189     0.012077
   190    -0.054458
   191    -0.005022
   192    -0.076628
   193    -0.003552
   194     0.115863
   195     0.242295
   196    -0.028101
Sym=   154a
Ene=   -0.104160E-02
Spin= Alpha
Occup= 0.000142
     1    -0.107982
     2     0.036025
     3    -0.226449
     4    -0.093606
     5     0.024482
     6    -0.039228
     7    -0.150854
     8     0.085110
     9    -0.037405
    10     0.030026
    11     0.046085
    12    -0.006620
    13     0.222584
    14     0.104200
    15     0.052795
    16     0.189220
    17     0.043251
    18     0.072316
    19    -0.006411
    20     0.017996
    21     0.002301
    22     0.058738
    23    -0.258847
    24    -0.027284
    25     0.022727
    26    -0.038740
    27    -0.215029
    28     0.187951
    29    -0.015374
    30    -0.070950
    31     0.007651
    32     0.071453
    33     0.130082
    34     0.007167
    35    -0.017153
    36    -0.012485
    37    -0.191154
    38     0.544545
    39     0.088008
    40    -0.007213
    41    -0.008409
    42    -0.040405
    43    -0.027215
    44    -0.046631
    45    -0.188163
    46     0.017433
    47     0.136107
    48     0.414323
    49    -0.214329
    50    -0.277041
    51    -0.478837
    52     0.055846
    53    -0.031538
    54    -0.062345
    55    -0.058117
    56    -0.064719
    57    -0.025620
    58    -0.072557
    59    -0.223675
    60     0.131996
    61     0.213339
    62     0.757215
    63     0.017126
    64    -0.003955
    65    -0.014921
    66     0.125757
    67    -0.051915
    68     0.038147
    69    -0.435210
    70    -0.415108
    71    -0.341776
    72     0.002627
    73     0.040032
    74    -0.003679
    75    -0.011314
    76    -0.160024
    77    -0.346147
    78    -0.043576
    79     0.000897
    80     0.004079
    81     0.050923
    82     0.058367
    83    -0.024414
    84    -0.310866
    85     0.071944
    86    -0.017788
    87    -0.006048
    88     0.361482
    89     0.280242
    90     0.350963
    91    -0.136498
    92     0.099638
    93    -0.017787
    94     0.014316
    95     0.045249
    96     0.012529
    97    -0.011861
    98    -0.028509
    99     0.008604
   100    -0.053159
   101    -0.079619
   102     0.045431
   103    -0.044511
   104    -0.042354
   105    -0.018909
   106    -0.003263
   107     0.010340
   108     0.058830
   109    -0.007564
   110     0.045130
   111    -0.050587
   112     0.015650
   113    -0.339772
   114    -0.118295
   115     0.003457
   116    -0.043291
   117    -0.057863
   118    -0.035445
   119    -0.040876
   120     0.113356
   121    -0.155877
   122     0.104338
   123     0.284071
   124    -0.089846
   125    -0.151751
   126    -0.584523
   127     0.002874
   128    -0.043125
   129     0.070569
   130     0.107211
   131     0.096711
   132    -0.351595
   133     0.181752
   134     0.302226
   135     0.293022
   136     0.015009
   137     0.140425
   138     0.013445
   139    -0.001672
   140    -0.018813
   141    -0.132369
   142     0.060308
   143     0.013627
   144     0.028264
   145    -0.018195
   146    -0.034339
   147    -0.173412
   148     0.103604
   149    -0.005483
   150    -0.007680
   151     0.026378
   152     0.142841
   153    -0.094467
   154    -0.092558
   155     0.097729
   156     0.154693
   157    -0.062198
   158    -0.005491
   159    -0.057910
   160    -0.185392
   161     0.060401
   162     0.007468
   163     0.046257
   164    -0.000707
   165    -0.029417
   166    -0.191894
   167     0.003467
   168     0.060519
   169     0.128500
   170    -0.008530
   171    -0.075018
   172     0.184682
   173     0.075228
   174    -0.105424
   175    -0.090522
   176     0.192627
   177     0.328203
   178    -0.000787
   179     0.002112
   180     0.017408
   181     0.019120
   182     0.064954
   183    -0.170359
   184    -0.012263
   185     0.203096
   186    -0.155587
   187     0.037231
   188    -0.043723
   189    -0.115071
   190    -0.184471
   191     0.005195
   192     0.076687
   193    -0.021487
   194     0.096724
   195     0.103615
   196     0.205234
Sym=   155a
Ene=   -0.105143E-02
Spin= Alpha
Occup= 0.000134
     1     0.190756
     2    -0.085930
     3    -0.060956
     4    -0.140661
     5    -0.115539
     6     0.089473
     7     0.014886
     8     0.918922
     9    -0.007938
    10     0.065614
    11     0.092776
    12     0.012973
    13     0.262164
    14     0.289996
    15    -0.399174
    16    -0.197303
    17    -0.316983
    18     0.055507
    19    -0.015219
    20     0.004834
    21    -0.146843
    22    -0.198170
    23    -0.965369
    24    -0.047461
    25     0.036950
    26     0.072357
    27    -0.189101
    28     0.052177
    29     0.266884
    30     0.380397
    31     0.580489
    32     0.393970
    33     0.018783
    34     0.100349
    35    -0.098043
    36     0.005635
    37     0.084207
    38    -0.235863
    39    -0.025126
    40     0.021227
    41    -0.002523
    42     0.046015
    43     0.088411
    44    -0.002601
    45     0.197821
    46    -0.105734
    47    -0.052039
    48    -0.309830
    49     0.083121
    50     0.166610
    51     0.158451
    52    -0.019771
    53     0.002136
    54     0.036289
    55    -0.136877
    56    -0.039795
    57    -0.024478
    58     0.036536
    59     0.123152
    60     0.096055
    61     0.113902
    62     0.687119
    63     0.006042
    64    -0.003806
    65     0.073657
    66     0.106603
    67    -0.102728
    68     0.353997
    69    -0.322643
    70    -0.324446
    71    -0.253026
    72    -0.015400
    73    -0.018645
    74    -0.046087
    75    -0.000641
    76    -0.012791
    77    -0.014629
    78    -0.021910
    79    -0.002304
    80     0.002492
    81    -0.010118
    82    -0.004248
    83    -0.016817
    84     0.046070
    85     0.061321
    86     0.028230
    87     0.223273
    88    -0.026927
    89     0.035408
    90     0.104191
    91     0.128176
    92     0.018421
    93    -0.065246
    94     0.015046
    95     0.019664
    96     0.097140
    97    -0.020239
    98    -0.004169
    99    -0.050173
   100    -0.059239
   101    -0.041115
   102    -0.136926
   103    -0.039037
   104    -0.066157
   105    -0.041839
   106    -0.021407
   107    -0.007310
   108    -0.023724
   109     0.092089
   110     0.662894
   111    -0.043277
   112    -0.162442
   113    -0.414421
   114     0.187784
   115    -0.003310
   116     0.036946
   117    -0.142998
   118    -0.213560
   119    -0.133223
   120    -0.258994
   121    -0.073293
   122     0.265863
   123     0.045705
   124     0.107074
   125     0.164831
   126     0.813680
   127    -0.031067
   128     0.038566
   129     0.074620
   130     0.059707
   131    -0.145114
   132    -0.273193
   133    -0.357416
   134    -0.377926
   135    -0.210351
   136    -0.010974
   137    -0.061609
   138    -0.037337
   139    -0.000213
   140     0.003494
   141    -0.140087
   142     0.079770
   143     0.015360
   144     0.071162
   145    -0.013470
   146    -0.038786
   147    -0.420163
   148    -0.023013
   149     0.008799
   150     0.028227
   151    -0.039468
   152    -0.055416
   153    -0.177567
   154    -0.108502
   155     0.074752
   156    -0.126960
   157     0.063835
   158    -0.001484
   159     0.005362
   160     0.079496
   161    -0.016668
   162     0.042959
   163     0.034544
   164    -0.045367
   165    -0.176730
   166    -0.154055
   167     0.198107
   168     0.089186
   169    -0.010845
   170    -0.078169
   171    -0.022473
   172    -0.098143
   173    -0.173906
   174    -0.062435
   175     0.008569
   176     0.078775
   177    -0.141443
   178     0.000668
   179    -0.007726
   180     0.020260
   181     0.058876
   182     0.059730
   183    -0.118942
   184    -0.234761
   185     0.012470
   186    -0.088092
   187    -0.247100
   188     0.136622
   189     0.001234
   190    -0.022101
   191    -0.391530
   192     0.247953
   193    -0.283407
   194    -0.184895
   195     0.119246
   196    -0.075960
Sym=   156a
Ene=   -0.910198E-03
Spin= Alpha
Occup= 0.000117
     1     0.167772
     2     0.110869
     3    -0.146549
     4     0.004001
     5    -0.154129
     6     0.133578
     7     0.115730
     8     1.069206
     9     0.041605
    10    -0.015231
    11     0.036090
    12     0.094648
    13    -0.125443
    14     0.179762
    15    -0.481581
    16    -0.500016
    17    -0.339164
    18     0.003454
    19    -0.030806
    20    -0.125495
    21    -0.082641
    22     0.032050
    23    -1.202889
    24    -0.048086
    25     0.095517
    26     0.006034
    27    -0.350192
    28     0.557560
    29     0.177920
    30     0.317717
    31     0.152163
    32     0.384763
    33     0.168875
    34     0.069581
    35    -0.093381
    36     0.000487
    37     0.007720
    38    -0.055296
    39     0.139938
    40     0.020692
    41    -0.004790
    42     0.019109
    43     0.088251
    44    -0.015177
    45     0.094787
    46    -0.142166
    47    -0.009215
    48    -0.255724
    49    -0.073148
    50    -0.017922
    51     0.128336
    52     0.037809
    53    -0.005669
    54     0.041100
    55    -0.164445
    56    -0.046751
    57     0.097606
    58     0.060688
    59     0.097409
    60     0.009557
    61    -0.011839
    62     0.148292
    63    -0.036632
    64     0.038886
    65     0.014449
    66    -0.164271
    67     0.119371
    68    -0.055870
    69    -0.010798
    70    -0.089694
    71    -0.005854
    72    -0.004826
    73     0.041589
    74     0.029238
    75    -0.000997
    76    -0.022004
    77    -0.029130
    78     0.030833
    79     0.007682
    80     0.004993
    81    -0.018148
    82    -0.038695
    83    -0.035570
    84     0.081861
    85     0.161022
    86    -0.011110
    87     0.213405
    88     0.077991
    89     0.142339
    90     0.010409
    91     0.057623
    92     0.072059
    93     0.033263
    94     0.007702
    95     0.022146
    96     0.002720
    97    -0.031458
    98    -0.012819
    99    -0.029988
   100    -0.116609
   101    -0.079855
   102    -0.089374
   103    -0.044116
   104    -0.035535
   105     0.006811
   106    -0.039191
   107    -0.002191
   108     0.003163
   109    -0.094338
   110    -0.189234
   111     0.104513
   112     0.493698
   113    -0.449905
   114    -0.235024
   115    -0.015602
   116    -0.026486
   117     0.094208
   118     0.253386
   119     0.267533
   120     0.192316
   121    -0.078962
   122    -0.241801
   123    -0.011571
   124     0.032334
   125    -0.074775
   126     0.854496
   127     0.070210
   128    -0.012629
   129     0.113412
   130    -0.222106
   131    -0.134131
   132    -0.618488
   133    -0.173950
   134    -0.210216
   135     0.048850
   136     0.029537
   137     0.019684
   138     0.093157
   139     0.004284
   140     0.067618
   141     0.052957
   142    -0.054761
   143    -0.014261
   144     0.051456
   145     0.061232
   146     0.070705
   147    -0.330937
   148    -0.537800
   149     0.085594
   150    -0.033025
   151     0.014971
   152    -0.029341
   153    -0.169568
   154    -0.286474
   155     0.061018
   156     0.110871
   157    -0.283470
   158     0.005940
   159     0.098423
   160     0.440968
   161    -0.238045
   162    -0.009171
   163     0.029694
   164    -0.046162
   165     0.060656
   166    -0.118415
   167     0.198351
   168    -0.235260
   169    -0.144423
   170    -0.003828
   171    -0.127626
   172    -0.216792
   173    -0.371499
   174    -0.065965
   175     0.213688
   176     0.042603
   177    -0.149690
   178    -0.061035
   179    -0.027137
   180     0.024683
   181    -0.015565
   182     0.143844
   183    -0.103289
   184    -0.144995
   185     0.174357
   186     0.181188
   187     0.118569
   188    -0.085722
   189     0.039566
   190     0.019648
   191     0.331640
   192    -0.222325
   193     0.214283
   194     0.324602
   195    -0.122757
   196     0.005192
Sym=   157a
Ene=   -0.935316E-03
Spin= Alpha
Occup= 0.000126
     1     0.272243
     2    -0.007071
     3    -0.059895
     4     0.104678
     5     0.005706
     6    -0.060241
     7    -0.024378
     8    -0.586622
     9     0.009740
    10    -0.006853
    11     0.026219
    12    -0.006070
    13    -0.100713
    14     0.076687
    15     0.229565
    16     0.189239
    17     0.187262
    18    -0.041267
    19     0.059529
    20     0.112498
    21    -0.034890
    22    -0.031004
    23    -0.349313
    24     0.009958
    25    -0.021136
    26     0.057171
    27    -0.032297
    28     0.032838
    29     0.250640
    30     0.147960
    31     0.121336
    32     0.052993
    33    -0.023289
    34     0.074485
    35    -0.132543
    36    -0.008896
    37    -0.134312
    38     0.377772
    39     0.039821
    40     0.000436
    41    -0.009211
    42    -0.031515
    43     0.004235
    44    -0.045196
    45    -0.141967
    46    -0.023152
    47     0.105660
    48     0.275190
    49    -0.198024
    50    -0.207906
    51    -0.256998
    52     0.036461
    53    -0.005975
    54    -0.049241
    55    -0.067890
    56    -0.001911
    57    -0.040180
    58     0.010473
    59    -0.175176
    60     0.003018
    61    -0.112434
    62     0.406825
    63    -0.144141
    64    -0.010379
    65     0.089614
    66    -0.481338
    67    -0.049553
    68     0.221593
    69     0.068162
    70    -0.102407
    71    -0.072660
    72     0.022981
    73     0.027072
    74    -0.057035
    75    -0.008743
    76    -0.134660
    77    -0.306605
    78     0.181176
    79     0.018314
    80     0.022916
    81     0.049355
    82    -0.049518
    83    -0.163847
    84    -0.301765
    85     0.022382
    86    -0.039129
    87    -0.135211
    88     0.299118
    89     0.335266
    90     0.358160
    91     0.076733
    92     0.045736
    93    -0.033133
    94    -0.016562
    95     0.042637
    96    -0.380160
    97    -0.014353
    98    -0.048203
    99    -0.008211
   100    -0.124758
   101    -0.245575
   102    -0.025405
   103     0.064227
   104     0.013934
   105     0.112793
   106    -0.063832
   107    -0.009927
   108     0.020051
   109     0.073002
   110     0.472024
   111     0.194145
   112     0.327631
   113     0.010624
   114     0.335526
   115     0.082156
   116    -0.023215
   117    -0.111539
   118    -0.013941
   119     0.035569
   120    -0.413930
   121    -0.029386
   122    -0.116667
   123    -0.007200
   124    -0.081525
   125    -0.046764
   126    -1.006380
   127    -0.022355
   128    -0.017810
   129     0.038038
   130     0.218160
   131     0.170332
   132    -0.023137
   133     0.249989
   134     0.290373
   135     0.206633
   136    -0.014178
   137     0.096477
   138    -0.138576
   139    -0.000573
   140    -0.009760
   141     0.091710
   142    -0.154788
   143    -0.014512
   144     0.015009
   145    -0.045652
   146     0.035643
   147    -0.032558
   148     0.331675
   149     0.136434
   150     0.002169
   151    -0.087844
   152    -0.026236
   153    -0.057415
   154     0.295791
   155     0.134297
   156    -0.247964
   157     0.090312
   158     0.007872
   159     0.083780
   160     0.343212
   161    -0.167686
   162    -0.070209
   163    -0.023717
   164     0.012988
   165     0.316478
   166     0.118051
   167    -0.050512
   168    -0.361162
   169    -0.184865
   170    -0.016627
   171     0.016348
   172    -0.258362
   173    -0.017628
   174    -0.028073
   175    -0.019757
   176    -0.227716
   177     0.151189
   178     0.039242
   179    -0.021674
   180     0.008504
   181    -0.016648
   182     0.017554
   183     0.103403
   184     0.145491
   185     0.066860
   186     0.155026
   187    -0.225449
   188     0.034749
   189     0.241303
   190     0.025842
   191    -0.275932
   192    -0.241689
   193     0.193886
   194     0.196518
   195     0.074371
   196    -0.272333
Sym=   158a
Ene=   -0.844735E-03
Spin= Alpha
Occup= 0.000112
     1    -0.349231
     2     0.091745
     3    -0.219737
     4    -0.007925
     5    -0.155582
     6     0.074580
     7    -0.022933
     8     0.866087
     9     0.009856
    10    -0.002528
    11     0.032071
    12     0.047537
    13     0.062287
    14     0.156929
    15    -0.338947
    16    -0.245289
    17    -0.217273
    18     0.077001
    19    -0.036503
    20    -0.120170
    21     0.002854
    22    -0.055745
    23     0.297426
    24     0.030983
    25     0.000791
    26    -0.030102
    27     0.173835
    28    -0.112747
    29    -0.140767
    30    -0.008614
    31    -0.012185
    32    -0.039626
    33    -0.061672
    34    -0.020496
    35     0.057874
    36     0.000080
    37     0.001703
    38    -0.033042
    39     0.088440
    40    -0.021347
    41    -0.002067
    42    -0.010770
    43    -0.095655
    44    -0.011029
    45    -0.036354
    46     0.162019
    47     0.009664
    48    -0.004457
    49     0.067324
    50    -0.092447
    51     0.036243
    52    -0.032359
    53     0.023419
    54     0.028940
    55     0.152197
    56    -0.064319
    57    -0.123706
    58    -0.015342
    59    -0.121653
    60    -0.095891
    61    -0.124140
    62    -0.626346
    63    -0.009447
    64     0.055884
    65    -0.036470
    66    -0.116097
    67     0.158730
    68    -0.199192
    69     0.340980
    70     0.306545
    71     0.277295
    72     0.006800
    73     0.022705
    74     0.006742
    75    -0.000379
    76    -0.006417
    77    -0.005985
    78    -0.136846
    79    -0.007447
    80    -0.009374
    81     0.032132
    82     0.073091
    83     0.058721
    84    -0.199073
    85    -0.051970
    86    -0.008723
    87     0.026533
    88     0.173265
    89    -0.248285
    90     0.082137
    91    -0.063507
    92    -0.211473
    93    -0.009676
    94     0.031063
    95     0.017609
    96     0.316323
    97     0.041866
    98    -0.026168
    99    -0.021811
   100     0.180561
   101     0.022761
   102    -0.036733
   103    -0.047150
   104    -0.113016
   105    -0.136976
   106     0.075776
   107     0.001425
   108    -0.016102
   109     0.069061
   110     0.203337
   111    -0.213740
   112    -0.157393
   113    -0.005302
   114     0.207506
   115    -0.008210
   116     0.012747
   117    -0.032846
   118    -0.259043
   119    -0.296316
   120    -0.168643
   121     0.004643
   122    -0.064373
   123    -0.011955
   124    -0.084281
   125     0.027122
   126    -1.435212
   127     0.002655
   128    -0.008537
   129    -0.129014
   130     0.151664
   131     0.255305
   132     0.643127
   133     0.386616
   134     0.431144
   135    -0.022617
   136    -0.014520
   137     0.063750
   138    -0.145501
   139    -0.006405
   140    -0.115928
   141    -0.230461
   142     0.163187
   143    -0.015518
   144    -0.072098
   145    -0.053213
   146     0.040023
   147     0.502908
   148     0.497822
   149    -0.148964
   150     0.000381
   151     0.004734
   152     0.156170
   153     0.349929
   154     0.652405
   155    -0.138275
   156    -0.151554
   157     0.282893
   158    -0.011682
   159    -0.125912
   160    -0.453130
   161     0.057098
   162     0.049920
   163     0.079664
   164    -0.034229
   165    -0.235941
   166    -0.356502
   167     0.157293
   168     0.261810
   169     0.360861
   170    -0.020359
   171     0.180023
   172     0.376887
   173    -0.162452
   174    -0.078123
   175     0.135534
   176     0.294104
   177    -0.027923
   178    -0.019994
   179     0.028893
   180     0.017647
   181    -0.041903
   182    -0.037410
   183    -0.115452
   184    -0.136499
   185     0.258590
   186    -0.013292
   187    -0.036326
   188     0.045438
   189     0.074940
   190     0.007162
   191    -0.082717
   192    -0.305671
   193     0.269811
   194    -0.080460
   195    -0.169824
   196    -0.203642
Sym=   159a
Ene=   -0.629330E-03
Spin= Alpha
Occup= 0.000063
     1    -0.033299
     2     0.048708
     3     0.110637
     4    -0.066026
     5    -0.080841
     6     0.013561
     7    -0.043095
     8     0.287894
     9     0.001664
    10     0.011587
    11     0.012351
    12     0.014491
    13     0.066102
    14     0.074669
    15    -0.087369
    16    -0.054044
    17    -0.032695
    18     0.042039
    19    -0.019451
    20    -0.032989
    21     0.015631
    22    -0.031543
    23     0.343571
    24     0.016246
    25    -0.012254
    26    -0.012519
    27     0.119513
    28    -0.130289
    29    -0.102368
    30    -0.066476
    31    -0.049770
    32    -0.064662
    33    -0.039337
    34    -0.032297
    35     0.046510
    36    -0.006549
    37    -0.099423
    38     0.165664
    39     0.361215
    40     0.043986
    41    -0.012344
    42     0.022307
    43     0.188693
    44    -0.039414
    45     0.102031
    46    -0.327691
    47     0.010954
    48    -0.346946
    49    -0.412318
    50    -0.157661
    51     0.079922
    52     0.062346
    53     0.030212
    54    -0.038857
    55    -0.543564
    56     0.207908
    57     0.169030
    58     0.111582
    59     0.201143
    60    -0.039600
    61     0.006222
    62    -0.459241
    63     0.024298
    64     0.037705
    65    -0.051241
    66     0.017782
    67     0.147788
    68    -0.220954
    69     0.174316
    70     0.133216
    71     0.124435
    72     0.004369
    73     0.005767
    74     0.061165
    75    -0.005987
    76    -0.119375
    77    -0.141014
    78    -0.031024
    79     0.029804
    80     0.052963
    81     0.023351
    82    -0.160907
    83    -0.414813
    84    -0.196110
    85     0.109870
    86     0.039823
    87     0.230906
    88     0.095900
    89     0.768656
    90     0.476619
    91     0.368011
    92     0.302536
    93    -0.115512
    94    -0.053139
    95     0.102564
    96    -1.036869
    97    -0.085605
    98    -0.065315
    99    -0.026664
   100    -0.464842
   101    -0.494969
   102    -0.094314
   103     0.179907
   104     0.143801
   105     0.289561
   106    -0.202142
   107    -0.048376
   108    -0.003274
   109     0.030076
   110     0.021726
   111    -0.068977
   112    -0.139695
   113     0.061654
   114     0.062531
   115    -0.024955
   116    -0.016100
   117    -0.030980
   118    -0.135683
   119    -0.164781
   120    -0.048009
   121     0.041743
   122     0.008193
   123     0.011904
   124    -0.143564
   125    -0.121126
   126    -1.346852
   127    -0.082053
   128     0.031413
   129     0.026410
   130     0.261603
   131    -0.008459
   132     0.176101
   133     0.436946
   134     0.507849
   135     0.453734
   136     0.038048
   137     0.045149
   138    -0.172098
   139    -0.005625
   140    -0.103697
   141    -0.376338
   142     0.056915
   143     0.040121
   144    -0.031427
   145    -0.015136
   146    -0.194069
   147     0.273626
   148     0.188609
   149    -0.192592
   150     0.127204
   151     0.097296
   152     0.287106
   153     0.222062
   154     0.406878
   155    -0.004450
   156     0.052050
   157    -0.009602
   158    -0.004552
   159    -0.051519
   160    -0.175051
   161    -0.203257
   162     0.041108
   163     0.004524
   164    -0.016923
   165    -0.183350
   166    -0.032864
   167     0.073973
   168     0.094338
   169     0.004986
   170    -0.044627
   171     0.214638
   172     0.031185
   173    -0.057430
   174    -0.131011
   175     0.072462
   176     0.106236
   177    -0.342103
   178    -0.016877
   179    -0.159126
   180     0.023880
   181    -0.110041
   182    -0.368272
   183     0.374845
   184    -0.067233
   185    -0.283672
   186    -0.050847
   187     0.024400
   188    -0.019300
   189    -0.008818
   190    -0.005278
   191    -0.017888
   192    -0.058713
   193     0.245642
   194    -0.000139
   195     0.120323
   196     0.125210
Sym=   160a
Ene=   -0.284270E-03
Spin= Alpha
Occup= 0.000014
     1    -0.189505
     2     0.080568
     3     0.114717
     4     0.083484
     5     0.060088
     6    -0.023781
     7     0.108613
     8    -0.673040
     9    -0.030195
    10    -0.062584
    11     0.039076
    12    -0.193926
    13    -0.424663
    14     0.150459
    15     0.144614
    16     0.024966
    17     0.156068
    18    -0.093014
    19     0.027881
    20     0.035847
    21    -0.032096
    22     0.142067
    23    -1.020802
    24    -0.035919
    25     0.041751
    26     0.040923
    27    -0.357615
    28     0.427206
    29     0.268443
    30     0.138913
    31     0.115535
    32     0.178950
    33     0.117769
    34     0.075827
    35    -0.101356
    36    -0.007927
    37    -0.113466
    38     0.081968
    39     0.640577
    40    -0.019457
    41     0.008339
    42    -0.074839
    43    -0.108300
    44     0.066263
    45    -0.328816
    46     0.316058
    47    -0.331348
    48     0.392186
    49    -0.184602
    50    -0.072676
    51    -0.265022
    52    -0.289594
    53     0.125241
    54    -0.154288
    55     0.115221
    56     0.071494
    57     0.038378
    58     0.100626
    59    -0.005587
    60    -0.029147
    61     0.117373
    62    -0.760896
    63     0.033639
    64     0.007643
    65     0.049164
    66     0.278879
    67     0.048030
    68     0.222214
    69     0.088256
    70     0.181656
    71     0.117054
    72     0.021432
    73    -0.112799
    74     0.042379
    75     0.006164
    76     0.102865
    77     0.305598
    78    -0.015911
    79    -0.011143
    80     0.031019
    81    -0.015470
    82     0.060501
    83    -0.215907
    84     0.093435
    85    -0.062571
    86    -0.001350
    87    -0.287565
    88    -0.012321
    89    -0.412338
    90    -0.266602
    91     0.675064
    92    -0.031612
    93    -0.482232
    94    -0.000158
    95     0.051904
    96    -0.244856
    97     0.073189
    98    -0.052480
    99    -0.034467
   100     0.139853
   101    -0.293867
   102    -0.153535
   103     0.125906
   104    -0.114024
   105     0.015667
   106    -0.010822
   107    -0.071775
   108    -0.106498
   109    -0.117247
   110    -0.081024
   111     0.370595
   112     0.215313
   113    -0.056799
   114    -0.366379
   115     0.025618
   116    -0.083568
   117     0.082824
   118     0.567496
   119     0.627023
   120     0.354896
   121    -0.039216
   122     0.067924
   123     0.038638
   124     0.011248
   125    -0.048632
   126     0.336233
   127     0.007355
   128     0.121304
   129     0.011472
   130    -0.038073
   131    -0.496104
   132    -0.194324
   133    -0.050667
   134    -0.096176
   135     0.000922
   136     0.160224
   137    -0.034644
   138    -0.187154
   139     0.000689
   140     0.000415
   141    -0.140304
   142    -0.222075
   143     0.008292
   144     0.017103
   145     0.028974
   146    -0.025610
   147    -0.116930
   148    -0.281786
   149     0.138642
   150     0.040370
   151     0.000804
   152     0.022491
   153    -0.033182
   154    -0.004800
   155    -0.089701
   156     0.069347
   157    -0.113182
   158    -0.000981
   159    -0.010502
   160     0.016075
   161    -0.171680
   162     0.027351
   163    -0.026285
   164    -0.010438
   165    -0.109277
   166     0.115357
   167     0.057616
   168    -0.016486
   169    -0.031223
   170     0.028457
   171    -0.186642
   172     0.256643
   173    -0.028473
   174     0.139163
   175     0.003153
   176     0.057481
   177     0.086461
   178    -0.030868
   179    -0.001022
   180    -0.132783
   181    -0.264215
   182     0.183573
   183     0.104177
   184    -0.231548
   185    -0.004594
   186    -0.130186
   187    -0.187214
   188     0.086663
   189    -0.031817
   190     0.006736
   191     0.016626
   192    -0.057040
   193     0.067051
   194     0.041075
   195    -0.111301
   196     0.012801
Sym=   161a
Ene=   -0.281457E-03
Spin= Alpha
Occup= 0.000013
     1    -0.256178
     2     0.155073
     3     0.079898
     4     0.124632
     5    -0.031721
     6    -0.042325
     7     0.125739
     8    -0.960044
     9    -0.081547
    10    -0.094150
    11     0.061105
    12    -0.387501
    13    -0.606022
    14     0.261400
    15     0.185425
    16     0.065334
    17     0.289139
    18    -0.118672
    19     0.004308
    20     0.014549
    21    -0.042264
    22     0.229305
    23    -1.554480
    24    -0.036547
    25     0.061669
    26     0.057797
    27    -0.519481
    28     0.684203
    29     0.435700
    30     0.221115
    31     0.146288
    32     0.225365
    33     0.178893
    34     0.128974
    35    -0.176432
    36    -0.000944
    37    -0.014305
    38     0.001069
    39     0.147478
    40    -0.010305
    41    -0.000982
    42    -0.006763
    43    -0.038417
    44    -0.012119
    45    -0.014285
    46    -0.040276
    47     0.099062
    48    -0.213657
    49    -0.065353
    50    -0.178049
    51     0.190260
    52     0.105632
    53     0.031606
    54     0.061497
    55    -0.032368
    56     0.073446
    57    -0.009178
    58    -0.141401
    59     0.083423
    60    -0.051385
    61     0.096444
    62    -0.926737
    63     0.059014
    64    -0.008987
    65     0.080371
    66     0.518357
    67    -0.098844
    68     0.505912
    69     0.101809
    70     0.327163
    71     0.189284
    72    -0.036858
    73    -0.145346
    74    -0.049763
    75     0.001489
    76     0.027059
    77    -0.005361
    78    -0.068831
    79    -0.014302
    80    -0.029204
    81    -0.014357
    82     0.095053
    83     0.212149
    84     0.090483
    85    -0.041240
    86    -0.093891
    87    -0.069201
    88    -0.246587
    89    -0.074594
    90     0.035658
    91    -0.544603
    92     0.089294
    93     0.359753
    94     0.015335
    95    -0.067977
    96     0.472096
    97    -0.024646
    98     0.048292
    99     0.035161
   100     0.049246
   101     0.351162
   102     0.173633
   103    -0.143977
   104     0.047548
   105    -0.101647
   106     0.069680
   107     0.062099
   108     0.102970
   109    -0.167012
   110    -0.037463
   111     0.573639
   112     0.317000
   113    -0.135716
   114    -0.537015
   115     0.074326
   116    -0.130121
   117     0.092922
   118     0.857524
   119     0.907990
   120     0.498976
   121    -0.197151
   122     0.094517
   123     0.012733
   124    -0.024138
   125     0.016751
   126    -0.374588
   127    -0.041883
   128    -0.109049
   129    -0.068997
   130     0.092512
   131     0.454433
   132     0.408420
   133     0.080680
   134     0.122678
   135     0.072640
   136    -0.132665
   137    -0.039716
   138     0.105075
   139    -0.000696
   140    -0.014325
   141     0.082138
   142    -0.217795
   143     0.012958
   144     0.028713
   145    -0.037507
   146    -0.037259
   147    -0.080720
   148     0.390994
   149    -0.006500
   150     0.027254
   151     0.079790
   152     0.178340
   153     0.022635
   154     0.017300
   155     0.067843
   156    -0.143942
   157     0.182871
   158    -0.002177
   159    -0.026889
   160    -0.091343
   161    -0.181483
   162     0.019074
   163    -0.017140
   164    -0.025602
   165    -0.089447
   166     0.067477
   167     0.121240
   168     0.069059
   169    -0.037213
   170     0.041010
   171     0.066449
   172     0.264052
   173    -0.195980
   174    -0.016446
   175    -0.005945
   176     0.150690
   177    -0.244995
   178    -0.027140
   179    -0.012050
   180     0.014541
   181    -0.213491
   182    -0.186360
   183     0.158545
   184    -0.088122
   185    -0.168776
   186    -0.231888
   187    -0.289240
   188     0.090312
   189    -0.032113
   190    -0.008880
   191     0.014382
   192    -0.171164
   193     0.198969
   194     0.097230
   195     0.166939
   196    -0.151417
Sym=   162a
Ene=   -0.209702E-03
Spin= Alpha
Occup= 0.000009
     1     0.106364
     2    -0.112580
     3    -0.167037
     4    -0.184360
     5    -0.302676
     6    -0.008523
     7     0.110140
     8    -0.536702
     9    -0.043904
    10     0.001287
    11     0.021753
    12    -0.327467
    13    -0.333674
    14     0.187035
    15     0.052827
    16    -0.035079
    17     0.121329
    18    -0.147481
    19     0.047117
    20     0.103591
    21    -0.006379
    22     0.016085
    23    -0.127120
    24    -0.077214
    25    -0.026131
    26    -0.023563
    27    -0.365140
    28    -0.136210
    29    -0.091147
    30    -0.200819
    31     0.180703
    32     0.105742
    33     0.071391
    34     0.068227
    35     0.108830
    36     0.000928
    37     0.023188
    38    -0.122688
    39     0.176670
    40    -0.008993
    41     0.003769
    42    -0.026002
    43    -0.043849
    44     0.025379
    45    -0.117473
    46     0.127019
    47    -0.150664
    48     0.119944
    49     0.092838
    50     0.089897
    51    -0.004229
    52    -0.099671
    53     0.090141
    54    -0.085725
    55    -0.309124
    56     0.141828
    57     0.239922
    58    -0.119626
    59     0.232392
    60    -0.002280
    61    -0.061762
    62     0.188750
    63     0.000984
    64    -0.030633
    65    -0.001951
    66    -0.182945
    67    -0.088787
    68    -0.199059
    69     0.026757
    70    -0.096605
    71     0.073957
    72     0.061871
    73     0.104966
    74     0.046569
    75     0.004215
    76     0.075300
    77     0.069041
    78    -0.208421
    79    -0.010109
    80    -0.014860
    81    -0.045527
    82     0.029787
    83     0.118531
    84     0.335527
    85     0.036944
    86    -0.075024
    87    -0.017435
    88    -0.346679
    89    -0.459295
    90     0.183860
    91    -0.055559
    92     0.384340
    93     0.022073
    94     0.005417
    95    -0.069444
    96     0.364599
    97     0.008034
    98     0.026097
    99     0.027917
   100     0.132960
   101     0.223321
   102     0.122234
   103    -0.011921
   104     0.001414
   105    -0.086298
   106     0.060848
   107     0.023761
   108     0.059409
   109    -0.017940
   110     0.014909
   111     0.049660
   112     0.250710
   113     0.188430
   114     0.002718
   115     0.091598
   116     0.023398
   117    -0.039612
   118    -0.539204
   119     0.734490
   120     0.051081
   121     0.384880
   122    -0.061832
   123     0.253765
   124     0.007610
   125    -0.021367
   126     0.203737
   127     0.010341
   128    -0.018143
   129    -0.037918
   130    -0.203734
   131     0.108844
   132     0.455944
   133    -0.081983
   134    -0.044639
   135     0.046706
   136     0.017810
   137    -0.022166
   138    -0.011504
   139     0.001996
   140     0.051748
   141     0.362387
   142    -0.014841
   143    -0.034738
   144    -0.042750
   145    -0.012943
   146     0.142230
   147     0.257574
   148     0.155836
   149    -0.087638
   150    -0.011122
   151     0.033241
   152    -0.292767
   153    -0.099543
   154     0.007540
   155     0.124987
   156     0.148995
   157     0.007402
   158    -0.006326
   159    -0.089826
   160    -0.362292
   161     0.030760
   162    -0.027610
   163     0.061203
   164    -0.004424
   165     0.077969
   166    -0.297982
   167     0.017878
   168     0.101282
   169     0.227689
   170     0.021818
   171     0.542693
   172    -0.117010
   173     0.013448
   174    -0.090670
   175     0.011932
   176    -0.023126
   177     0.003337
   178     0.046018
   179     0.145030
   180    -0.153115
   181    -0.164286
   182    -0.300326
   183     0.161350
   184     0.380774
   185    -0.021148
   186     0.087286
   187    -0.012721
   188    -0.036946
   189     0.145960
   190     0.111519
   191     0.064091
   192     0.255217
   193    -0.120454
   194    -0.139033
   195    -0.022668
   196    -0.001688
Sym=   163a
Ene=   -0.205407E-03
Spin= Alpha
Occup= 0.000009
     1    -0.387313
     2     0.390602
     3     0.062068
     4     0.087486
     5    -0.097809
     6    -0.043390
     7     0.118292
     8    -0.913364
     9    -0.043365
    10    -0.042474
    11    -0.035570
    12    -0.229868
    13    -0.305527
    14    -0.088187
    15     0.209874
    16     0.137638
    17     0.229462
    18    -0.099274
    19     0.014453
    20    -0.016805
    21    -0.029818
    22     0.125948
    23    -0.869631
    24    -0.054803
    25     0.043567
    26    -0.034600
    27    -0.365091
    28     0.354810
    29    -0.072270
    30     0.093041
    31     0.114707
    32     0.208503
    33     0.139297
    34     0.027529
    35     0.064661
    36    -0.000406
    37    -0.020804
    38     0.086863
    39    -0.001153
    40     0.014815
    41    -0.003203
    42     0.042198
    43     0.071186
    44    -0.018673
    45     0.192135
    46    -0.158442
    47     0.097341
    48    -0.219578
    49    -0.094279
    50    -0.057153
    51    -0.070374
    52     0.088975
    53    -0.112874
    54     0.093870
    55     0.380689
    56    -0.317047
    57    -0.241833
    58     0.193838
    59    -0.291828
    60    -0.011859
    61     0.006343
    62    -0.150533
    63     0.064363
    64    -0.013428
    65     0.023582
    66     0.209715
    67    -0.083044
    68     0.059061
    69    -0.009253
    70     0.056842
    71     0.111382
    72    -0.017333
    73     0.065001
    74    -0.027082
    75    -0.004218
    76    -0.076876
    77     0.008343
    78     0.020435
    79     0.013164
    80     0.017596
    81     0.046879
    82    -0.074200
    83    -0.154693
    84    -0.357191
    85     0.133151
    86     0.178570
    87     0.319304
    88     0.450492
    89     0.482428
    90    -0.295671
    91     0.167487
    92    -0.504120
    93    -0.182465
    94    -0.013173
    95     0.076548
    96    -0.445921
    97    -0.019551
    98    -0.033379
    99    -0.025529
   100    -0.176579
   101    -0.280793
   102    -0.150767
   103     0.070926
   104     0.013811
   105     0.105359
   106    -0.072631
   107    -0.044936
   108    -0.112086
   109    -0.051398
   110     0.225560
   111    -0.005587
   112     0.150292
   113    -0.035443
   114     0.091513
   115    -0.001205
   116    -0.058113
   117     0.276333
   118    -0.081843
   119     0.367497
   120     0.714527
   121     0.036810
   122    -0.298541
   123     0.039730
   124     0.017306
   125    -0.032895
   126     0.345976
   127     0.039420
   128     0.092045
   129     0.096825
   130    -0.019905
   131    -0.439398
   132    -0.833361
   133    -0.030584
   134    -0.066470
   135    -0.137447
   136     0.052931
   137     0.118147
   138     0.064410
   139     0.005853
   140     0.116997
   141     0.105129
   142     0.111308
   143    -0.051296
   144     0.013620
   145     0.029851
   146     0.283106
   147    -0.223244
   148    -0.403618
   149    -0.173163
   150    -0.002916
   151     0.094268
   152    -0.287204
   153    -0.254638
   154    -0.521309
   155     0.120194
   156     0.083002
   157    -0.011828
   158    -0.008320
   159    -0.126585
   160    -0.563991
   161     0.006750
   162    -0.017504
   163     0.029534
   164     0.005353
   165     0.033551
   166    -0.165021
   167    -0.033750
   168     0.215291
   169     0.240591
   170     0.019702
   171     0.373061
   172     0.213184
   173     0.221228
   174    -0.074204
   175     0.098725
   176     0.136000
   177     0.080770
   178    -0.262077
   179    -0.133256
   180     0.188872
   181     0.287842
   182    -0.186494
   183    -0.032724
   184     0.339962
   185    -0.080398
   186    -0.032192
   187    -0.702909
   188     0.449856
   189     0.185943
   190     0.017185
   191    -0.364378
   192     0.177697
   193    -0.082190
   194     0.094488
   195    -0.019936
   196    -0.041474
Sym=   164a
Ene=   -0.183564E-03
Spin= Alpha
Occup= 0.000008
     1    -0.326384
     2     0.302477
     3    -0.244607
     4     0.152731
     5     0.113566
     6     0.017008
     7     0.025695
     8     0.058888
     9    -0.023515
    10    -0.005110
    11     0.045993
    12    -0.160885
    13    -0.206278
    14     0.252467
    15    -0.030076
    16    -0.126959
    17    -0.041798
    18     0.003175
    19    -0.019189
    20     0.105929
    21     0.004270
    22    -0.047513
    23     0.276704
    24     0.003646
    25    -0.015569
    26     0.025000
    27     0.045269
    28    -0.198609
    29     0.106661
    30    -0.095611
    31     0.073430
    32    -0.054223
    33    -0.079183
    34     0.046306
    35    -0.055377
    36     0.000577
    37     0.007112
    38     0.028137
    39    -0.115684
    40    -0.002686
    41    -0.010684
    42     0.017154
    43    -0.030683
    44    -0.068921
    45     0.081241
    46     0.109562
    47     0.206075
    48    -0.100507
    49    -0.020113
    50    -0.037764
    51     0.076798
    52    -0.007306
    53    -0.235187
    54    -0.088584
    55     0.109490
    56    -0.104176
    57    -0.164755
    58    -0.026730
    59    -0.066526
    60     0.005678
    61    -0.005597
    62     0.064682
    63    -0.025211
    64    -0.037181
    65     0.021062
    66    -0.017425
    67    -0.125401
    68     0.165125
    69     0.002720
    70    -0.050974
    71    -0.045322
    72     0.063000
    73    -0.070399
    74     0.048563
    75    -0.001603
    76    -0.029986
    77     0.036984
    78     0.065142
    79    -0.003446
    80     0.002916
    81     0.021173
    82     0.042404
    83    -0.027414
    84    -0.182412
    85     0.038557
    86     0.014698
    87     0.097647
    88     0.333726
    89     0.033767
    90    -0.082105
    91    -0.003388
    92    -0.220147
    93     0.050723
    94    -0.001564
    95     0.030214
    96    -0.130796
    97     0.001335
    98    -0.025011
    99    -0.005863
   100    -0.004153
   101    -0.105511
   102    -0.019184
   103     0.035453
   104    -0.014261
   105     0.019506
   106     0.006533
   107     0.002587
   108    -0.016956
   109    -0.001527
   110    -0.128059
   111     0.182419
   112     0.082851
   113     0.189015
   114    -0.377916
   115     0.126351
   116     0.053451
   117    -0.406926
   118     0.213817
   119     0.325148
   120    -0.762232
   121     0.271723
   122     0.434680
   123     0.173661
   124     0.002300
   125     0.012343
   126    -0.043825
   127     0.016519
   128    -0.016775
   129     0.055960
   130     0.048153
   131     0.007477
   132    -0.456211
   133     0.019458
   134    -0.011297
   135    -0.042405
   136    -0.007159
   137     0.057510
   138     0.017477
   139     0.001725
   140     0.029129
   141    -0.044537
   142     0.010724
   143    -0.016223
   144     0.021364
   145     0.007988
   146     0.097205
   147    -0.172580
   148    -0.115672
   149    -0.006390
   150     0.015024
   151     0.017594
   152    -0.129258
   153    -0.096253
   154    -0.064597
   155     0.040690
   156     0.011109
   157    -0.106172
   158    -0.002600
   159    -0.040981
   160    -0.209603
   161    -0.037555
   162    -0.007262
   163     0.004771
   164    -0.007190
   165    -0.012837
   166    -0.050204
   167     0.056977
   168     0.157849
   169     0.166609
   170     0.016148
   171     0.225012
   172     0.218742
   173    -0.195419
   174     0.337759
   175    -0.107711
   176     0.184613
   177     0.010538
   178    -0.047274
   179    -0.456305
   180    -0.239188
   181     0.205248
   182    -0.098032
   183     0.092795
   184     0.010533
   185    -0.279790
   186     0.142132
   187     0.785789
   188    -0.570965
   189    -0.162168
   190     0.032772
   191     0.507035
   192     0.096887
   193    -0.078466
   194     0.044230
   195     0.010395
   196    -0.001604
Sym=   165a
Ene=   -0.644786E-04
Spin= Alpha
Occup= 0.000001
     1    -0.056100
     2     0.024272
     3    -0.045538
     4     0.057193
     5     0.413888
     6    -0.000704
     7     0.019958
     8    -0.059882
     9    -0.013994
    10    -0.042055
    11    -0.014365
    12    -0.046156
    13    -0.126806
    14    -0.045918
    15    -0.005343
    16     0.052221
    17    -0.015632
    18    -0.004522
    19     0.014374
    20    -0.048850
    21    -0.000723
    22     0.024624
    23    -0.147622
    24    -0.000853
    25    -0.007632
    26     0.005304
    27    -0.054763
    28     0.079062
    29     0.047146
    30     0.023450
    31    -0.017514
    32     0.008724
    33     0.031346
    34     0.002354
    35    -0.016805
    36     0.003446
    37     0.066575
    38    -0.105518
    39    -0.231728
    40    -0.003534
    41    -0.004676
    42    -0.009210
    43    -0.016659
    44    -0.020262
    45    -0.037697
    46     0.022715
    47     0.009692
    48    -0.000375
    49     0.138668
    50     0.113711
    51     0.183903
    52     0.034879
    53    -0.035193
    54     0.072043
    55     0.007353
    56    -0.074414
    57     0.402542
    58     0.155580
    59    -0.177751
    60    -0.006835
    61     0.076812
    62    -0.363964
    63     0.004972
    64     0.067610
    65     0.018843
    66    -0.000422
    67     0.300238
    68    -0.020113
    69     0.062145
    70    -0.017439
    71     0.080927
    72    -0.001195
    73    -0.038607
    74     0.052518
    75    -0.000251
    76    -0.007228
    77    -0.128492
    78     0.135098
    79     0.005443
    80    -0.001190
    81    -0.010496
    82    -0.015079
    83     0.060196
    84     0.068499
    85     0.171229
    86    -0.030321
    87    -0.041015
    88    -0.165547
    89    -0.148281
    90     0.325051
    91    -0.256987
    92    -0.303007
    93    -0.024489
    94    -0.000685
    95    -0.053749
    96     0.257791
    97    -0.016773
    98     0.020003
    99    -0.008517
   100     0.038702
   101     0.223180
   102    -0.024646
   103    -0.018380
   104     0.062211
   105    -0.058578
   106     0.038504
   107    -0.005710
   108    -0.036167
   109    -0.011095
   110     0.064109
   111     0.023722
   112     0.023302
   113     0.022901
   114    -0.018437
   115     0.000331
   116    -0.001728
   117     0.022568
   118     0.067422
   119     0.032212
   120     0.151947
   121    -0.121655
   122    -0.048303
   123    -0.011684
   124     0.000719
   125     0.074033
   126    -0.481199
   127     0.094737
   128    -0.062231
   129    -0.029593
   130    -0.254578
   131     0.330073
   132     0.172107
   133    -0.026357
   134    -0.015753
   135     0.028617
   136     0.071830
   137     0.232902
   138    -0.049834
   139    -0.002272
   140    -0.047715
   141     0.009578
   142    -0.219581
   143     0.006743
   144    -0.031224
   145    -0.023672
   146    -0.099393
   147     0.264131
   148     0.223600
   149     0.191012
   150    -0.054368
   151    -0.083735
   152    -0.172599
   153     0.022802
   154     0.571511
   155     0.378296
   156     0.590777
   157    -0.075567
   158    -0.000581
   159    -0.009955
   160    -0.080441
   161     0.022847
   162     0.039193
   163    -0.035324
   164     0.010173
   165    -0.186102
   166     0.143162
   167    -0.045259
   168     0.206902
   169     0.033113
   170     0.085870
   171     0.001290
   172     0.276328
   173    -0.191145
   174     0.084851
   175     0.204710
   176    -0.200172
   177    -0.042570
   178     0.080943
   179    -0.100433
   180     0.063251
   181    -0.075299
   182    -0.286967
   183     0.331567
   184    -0.169184
   185    -0.014229
   186    -0.014628
   187    -0.138128
   188     0.064660
   189     0.029981
   190     0.043336
   191    -0.063586
   192     0.479880
   193    -0.236146
   194    -0.330218
   195     0.069724
   196    -0.087908
Sym=   166a
Ene=   -0.549077E-04
Spin= Alpha
Occup= 0.000001
     1    -0.031598
     2     0.171206
     3    -0.199253
     4    -0.159443
     5     0.180338
     6    -0.004855
     7     0.012688
     8    -0.078742
     9     0.052080
    10    -0.049313
    11    -0.012600
    12     0.169943
    13    -0.115418
    14    -0.042655
    15     0.015951
    16     0.072543
    17    -0.014354
    18     0.012416
    19     0.058736
    20    -0.009961
    21    -0.000787
    22     0.013985
    23    -0.103876
    24     0.010878
    25    -0.003404
    26     0.001546
    27     0.004997
    28     0.079537
    29     0.019653
    30     0.027168
    31    -0.037784
    32     0.019473
    33     0.013025
    34    -0.019438
    35    -0.020713
    36    -0.004357
    37    -0.086740
    38     0.105881
    39     0.471708
    40     0.011097
    41    -0.001275
    42     0.021476
    43     0.054168
    44    -0.003274
    45     0.102748
    46    -0.076881
    47    -0.010631
    48    -0.138213
    49    -0.192445
    50    -0.183503
    51    -0.213325
    52    -0.025619
    53     0.039762
    54    -0.020132
    55     0.072605
    56    -0.024617
    57    -0.410858
    58    -0.335681
    59     0.144764
    60    -0.001889
    61     0.031530
    62    -0.134955
    63    -0.009408
    64     0.028585
    65     0.031421
    66     0.011175
    67     0.093919
    68     0.129876
    69     0.015842
    70    -0.012269
    71     0.032679
    72     0.032995
    73    -0.041986
    74     0.020721
    75    -0.000675
    76    -0.009853
    77    -0.077428
    78    -0.068029
    79     0.008382
    80     0.007101
    81    -0.003020
    82    -0.156939
    83    -0.120079
    84     0.080973
    85    -0.019287
    86    -0.081572
    87     0.046732
    88     0.218030
    89     0.238374
    90    -0.410433
    91     0.251918
    92     0.281698
    93     0.283825
    94    -0.008880
    95     0.079372
    96    -0.454180
    97     0.005326
    98    -0.022574
    99     0.056159
   100    -0.102440
   101    -0.264180
   102     0.155919
   103     0.059785
   104    -0.023366
   105     0.110051
   106    -0.059245
   107     0.028685
   108     0.054427
   109    -0.005476
   110     0.030254
   111     0.051791
   112     0.022404
   113     0.021567
   114    -0.073701
   115     0.008880
   116     0.025109
   117    -0.045101
   118     0.205688
   119    -0.080774
   120    -0.015408
   121    -0.041210
   122     0.019813
   123     0.128482
   124     0.000527
   125    -0.019969
   126     0.131242
   127     0.041579
   128    -0.015531
   129     0.047993
   130    -0.379403
   131     0.197278
   132     0.221339
   133     0.107109
   134    -0.068910
   135    -0.053087
   136    -0.016788
   137    -0.056787
   138    -0.071575
   139     0.000213
   140     0.000630
   141     0.123951
   142    -0.087000
   143    -0.009731
   144    -0.011778
   145    -0.010261
   146     0.040951
   147     0.096030
   148     0.124592
   149     0.160651
   150    -0.053376
   151    -0.006714
   152    -0.195051
   153    -0.114364
   154     0.352280
   155     0.095241
   156     0.118459
   157     0.064006
   158    -0.004683
   159    -0.069386
   160    -0.276845
   161    -0.011089
   162    -0.004954
   163     0.023881
   164     0.009361
   165     0.004313
   166    -0.142941
   167    -0.061265
   168     0.082927
   169     0.183910
   170     0.045546
   171     0.220820
   172     0.134335
   173     0.029890
   174     0.024843
   175     0.482754
   176    -0.383377
   177    -0.020523
   178    -0.144826
   179     0.198979
   180    -0.040069
   181     0.113330
   182    -0.102901
   183     0.106089
   184     0.138786
   185    -0.021261
   186    -0.311177
   187     0.010864
   188    -0.032091
   189    -0.029147
   190     0.151342
   191     0.025727
   192     0.156870
   193    -0.161527
   194    -0.016252
   195     0.000390
   196     0.132419
Sym=   167a
Ene=   -0.445677E-04
Spin= Alpha
Occup= 0.000001
     1     0.059128
     2    -0.219642
     3     0.450598
     4     0.031347
     5     0.369759
     6     0.020662
     7    -0.052823
     8     0.403115
     9    -0.058661
    10    -0.023744
    11     0.048042
    12    -0.214389
    13    -0.136655
    14     0.254560
    15    -0.119500
    16    -0.099604
    17    -0.062738
    18     0.026349
    19    -0.044521
    20    -0.035148
    21     0.002871
    22    -0.015923
    23     0.100902
    24    -0.012049
    25    -0.010066
    26     0.020759
    27    -0.050011
    28    -0.078486
    29     0.054994
    30    -0.055009
    31     0.026600
    32    -0.016418
    33     0.001745
    34     0.010306
    35     0.001657
    36    -0.004479
    37    -0.084028
    38     0.104169
    39     0.399558
    40     0.007124
    41    -0.000950
    42     0.011037
    43     0.030995
    44    -0.000582
    45     0.056150
    46    -0.034594
    47    -0.017395
    48    -0.103064
    49    -0.196056
    50    -0.179454
    51    -0.158444
    52    -0.031830
    53     0.025308
    54    -0.020758
    55     0.065848
    56    -0.013086
    57    -0.177635
    58    -0.159467
    59     0.042921
    60     0.004340
    61    -0.028574
    62     0.139639
    63    -0.010599
    64    -0.022504
    65     0.008086
    66    -0.038281
    67    -0.087514
    68     0.036322
    69    -0.046655
    70    -0.027936
    71     0.001026
    72     0.009308
    73    -0.008564
    74    -0.015285
    75     0.000070
    76     0.000178
    77     0.008887
    78    -0.046614
    79     0.000000
    80     0.000954
    81    -0.001389
    82    -0.027877
    83    -0.050868
    84     0.015787
    85    -0.022496
    86    -0.036254
    87     0.009250
    88     0.136055
    89     0.098880
    90    -0.224429
    91     0.178470
    92     0.069182
    93     0.096155
    94     0.002928
    95     0.050559
    96    -0.195435
    97    -0.006223
    98    -0.015434
    99    -0.000366
   100    -0.073368
   101    -0.144179
   102     0.010228
   103     0.007024
   104    -0.045709
   105     0.035217
   106    -0.025749
   107     0.018367
   108     0.007521
   109    -0.001245
   110    -0.001214
   111     0.103811
   112     0.024934
   113     0.033223
   114     0.027958
   115     0.049830
   116    -0.003953
   117    -0.106603
   118    -0.107890
   119     0.104961
   120    -0.004722
   121     0.037636
   122     0.087238
   123     0.045843
   124    -0.000036
   125    -0.050764
   126     0.263304
   127     0.001910
   128     0.021293
   129     0.027450
   130    -0.106970
   131    -0.115385
   132    -0.142191
   133     0.023029
   134    -0.031780
   135    -0.010128
   136    -0.008418
   137    -0.004503
   138     0.024877
   139     0.001153
   140     0.038175
   141     0.060457
   142    -0.001234
   143    -0.047745
   144    -0.016884
   145     0.010836
   146     0.231176
   147     0.026747
   148    -0.110616
   149    -0.162676
   150     0.060835
   151     0.055348
   152    -0.114889
   153    -0.103810
   154    -0.216696
   155     0.118444
   156     0.000970
   157    -0.050142
   158     0.003376
   159     0.045263
   160     0.150848
   161    -0.038346
   162     0.021625
   163    -0.040391
   164    -0.007863
   165    -0.090449
   166     0.197958
   167     0.070812
   168     0.047103
   169    -0.178825
   170     0.088966
   171     0.114881
   172     0.326019
   173    -0.659538
   174    -0.394456
   175    -0.323542
   176     0.135156
   177    -0.053348
   178    -0.042875
   179     0.063337
   180    -0.074990
   181     0.038612
   182    -0.231621
   183     0.209816
   184     0.164257
   185     0.365800
   186     0.264464
   187     0.038198
   188    -0.145892
   189     0.093160
   190     0.014045
   191     0.038945
   192     0.117970
   193    -0.009383
   194     0.001143
   195    -0.103048
   196     0.001362
Sym=   168a
Ene=   -0.296328E-04
Spin= Alpha
Occup= 0.000000
     1    -0.048650
     2    -0.001560
     3     0.087864
     4     0.229365
     5    -0.180491
     6    -0.013359
     7     0.044436
     8    -0.312887
     9    -0.027613
    10     0.042707
    11    -0.049435
    12    -0.091219
    13     0.138623
    14    -0.233858
    15     0.068202
    16     0.042187
    17     0.079789
    18    -0.041363
    19    -0.046779
    20    -0.029371
    21    -0.004262
    22    -0.001469
    23     0.078392
    24    -0.019471
    25     0.026795
    26     0.014629
    27     0.073181
    28    -0.064561
    29     0.042644
    30     0.069485
    31     0.069455
    32    -0.064184
    33    -0.052630
    34     0.022382
    35    -0.008652
    36    -0.004654
    37    -0.092218
    38     0.157284
    39     0.350323
    40     0.003813
    41    -0.001473
    42     0.013926
    43     0.015461
    44    -0.015392
    45     0.063349
    46    -0.017166
    47     0.083678
    48    -0.037833
    49    -0.159800
    50    -0.251867
    51    -0.205587
    52     0.014821
    53     0.015935
    54    -0.069491
    55    -0.021988
    56    -0.009609
    57    -0.222614
    58     0.039313
    59     0.175430
    60    -0.011695
    61     0.135479
    62    -0.651330
    63    -0.023527
    64     0.108535
    65    -0.007485
    66    -0.099286
    67     0.531628
    68    -0.172070
    69     0.040081
    70     0.012852
    71     0.167644
    72     0.011848
    73    -0.066036
    74     0.075917
    75     0.000349
    76     0.004020
    77    -0.110444
    78    -0.004286
    79    -0.005043
    80     0.007400
    81    -0.013274
    82    -0.025602
    83    -0.024548
    84     0.138132
    85     0.009684
    86    -0.094201
    87    -0.005493
    88     0.116236
    89    -0.014461
    90    -0.197068
    91    -0.233365
    92     0.241238
    93     0.128224
    94    -0.001514
    95    -0.016638
    96     0.058085
    97     0.004742
    98     0.009471
    99     0.026524
   100     0.036905
   101     0.071895
   102     0.092082
   103    -0.015012
   104     0.013308
   105     0.011817
   106     0.020441
   107     0.012502
   108     0.041678
   109    -0.002367
   110    -0.053809
   111    -0.013563
   112    -0.057268
   113     0.021572
   114     0.097482
   115     0.010419
   116    -0.061736
   117     0.166551
   118    -0.122767
   119    -0.000762
   120     0.182539
   121    -0.092992
   122     0.135396
   123    -0.492005
   124    -0.003763
   125     0.020585
   126    -0.133088
   127     0.066027
   128    -0.135402
   129     0.037762
   130    -0.417489
   131     0.641852
   132     0.257760
   133     0.117538
   134    -0.109541
   135     0.039511
   136     0.015879
   137     0.019405
   138    -0.110578
   139    -0.002426
   140    -0.064577
   141     0.038571
   142    -0.204128
   143     0.020269
   144    -0.033212
   145    -0.002437
   146    -0.169720
   147     0.323263
   148     0.107258
   149     0.295883
   150    -0.147031
   151    -0.045292
   152    -0.135092
   153    -0.145480
   154     0.994081
   155     0.209888
   156     0.330583
   157    -0.340234
   158    -0.000590
   159    -0.013701
   160    -0.102107
   161     0.176458
   162     0.019848
   163    -0.024457
   164    -0.000269
   165    -0.098546
   166     0.118890
   167    -0.013295
   168     0.172847
   169     0.025900
   170    -0.033114
   171    -0.137561
   172    -0.048790
   173     0.338434
   174     0.142120
   175    -0.159894
   176     0.198539
   177     0.016887
   178    -0.054950
   179     0.095462
   180    -0.137632
   181     0.118693
   182     0.006922
   183     0.098910
   184    -0.137164
   185    -0.020137
   186     0.127375
   187    -0.092936
   188     0.133055
   189     0.234998
   190    -0.405957
   191    -0.038039
   192     0.301761
   193    -0.209751
   194    -0.253199
   195    -0.096194
   196     0.131991
Sym=   169a
Ene=    0.000000E+00
Spin= Alpha
Occup= 0.000000
     1    -0.015711
     2     1.494023
     3     0.011978
     4    -0.103839
     5    -0.202916
     6     0.006507
     7    -0.116556
     8     0.599518
     9     0.001209
    10     0.024835
    11     0.025818
    12     0.067696
    13     0.126655
    14     0.118011
    15    -0.048099
    16    -0.039913
    17    -0.076691
    18     0.007960
    19     0.013947
    20     0.032920
    21     0.000471
    22     0.001553
    23    -0.037983
    24     0.020672
    25    -0.017786
    26    -0.024674
    27     0.037573
    28     0.000172
    29    -0.052034
    30     0.008999
    31    -0.015416
    32    -0.000284
    33     0.030359
    34    -0.003265
    35    -0.007035
    36    -0.003356
    37    -0.061918
    38     0.490857
    39    -1.541727
    40    -0.005056
    41    -0.008838
    42    -0.002175
    43    -0.036279
    44    -0.052166
    45    -0.072398
    46     0.157109
    47     0.250031
    48     0.945122
    49     0.011600
    50    -0.012134
    51    -0.357942
    52    -0.019332
    53    -0.091260
    54    -0.023031
    55     0.077567
    56    -0.007394
    57    -0.000628
    58    -0.003238
    59    -0.077835
    60     0.021999
    61    -0.215526
    62     1.093238
    63     0.004201
    64    -0.000473
    65     0.035959
    66    -0.062010
    67    -0.045488
    68     0.147993
    69    -0.142519
    70    -0.144386
    71    -0.146931
    72     0.004997
    73     0.019556
    74    -0.006462
    75     0.002735
    76     0.057247
    77    -0.021143
    78     1.153325
    79    -0.006706
    80     0.000675
    81    -0.002352
    82     0.050941
    83     0.004333
    84     0.014844
    85    -0.271320
    86     0.012128
    87    -0.402623
    88    -0.139789
    89    -0.087279
    90    -0.235697
    91     0.005893
    92    -0.065842
    93    -0.009377
    94    -0.001488
    95     0.003912
    96    -0.090550
    97     0.001329
    98    -0.021651
    99    -0.028403
   100     0.005076
   101    -0.096067
   102    -0.125114
   103    -0.002312
   104     0.006516
   105     0.013465
   106     0.022827
   107     0.007192
   108     0.010460
   109    -0.003149
   110    -0.059785
   111     0.283717
   112    -0.016559
   113    -0.058464
   114     0.051345
   115    -0.116377
   116    -0.109463
   117     0.024715
   118    -0.051073
   119    -0.043725
   120     0.088982
   121    -0.084977
   122    -0.146935
   123     0.064423
   124     0.007660
   125    -0.091433
   126     0.520436
   127    -0.028910
   128    -0.007055
   129     0.034773
   130     0.097630
   131    -0.056581
   132    -0.279171
   133    -0.078420
   134    -0.048449
   135    -0.015211
   136    -0.000582
   137    -0.026996
   138     0.003317
   139     0.001708
   140     0.042028
   141     0.452608
   142    -1.672736
   143    -0.014956
   144    -0.032079
   145     0.004368
   146     0.048683
   147     0.193379
   148    -0.087971
   149     1.091875
   150    -0.395571
   151    -0.212224
   152     0.132413
   153    -0.266462
   154    -0.300688
   155    -0.111123
   156    -0.126688
   157    -0.022472
   158    -0.000924
   159    -0.019235
   160     0.452114
   161    -2.641483
   162     0.018840
   163    -0.036502
   164    -0.015830
   165    -0.042639
   166     0.243534
   167     0.072641
   168    -1.044499
   169    -0.938859
   170    -0.296640
   171    -0.008260
   172    -0.051530
   173     0.231861
   174     0.088742
   175    -0.010023
   176    -0.054585
   177    -0.222309
   178     1.614461
   179     0.085123
   180     0.082260
   181     0.547588
   182    -0.405097
   183     2.682644
   184    -0.143486
   185     0.321716
   186    -0.003523
   187    -0.093408
   188     0.022642
   189    -0.001441
   190     0.095343
   191    -0.060296
   192    -0.027570
   193    -0.370733
   194     0.071905
   195    -0.027523
   196    -0.055716
Sym=   170a
Ene=    0.000000E+00
Spin= Alpha
Occup= 0.000000
     1    -0.120970
     2     1.050199
     3    -0.025304
     4    -0.045017
     5    -0.260869
     6     0.009135
     7    -0.143160
     8     0.669223
     9     0.009870
    10     0.012774
    11     0.066052
    12     0.082765
    13     0.149706
    14     0.277361
    15    -0.077175
    16    -0.047107
    17    -0.086243
    18     0.017522
    19     0.002210
    20    -0.001608
    21     0.008576
    22    -0.141145
    23     0.731315
    24     0.008226
    25    -0.011212
    26     0.067992
    27     0.120262
    28    -0.202655
    29     0.180223
    30    -0.067747
    31    -0.052599
    32    -0.079609
    33    -0.026269
    34    -0.011998
    35     0.020690
    36    -0.007725
    37    -0.159991
    38    -0.149021
    39     2.319975
    40    -0.012841
    41    -0.001209
    42     0.023597
    43    -0.098991
    44     0.041632
    45     0.127147
    46     0.493181
    47    -0.480757
    48    -0.342741
    49    -0.389181
    50    -0.355588
    51    -0.415954
    52    -0.193548
    53     0.021503
    54    -0.011813
    55     0.135568
    56    -0.027605
    57    -0.016157
    58     0.117769
    59    -0.051878
    60     0.015005
    61    -0.184089
    62     0.934737
    63    -0.010041
    64    -0.010956
    65     0.038862
    66    -0.066683
    67    -0.138244
    68     0.254079
    69    -0.103539
    70    -0.114636
    71    -0.085490
    72    -0.021352
    73     0.028739
    74    -0.033814
    75     0.004924
    76     0.101565
    77     0.086813
    78     0.467362
    79     0.003522
    80    -0.005743
    81    -0.015102
    82    -0.022100
    83     0.004041
    84     0.090190
    85     0.396550
    86    -1.423173
    87    -0.681663
    88    -0.321794
    89    -0.244520
    90    -0.165280
    91     0.350882
    92    -0.176635
    93     0.109166
    94    -0.031560
    95     0.248369
    96    -1.365535
    97    -0.051916
    98     0.004264
    99     0.040924
   100    -0.287827
   101    -0.086673
   102     0.148431
   103     0.188537
   104     0.211433
   105     0.188350
   106     0.011800
   107     0.005780
   108     0.015045
   109     0.025091
   110     0.026636
   111     0.337477
   112    -0.035752
   113     0.028255
   114    -0.049919
   115     0.372429
   116     0.046514
   117    -1.217462
   118    -0.179890
   119    -0.221523
   120    -0.078473
   121     0.028704
   122     0.058083
   123     0.000398
   124    -0.023203
   125     0.245771
   126    -1.521802
   127     0.010663
   128    -0.087669
   129    -0.009514
   130    -0.003214
   131     0.438352
   132     0.230954
   133     0.130040
   134     0.185996
   135     0.104150
   136    -0.021069
   137     0.025656
   138    -0.000777
   139    -0.000352
   140     0.000386
   141     0.272263
   142    -0.051337
   143    -0.002681
   144    -0.004201
   145     0.001251
   146     0.009603
   147     0.050635
   148     0.195180
   149     0.298380
   150    -0.099588
   151     0.402742
   152     0.086831
   153    -0.039502
   154     0.025837
   155     0.205162
   156    -0.002411
   157     0.521481
   158     0.006758
   159     0.125651
   160     0.424971
   161    -0.291176
   162    -0.004831
   163     0.004788
   164     0.011539
   165     0.057902
   166    -0.023351
   167    -0.061546
   168    -0.288718
   169    -0.374174
   170    -0.091228
   171    -0.300167
   172    -0.325768
   173    -0.324834
   174    -0.014292
   175    -0.037413
   176    -0.031750
   177     0.082722
   178    -0.938758
   179    -0.070715
   180     0.156191
   181     0.110386
   182     0.027900
   183     0.043368
   184    -0.137931
   185    -0.060722
   186    -0.082803
   187    -0.044498
   188    -0.866408
   189     0.034814
   190    -0.011704
   191     0.141136
   192     0.064566
   193    -0.275817
   194    -0.000091
   195    -0.084320
   196    -0.051834
Sym=   171a
Ene=    0.000000E+00
Spin= Alpha
Occup= 0.000000
     1     0.152644
     2    -1.670283
     3     0.039258
     4     0.011775
     5    -0.113781
     6     0.028867
     7    -0.205105
     8     1.089308
     9    -0.012916
    10    -0.058536
    11     0.067781
    12    -0.069469
    13    -0.213968
    14     0.325486
    15    -0.196429
    16    -0.172349
    17    -0.146483
    18     0.008650
    19    -0.013785
    20    -0.030139
    21    -0.005256
    22     0.023709
    23    -0.179734
    24    -0.017873
    25    -0.040450
    26     0.010734
    27    -0.095689
    28    -0.084171
    29     0.083810
    30     0.022379
    31     0.027066
    32     0.029723
    33     0.017654
    34     0.001733
    35    -0.027322
    36     0.002737
    37     0.051744
    38     0.123634
    39    -1.093445
    40     0.003350
    41     0.005970
    42    -0.013829
    43     0.012570
    44     0.028915
    45    -0.110586
    46     0.063541
    47    -0.072935
    48     0.715777
    49     0.165585
    50     0.186705
    51    -0.007615
    52     0.039296
    53    -0.039956
    54     0.014891
    55    -0.009729
    56    -0.039541
    57    -0.038260
    58     0.056731
    59    -0.079978
    60    -0.005088
    61     0.057820
    62    -0.275234
    63     0.008555
    64     0.017807
    65    -0.000066
    66     0.021983
    67     0.097074
    68    -0.036153
    69     0.064826
    70    -0.009002
    71     0.047493
    72     0.029785
    73    -0.001256
    74     0.036826
    75    -0.000174
    76    -0.008531
    77     0.137133
    78    -0.067846
    79     0.015151
    80     0.001084
    81     0.031460
    82    -0.022652
    83     0.028844
    84    -0.253750
    85     0.427266
    86    -0.056836
    87    -0.081470
    88     0.078724
    89    -0.047966
    90     0.174546
    91    -0.096434
    92    -0.222968
    93     0.011927
    94    -0.012474
    95     0.057749
    96    -0.291945
    97     0.001529
    98     0.049095
    99     0.051517
   100     0.005205
   101     0.192987
   102     0.211881
   103     0.070965
   104     0.094978
   105     0.045260
   106    -0.003924
   107    -0.013772
   108    -0.029570
   109    -0.009833
   110     0.044762
   111     0.074817
   112    -0.027212
   113    -0.012905
   114     0.010813
   115     0.021917
   116     0.242077
   117    -0.299840
   118     0.051042
   119     0.030387
   120     0.085189
   121    -0.055211
   122    -0.025709
   123     0.040503
   124    -0.013751
   125     0.220898
   126    -1.270520
   127    -0.034421
   128    -0.064049
   129     0.018102
   130     0.329835
   131     0.323785
   132    -0.095683
   133     0.106801
   134     0.089383
   135     0.077816
   136    -0.002374
   137     0.023314
   138    -0.073845
   139    -0.001495
   140    -0.057517
   141    -0.271065
   142     0.687066
   143    -0.006154
   144     0.008098
   145     0.007045
   146     0.055623
   147    -0.015768
   148     0.038709
   149    -0.896189
   150     0.008356
   151     0.196161
   152     0.298462
   153    -0.169570
   154     0.571330
   155    -0.215391
   156    -0.046147
   157     0.023452
   158     0.002502
   159     0.045834
   160     0.169732
   161     1.038614
   162    -0.023938
   163     0.021717
   164     0.058338
   165     0.124505
   166    -0.079783
   167    -0.364190
   168     0.224442
   169     0.398037
   170     1.258486
   171     0.055910
   172     0.057079
   173    -0.447282
   174    -0.161324
   175     0.096058
   176     0.246521
   177    -0.185735
   178     1.415318
   179     0.049582
   180    -0.055883
   181     0.217432
   182     0.290824
   183    -1.275186
   184     0.305044
   185    -0.116012
   186    -0.187250
   187    -0.014204
   188    -0.363557
   189     0.011807
   190    -0.002728
   191    -0.079022
   192    -0.138194
   193     0.299872
   194     0.101514
   195    -0.140126
   196     0.009622
Sym=   172a
Ene=    0.000000E+00
Spin= Alpha
Occup= 0.000000
     1    -0.098659
     2    -0.452674
     3     0.234816
     4    -0.080765
     5    -0.084646
     6    -0.004220
     7     0.053982
     8    -0.326997
     9     0.028585
    10    -0.000057
    11    -0.001675
    12     0.112366
    13     0.055932
    14    -0.038302
    15     0.025694
    16     0.047630
    17     0.027859
    18     0.017076
    19     0.011781
    20    -0.015678
    21     0.002624
    22    -0.037021
    23     0.176978
    24     0.023928
    25     0.007336
    26    -0.001555
    27     0.092288
    28     0.005213
    29    -0.006335
    30    -0.019871
    31    -0.031376
    32    -0.008137
    33    -0.008916
    34     0.009197
    35     0.006166
    36     0.000217
    37     0.016968
    38     0.423186
    39    -2.017019
    40     0.022617
    41    -0.001534
    42    -0.009010
    43     0.144184
    44    -0.034172
    45    -0.085842
    46    -0.589946
    47     0.397804
    48     0.629072
    49     0.057725
    50     0.168038
    51     0.015650
    52     0.084780
    53     0.004074
    54    -0.056816
    55     0.135546
    56    -0.168306
    57    -0.063089
    58    -0.119624
    59     0.030873
    60     0.007409
    61    -0.136656
    62     0.629591
    63    -0.071571
    64     0.027478
    65     0.036094
    66    -0.325625
    67     0.116926
    68     0.095001
    69    -0.078660
    70    -0.062694
    71    -0.068076
    72     0.028493
    73    -0.038135
    74     0.011477
    75     0.001916
    76     0.047607
    77    -0.418489
    78     2.858300
    79     0.005535
    80     0.012602
    81    -0.017334
    82     0.054781
    83    -0.054460
    84     0.103281
    85     0.529262
    86     1.227144
    87    -1.574206
    88    -0.147172
    89    -0.373495
    90     0.098193
    91    -0.364013
    92    -0.369432
    93    -0.032095
    94     0.009821
    95    -0.116963
    96     0.629355
    97     0.045792
    98    -0.010725
    99     0.051900
   100     0.283694
   101     0.180472
   102     0.221466
   103    -0.082574
   104    -0.021802
   105    -0.088871
   106     0.053029
   107    -0.003396
   108     0.019847
   109     0.010633
   110    -0.089683
   111     0.128443
   112     0.105629
   113     0.031581
   114     0.033619
   115     0.182236
   116    -0.025813
   117     0.022551
   118    -0.083191
   119    -0.065596
   120    -0.098380
   121    -0.019156
   122    -0.032741
   123     0.044040
   124    -0.015018
   125     0.209453
   126    -1.365115
   127     0.021892
   128     0.050405
   129     0.061875
   130     0.198881
   131    -0.209932
   132    -0.488685
   133     0.095307
   134     0.121508
   135     0.062954
   136    -0.014704
   137     0.051276
   138    -0.029922
   139    -0.003495
   140    -0.102598
   141     0.364417
   142    -1.821918
   143     0.058899
   144    -0.002595
   145    -0.012107
   146    -0.436706
   147     0.040139
   148     0.039098
   149     1.888832
   150    -0.866936
   151    -0.651834
   152     0.021179
   153     0.653586
   154     0.244439
   155     0.311710
   156    -0.157047
   157    -0.044044
   158    -0.001302
   159    -0.007901
   160    -0.369011
   161     1.965357
   162    -0.021923
   163     0.035757
   164    -0.001854
   165     0.081320
   166    -0.217658
   167     0.047941
   168     0.708542
   169     0.803407
   170    -0.100103
   171     0.000165
   172     0.049406
   173    -0.109535
   174     0.076928
   175    -0.049179
   176    -0.010173
   177     0.044617
   178     0.618977
   179     0.045857
   180     0.081428
   181     0.164094
   182     0.169695
   183    -0.828348
   184    -0.133753
   185    -0.172034
   186     0.015551
   187    -0.005287
   188     0.086550
   189    -0.051559
   190     0.062448
   191     0.078642
   192     0.175596
   193    -0.893187
   194    -0.054095
   195     0.052077
   196     0.180144
Sym=   173a
Ene=    0.000000E+00
Spin= Alpha
Occup= 0.000000
     1     0.403405
     2    -3.768442
     3    -0.160320
     4     0.237592
     5     0.091879
     6    -0.029392
     7     0.305910
     8    -1.696922
     9    -0.010241
    10     0.016643
    11    -0.020621
    12    -0.102315
    13    -0.069263
    14    -0.165471
    15     0.183062
    16     0.161973
    17     0.240793
    18     0.003943
    19    -0.025450
    20    -0.012176
    21    -0.001097
    22     0.019624
    23    -0.044494
    24     0.011276
    25     0.031305
    26    -0.026401
    27     0.098080
    28     0.054632
    29    -0.156322
    30    -0.005283
    31     0.021822
    32     0.023593
    33    -0.035536
    34    -0.006062
    35     0.005359
    36    -0.006313
    37    -0.124023
    38     0.383813
    39    -0.662804
    40    -0.008995
    41     0.007716
    42     0.006043
    43    -0.070536
    44     0.043961
    45    -0.029825
    46     0.338967
    47    -0.021241
    48     0.823200
    49    -0.159890
    50    -0.181400
    51    -0.464436
    52    -0.063805
    53    -0.029720
    54    -0.034873
    55     0.011884
    56     0.911638
    57     0.007997
    58    -0.040711
    59     0.019524
    60    -0.002776
    61     0.045846
    62    -0.235421
    63     0.035437
    64     0.006839
    65    -0.011332
    66     0.244346
    67    -0.018592
    68     0.036522
    69     0.001764
    70     0.039236
    71     0.034521
    72    -0.051700
    73     0.006344
    74    -0.042148
    75     0.000238
    76     0.000771
    77    -0.190045
    78    -0.320422
    79    -0.011968
    80     0.004513
    81    -0.032134
    82     0.052300
    83    -0.042764
    84     0.312091
    85    -0.909513
    86    -0.199945
    87    -1.018380
    88    -0.019416
    89     0.094535
    90    -0.121686
    91     0.203037
    92     0.197659
    93     0.015831
    94    -0.015458
    95     0.176843
    96    -0.910917
    97     0.027620
    98     0.003739
    99     0.062288
   100     0.043111
   101    -0.109096
   102     0.255360
   103     0.127022
   104     0.087110
   105     0.115568
   106    -0.017132
   107     0.008964
   108    -0.005154
   109     0.002544
   110    -0.107174
   111    -0.294522
   112    -0.017120
   113     0.063958
   114    -0.019393
   115    -0.233518
   116    -0.356764
   117     0.896616
   118     0.004852
   119     0.081084
   120    -0.070563
   121     0.179497
   122     0.105663
   123    -0.057587
   124     0.000439
   125    -0.044526
   126     0.203448
   127    -0.006820
   128     0.052452
   129    -0.072252
   130    -0.080136
   131    -0.176022
   132     0.478540
   133    -0.007749
   134     0.011055
   135    -0.024253
   136     0.016938
   137     0.005449
   138     0.063599
   139    -0.000097
   140    -0.000195
   141     0.096584
   142     0.231914
   143    -0.006698
   144     0.008248
   145    -0.009075
   146     0.028703
   147    -0.070806
   148     0.128642
   149     0.011969
   150    -0.151773
   151    -0.029044
   152    -0.004133
   153     0.367420
   154    -0.340556
   155     0.172562
   156     0.107582
   157     0.303091
   158     0.005296
   159     0.094048
   160    -0.418389
   161     4.308392
   162     0.031150
   163    -0.016853
   164    -0.004026
   165    -0.236273
   166     0.023602
   167     0.070380
   168     1.685307
   169     1.507052
   170     0.259810
   171    -0.316027
   172    -0.125066
   173    -0.241523
   174     0.140241
   175     0.006096
   176     0.103006
   177    -0.140164
   178     1.548504
   179     0.016774
   180    -0.028193
   181     0.398492
   182     0.035072
   183    -2.117360
   184    -0.154834
   185    -0.190555
   186     0.103055
   187     0.010107
   188     0.915930
   189     0.005133
   190    -0.014376
   191     0.092793
   192     0.037665
   193    -0.114024
   194    -0.001921
   195     0.067189
   196    -0.095256
Sym=   174a
Ene=    0.000000E+00
Spin= Alpha
Occup= 0.000000
     1     0.007071
     2    -1.065674
     3     0.011408
     4     0.028566
     5     0.101008
     6    -0.015010
     7     0.062216
     8    -0.327346
     9     0.054178
    10     0.061518
    11    -0.042190
    12     0.260853
    13     0.364865
    14    -0.231008
    15     0.085563
    16     0.079205
    17     0.077675
    18    -0.011920
    19     0.004773
    20     0.011703
    21     0.015872
    22    -0.197576
    23     1.010115
    24     0.044038
    25    -0.032261
    26     0.074954
    27     0.107667
    28    -0.096465
    29     0.353280
    30    -0.102313
    31    -0.163204
    32    -0.096623
    33     0.045509
    34     0.027377
    35    -0.010676
    36     0.000094
    37    -0.002271
    38    -0.064994
    39     0.279601
    40    -0.000998
    41     0.011493
    42    -0.002267
    43    -0.015445
    44     0.073850
    45    -0.015886
    46     0.167522
    47    -0.333047
    48     0.116186
    49    -0.022286
    50     0.029366
    51    -0.057808
    52    -0.018467
    53    -0.020880
    54     0.037816
    55    -0.043180
    56    -0.390769
    57    -0.028118
    58     0.041728
    59     0.010439
    60     0.018812
    61    -0.191746
    62     1.125737
    63    -0.012024
    64     0.020593
    65    -0.016307
    66    -0.264829
    67     0.083941
    68    -0.142205
    69    -0.084658
    70    -0.139422
    71    -0.131763
    72    -0.034628
    73     0.016443
    74     0.030619
    75     0.000035
    76    -0.001533
    77     0.319284
    78    -0.932263
    79     0.005516
    80    -0.007401
    81     0.022048
    82    -0.025420
    83     0.053105
    84    -0.205058
    85     0.585713
    86    -0.272072
    87     0.832718
    88     0.077975
    89    -0.068909
    90     0.065102
    91     0.006837
    92    -0.012935
    93    -0.025277
    94     0.008515
    95    -0.062918
    96     0.357832
    97    -0.038184
    98     0.017155
    99    -0.029623
   100    -0.121076
   101     0.098494
   102    -0.099640
   103    -0.052905
   104    -0.047298
   105    -0.057040
   106     0.002842
   107     0.010039
   108    -0.005650
   109    -0.023752
   110     0.470411
   111    -1.993869
   112    -0.026989
   113     0.064220
   114     0.018641
   115     0.095586
   116     0.738425
   117    -2.484027
   118     0.061671
   119     0.077931
   120     0.250281
   121    -0.067297
   122    -0.282852
   123     0.035714
   124    -0.007877
   125     0.058590
   126    -0.325234
   127     0.008361
   128    -0.025682
   129     0.016200
   130     0.012079
   131     0.061712
   132    -0.170994
   133     0.035385
   134     0.020516
   135     0.082914
   136    -0.002913
   137    -0.007539
   138    -0.012860
   139     0.001298
   140     0.042071
   141    -0.417815
   142     1.187676
   143    -0.022837
   144     0.016190
   145     0.003231
   146     0.226557
   147    -0.113488
   148    -0.065989
   149    -1.148145
   150     0.862637
   151     0.285681
   152     0.038022
   153    -0.484926
   154     0.004187
   155    -0.226642
   156     0.024519
   157    -0.124533
   158     0.003327
   159     0.063275
   160    -0.583697
   161     2.449541
   162    -0.018936
   163     0.036081
   164    -0.042422
   165     0.027265
   166    -0.302775
   167     0.312865
   168     0.291898
   169     1.605993
   170    -1.097780
   171    -0.414530
   172     0.010789
   173    -0.134949
   174     0.093159
   175    -0.160218
   176    -0.230439
   177    -0.137311
   178     0.594790
   179     0.031817
   180    -0.062268
   181     0.049143
   182    -0.033911
   183     0.001221
   184     0.128622
   185    -0.049085
   186     0.073563
   187    -0.129697
   188    -1.230895
   189     0.021544
   190    -0.041754
   191    -0.185612
   192    -0.198267
   193     0.735805
   194    -0.071798
   195    -0.156799
   196    -0.092367
Sym=   175a
Ene=    0.000000E+00
Spin= Alpha
Occup= 0.000000
     1    -0.038251
     2     0.293567
     3     0.111936
     4     0.109998
     5     0.176488
     6    -0.006268
     7     0.038032
     8    -0.207188
     9    -0.001750
    10    -0.010243
    11    -0.011517
    12    -0.012251
    13    -0.086056
    14    -0.038379
    15     0.045695
    16     0.035418
    17     0.019039
    18    -0.007787
    19     0.010472
    20     0.013474
    21    -0.003830
    22     0.043647
    23    -0.243865
    24     0.007554
    25     0.009718
    26    -0.043738
    27    -0.013907
    28     0.108963
    29    -0.138670
    30     0.028214
    31     0.011479
    32     0.034424
    33     0.015785
    34    -0.004585
    35     0.001937
    36     0.008581
    37     0.162720
    38    -0.426670
    39     0.078858
    40    -0.002237
    41     0.016379
    42    -0.025532
    43    -0.019104
    44     0.109686
    45    -0.102483
    46     0.181826
    47    -0.562043
    48    -0.049635
    49     0.280417
    50     0.430511
    51     0.306119
    52    -0.071918
    53    -0.018665
    54     0.054766
    55    -0.134399
    56    -1.715647
    57    -0.281267
    58     0.075123
    59     0.084800
    60    -0.002593
    61    -0.003626
    62    -0.037850
    63     0.041821
    64    -0.007448
    65    -0.019126
    66     0.178349
    67    -0.058056
    68    -0.019935
    69     0.034005
    70     0.004022
    71    -0.005408
    72    -0.026957
    73     0.015270
    74    -0.023826
    75     0.003766
    76     0.098061
    77     0.029088
    78     0.709297
    79     0.059969
    80    -0.027836
    81     0.039815
    82    -0.482842
    83     0.209369
    84    -0.165072
    85     1.532785
    86    -0.608083
    87     1.997489
    88    -0.268006
    89    -0.437547
    90    -0.369163
    91     0.103100
    92     0.425874
    93    -0.079692
    94     0.004209
    95    -0.072708
    96     0.353371
    97    -0.060844
    98     0.074398
    99    -0.071869
   100    -0.165833
   101     0.316441
   102    -0.281734
   103    -0.034784
   104    -0.030323
   105    -0.037406
   106     0.018139
   107    -0.004019
   108     0.007516
   109     0.000733
   110    -0.034632
   111     0.141174
   112     0.010412
   113    -0.028991
   114    -0.058650
   115    -0.126646
   116    -0.260320
   117     0.432693
   118     0.035348
   119     0.026519
   120    -0.046276
   121     0.005808
   122    -0.060800
   123     0.045694
   124    -0.002777
   125    -0.101864
   126     0.479607
   127     0.147745
   128     0.000248
   129     0.059078
   130    -0.882383
   131    -0.001072
   132     0.157281
   133     0.076053
   134    -0.015042
   135    -0.069036
   136     0.038331
   137    -0.061246
   138     0.041250
   139    -0.000786
   140    -0.021733
   141    -0.198994
   142    -0.120060
   143    -0.001686
   144    -0.000041
   145    -0.005437
   146     0.057902
   147     0.023192
   148     0.054160
   149    -0.577354
   150     0.189176
   151     0.303258
   152    -0.040778
   153     0.252304
   154    -0.091303
   155     0.289563
   156     0.316634
   157     0.252250
   158    -0.003283
   159    -0.057418
   160     0.015948
   161    -1.004675
   162    -0.000281
   163    -0.010267
   164    -0.000084
   165     0.041234
   166     0.052887
   167    -0.011507
   168    -0.518383
   169    -0.120771
   170     0.086667
   171    -0.049685
   172     0.202397
   173     0.289414
   174     0.066919
   175    -0.026900
   176     0.134429
   177    -0.113321
   178     0.445432
   179     0.059018
   180    -0.098759
   181    -0.180756
   182    -0.082318
   183     0.496027
   184    -0.274490
   185    -0.064137
   186     0.133141
   187    -0.025726
   188     0.378780
   189    -0.088137
   190     0.084686
   191     0.014687
   192     0.077168
   193     0.553191
   194    -0.063900
   195     0.186366
   196    -0.058243
Sym=   176a
Ene=    0.000000E+00
Spin= Alpha
Occup= 0.000000
     1     0.053438
     2     0.285144
     3    -0.128023
     4     0.066544
     5    -0.125468
     6     0.003350
     7    -0.063061
     8     0.303575
     9    -0.035417
    10     0.025493
    11     0.044141
    12    -0.142417
    13     0.057665
    14     0.196604
    15    -0.024584
    16    -0.060977
    17    -0.012817
    18    -0.013829
    19    -0.013972
    20     0.000119
    21     0.013902
    22    -0.179983
    23     0.980989
    24    -0.000650
    25    -0.003649
    26     0.064874
    27     0.129056
    28    -0.195600
    29     0.160763
    30    -0.095080
    31    -0.088890
    32    -0.111475
    33    -0.028061
    34     0.000763
    35     0.012864
    36    -0.002149
    37    -0.026128
    38     0.280843
    39    -0.950103
    40     0.017785
    41    -0.003299
    42     0.008442
    43     0.118654
    44    -0.039695
    45     0.052562
    46    -0.565063
    47     0.368754
    48    -0.241179
    49    -0.079865
    50    -0.000267
    51     0.045912
    52     0.038976
    53     0.010104
    54     0.003308
    55     0.110135
    56    -0.917843
    57    -0.065508
    58    -0.174584
    59     0.056639
    60     0.011586
    61    -0.074290
    62     0.461154
    63     0.053272
    64     0.050351
    65     0.045022
    66     0.154207
    67     0.128922
    68     0.227714
    69    -0.018196
    70    -0.084071
    71    -0.079349
    72    -0.068766
    73     0.070284
    74     0.017422
    75     0.003252
    76     0.080441
    77    -0.287187
    78     2.007964
    79     0.007043
    80     0.009687
    81    -0.008984
    82    -0.057457
    83    -0.048873
    84     0.080266
    85     0.196188
    86     1.166554
    87     0.386652
    88    -0.221437
    89    -0.307177
    90    -0.333378
    91    -0.263571
    92     0.094085
    93    -0.033181
    94     0.005169
    95    -0.082599
    96     0.468957
    97     0.058440
    98     0.003254
    99     0.022378
   100     0.301636
   101     0.162894
   102     0.068742
   103    -0.031853
   104    -0.012478
   105    -0.061661
   106     0.036998
   107    -0.001489
   108     0.007075
   109    -0.001541
   110     0.088007
   111    -0.165072
   112    -0.134589
   113     0.092067
   114    -0.045332
   115     0.265250
   116    -0.110615
   117    -1.130853
   118    -0.028142
   119    -0.022906
   120     0.047848
   121     0.144991
   122    -0.003447
   123    -0.171841
   124     0.004010
   125    -0.094736
   126     0.496788
   127     0.021664
   128     0.114004
   129     0.019834
   130    -0.212678
   131    -0.481828
   132    -0.100915
   133    -0.055837
   134    -0.005230
   135    -0.028132
   136     0.047446
   137    -0.025878
   138     0.022788
   139     0.000337
   140    -0.007460
   141    -0.044194
   142    -0.284386
   143    -0.026673
   144     0.006909
   145    -0.012803
   146     0.185163
   147    -0.113702
   148     0.012760
   149    -0.234644
   150    -0.167939
   151    -0.618225
   152     0.567337
   153    -0.184462
   154    -0.348743
   155    -0.169595
   156     0.402959
   157     0.237730
   158     0.004403
   159     0.069665
   160     0.146828
   161     0.276776
   162     0.013081
   163    -0.020925
   164     0.016116
   165    -0.072621
   166     0.105925
   167    -0.110116
   168     0.276609
   169    -0.281265
   170     0.244787
   171    -0.071152
   172    -0.198376
   173    -0.191166
   174    -0.029124
   175     0.050911
   176    -0.012143
   177     0.064584
   178    -0.336380
   179     0.002857
   180     0.013642
   181    -0.075069
   182    -0.013552
   183    -0.375668
   184     0.075175
   185    -0.088417
   186     0.184012
   187    -0.046796
   188    -0.788939
   189    -0.037066
   190    -0.131339
   191    -0.018822
   192    -0.217579
   193     0.117123
   194     0.051712
   195    -0.052970
   196    -0.268762
Sym=   177a
Ene=    0.000000E+00
Spin= Alpha
Occup= 0.000000
     1     0.017832
     2    -0.265303
     3     0.128181
     4     0.005014
     5    -0.015105
     6     0.002218
     7    -0.043060
     8     0.226631
     9    -0.000894
    10    -0.030679
    11     0.032063
    12    -0.003840
    13    -0.105323
    14     0.156720
    15    -0.049720
    16     0.032744
    17    -0.033053
    18     0.014487
    19     0.017412
    20    -0.008263
    21    -0.005419
    22    -0.055932
    23     0.315283
    24    -0.037488
    25    -0.001798
    26     0.005815
    27     0.028039
    28    -0.224218
    29    -0.085937
    30     0.010643
    31     0.056695
    32    -0.011850
    33    -0.063960
    34    -0.039291
    35     0.026663
    36    -0.001929
    37    -0.033648
    38     0.183851
    39    -0.423521
    40     0.006602
    41    -0.001725
    42     0.005980
    43     0.044192
    44    -0.022689
    45     0.025915
    46    -0.194574
    47     0.212278
    48     0.003283
    49    -0.048990
    50    -0.055684
    51    -0.075392
    52     0.030285
    53    -0.002833
    54     0.003471
    55     0.045701
    56    -0.012427
    57     0.091108
    58    -0.085254
    59     0.050002
    60    -0.018887
    61     0.176186
    62    -0.980362
    63    -0.008550
    64    -0.035897
    65     0.030085
    66     0.107936
    67    -0.152469
    68     0.194630
    69     0.117055
    70     0.121197
    71     0.133350
    72    -0.010391
    73     0.006311
    74    -0.028592
    75    -0.000202
    76    -0.009084
    77    -0.019627
    78    -0.123653
    79    -0.014441
    80     0.006285
    81    -0.012564
    82     0.095264
    83    -0.053713
    84     0.068449
    85    -0.459814
    86     0.546030
    87     0.130151
    88     0.045578
    89     0.050173
    90     0.005743
    91    -0.047818
    92     0.069363
    93    -0.028643
    94     0.005726
    95    -0.049872
    96     0.271482
    97     0.018188
    98    -0.023556
    99    -0.001427
   100     0.078056
   101    -0.072083
   102    -0.030385
   103    -0.039164
   104    -0.041595
   105    -0.028157
   106     0.004539
   107     0.014680
   108     0.001746
   109     0.033275
   110    -0.163410
   111     1.410094
   112    -0.033890
   113     0.058340
   114    -0.124572
   115     0.659951
   116    -0.338496
   117    -0.371843
   118    -0.143966
   119    -0.290101
   120    -0.082579
   121     0.147644
   122     0.277919
   123    -0.105589
   124    -0.005255
   125    -0.005934
   126     0.005997
   127    -0.021385
   128     0.074191
   129    -0.042202
   130     0.042382
   131    -0.302597
   132     0.106930
   133     0.011624
   134     0.011272
   135     0.047829
   136     0.013265
   137     0.011264
   138     0.035061
   139     0.001727
   140     0.064588
   141    -0.413238
   142     0.596825
   143     0.004838
   144    -0.015729
   145    -0.002817
   146     0.105003
   147     0.138547
   148     0.006859
   149    -0.853579
   150     0.577127
   151     0.371905
   152    -0.108794
   153    -0.305195
   154    -0.306033
   155     0.091611
   156     0.097293
   157    -0.000190
   158     0.002418
   159     0.050342
   160     0.661909
   161    -2.346282
   162    -0.048013
   163     0.036358
   164     0.012480
   165     0.363456
   166    -0.165366
   167    -0.084293
   168    -2.277374
   169     0.397199
   170     0.289037
   171    -0.578902
   172     0.198002
   173     0.030855
   174     0.055999
   175     0.010967
   176     0.105576
   177     0.052595
   178    -0.073023
   179    -0.017636
   180     0.023890
   181     0.077951
   182    -0.196838
   183     2.719484
   184    -0.346625
   185     0.083101
   186    -0.038502
   187     0.038471
   188    -0.830673
   189     0.028417
   190    -0.034725
   191     0.180471
   192     0.081924
   193     0.481301
   194    -0.113399
   195     0.059416
   196     0.025835
Sym=   178a
Ene=    0.000000E+00
Spin= Alpha
Occup= 0.000000
     1    -0.147512
     2     0.983643
     3     0.113705
     4    -0.123750
     5    -0.132788
     6    -0.001433
     7    -0.007495
     8     0.069948
     9    -0.043411
    10     0.059994
    11     0.033655
    12    -0.139582
    13     0.339227
    14     0.120710
    15     0.004768
    16     0.051033
    17    -0.026903
    18     0.003602
    19     0.012204
    20     0.002988
    21     0.014262
    22    -0.250209
    23     1.344533
    24    -0.018245
    25    -0.020188
    26     0.023910
    27     0.094838
    28    -0.293019
    29     0.045381
    30    -0.102621
    31    -0.110430
    32    -0.132846
    33    -0.016283
    34    -0.022210
    35     0.025973
    36     0.005281
    37     0.102030
    38    -0.017595
    39    -0.862302
    40    -0.014223
    41    -0.013627
    42    -0.019139
    43    -0.079962
    44    -0.077560
    45    -0.118592
    46     0.298435
    47     0.149010
    48     0.505730
    49     0.320565
    50     0.209464
    51     0.141751
    52     0.009470
    53    -0.043979
    54    -0.010784
    55     0.009994
    56     0.159070
    57    -0.052674
    58     0.115797
    59    -0.105609
    60    -0.018812
    61     0.138311
    62    -0.749929
    63    -0.092131
    64     0.053637
    65     0.041130
    66    -0.435344
    67     0.311762
    68     0.042707
    69     0.157310
    70     0.107824
    71     0.074530
    72     0.002237
    73    -0.003583
    74     0.031617
    75    -0.000059
    76    -0.000244
    77    -0.000591
    78     0.226791
    79     0.011716
    80    -0.014859
    81     0.008655
    82    -0.121508
    83     0.093422
    84    -0.033557
    85    -0.295273
    86    -0.825362
    87    -0.049046
    88     0.040789
    89     0.250939
    90    -0.226271
    91     0.215972
    92    -0.010617
    93     0.058379
    94    -0.008842
    95     0.158246
    96    -0.841043
    97    -0.021759
    98    -0.034542
    99    -0.054820
   100    -0.188071
   101    -0.278530
   102    -0.183177
   103     0.060480
   104     0.052371
   105     0.102492
   106    -0.028476
   107    -0.013471
   108     0.019000
   109     0.019247
   110    -0.021967
   111     0.673474
   112    -0.048758
   113     0.098575
   114    -0.039579
   115     0.983209
   116    -0.254736
   117    -2.007720
   118    -0.174364
   119    -0.246141
   120     0.067025
   121     0.056384
   122     0.024819
   123    -0.103093
   124     0.001242
   125    -0.058184
   126     0.369853
   127    -0.013330
   128    -0.044360
   129    -0.013272
   130    -0.015026
   131     0.179783
   132     0.064442
   133     0.016134
   134    -0.051962
   135    -0.007232
   136     0.018374
   137     0.000148
   138    -0.002215
   139    -0.001112
   140    -0.028752
   141     0.044548
   142     0.624198
   143     0.028685
   144     0.014519
   145    -0.009461
   146    -0.197355
   147    -0.070504
   148     0.062795
   149     0.115348
   150    -0.095460
   151    -0.861755
   152    -0.054180
   153     0.216879
   154     0.179801
   155    -0.089980
   156     0.233423
   157    -0.302991
   158    -0.007532
   159    -0.134697
   160    -0.274628
   161    -0.415054
   162    -0.021238
   163     0.013197
   164    -0.010573
   165     0.114939
   166    -0.061540
   167     0.088545
   168     0.175716
   169    -0.295354
   170    -0.466880
   171     0.465007
   172     0.274736
   173     0.228775
   174    -0.117251
   175    -0.040951
   176    -0.146751
   177    -0.080533
   178     0.803444
   179     0.042484
   180     0.009691
   181     0.105955
   182     0.289194
   183    -1.121933
   184     0.157194
   185    -0.107862
   186     0.118382
   187    -0.014637
   188    -2.011498
   189    -0.066589
   190     0.051856
   191    -0.002758
   192     0.136904
   193    -0.543945
   194    -0.027699
   195     0.104003
   196     0.049709
Sym=   179a
Ene=    0.000000E+00
Spin= Alpha
Occup= 0.000000
     1    -0.185209
     2     0.348844
     3     0.217776
     4    -0.084179
     5    -0.055415
     6     0.010663
     7    -0.065264
     8     0.382786
     9     0.024020
    10    -0.036590
    11     0.008230
    12     0.078130
    13    -0.185347
    14     0.084020
    15    -0.052564
    16    -0.095766
    17    -0.043229
    18    -0.016028
    19     0.005982
    20    -0.006322
    21     0.003118
    22     0.011748
    23    -0.110178
    24     0.034263
    25     0.000317
    26     0.001478
    27     0.007886
    28     0.169368
    29     0.106425
    30    -0.011543
    31    -0.053888
    32     0.010955
    33     0.044626
    34     0.032978
    35    -0.023152
    36    -0.003117
    37    -0.052166
    38     0.240712
    39    -0.549360
    40    -0.013957
    41    -0.018069
    42     0.026169
    43    -0.062953
    44    -0.113015
    45     0.157742
    46     0.008598
    47     0.496549
    48    -0.489262
    49    -0.031681
    50    -0.161122
    51    -0.075430
    52    -0.016543
    53    -0.071953
    54     0.080441
    55     0.071067
    56    -1.047076
    57     0.264097
    58    -0.017365
    59    -0.043344
    60     0.009659
    61    -0.144164
    62     0.745654
    63    -0.019582
    64     0.034092
    65     0.004129
    66    -0.190994
    67     0.101296
    68    -0.047824
    69    -0.040607
    70    -0.116629
    71    -0.064467
    72     0.011885
    73    -0.002527
    74    -0.001724
    75     0.004013
    76     0.080088
    77    -0.246610
    78     0.806026
    79    -0.000241
    80     0.004611
    81    -0.001574
    82    -0.125298
    83    -0.037645
    84     0.132262
    85    -1.196367
    86     0.197951
    87     1.830933
    88    -0.420946
    89     0.024978
    90    -0.465237
    91    -0.086705
    92     0.552566
    93     0.022753
    94    -0.014987
    95     0.117922
    96    -0.633591
    97     0.069879
    98    -0.028464
    99    -0.062762
   100     0.238215
   101    -0.103188
   102    -0.245282
   103     0.090289
   104     0.121176
   105     0.079678
   106     0.014915
   107    -0.016427
   108     0.014936
   109    -0.024358
   110     0.200263
   111    -1.033867
   112     0.035347
   113    -0.027426
   114     0.049710
   115    -0.495805
   116     0.160132
   117    -0.189661
   118     0.163638
   119     0.236785
   120    -0.020918
   121    -0.056354
   122    -0.285637
   123     0.082867
   124     0.027623
   125    -0.230622
   126     1.569247
   127     0.035063
   128    -0.005957
   129    -0.084334
   130    -0.646044
   131     0.224981
   132     1.217938
   133    -0.100398
   134    -0.199951
   135    -0.154234
   136    -0.008302
   137    -0.080461
   138    -0.069432
   139    -0.002106
   140    -0.047756
   141     0.116718
   142     0.392480
   143     0.032672
   144     0.003408
   145    -0.012133
   146    -0.185526
   147     0.104404
   148     0.302649
   149     0.124993
   150     0.034817
   151    -0.015195
   152    -0.153137
   153     0.118264
   154     0.507906
   155     0.211954
   156     0.095641
   157     0.330260
   158     0.000646
   159     0.023048
   160    -0.015259
   161     0.289040
   162    -0.024504
   163     0.036030
   164     0.022925
   165     0.114232
   166    -0.201522
   167    -0.123872
   168    -0.015720
   169     0.235046
   170     0.236072
   171    -0.047638
   172    -0.003821
   173    -0.203041
   174    -0.000984
   175    -0.033240
   176     0.073999
   177     0.017710
   178    -0.209217
   179     0.010888
   180     0.012235
   181     0.066139
   182     0.146077
   183    -0.416841
   184    -0.038708
   185    -0.120733
   186     0.075711
   187    -0.022149
   188     0.290202
   189    -0.086324
   190     0.045074
   191    -0.133204
   192     0.068479
   193    -0.091085
   194    -0.055975
   195     0.064190
   196     0.191893
Sym=   180a
Ene=    0.000000E+00
Spin= Alpha
Occup= 0.000000
     1     0.048356
     2    -0.481153
     3     0.062868
     4    -0.052505
     5    -0.109259
     6     0.005633
     7    -0.016385
     8     0.109319
     9     0.013816
    10    -0.038364
    11    -0.018032
    12     0.043366
    13    -0.266540
    14    -0.048843
    15    -0.041412
    16    -0.065982
    17     0.010625
    18    -0.013937
    19     0.001765
    20    -0.011229
    21    -0.001334
    22     0.141709
    23    -0.799631
    24     0.038152
    25     0.012966
    26    -0.042062
    27    -0.048498
    28     0.328058
    29    -0.080012
    30     0.018752
    31    -0.011154
    32     0.081196
    33     0.062519
    34     0.027153
    35    -0.018547
    36     0.001950
    37     0.043879
    38     0.062411
    39    -0.552967
    40     0.005273
    41    -0.015249
    42    -0.013432
    43     0.031013
    44    -0.095367
    45    -0.090472
    46    -0.100182
    47     0.327202
    48     0.340746
    49     0.143653
    50     0.063131
    51     0.134089
    52     0.014540
    53     0.064020
    54    -0.092634
    55     0.113316
    56     0.759316
    57    -0.154637
    58     0.018710
    59     0.016087
    60    -0.002696
    61     0.089188
    62    -0.364719
    63     0.019609
    64     0.033200
    65    -0.074220
    66    -0.081080
    67     0.270014
    68    -0.524449
    69     0.108808
    70     0.019314
    71    -0.032235
    72     0.000254
    73     0.010873
    74     0.070603
    75    -0.001145
    76    -0.018810
    77    -0.477019
    78     2.043441
    79    -0.003230
    80    -0.000052
    81    -0.025068
    82     0.057475
    83    -0.008380
    84     0.184606
    85    -0.302955
    86    -0.567196
    87    -2.268542
    88     0.148345
    89     0.182381
    90    -0.029721
    91     0.192135
    92    -0.279578
    93     0.165081
    94    -0.019943
    95     0.250235
    96    -1.322369
    97    -0.004445
    98    -0.043095
    99     0.043568
   100    -0.141785
   101    -0.327938
   102     0.190655
   103     0.132420
   104     0.124718
   105     0.176675
   106    -0.017406
   107     0.010320
   108     0.032008
   109    -0.027105
   110     0.026208
   111    -1.277759
   112     0.045138
   113    -0.071555
   114     0.042345
   115    -1.088852
   116    -0.019718
   117     1.722594
   118     0.114871
   119     0.309786
   120     0.049096
   121    -0.124409
   122    -0.287886
   123     0.087439
   124    -0.021113
   125     0.189189
   126    -1.236660
   127    -0.030390
   128    -0.013188
   129     0.024595
   130     0.331569
   131     0.037753
   132    -0.324820
   133     0.142469
   134     0.093206
   135     0.117504
   136     0.041322
   137     0.058099
   138     0.002127
   139    -0.000928
   140    -0.024291
   141     0.213147
   142    -1.111504
   143     0.015930
   144    -0.002757
   145    -0.014701
   146    -0.132994
   147     0.122331
   148     0.081318
   149     1.202741
   150     0.261922
   151    -1.256225
   152    -0.104824
   153     0.218942
   154     0.229882
   155    -0.583641
   156     0.471670
   157    -0.326576
   158     0.002986
   159     0.056604
   160     0.381562
   161    -0.614513
   162    -0.009000
   163     0.010869
   164     0.012993
   165     0.066793
   166    -0.012362
   167    -0.071452
   168    -0.632239
   169     0.103727
   170     0.315020
   171    -0.209697
   172    -0.074927
   173    -0.122766
   174     0.058692
   175    -0.043360
   176     0.115667
   177     0.179396
   178    -0.280441
   179    -0.032862
   180     0.037095
   181    -0.039969
   182    -0.015419
   183     1.666267
   184    -0.059124
   185     0.220871
   186     0.152433
   187    -0.113518
   188     2.054094
   189    -0.130889
   190     0.085177
   191    -0.105580
   192     0.153075
   193    -0.729454
   194     0.055329
   195     0.254488
   196    -0.202386
Sym=   181a
Ene=    0.000000E+00
Spin= Alpha
Occup= 0.000000
     1    -0.062029
     2    -0.516409
     3     0.004721
     4    -0.001557
     5     0.068129
     6    -0.018285
     7     0.156803
     8    -0.876129
     9    -0.028106
    10     0.012382
    11    -0.007347
    12    -0.151755
    13    -0.017290
    14    -0.054157
    15     0.104222
    16     0.104756
    17     0.139320
    18     0.009440
    19    -0.019201
    20    -0.015495
    21    -0.002441
    22    -0.033636
    23     0.194756
    24    -0.008922
    25     0.027543
    26    -0.002958
    27     0.042179
    28     0.004601
    29    -0.026031
    30     0.014104
    31     0.016674
    32    -0.016608
    33    -0.039682
    34     0.007695
    35    -0.003864
    36     0.002841
    37     0.052321
    38    -0.164671
    39     0.127591
    40    -0.009221
    41     0.002841
    42    -0.008680
    43    -0.044949
    44     0.022378
    45    -0.035134
    46     0.111094
    47    -0.145382
    48    -0.013879
    49     0.089990
    50     0.098869
    51     0.130173
    52    -0.003891
    53     0.004706
    54     0.015075
    55    -0.026527
    56    -0.179071
    57     0.077460
    58     0.081843
    59     0.000342
    60    -0.002887
    61     0.046707
    62    -0.220650
    63     0.019267
    64     0.063915
    65     0.080094
    66     0.203506
    67     0.144377
    68     0.416408
    69     0.008159
    70    -0.008804
    71     0.072861
    72     0.011504
    73    -0.001710
    74    -0.026694
    75     0.000244
    76     0.001027
    77     0.025396
    78     0.159778
    79     0.008979
    80    -0.003822
    81     0.010988
    82    -0.026496
    83     0.043560
    84    -0.090856
    85     0.373310
    86    -0.234218
    87    -0.037752
    88    -0.117727
    89    -0.116457
    90     0.278378
    91    -0.081411
    92    -0.100214
    93    -0.017611
    94    -0.006909
    95     0.012040
    96    -0.078258
    97    -0.011068
    98     0.028585
    99     0.018598
   100    -0.004438
   101     0.162567
   102     0.077977
   103     0.037754
   104     0.071255
   105    -0.001374
   106     0.014285
   107    -0.007065
   108    -0.011511
   109     0.002705
   110    -0.021128
   111     0.394279
   112    -0.026238
   113     0.095112
   114    -0.125347
   115     0.393327
   116    -0.241533
   117    -0.040508
   118     0.088541
   119     0.001735
   120    -0.105567
   121     0.067517
   122     0.187629
   123    -0.109309
   124     0.023858
   125     0.126321
   126    -0.499898
   127    -0.043652
   128    -0.005441
   129     0.057217
   130     0.265294
   131     0.259451
   132     0.169573
   133    -0.051372
   134    -0.016759
   135    -0.182487
   136    -0.032326
   137    -0.037614
   138    -0.094917
   139     0.003567
   140     0.081325
   141     0.582248
   142    -0.854891
   143    -0.035193
   144    -0.025749
   145    -0.013520
   146     0.206474
   147     0.195775
   148     0.267329
   149     0.360598
   150    -0.127056
   151    -0.047094
   152    -0.591813
   153    -0.358655
   154     0.412255
   155    -0.504922
   156    -0.318131
   157     0.575080
   158     0.003954
   159     0.084155
   160    -0.323656
   161     1.684705
   162     0.027135
   163     0.009856
   164     0.010986
   165    -0.222544
   166    -0.110933
   167    -0.033818
   168     0.632490
   169     0.683725
   170     0.006166
   171    -0.245222
   172    -0.209736
   173    -0.299402
   174     0.072049
   175    -0.007226
   176    -0.029243
   177    -0.011410
   178     0.057880
   179    -0.007858
   180    -0.014991
   181    -0.113923
   182    -0.095347
   183     0.353049
   184     0.130967
   185     0.330557
   186     0.183768
   187     0.025343
   188    -0.101613
   189    -0.018537
   190    -0.049614
   191     0.123375
   192    -0.148191
   193     0.001967
   194     0.352355
   195     0.208911
   196     0.399163
Sym=   182a
Ene=    0.000000E+00
Spin= Alpha
Occup= 0.000000
     1    -0.109490
     2     0.145691
     3     0.038391
     4     0.033093
     5     0.023235
     6     0.000337
     7    -0.020497
     8     0.079827
     9     0.005051
    10     0.020194
    11     0.007316
    12     0.034943
    13     0.202327
    14    -0.001634
    15    -0.005031
    16     0.030739
    17    -0.031440
    18     0.005074
    19    -0.002180
    20    -0.017154
    21     0.001231
    22    -0.043983
    23     0.230962
    24    -0.009028
    25    -0.030218
    26     0.037005
    27    -0.043846
    28    -0.149251
    29     0.119505
    30    -0.012434
    31    -0.016259
    32    -0.014699
    33     0.001895
    34    -0.003484
    35     0.020968
    36    -0.006512
    37    -0.133341
    38     0.063318
    39     0.968560
    40     0.000971
    41     0.011620
    42     0.023626
    43    -0.007286
    44     0.079884
    45     0.130549
    46     0.083476
    47    -0.259918
    48    -0.274697
    49    -0.319775
    50    -0.256892
    51    -0.364727
    52    -0.045462
    53    -0.049104
    54     0.046917
    55    -0.112928
    56     0.231389
    57     0.045020
    58    -0.128713
    59    -0.010513
    60     0.001343
    61     0.047958
    62    -0.158316
    63     0.048443
    64    -0.016257
    65    -0.042503
    66     0.061064
    67     0.053877
    68    -0.256859
    69     0.089592
    70    -0.001621
    71    -0.077608
    72    -0.008105
    73     0.002594
    74     0.072020
    75     0.001238
    76     0.019574
    77     0.300405
    78    -2.001932
    79    -0.009341
    80     0.014775
    81     0.001097
    82     0.011640
    83    -0.104259
    84     0.031555
    85    -0.170755
    86     0.527768
    87     0.915017
    88    -0.114179
    89    -0.136555
    90    -0.042496
    91    -0.096741
    92     0.239743
    93     0.012926
    94     0.014669
    95    -0.163146
    96     0.887940
    97     0.035865
    98     0.016228
    99     0.019449
   100     0.176493
   101     0.160660
   102     0.063578
   103    -0.087529
   104    -0.099953
   105    -0.116117
   106     0.006512
   107     0.007659
   108     0.008165
   109     0.020800
   110     0.003277
   111     1.022426
   112     0.045140
   113     0.020642
   114    -0.060993
   115     0.754433
   116     0.228359
   117    -1.167725
   118    -0.186727
   119    -0.174592
   120     0.052020
   121    -0.088298
   122    -0.007831
   123     0.004838
   124    -0.000092
   125    -0.022440
   126     0.161303
   127     0.039721
   128    -0.047625
   129    -0.065246
   130    -0.353022
   131     0.241753
   132     0.685174
   133     0.043002
   134    -0.032556
   135    -0.020557
   136     0.063105
   137    -0.036256
   138    -0.019620
   139    -0.002746
   140    -0.070549
   141    -0.133962
   142     0.510950
   143    -0.003485
   144    -0.006799
   145     0.016973
   146     0.022363
   147     0.192256
   148    -0.091978
   149    -0.610293
   150    -0.137012
   151     1.429345
   152    -0.250795
   153     0.503982
   154     0.487655
   155    -0.374315
   156     0.246588
   157     0.007483
   158    -0.002217
   159    -0.032290
   160    -0.381166
   161     0.879927
   162     0.000315
   163     0.009905
   164    -0.002948
   165    -0.040707
   166    -0.084633
   167     0.019691
   168     0.472434
   169     0.239909
   170    -0.197470
   171     0.096679
   172     0.024884
   173     0.022172
   174     0.008919
   175    -0.056694
   176     0.002838
   177    -0.035830
   178    -0.146913
   179     0.012652
   180     0.053532
   181     0.177525
   182     0.186185
   183    -0.967870
   184     0.042016
   185     0.083073
   186     0.027476
   187    -0.035263
   188    -1.389993
   189    -0.051724
   190    -0.018183
   191    -0.017068
   192     0.079041
   193     0.310834
   194     0.122014
   195     0.419899
   196    -0.341976
Sym=   183a
Ene=    0.000000E+00
Spin= Alpha
Occup= 0.000000
     1    -0.113371
     2     1.204393
     3     0.006783
     4    -0.130322
     5     0.037957
     6     0.008961
     7    -0.062626
     8     0.409508
     9    -0.007321
    10    -0.001613
    11    -0.027506
    12    -0.025695
    13    -0.031745
    14    -0.079880
    15    -0.034175
    16    -0.079976
    17    -0.051035
    18    -0.020763
    19     0.002404
    20     0.014460
    21    -0.002939
    22     0.047700
    23    -0.252934
    24    -0.024934
    25    -0.005891
    26    -0.043319
    27    -0.125688
    28     0.060380
    29    -0.096426
    30     0.030966
    31     0.015008
    32     0.020182
    33     0.015229
    34     0.008120
    35    -0.013240
    36    -0.010506
    37    -0.226677
    38    -0.074291
    39     2.467305
    40    -0.004749
    41     0.033223
    42     0.031839
    43    -0.060511
    44     0.231357
    45     0.156499
    46     0.430670
    47    -0.917018
    48    -0.146333
    49    -0.572130
    50    -0.385413
    51    -0.740014
    52    -0.159875
    53    -0.048206
    54     0.035966
    55    -0.156836
    56     0.599486
    57    -0.026870
    58    -0.039556
    59    -0.116094
    60    -0.019444
    61     0.117604
    62    -0.657617
    63    -0.011302
    64    -0.018382
    65    -0.013225
    66     0.019642
    67    -0.108036
    68     0.004202
    69     0.123036
    70     0.089385
    71     0.127266
    72    -0.002329
    73     0.007586
    74    -0.028804
    75     0.004623
    76     0.101968
    77     0.332532
    78    -1.903267
    79     0.003285
    80    -0.007196
    81    -0.009654
    82    -0.063192
    83     0.087227
    84     0.142072
    85     0.763954
    86    -0.258005
    87     0.075706
    88    -0.491478
    89    -0.601695
    90    -0.086034
    91    -0.110091
    92     0.041809
    93    -0.003986
    94     0.032124
    95    -0.304879
    96     1.596699
    97     0.006521
    98     0.040075
    99    -0.008277
   100     0.151654
   101     0.407467
   102    -0.015616
   103    -0.216652
   104    -0.168594
   105    -0.236208
   106     0.052322
   107     0.006475
   108     0.030067
   109    -0.016404
   110     0.056839
   111    -0.443469
   112    -0.043728
   113    -0.040077
   114    -0.034113
   115    -0.078066
   116     0.102875
   117     0.397248
   118     0.188275
   119     0.101258
   120    -0.009107
   121    -0.019405
   122    -0.036068
   123     0.002630
   124     0.003057
   125     0.066051
   126    -0.379310
   127     0.060302
   128     0.095502
   129    -0.089199
   130    -0.385319
   131    -0.074087
   132     0.838713
   133     0.021427
   134     0.028136
   135    -0.055546
   136     0.023095
   137    -0.030055
   138    -0.035201
   139     0.000331
   140     0.006218
   141     0.031571
   142     0.510794
   143     0.025785
   144     0.020571
   145    -0.022290
   146    -0.117180
   147    -0.049241
   148     0.363945
   149     0.017577
   150     0.967284
   151    -0.024700
   152    -0.207429
   153    -0.102093
   154     0.421075
   155    -0.004506
   156     0.136029
   157     0.449519
   158    -0.002876
   159    -0.057413
   160     0.086055
   161    -1.510403
   162    -0.008604
   163    -0.009020
   164    -0.006541
   165     0.055128
   166     0.080681
   167     0.021084
   168    -0.445974
   169    -0.726350
   170    -0.160499
   171     0.205371
   172     0.040443
   173     0.203936
   174    -0.063146
   175    -0.027031
   176    -0.026882
   177    -0.057901
   178    -0.304649
   179    -0.025041
   180     0.184436
   181     0.406628
   182     0.032538
   183     0.682107
   184     0.050873
   185    -0.024930
   186     0.182769
   187     0.030804
   188     0.395785
   189    -0.089469
   190    -0.037577
   191    -0.062448
   192     0.029759
   193     0.095894
   194    -0.010807
   195    -0.013094
   196     0.165703
Sym=   184a
Ene=    0.000000E+00
Spin= Alpha
Occup= 0.000000
     1     0.045435
     2    -0.348940
     3     0.072985
     4    -0.023075
     5    -0.039227
     6    -0.000846
     7    -0.111224
     8     0.403784
     9     0.007187
    10    -0.003119
    11    -0.009152
    12     0.144346
    13     0.299294
    14    -0.089946
    15    -0.053642
    16     0.096462
    17    -0.081513
    18     0.084938
    19    -0.001224
    20     0.032693
    21    -0.010863
    22     0.122362
    23    -0.671323
    24    -0.005184
    25    -0.007186
    26    -0.013197
    27    -0.132431
    28     0.016312
    29    -0.062762
    30     0.071678
    31     0.100237
    32     0.053475
    33     0.019475
    34    -0.039004
    35    -0.024447
    36     0.003600
    37     0.079364
    38     0.099383
    39    -1.261125
    40    -0.000550
    41    -0.010688
    42    -0.010741
    43     0.007943
    44    -0.079042
    45    -0.059198
    46    -0.134859
    47     0.386426
    48     0.173740
    49     0.220892
    50     0.162090
    51     0.223568
    52     0.034326
    53    -0.000991
    54    -0.013344
    55     0.006120
    56    -0.029971
    57    -0.045798
    58     0.016631
    59    -0.070343
    60    -0.001438
    61     0.139050
    62    -0.589619
    63     0.037688
    64    -0.023265
    65     0.008334
    66     0.468959
    67    -0.160394
    68     0.245349
    69    -0.096075
    70     0.081036
    71     0.104811
    72     0.000671
    73    -0.059500
    74     0.022669
    75     0.000999
    76     0.028423
    77    -0.350999
    78     1.571056
    79     0.008345
    80    -0.002507
    81     0.001167
    82    -0.074267
    83     0.025587
    84     0.075712
    85    -0.436850
    86     0.096174
    87    -0.315007
    88    -0.093825
    89     0.026076
    90    -0.258530
    91    -0.021670
    92     0.064698
    93     0.012207
    94    -0.007781
    95     0.091032
    96    -0.486921
    97     0.025309
    98    -0.015510
    99    -0.018323
   100     0.077892
   101    -0.095349
   102    -0.055482
   103     0.049725
   104     0.059619
   105     0.060756
   106     0.006167
   107    -0.008198
   108     0.006713
   109     0.002821
   110    -0.086857
   111     0.526384
   112    -0.036224
   113    -0.070275
   114    -0.053199
   115     0.355316
   116     0.411265
   117     0.970359
   118     0.024595
   119    -0.346247
   120     0.308193
   121    -0.354745
   122     0.666464
   123     0.354113
   124     0.002912
   125    -0.053845
   126     0.281795
   127     0.070597
   128     0.008760
   129     0.026527
   130    -0.338564
   131    -0.055606
   132     0.001431
   133    -0.032806
   134    -0.023747
   135     0.000126
   136     0.015291
   137    -0.020961
   138    -0.005393
   139     0.001104
   140     0.028402
   141     0.609158
   142    -1.823105
   143     0.043233
   144     0.006789
   145    -0.003242
   146    -0.296386
   147    -0.056451
   148     0.028986
   149     1.868349
   150     0.071541
   151    -0.044807
   152     0.043228
   153    -0.169650
   154    -0.124660
   155    -0.229541
   156     0.166676
   157     0.124366
   158     0.001711
   159     0.035720
   160    -0.131917
   161     1.121690
   162     0.006891
   163     0.010214
   164    -0.005986
   165    -0.083402
   166    -0.041721
   167     0.042708
   168     0.506436
   169     0.338140
   170    -0.046646
   171    -0.055029
   172    -0.177282
   173    -0.069646
   174     0.045995
   175     0.006026
   176     0.094103
   177     0.022238
   178     0.284278
   179     0.017917
   180    -0.034506
   181    -0.063829
   182    -0.014475
   183     0.679682
   184     0.111896
   185     0.013767
   186     0.116110
   187     0.012226
   188     0.512544
   189     0.460999
   190     0.289445
   191     0.212385
   192    -0.136634
   193    -0.290384
   194    -0.144368
   195    -0.008344
   196    -0.140683
Sym=   185a
Ene=    0.000000E+00
Spin= Alpha
Occup= 0.000000
     1     0.038622
     2    -0.068460
     3    -0.063324
     4    -0.226874
     5     0.036762
     6    -0.006071
     7     0.183119
     8    -0.873236
     9     0.014343
    10    -0.018903
    11    -0.014302
    12    -0.080861
    13    -0.333360
    14    -0.033370
    15     0.096615
    16    -0.035341
    17     0.125443
    18    -0.053213
    19    -0.017667
    20    -0.043420
    21    -0.010302
    22     0.017158
    23    -0.026763
    24    -0.033919
    25     0.036778
    26    -0.014488
    27     0.092928
    28    -0.081583
    29    -0.142695
    30     0.056860
    31     0.094557
    32     0.019702
    33    -0.098608
    34     0.018884
    35     0.027639
    36     0.006904
    37     0.154029
    38     0.217885
    39    -2.462777
    40     0.011151
    41    -0.020980
    42    -0.019875
    43     0.084234
    44    -0.156822
    45    -0.111981
    46    -0.467073
    47     0.795115
    48     0.277505
    49     0.418761
    50     0.337052
    51     0.434558
    52     0.091879
    53     0.012289
    54    -0.018820
    55    -0.049143
    56     0.443683
    57    -0.146186
    58    -0.008695
    59    -0.323407
    60    -0.003320
    61    -0.004020
    62    -0.061928
    63     0.005671
    64    -0.048614
    65     0.011788
    66     0.038591
    67    -0.171484
    68     0.092540
    69     0.034676
    70     0.003717
    71     0.006793
    72    -0.015980
    73     0.025759
    74    -0.003802
    75     0.003593
    76     0.087383
    77    -0.234602
    78     1.877572
    79     0.010546
    80     0.001199
    81     0.029641
    82    -0.041752
    83    -0.012203
    84    -0.124600
    85    -0.972537
    86     0.710439
    87    -0.409727
    88    -0.191861
    89    -0.007907
    90    -0.562341
    91    -0.092614
    92    -0.115218
    93    -0.017109
    94    -0.014012
    95     0.113563
    96    -0.629946
    97     0.017229
    98    -0.019077
    99    -0.011666
   100     0.074995
   101    -0.128772
   102    -0.027219
   103     0.081638
   104     0.096512
   105     0.087819
   106     0.017241
   107     0.008265
   108    -0.006165
   109     0.006321
   110    -0.237484
   111     1.193654
   112     0.014751
   113     0.086827
   114     0.008440
   115     0.159322
   116    -0.546628
   117     0.598702
   118    -0.021616
   119     0.140185
   120    -0.238186
   121     0.405361
   122    -0.035306
   123    -0.437354
   124    -0.022295
   125     0.140266
   126    -0.894844
   127     0.043112
   128     0.016125
   129     0.000523
   130    -0.166093
   131    -0.090726
   132     0.105747
   133     0.129560
   134     0.096881
   135     0.145607
   136    -0.002028
   137    -0.041116
   138     0.001916
   139     0.002726
   140     0.089498
   141     0.545678
   142    -0.506413
   143     0.012492
   144     0.000930
   145     0.008934
   146    -0.114523
   147     0.010245
   148    -0.036706
   149     1.242245
   150     0.191755
   151     0.782043
   152    -0.289104
   153    -0.282767
   154    -0.177265
   155    -0.111139
   156    -0.126616
   157     0.119326
   158     0.000989
   159     0.015099
   160     0.086990
   161    -0.126251
   162     0.001647
   163    -0.000285
   164     0.006019
   165    -0.028931
   166     0.017154
   167     0.002843
   168     0.049309
   169    -0.113562
   170    -0.107534
   171     0.090752
   172    -0.061341
   173    -0.135728
   174    -0.021346
   175     0.021683
   176    -0.186026
   177     0.048598
   178     0.269132
   179    -0.003071
   180    -0.025529
   181    -0.114791
   182    -0.063133
   183     0.730879
   184     0.141780
   185     0.118872
   186    -0.070756
   187     0.111922
   188    -0.040387
   189    -0.154213
   190    -0.415721
   191    -0.011810
   192    -0.000437
   193    -0.362947
   194    -0.082583
   195    -0.034826
   196    -0.103236
Sym=   186a
Ene=    0.000000E+00
Spin= Alpha
Occup= 0.000000
     1     0.091074
     2    -1.179833
     3    -0.142290
     4     0.213911
     5    -0.052657
     6    -0.001409
     7    -0.054605
     8     0.230703
     9    -0.032881
    10     0.042919
    11    -0.006999
    12    -0.038482
    13     0.312398
    14    -0.076764
    15    -0.038196
    16     0.057142
    17    -0.024062
    18     0.030214
    19     0.006518
    20     0.018783
    21     0.013250
    22    -0.065798
    23     0.291842
    24     0.009009
    25    -0.029851
    26    -0.012378
    27    -0.099792
    28     0.036658
    29     0.013410
    30    -0.089494
    31    -0.113044
    32    -0.037989
    33     0.070967
    34    -0.015181
    35    -0.014187
    36    -0.002753
    37    -0.041452
    38     0.179491
    39    -0.477524
    40     0.010352
    41     0.000298
    42     0.017846
    43     0.056417
    44    -0.007125
    45     0.098823
    46    -0.283235
    47     0.240733
    48    -0.295120
    49    -0.084738
    50    -0.059375
    51    -0.039341
    52    -0.042550
    53     0.006373
    54     0.031456
    55    -0.180037
    56     0.593351
    57    -0.160923
    58    -0.012589
    59    -0.479874
    60    -0.009504
    61     0.077609
    62    -0.404906
    63    -0.036992
    64     0.008936
    65    -0.028202
    66    -0.171628
    67     0.093396
    68    -0.205176
    69     0.049048
    70     0.077474
    71     0.048881
    72     0.027121
    73    -0.032161
    74    -0.019960
    75     0.009383
    76     0.212955
    77     0.113030
    78     1.216427
    79     0.012380
    80     0.002407
    81     0.042046
    82     0.005659
    83    -0.001979
    84    -0.231295
    85    -0.496002
    86     0.604499
    87    -0.018770
    88    -0.612490
    89    -0.582281
    90    -0.767182
    91    -0.201125
    92    -0.134406
    93    -0.014614
    94    -0.014670
    95     0.018585
    96    -0.196836
    97     0.027697
    98     0.029752
    99     0.006521
   100     0.202848
   101     0.224474
   102     0.057993
   103     0.071281
   104     0.126354
   105     0.023058
   106     0.072027
   107     0.018585
   108    -0.008234
   109    -0.003503
   110     0.137400
   111    -1.463398
   112     0.000179
   113    -0.051785
   114     0.039375
   115    -0.067077
   116     0.303027
   117    -0.103804
   118     0.003249
   119    -0.056644
   120     0.116353
   121    -0.242754
   122    -0.041955
   123     0.289252
   124    -0.011789
   125     0.023397
   126    -0.193328
   127    -0.055022
   128     0.002311
   129    -0.023636
   130     0.166913
   131    -0.074197
   132     0.073868
   133     0.088830
   134    -0.035013
   135     0.127913
   136    -0.010963
   137    -0.060237
   138     0.025924
   139     0.001175
   140     0.041648
   141    -0.301182
   142     1.630184
   143    -0.041501
   144    -0.012908
   145     0.008522
   146     0.269821
   147     0.083488
   148    -0.047087
   149    -1.410797
   150    -0.087480
   151    -0.308689
   152    -0.271905
   153    -0.034350
   154    -0.056731
   155     0.077335
   156    -0.064606
   157    -0.352091
   158     0.000937
   159     0.015403
   160    -0.098157
   161     0.927503
   162     0.020520
   163    -0.017294
   164    -0.015456
   165    -0.107166
   166     0.070594
   167     0.089719
   168     0.356560
   169     0.303624
   170    -0.121651
   171    -0.099958
   172     0.002346
   173     0.003104
   174     0.005519
   175    -0.015130
   176     0.072975
   177     0.040886
   178    -0.399383
   179    -0.065458
   180     0.009068
   181    -0.016688
   182     0.007720
   183    -1.142205
   184    -0.038180
   185     0.053400
   186    -0.088340
   187    -0.109232
   188     0.548530
   189    -0.002139
   190     0.295933
   191    -0.002070
   192     0.098165
   193     0.180774
   194     0.034505
   195     0.015563
   196     0.144459
Sym=   187a
Ene=    0.000000E+00
Spin= Alpha
Occup= 0.000000
     1     0.121150
     2    -0.349954
     3     0.042443
     4     0.021814
     5     0.080919
     6    -0.021675
     7     0.187122
     8    -1.066553
     9    -0.043478
    10     0.004428
    11    -0.014539
    12    -0.162788
    13    -0.027854
    14    -0.089680
    15     0.100842
    16     0.174090
    17     0.144185
    18     0.026927
    19     0.021336
    20    -0.014365
    21    -0.006204
    22     0.222488
    23    -1.248201
    24     0.002710
    25    -0.025257
    26    -0.092523
    27    -0.268737
    28     0.363299
    29    -0.209994
    30     0.067089
    31    -0.029445
    32     0.168123
    33     0.065933
    34     0.005615
    35    -0.013910
    36    -0.002932
    37    -0.054688
    38     0.120169
    39     0.014338
    40     0.003604
    41    -0.002761
    42     0.010271
    43     0.017550
    44    -0.021702
    45     0.050733
    46    -0.072600
    47     0.140253
    48    -0.071413
    49    -0.106841
    50    -0.148615
    51    -0.082654
    52    -0.002682
    53     0.014776
    54    -0.018096
    55     0.074960
    56    -0.131261
    57     0.022781
    58    -0.008878
    59     0.102912
    60    -0.018114
    61     0.152991
    62    -0.911612
    63     0.025770
    64     0.042623
    65     0.090954
    66     0.127794
    67     0.126223
    68     0.332643
    69     0.226918
    70     0.033962
    71     0.097324
    72    -0.006491
    73     0.073273
    74    -0.007383
    75    -0.000663
    76    -0.014342
    77    -0.215715
    78     0.874787
    79    -0.017194
    80     0.006335
    81    -0.015972
    82     0.134658
    83    -0.040833
    84     0.095074
    85    -0.170904
    86    -0.006402
    87    -0.467840
    88     0.068522
    89     0.004160
    90     0.073781
    91    -0.063475
    92    -0.002632
    93     0.069902
    94     0.000325
    95     0.026195
    96    -0.137676
    97    -0.000042
    98    -0.009398
    99    -0.015894
   100     0.001352
   101    -0.033320
   102    -0.034000
   103    -0.010135
   104     0.005495
   105     0.021787
   106     0.017198
   107     0.016055
   108     0.013859
   109     0.031931
   110    -0.222035
   111     2.235035
   112     0.136212
   113    -0.103737
   114    -0.198517
   115     0.362179
   116    -0.464969
   117     1.493757
   118     0.085949
   119    -0.001775
   120    -0.404838
   121    -0.297619
   122    -0.384319
   123     0.292680
   124     0.000508
   125     0.020334
   126    -0.125137
   127     0.030107
   128    -0.072011
   129     0.060743
   130    -0.042666
   131     0.269057
   132    -0.292800
   133    -0.022421
   134    -0.029004
   135     0.056372
   136    -0.004206
   137     0.013230
   138    -0.047435
   139     0.001586
   140     0.036829
   141     0.494927
   142    -1.202915
   143     0.012091
   144    -0.019872
   145     0.004059
   146    -0.126031
   147     0.097197
   148    -0.050915
   149     1.146791
   150    -0.561781
   151     0.247874
   152     0.172225
   153    -0.489935
   154     0.066600
   155    -0.012516
   156    -0.071443
   157    -0.047184
   158     0.000457
   159    -0.007985
   160     0.112325
   161    -0.158332
   162    -0.010454
   163    -0.005467
   164    -0.011182
   165     0.061237
   166     0.063682
   167     0.078059
   168    -0.007287
   169    -0.106629
   170    -0.033737
   171     0.069441
   172    -0.011148
   173     0.154742
   174    -0.018003
   175    -0.125322
   176     0.116477
   177     0.025144
   178    -0.127753
   179     0.007949
   180    -0.035376
   181     0.026830
   182     0.067629
   183     0.271655
   184     0.141391
   185    -0.035307
   186     0.143928
   187    -0.056372
   188     0.443607
   189    -0.633160
   190     0.399444
   191    -0.014267
   192    -0.110829
   193    -0.295837
   194    -0.141705
   195    -0.189353
   196    -0.070185
Sym=   188a
Ene=    0.000000E+00
Spin= Alpha
Occup= 0.000000
     1    -0.024517
     2     0.474625
     3    -0.000270
     4    -0.017835
     5    -0.030739
     6    -0.013853
     7     0.119793
     8    -0.659188
     9     0.001459
    10    -0.001023
    11     0.081012
    12    -0.017713
    13    -0.054528
    14     0.337202
    15     0.089014
    16     0.129620
    17     0.044744
    18     0.014055
    19     0.020966
    20     0.053732
    21     0.014641
    22    -0.117602
    23     0.641919
    24     0.083813
    25     0.062849
    26    -0.010849
    27     0.291507
    28     0.234700
    29    -0.054653
    30    -0.090924
    31    -0.097127
    32    -0.095431
    33     0.037416
    34    -0.032419
    35    -0.018847
    36     0.001583
    37     0.033301
    38     0.059870
    39    -0.502328
    40     0.009225
    41    -0.002743
    42    -0.006606
    43     0.062005
    44    -0.031861
    45    -0.033690
    46    -0.236274
    47     0.196113
    48     0.033715
    49     0.083953
    50     0.064424
    51     0.103016
    52     0.075829
    53     0.006271
    54    -0.003143
    55     0.019280
    56    -0.007519
    57     0.069711
    58    -0.046235
    59     0.072477
    60     0.008626
    61    -0.035172
    62     0.295939
    63     0.037348
    64     0.082590
    65    -0.043904
    66     0.135031
    67     0.320878
    68    -0.149542
    69    -0.081666
    70    -0.040951
    71    -0.003831
    72     0.001488
    73    -0.008126
    74    -0.040983
    75    -0.002228
    76    -0.052450
    77     0.069523
    78    -0.806519
    79    -0.013154
    80     0.007403
    81    -0.003040
    82     0.082569
    83    -0.051943
    84    -0.015180
    85    -0.252129
    86     0.575797
    87     0.298692
    88     0.165681
    89     0.150537
    90     0.201305
    91    -0.131565
    92    -0.004920
    93    -0.014042
    94     0.012255
    95    -0.083948
    96     0.496739
    97    -0.007750
    98    -0.005370
    99    -0.003404
   100     0.000709
   101     0.007529
   102    -0.011247
   103    -0.077188
   104    -0.077730
   105    -0.063464
   106    -0.003901
   107     0.014832
   108    -0.000973
   109    -0.013935
   110    -0.032218
   111    -0.371235
   112    -0.096666
   113    -0.023086
   114    -0.007764
   115    -0.788273
   116    -1.211317
   117    -0.202569
   118     0.002357
   119     0.072238
   120     0.141709
   121    -0.006476
   122     0.104820
   123     0.125560
   124    -0.014722
   125     0.195062
   126    -1.078433
   127     0.012891
   128     0.000794
   129    -0.034108
   130    -0.003185
   131     0.125438
   132     0.352270
   133     0.107891
   134     0.107037
   135     0.068357
   136     0.017599
   137     0.011785
   138    -0.046549
   139    -0.000055
   140     0.007711
   141    -0.244376
   142     2.300806
   143     0.007733
   144     0.001260
   145     0.004186
   146    -0.000967
   147     0.054238
   148     0.050879
   149    -0.579072
   150    -0.072512
   151     0.617848
   152     0.012619
   153    -0.258292
   154     0.343827
   155    -0.092969
   156    -0.014909
   157     0.255227
   158    -0.003676
   159    -0.076834
   160     0.184002
   161    -1.572621
   162    -0.017462
   163    -0.001248
   164    -0.005861
   165     0.136848
   166     0.036945
   167     0.045314
   168    -0.481478
   169    -0.630371
   170    -0.027596
   171     0.248924
   172     0.161994
   173     0.237003
   174    -0.114797
   175    -0.062991
   176     0.049432
   177     0.019823
   178    -0.039084
   179    -0.002169
   180    -0.012961
   181    -0.029030
   182     0.203841
   183    -0.640301
   184     0.090787
   185    -0.039560
   186     0.064739
   187    -0.026992
   188     0.192122
   189     0.310282
   190     0.438489
   191     0.081322
   192     0.147380
   193    -0.619709
   194     0.110434
   195    -0.032042
   196    -0.032957
Sym=   189a
Ene=    0.000000E+00
Spin= Alpha
Occup= 0.000000
     1     0.368541
     2    -1.690959
     3     0.084574
     4     0.385494
     5     0.257311
     6     0.004162
     7    -0.003583
     8     0.111757
     9     0.040200
    10    -0.021051
    11    -0.083650
    12     0.148080
    13    -0.097168
    14    -0.384674
    15     0.009433
    16    -0.032532
    17    -0.048056
    18    -0.019966
    19     0.011245
    20     0.007243
    21    -0.001887
    22     0.031371
    23    -0.173569
    24    -0.015750
    25    -0.008189
    26     0.025354
    27     0.043174
    28    -0.111717
    29    -0.007333
    30     0.020638
    31     0.038437
    32    -0.004041
    33    -0.048560
    34     0.001068
    35    -0.010427
    36    -0.004054
    37    -0.073800
    38     0.172694
    39    -0.204968
    40     0.000222
    41     0.003153
    42     0.014432
    43    -0.007660
    44     0.016640
    45     0.059518
    46     0.022955
    47     0.065125
    48     0.071207
    49    -0.142172
    50    -0.136697
    51    -0.163756
    52    -0.063971
    53     0.017278
    54    -0.002211
    55     0.043021
    56     0.141676
    57     0.093688
    58     0.014686
    59    -0.028589
    60     0.010929
    61    -0.064312
    62     0.330807
    63     0.006986
    64    -0.004563
    65     0.025200
    66     0.117745
    67    -0.056728
    68     0.130806
    69    -0.096909
    70    -0.057916
    71    -0.039578
    72    -0.000515
    73     0.007446
    74     0.005557
    75     0.001398
    76     0.039517
    77    -0.365959
    78     1.707305
    79    -0.014351
    80     0.000003
    81    -0.017406
    82     0.157289
    83    -0.001176
    84     0.142375
    85    -0.369215
    86    -0.190749
    87    -1.061316
    88    -0.239268
    89    -0.188167
    90     0.038785
    91     0.024677
    92    -0.077111
    93     0.040090
    94     0.000633
    95     0.055181
    96    -0.321606
    97    -0.013013
    98    -0.011821
    99    -0.055404
   100    -0.029503
   101    -0.029802
   102    -0.140534
   103    -0.013319
   104     0.023997
   105     0.028472
   106     0.042109
   107     0.031138
   108     0.018172
   109    -0.010507
   110    -0.148888
   111    -0.931220
   112    -0.031449
   113     0.041664
   114     0.024296
   115    -0.448983
   116     0.284126
   117     1.478485
   118     0.039073
   119     0.012208
   120     0.025263
   121     0.077452
   122     0.119112
   123    -0.220722
   124     0.004474
   125     0.032537
   126    -0.180793
   127    -0.007776
   128    -0.029752
   129     0.037558
   130     0.189669
   131     0.099768
   132    -0.180279
   133    -0.047317
   134    -0.004889
   135     0.013377
   136    -0.012699
   137    -0.030765
   138    -0.007779
   139     0.000629
   140    -0.007263
   141     0.248438
   142     0.011417
   143     0.013726
   144    -0.014285
   145    -0.006990
   146    -0.087996
   147     0.049594
   148     0.068434
   149     1.021550
   150    -0.978187
   151    -0.752136
   152     0.448306
   153    -0.089840
   154    -0.138858
   155    -0.311779
   156    -0.191212
   157     0.163419
   158    -0.019259
   159    -0.365737
   160    -0.540404
   161    -0.842200
   162    -0.034047
   163    -0.006093
   164    -0.026727
   165     0.235540
   166     0.078522
   167     0.161321
   168    -0.195391
   169     0.652408
   170    -0.040628
   171     0.880555
   172     1.165827
   173     0.871314
   174     0.032079
   175     0.035904
   176     0.032517
   177    -0.008967
   178     0.217837
   179    -0.039137
   180    -0.003183
   181     0.052476
   182     0.133558
   183    -0.108935
   184     0.184267
   185    -0.059328
   186     0.044684
   187    -0.030426
   188     1.692664
   189     0.045797
   190    -0.263034
   191     0.115681
   192    -0.057827
   193    -1.291731
   194     0.245742
   195    -0.064067
   196    -0.071953
Sym=   190a
Ene=    0.000000E+00
Spin= Alpha
Occup= 0.000000
     1    -0.046157
     2     0.495877
     3    -0.067753
     4    -0.415048
     5    -0.004683
     6     0.000460
     7    -0.040528
     8     0.176556
     9     0.029477
    10     0.019265
    11    -0.056317
    12     0.117605
    13     0.114617
    14    -0.265969
    15    -0.015626
    16    -0.046428
    17     0.020856
    18    -0.015088
    19     0.005764
    20    -0.007508
    21    -0.007637
    22     0.079657
    23    -0.405318
    24    -0.036881
    25     0.007188
    26    -0.064688
    27    -0.156672
    28     0.053282
    29    -0.196923
    30     0.065112
    31     0.059342
    32     0.030398
    33    -0.000326
    34     0.010038
    35    -0.015249
    36     0.003309
    37     0.068342
    38     0.057720
    39    -0.840736
    40     0.003416
    41    -0.011951
    42    -0.010629
    43     0.031115
    44    -0.081885
    45    -0.058705
    46    -0.172370
    47     0.336965
    48     0.122753
    49     0.189753
    50     0.133643
    51     0.170378
    52     0.059850
    53    -0.000496
    54    -0.016381
    55     0.056931
    56     0.044987
    57     0.013130
    58    -0.007690
    59    -0.026221
    60    -0.011816
    61     0.129279
    62    -0.615171
    63     0.055563
    64     0.017419
    65    -0.029400
    66     0.356576
    67     0.021108
    68     0.009947
    69     0.048693
    70     0.081345
    71     0.096700
    72     0.011547
    73    -0.016729
    74     0.015897
    75    -0.000765
    76    -0.015602
    77    -0.093528
    78     0.211629
    79     0.000353
    80     0.002542
    81    -0.001593
    82    -0.023559
    83    -0.030849
    84     0.015782
    85    -0.410296
    86     0.269363
    87    -0.053973
    88     0.029694
    89     0.173974
    90    -0.037305
    91    -0.029315
    92    -0.015993
    93     0.013358
    94     0.001743
    95     0.029943
    96    -0.133761
    97    -0.004992
    98    -0.018208
    99    -0.025962
   100    -0.041480
   101    -0.110179
   102    -0.068063
   103    -0.015225
   104    -0.010832
   105     0.019416
   106    -0.008256
   107     0.007642
   108     0.009433
   109    -0.023879
   110     0.094862
   111    -1.567473
   112    -0.035719
   113    -0.014114
   114    -0.044352
   115    -0.047623
   116     0.555978
   117     1.154935
   118     0.261411
   119     0.050776
   120     0.060962
   121    -0.039539
   122     0.210905
   123     0.011778
   124    -0.007792
   125     0.097866
   126    -0.517964
   127    -0.042590
   128    -0.027644
   129    -0.048890
   130     0.123010
   131     0.227681
   132     0.433032
   133     0.073660
   134     0.074956
   135    -0.009979
   136     0.013754
   137     0.005722
   138    -0.056275
   139    -0.004599
   140    -0.142155
   141    -0.496226
   142     1.728707
   143    -0.034816
   144     0.008263
   145     0.002322
   146     0.267345
   147     0.011674
   148     0.151251
   149    -0.613818
   150    -0.955336
   151    -0.242250
   152     0.688175
   153     0.275992
   154     0.499119
   155     0.093252
   156     0.002709
   157     0.304139
   158     0.008894
   159     0.151299
   160     0.509337
   161     0.160554
   162    -0.029578
   163     0.015574
   164    -0.022750
   165     0.212782
   166    -0.077097
   167     0.171460
   168    -0.247831
   169    -0.460571
   170    -0.724937
   171    -0.314792
   172    -0.480430
   173    -0.246205
   174    -0.189617
   175    -0.101226
   176    -0.222813
   177     0.040588
   178    -0.028990
   179     0.001174
   180     0.006906
   181    -0.017777
   182     0.255394
   183    -1.708712
   184    -0.093504
   185    -0.184506
   186     0.118315
   187     0.024832
   188     1.455121
   189    -0.010387
   190    -0.118673
   191     0.038276
   192     0.301043
   193    -1.322550
   194     0.381183
   195    -0.174951
   196    -0.118847
Sym=   191a
Ene=    0.000000E+00
Spin= Alpha
Occup= 0.000000
     1    -0.202353
     2     0.393130
     3     0.031534
     4    -0.177989
     5     0.018613
     6     0.011383
     7    -0.067597
     8     0.415975
     9    -0.028957
    10     0.000640
    11    -0.033342
    12    -0.139402
    13    -0.030705
    14    -0.096429
    15    -0.060650
    16    -0.113499
    17    -0.029907
    18    -0.026345
    19    -0.001616
    20    -0.007941
    21     0.011592
    22    -0.117301
    23     0.660114
    24    -0.022669
    25     0.023838
    26    -0.053807
    27    -0.052007
    28     0.019987
    29    -0.156905
    30    -0.075361
    31    -0.072468
    32    -0.088396
    33     0.012241
    34     0.024339
    35    -0.012351
    36    -0.003861
    37    -0.084249
    38    -0.088739
    39     1.219726
    40    -0.000872
    41     0.010276
    42     0.013488
    43    -0.020190
    44     0.083150
    45     0.082441
    46     0.185341
    47    -0.439998
    48    -0.220110
    49    -0.237490
    50    -0.152095
    51    -0.256155
    52    -0.062351
    53    -0.040708
    54     0.046801
    55     0.023402
    56    -0.637656
    57     0.046836
    58    -0.032087
    59     0.113878
    60     0.001275
    61     0.019040
    62    -0.062816
    63     0.010310
    64     0.000588
    65     0.008556
    66     0.130480
    67    -0.000357
    68     0.096153
    69    -0.040289
    70     0.040593
    71    -0.017109
    72    -0.004179
    73    -0.022688
    74     0.003720
    75     0.000295
    76    -0.001010
    77     0.414748
    78    -1.120923
    79    -0.003577
    80     0.002608
    81     0.001704
    82     0.043901
    83    -0.024764
    84    -0.108225
    85     0.738407
    86    -0.077228
    87     0.947899
    88     0.097583
    89    -0.140218
    90     0.121493
    91     0.068346
    92     0.029028
    93    -0.032412
    94     0.001800
    95    -0.055704
    96     0.328224
    97    -0.002776
    98     0.027532
    99     0.024079
   100    -0.003311
   101     0.148097
   102     0.059763
   103    -0.001988
   104    -0.023601
   105    -0.033841
   106    -0.000668
   107    -0.012508
   108    -0.017888
   109    -0.045339
   110     0.210869
   111    -2.153216
   112    -0.065059
   113     0.028074
   114     0.140755
   115     0.123424
   116     0.131342
   117     0.327352
   118     0.304563
   119     0.204233
   120     0.164133
   121     0.098869
   122     0.120898
   123    -0.016794
   124     0.001278
   125    -0.132546
   126     0.741797
   127     0.032567
   128    -0.041626
   129     0.056462
   130    -0.107954
   131    -0.041065
   132    -0.640146
   133    -0.071580
   134    -0.054095
   135     0.056712
   136     0.029226
   137     0.023579
   138     0.068040
   139     0.005177
   140     0.180790
   141    -0.017901
   142     2.257493
   143     0.038199
   144    -0.017539
   145    -0.004486
   146    -0.173298
   147    -0.011165
   148    -0.153101
   149    -0.549760
   150    -0.852890
   151    -0.265163
   152    -0.561894
   153    -0.544768
   154    -0.827382
   155     0.144040
   156     0.177253
   157    -0.326920
   158     0.003870
   159     0.077639
   160    -0.061793
   161     1.011735
   162    -0.006572
   163     0.028738
   164     0.017288
   165     0.005649
   166    -0.190261
   167    -0.104408
   168     0.462497
   169     0.064070
   170     0.121535
   171    -0.089763
   172    -0.259914
   173    -0.317580
   174    -0.066956
   175     0.042313
   176    -0.044335
   177    -0.044999
   178    -0.137026
   179     0.020955
   180     0.047365
   181     0.138454
   182     0.189639
   183    -1.921986
   184     0.074009
   185    -0.004784
   186    -0.035978
   187     0.063465
   188     0.787147
   189     0.023947
   190    -0.043514
   191    -0.162148
   192    -0.068846
   193    -0.030315
   194    -0.420971
   195     0.305863
   196     0.038726
Sym=   192a
Ene=    0.000000E+00
Spin= Alpha
Occup= 0.000000
     1    -0.066657
     2     0.866877
     3     0.035234
     4    -0.324992
     5     0.163273
     6    -0.013917
     7     0.137754
     8    -0.802293
     9     0.033236
    10    -0.039012
    11     0.018105
    12     0.041541
    13    -0.282289
    14     0.080627
    15     0.087721
    16     0.085766
    17     0.102286
    18     0.011391
    19    -0.007343
    20    -0.024527
    21    -0.015887
    22     0.090728
    23    -0.445900
    24     0.025554
    25     0.071072
    26    -0.033373
    27     0.245635
    28     0.079483
    29    -0.236490
    30     0.095814
    31     0.164936
    32     0.035340
    33    -0.086774
    34    -0.017491
    35     0.029831
    36    -0.006300
    37    -0.133035
    38    -0.114925
    39     1.735728
    40    -0.006894
    41     0.014148
    42     0.030418
    43    -0.061442
    44     0.114262
    45     0.176931
    46     0.320416
    47    -0.552731
    48    -0.474679
    49    -0.356632
    50    -0.260203
    51    -0.372613
    52    -0.135623
    53    -0.053404
    54     0.079309
    55    -0.041435
    56    -0.723459
    57     0.075182
    58     0.039381
    59    -0.089966
    60    -0.006944
    61     0.125457
    62    -0.628373
    63     0.023674
    64     0.035073
    65    -0.069810
    66     0.089514
    67     0.251371
    68    -0.402570
    69     0.039499
    70     0.083070
    71     0.047029
    72     0.022923
    73     0.002060
    74     0.063051
    75     0.003659
    76     0.081440
    77     0.217872
    78     0.144449
    79     0.005532
    80    -0.005624
    81     0.024227
    82    -0.003562
    83     0.064236
    84    -0.186872
    85     0.818722
    86    -0.584842
    87     0.870225
    88    -0.322190
    89    -0.428610
    90    -0.051808
    91     0.000815
    92     0.003720
    93     0.017851
    94     0.003959
    95    -0.089085
    96     0.400439
    97     0.007528
    98     0.030643
    99    -0.059920
   100     0.060643
   101     0.234449
   102    -0.206661
   103    -0.045507
   104    -0.007544
   105    -0.059475
   106     0.035712
   107    -0.012982
   108     0.002728
   109     0.046989
   110    -0.268424
   111     0.134289
   112     0.076481
   113     0.080414
   114    -0.250335
   115    -0.781102
   116    -0.636964
   117     1.355054
   118    -0.251638
   119    -0.089642
   120    -0.459888
   121     0.186637
   122     0.296972
   123    -0.154774
   124     0.009499
   125    -0.171419
   126     1.020021
   127    -0.004525
   128    -0.064014
   129     0.020196
   130    -0.004149
   131     0.105333
   132    -0.400089
   133    -0.101193
   134    -0.122326
   135     0.028708
   136    -0.004231
   137    -0.043941
   138     0.012456
   139    -0.001268
   140    -0.044580
   141    -0.018616
   142    -1.101112
   143    -0.006202
   144     0.011969
   145     0.003404
   146     0.006132
   147    -0.068016
   148    -0.199444
   149     0.098610
   150     0.155941
   151    -0.426094
   152     0.281465
   153     0.098187
   154     0.026539
   155    -0.261336
   156    -0.018305
   157    -0.647532
   158     0.005455
   159     0.094331
   160     0.333429
   161    -0.686880
   162    -0.021178
   163     0.025371
   164     0.006795
   165     0.099783
   166    -0.105539
   167    -0.043748
   168    -0.363420
   169    -0.494248
   170     0.138792
   171    -0.113570
   172    -0.341786
   173    -0.221094
   174    -0.121088
   175     0.083386
   176    -0.086770
   177    -0.073499
   178    -0.389811
   179    -0.006394
   180     0.073426
   181     0.168217
   182     0.075921
   183     0.506269
   184     0.188619
   185     0.010715
   186    -0.101530
   187     0.026766
   188     1.802291
   189     0.062625
   190    -0.079109
   191     0.566580
   192    -0.145682
   193     0.299619
   194    -0.017268
   195    -0.109847
   196    -0.134440
Sym=   193a
Ene=    0.000000E+00
Spin= Alpha
Occup= 0.000000
     1    -0.042265
     2    -0.061571
     3    -0.025293
     4    -0.104188
     5    -0.004279
     6    -0.006812
     7     0.029991
     8    -0.157253
     9     0.049367
    10    -0.021609
    11     0.002171
    12     0.224028
    13    -0.082270
    14    -0.005992
    15     0.048654
    16     0.027397
    17     0.041989
    18     0.028900
    19    -0.024566
    20     0.004323
    21    -0.034903
    22     0.342948
    23    -1.872119
    24     0.030771
    25    -0.025164
    26     0.077591
    27    -0.006426
    28     0.088771
    29     0.338931
    30     0.236859
    31     0.241687
    32     0.217630
    33    -0.004476
    34     0.001643
    35    -0.003376
    36     0.001853
    37     0.037543
    38     0.004322
    39    -0.372830
    40     0.004302
    41    -0.001769
    42    -0.009174
    43     0.028877
    44    -0.016321
    45    -0.045977
    46    -0.122192
    47     0.106521
    48     0.090205
    49     0.088009
    50     0.085573
    51     0.086523
    52     0.029682
    53     0.005064
    54    -0.011766
    55    -0.012300
    56     0.289343
    57    -0.050208
    58    -0.034003
    59    -0.032105
    60     0.000268
    61    -0.048298
    62     0.247273
    63     0.013849
    64    -0.020143
    65    -0.013633
    66    -0.012895
    67    -0.116917
    68    -0.102060
    69    -0.003193
    70    -0.039240
    71     0.036343
    72    -0.001235
    73     0.050362
    74    -0.022123
    75     0.000436
    76     0.009588
    77     0.049608
    78    -0.139371
    79     0.000919
    80     0.000214
    81    -0.006967
    82     0.004242
    83    -0.010094
    84     0.037399
    85    -0.148596
    86     0.312252
    87    -0.199794
    88     0.022572
    89    -0.000564
    90    -0.097075
    91    -0.005393
    92    -0.037582
    93    -0.017542
    94     0.001525
    95    -0.001353
    96     0.033637
    97     0.001627
    98    -0.001294
    99     0.016356
   100     0.017906
   101    -0.002468
   102     0.067751
   103    -0.001079
   104    -0.012660
   105    -0.004348
   106    -0.000118
   107     0.003182
   108    -0.003110
   109     0.036423
   110     0.249810
   111     0.307700
   112     0.037880
   113    -0.054543
   114    -0.223851
   115    -1.280187
   116     1.087086
   117    -0.411759
   118    -0.149370
   119    -0.030199
   120    -0.227179
   121    -0.104924
   122    -0.141088
   123     0.073453
   124     0.000314
   125    -0.013694
   126     0.066111
   127    -0.003702
   128     0.031933
   129     0.010322
   130     0.021729
   131    -0.123153
   132    -0.071244
   133    -0.003226
   134    -0.000828
   135    -0.005152
   136     0.024915
   137     0.018822
   138     0.024116
   139     0.002579
   140     0.092392
   141    -0.075884
   142     2.483462
   143     0.020250
   144    -0.013038
   145    -0.013974
   146    -0.092354
   147     0.034428
   148     0.084562
   149    -0.601349
   150    -0.827905
   151    -0.773458
   152    -0.277425
   153    -0.273550
   154    -0.360192
   155     0.193143
   156     0.168527
   157     0.091489
   158    -0.000775
   159    -0.016353
   160     0.041167
   161     0.167987
   162    -0.001532
   163     0.001173
   164     0.001417
   165     0.022879
   166     0.007209
   167    -0.002880
   168     0.351739
   169    -0.281122
   170    -0.057499
   171     0.161179
   172    -0.026845
   173     0.018150
   174    -0.079081
   175    -0.023056
   176    -0.031977
   177     0.048014
   178    -0.089402
   179    -0.009965
   180     0.016800
   181    -0.005890
   182     0.201019
   183    -2.006151
   184     0.006970
   185    -0.056162
   186     0.097301
   187     0.008039
   188    -0.159798
   189     0.122681
   190    -0.181545
   191     0.196061
   192     0.077951
   193    -0.594420
   194    -0.122922
   195     0.202949
   196     0.131928
Sym=   194a
Ene=    0.000000E+00
Spin= Alpha
Occup= 0.000000
     1    -0.022239
     2     0.052863
     3     0.037670
     4    -0.116257
     5    -0.038413
     6    -0.000774
     7     0.005936
     8    -0.055604
     9     0.023342
    10    -0.004574
    11     0.007106
    12     0.065277
    13    -0.020979
    14     0.016662
    15     0.014224
    16     0.005874
    17    -0.012958
    18    -0.005742
    19     0.007997
    20     0.007649
    21     0.003551
    22    -0.080588
    23     0.399972
    24     0.003445
    25     0.015536
    26    -0.008531
    27     0.082430
    28    -0.020293
    29    -0.073238
    30    -0.023098
    31    -0.028878
    32    -0.050946
    33    -0.022641
    34    -0.007675
    35    -0.005889
    36     0.003551
    37     0.065895
    38    -0.131901
    39    -0.078191
    40    -0.003777
    41    -0.003006
    42    -0.014550
    43    -0.024555
    44    -0.016337
    45    -0.083131
    46     0.094420
    47     0.047271
    48     0.239639
    49     0.168838
    50     0.103091
    51     0.129484
    52     0.026498
    53     0.024854
    54    -0.046880
    55    -0.160477
    56     1.954097
    57    -0.183504
    58     0.038810
    59    -0.294181
    60     0.015901
    61    -0.120005
    62     0.615939
    63     0.072070
    64     0.024488
    65     0.025903
    66     0.332755
    67     0.020940
    68     0.188777
    69    -0.090195
    70    -0.130265
    71    -0.074786
    72    -0.005175
    73     0.012221
    74    -0.006106
    75     0.000680
    76     0.019124
    77     0.133197
    78    -1.208644
    79     0.005175
    80    -0.005231
    81    -0.009611
    82    -0.029662
    83     0.023970
    84     0.105031
    85    -0.656557
    86    -0.133262
    87    -1.319396
    88    -0.007520
    89     0.102643
    90    -0.309141
    91     0.078628
    92    -0.221292
    93     0.042059
    94     0.003780
    95     0.007497
    96    -0.056714
    97    -0.007511
    98    -0.020897
    99     0.016669
   100    -0.061061
   101    -0.140427
   102     0.090431
   103    -0.023860
   104    -0.030162
   105     0.000288
   106    -0.013803
   107     0.010819
   108     0.007044
   109     0.001101
   110    -0.102943
   111    -0.102345
   112    -0.024343
   113     0.029114
   114    -0.072629
   115     0.121394
   116    -0.383131
   117     0.279342
   118     0.039272
   119    -0.046117
   120    -0.090970
   121     0.058400
   122     0.105510
   123    -0.058694
   124     0.011130
   125    -0.000590
   126    -0.069390
   127    -0.042786
   128    -0.011307
   129    -0.006128
   130     0.180189
   131     0.112781
   132     0.176865
   133    -0.031515
   134    -0.044993
   135    -0.080581
   136     0.023988
   137     0.042513
   138    -0.032070
   139     0.001292
   140     0.035405
   141     0.184624
   142    -1.482766
   143     0.017937
   144    -0.008163
   145    -0.004513
   146    -0.130205
   147     0.116449
   148     0.099066
   149    -1.154597
   150     0.161319
   151     0.845185
   152    -0.182423
   153    -0.272705
   154     0.039813
   155     0.326880
   156     0.231362
   157     0.279843
   158    -0.002082
   159    -0.040125
   160     0.126687
   161    -0.945029
   162    -0.027267
   163     0.017648
   164    -0.007156
   165     0.168225
   166    -0.065055
   167     0.071418
   168    -0.618160
   169    -0.117861
   170    -0.280257
   171     0.077681
   172     0.144305
   173     0.097324
   174    -0.086112
   175    -0.108973
   176    -0.045681
   177     0.065377
   178    -0.090973
   179    -0.034556
   180     0.037365
   181    -0.045000
   182     0.066703
   183     0.366395
   184     0.027715
   185    -0.124706
   186     0.082962
   187    -0.035719
   188     0.554614
   189    -0.023826
   190     0.014894
   191     0.144027
   192    -0.397805
   193     2.270535
   194    -0.350324
   195     0.201635
   196     0.110564
Sym=   195a
Ene=    0.000000E+00
Spin= Alpha
Occup= 0.000000
     1    -0.066720
     2     0.364836
     3     0.160173
     4     0.049520
     5     0.043026
     6    -0.001535
     7     0.041474
     8    -0.198802
     9    -0.003063
    10    -0.037226
    11     0.023791
    12    -0.044096
    13    -0.225151
    14     0.149875
    15     0.007488
    16    -0.000690
    17     0.039508
    18    -0.000891
    19     0.007207
    20    -0.010245
    21    -0.001104
    22     0.058439
    23    -0.280866
    24     0.024780
    25     0.019529
    26     0.017037
    27     0.020608
    28     0.146921
    29     0.092107
    30     0.012260
    31    -0.003304
    32     0.039873
    33     0.016007
    34     0.016217
    35    -0.004856
    36     0.000567
    37    -0.004112
    38    -0.395064
    39     1.519970
    40    -0.016914
    41     0.019134
    42     0.003975
    43    -0.110504
    44     0.135677
    45     0.037615
    46     0.413897
    47    -0.588051
    48    -0.231619
    49    -0.093454
    50    -0.049719
    51    -0.035827
    52    -0.055022
    53    -0.009593
    54     0.007376
    55    -0.395436
    56     1.823408
    57    -0.245568
    58     0.039381
    59    -0.330151
    60     0.005474
    61    -0.038038
    62     0.226117
    63    -0.006508
    64     0.036680
    65     0.044060
    66    -0.029191
    67     0.103776
    68     0.206096
    69    -0.040823
    70    -0.032498
    71    -0.024041
    72    -0.013188
    73     0.005156
    74     0.011361
    75     0.001027
    76     0.027938
    77     0.386976
    78    -2.686751
    79     0.022119
    80    -0.007398
    81     0.020621
    82    -0.177091
    83     0.066594
    84    -0.002660
    85     0.093547
    86    -0.207564
    87    -0.240249
    88    -0.144114
    89    -0.132769
    90    -0.288437
    91    -0.016371
    92     0.067014
    93    -0.020384
    94     0.014558
    95    -0.196319
    96     0.964322
    97     0.033337
    98     0.045391
    99     0.015530
   100     0.166513
   101     0.230499
   102     0.058082
   103    -0.110115
   104    -0.114356
   105    -0.113651
   106    -0.006003
   107    -0.033479
   108    -0.005356
   109    -0.015244
   110     0.067857
   111     0.869848
   112     0.007431
   113    -0.008152
   114     0.099529
   115    -0.069291
   116    -0.156554
   117    -0.188023
   118     0.095716
   119     0.132346
   120     0.107427
   121     0.010654
   122    -0.099683
   123     0.026145
   124     0.026031
   125    -0.315990
   126     1.817403
   127     0.096589
   128    -0.051062
   129    -0.003337
   130    -0.511169
   131     0.107442
   132     0.078380
   133    -0.180984
   134    -0.158447
   135    -0.152008
   136    -0.002458
   137    -0.043644
   138     0.002834
   139    -0.001886
   140    -0.046821
   141     0.059342
   142     0.287646
   143    -0.000710
   144    -0.000041
   145     0.007256
   146     0.028677
   147    -0.043121
   148    -0.104848
   149     1.502169
   150    -0.885052
   151    -0.553402
   152     0.483805
   153     0.034991
   154    -0.166289
   155    -0.068845
   156    -0.062952
   157    -0.001538
   158     0.004031
   159     0.073018
   160     0.103320
   161     0.419965
   162    -0.013068
   163     0.015576
   164     0.024422
   165     0.075314
   166    -0.109198
   167    -0.159812
   168    -0.014170
   169     0.264411
   170     0.525424
   171    -0.223629
   172    -0.096843
   173    -0.210530
   174     0.066384
   175     0.071208
   176     0.104073
   177    -0.064397
   178    -0.161911
   179     0.026343
   180    -0.008575
   181    -0.108200
   182    -0.002071
   183     0.017322
   184    -0.085143
   185    -0.038747
   186    -0.002869
   187     0.086260
   188    -0.874247
   189     0.044381
   190     0.057608
   191    -0.234382
   192     0.209594
   193    -1.886682
   194     0.186853
   195    -0.192719
   196    -0.163135
Sym=   196a
Ene=    0.000000E+00
Spin= Alpha
Occup= 0.000000
     1    -0.023562
     2    -0.228833
     3     0.020084
     4     0.116143
     5    -0.029094
     6     0.017054
     7    -0.265447
     8     1.268109
     9    -0.006590
    10     0.039652
    11    -0.009594
    12     0.078284
    13     0.299546
    14    -0.078069
    15    -0.133002
    16    -0.112818
    17    -0.156627
    18     0.020286
    19    -0.004972
    20    -0.012649
    21     0.013830
    22    -0.244875
    23     1.153585
    24     0.006907
    25    -0.036453
    26    -0.009840
    27     0.155270
    28    -0.286745
    29    -0.091288
    30    -0.111444
    31    -0.104817
    32    -0.134013
    33    -0.023606
    34    -0.001295
    35     0.022282
    36     0.003897
    37     0.072775
    38    -0.118873
    39    -0.227367
    40    -0.003606
    41     0.003061
    42    -0.014446
    43    -0.012990
    44     0.008813
    45    -0.070917
    46     0.021834
    47    -0.022530
    48     0.097582
    49     0.153850
    50     0.126957
    51     0.180322
    52     0.065912
    53    -0.002119
    54    -0.006629
    55    -0.121227
    56     0.461260
    57    -0.057254
    58    -0.015990
    59     0.025472
    60     0.006912
    61    -0.209770
    62     0.950374
    63    -0.064575
    64    -0.009023
    65    -0.007625
    66    -0.410936
    67    -0.040017
    68    -0.150599
    69    -0.037289
    70    -0.091895
    71    -0.091662
    72    -0.008615
    73     0.042212
    74    -0.008351
    75    -0.003150
    76    -0.072451
    77     0.168913
    78    -1.740231
    79     0.004028
    80     0.000572
    81     0.006377
    82    -0.071608
    83    -0.002516
    84    -0.011193
    85    -0.150217
    86     0.266866
    87     0.409742
    88     0.249953
    89     0.254097
    90     0.079274
    91    -0.034904
    92     0.145546
    93    -0.043151
    94     0.008550
    95    -0.072068
    96     0.427390
    97     0.012308
    98     0.010988
    99     0.026389
   100     0.050287
   101     0.017523
   102     0.072734
   103    -0.040698
   104    -0.076560
   105    -0.049571
   106    -0.034248
   107    -0.015981
   108    -0.014400
   109     0.040159
   110     0.046028
   111    -3.475179
   112     0.029178
   113     0.081657
   114    -0.246611
   115    -0.256744
   116     0.502680
   117     0.134830
   118    -0.257147
   119    -0.244111
   120    -0.449236
   121    -0.006505
   122    -0.039445
   123     0.026932
   124     0.005638
   125    -0.083423
   126     0.521225
   127     0.045894
   128     0.017633
   129    -0.021455
   130    -0.262966
   131    -0.055981
   132     0.206543
   133    -0.027552
   134    -0.029366
   135    -0.058209
   136     0.001008
   137     0.000411
   138    -0.000128
   139    -0.000222
   140     0.011976
   141    -0.180358
   142     1.627042
   143    -0.001370
   144     0.011376
   145     0.001451
   146     0.029083
   147    -0.075344
   148    -0.019753
   149     0.164925
   150    -0.031991
   151    -0.117747
   152    -0.094388
   153    -0.046881
   154    -0.023074
   155     0.044011
   156    -0.029044
   157     0.077358
   158     0.000164
   159     0.012082
   160    -0.235737
   161     1.108121
   162     0.015085
   163    -0.004273
   164     0.004580
   165    -0.102927
   166    -0.006834
   167    -0.060442
   168     0.527437
   169     0.307969
   170     0.160752
   171    -0.032121
   172    -0.031071
   173    -0.103406
   174     0.045559
   175     0.025161
   176     0.084642
   177    -0.044182
   178     0.310808
   179     0.036989
   180    -0.079228
   181    -0.107708
   182    -0.028616
   183    -0.684670
   184    -0.030791
   185     0.010722
   186    -0.012979
   187    -0.335372
   188     2.793488
   189    -0.319407
   190    -0.069690
   191     0.645538
   192     0.157058
   193    -0.817449
   194     0.043889
   195    -0.037202
   196     0.002553
