[Molden Format]
p30-20 set                                                                      
[Atoms] AU
 B        1     5        0.0000        0.0000        0.0000
 H        2     1       -1.1276        1.9530        0.0000
 H        3     1       -1.1276       -1.9530        0.0000
 H        4     1        2.2552        0.0000        0.0000
[GTO]
    1 0
s    5 1.00
     839.318300860000 -0.562888359825E-02
     126.264648430000 -0.418327946095E-01
      28.620600763000 -0.184174881258E+00
       7.879372271000 -0.468396550281E+00
       2.408885717200 -0.444579308833E+00
s    1 1.00
       0.251051090360  0.100000000000E+01
s    1 1.00
       0.083648866069  0.100000000000E+01
p    3 1.00
       6.033222361900 -0.540325003228E-01
       1.249915786600 -0.301940343932E+00
       0.338716763500 -0.771707916582E+00
p    1 1.00
       0.096415632351  0.100000000000E+01
d    1 1.00
       0.500000000000  0.100000000000E+01
 
    2 0
s    3 1.00
      13.010701000000  0.334854848130E-01
       1.962257200000  0.234721870881E+00
       0.444537960000  0.813770285260E+00
s    1 1.00
       0.121949620000  0.100000000000E+01
p    1 1.00
       0.800000000000  0.100000000000E+01
 
    3 0
s    3 1.00
      13.010701000000  0.334854848130E-01
       1.962257200000  0.234721870881E+00
       0.444537960000  0.813770285260E+00
s    1 1.00
       0.121949620000  0.100000000000E+01
p    1 1.00
       0.800000000000  0.100000000000E+01
 
    4 0
s    3 1.00
      13.010701000000  0.334854848130E-01
       1.962257200000  0.234721870881E+00
       0.444537960000  0.813770285260E+00
s    1 1.00
       0.121949620000  0.100000000000E+01
p    1 1.00
       0.800000000000  0.100000000000E+01
 
[MO]
Sym=     1a
Ene=   -0.763256E+01
Spin= Alpha
Occup= 1.999893
     1     0.990220
     2    -0.038333
     3     0.018044
     4     0.000352
     5    -0.000353
     6     0.000039
     7    -0.000089
     8     0.000068
     9     0.000031
    10     0.001369
    11     0.001434
    12     0.003454
    13    -0.000025
    14    -0.000003
    15     0.000003
    16     0.003167
    17    -0.002965
    18    -0.000451
    19     0.000779
    20     0.000018
    21     0.003050
    22    -0.002989
    23    -0.000477
    24    -0.000797
    25     0.000024
    26     0.002690
    27    -0.003176
    28     0.000927
    29    -0.000001
    30     0.000024
Sym=     2a
Ene=   -0.584579E+00
Spin= Alpha
Occup= 1.973255
     1    -0.132395
     2    -0.249180
     3    -0.056172
     4     0.340058
     5    -0.000819
     6    -0.000131
     7    -0.090282
     8    -0.000136
     9     0.000117
    10    -0.035505
    11     0.002603
    12    -0.004407
    13    -0.000168
    14     0.000009
    15    -0.000001
    16     0.027610
    17     0.036536
    18    -0.006100
    19     0.001324
    20     0.000012
    21     0.025905
    22     0.034868
    23    -0.006081
    24    -0.001378
    25     0.000008
    26    -0.425741
    27    -0.203728
    28     0.021728
    29     0.000044
    30    -0.000007
Sym=     3a
Ene=   -0.582563E+00
Spin= Alpha
Occup= 1.972140
     1     0.129546
     2     0.245148
     3     0.055077
     4     0.171759
     5     0.296694
     6     0.000040
     7    -0.045712
     8    -0.078564
     9     0.000013
    10     0.006545
    11     0.025696
    12     0.004364
    13     0.019220
    14    -0.000023
    15     0.000004
    16    -0.030035
    17    -0.037517
    18    -0.002026
    19    -0.005823
    20     0.000008
    21     0.426327
    22     0.204593
    23     0.010805
    24     0.018694
    25    -0.000009
    26    -0.030205
    27    -0.037137
    28    -0.004009
    29    -0.004637
    30     0.000002
Sym=     4a
Ene=   -0.584288E+00
Spin= Alpha
Occup= 1.968667
     1     0.130781
     2     0.249138
     3     0.057306
     4     0.172635
     5    -0.295030
     6    -0.000100
     7    -0.045591
     8     0.078022
     9     0.000005
    10     0.006562
    11     0.026145
    12     0.005302
    13    -0.019347
    14    -0.000005
    15     0.000007
    16     0.424999
    17     0.202535
    18     0.010877
    19    -0.018849
    20    -0.000008
    21    -0.026303
    22    -0.036134
    23    -0.001849
    24     0.005954
    25     0.000011
    26    -0.029183
    27    -0.037743
    28    -0.004125
    29     0.004575
    30     0.000011
Sym=     5a
Ene=   -0.842528E-02
Spin= Alpha
Occup= 0.009392
     1    -0.003144
     2    -0.014898
     3     0.001972
     4     0.016853
     5    -0.013838
     6     0.785139
     7    -0.000085
     8    -0.002304
     9    -0.051527
    10     0.003571
    11     0.003657
    12     0.004620
    13    -0.003087
    14     0.107845
    15    -0.191793
    16    -0.014336
    17    -0.000380
    18    -0.001945
    19     0.000917
    20    -0.315691
    21     0.000809
    22     0.001736
    23    -0.001790
    24    -0.000695
    25    -0.039790
    26     0.006201
    27     0.010606
    28     0.002788
    29    -0.000416
    30    -0.043747
Sym=     6a
Ene=   -0.171848E-01
Spin= Alpha
Occup= 0.017526
     1     0.314664
     2     1.432372
     3    -0.223715
     4     0.433234
     5     0.733843
     6     0.006191
     7    -0.034053
     8    -0.059450
     9     0.002717
    10    -0.223373
    11    -0.243448
    12    -0.300460
    13    -0.023768
    14    -0.000394
    15     0.000205
    16    -0.040779
    17     0.050514
    18    -0.027524
    19    -0.038481
    20     0.001142
    21    -0.949457
    22    -0.163849
    23     0.006254
    24     0.012727
    25     0.001162
    26    -0.031873
    27     0.054428
    28    -0.021143
    29    -0.048012
    30     0.001028
Sym=     7a
Ene=   -0.163482E-01
Spin= Alpha
Occup= 0.015983
     1    -0.301076
     2    -1.370235
     3     0.229817
     4     0.881495
     5     0.036541
     6    -0.015813
     7    -0.057206
     8    -0.002422
     9    -0.001276
    10     0.244551
    11     0.203816
    12     0.292718
    13    -0.004373
    14     0.001270
    15     0.000167
    16     0.039868
    17    -0.056152
    18    -0.050148
    19    -0.006815
    20     0.000531
    21    -0.000293
    22    -0.072612
    23    -0.051527
    24     0.008594
    25     0.000009
    26     0.967875
    27     0.133521
    28     0.002718
    29    -0.005361
    30     0.002247
Sym=     8a
Ene=   -0.252833E-03
Spin= Alpha
Occup= 0.000030
     1    -0.002608
     2     0.032520
     3    -0.064446
     4    -0.681023
     5    -0.586071
     6    -0.002496
     7    -0.164210
     8    -0.114594
     9     0.000081
    10     0.935852
    11    -0.732412
    12    -0.093407
    13    -1.038549
    14    -0.019744
    15     0.005175
    16    -0.333644
    17     0.085415
    18     0.550507
    19     0.569941
    20    -0.014264
    21     0.776712
    22    -0.000005
    23     0.530420
    24     0.581184
    25    -0.006140
    26    -0.658752
    27     0.015140
    28     0.698082
    29     0.600444
    30     0.013116
Sym=     9a
Ene=   -0.519137E-02
Spin= Alpha
Occup= 0.004650
     1    -0.148249
     2    -0.717521
     3     0.172861
     4    -0.087776
     5     0.169167
     6    -0.014233
     7    -0.133235
     8     0.243248
     9    -0.008064
    10     0.410808
    11     0.149314
    12     0.343272
    13     0.257378
    14     0.003641
    15    -0.003602
    16    -0.676814
    17     0.764905
    18    -0.196683
    19     0.334085
    20    -0.011221
    21    -0.205282
    22    -0.002259
    23    -0.071589
    24    -0.027875
    25    -0.003301
    26    -0.196892
    27    -0.011205
    28     0.054602
    29     0.051854
    30    -0.000874
Sym=    10a
Ene=   -0.555005E-02
Spin= Alpha
Occup= 0.005235
     1     0.157386
     2     0.768094
     3    -0.204951
     4     0.100798
     5     0.171373
     6     0.010008
     7     0.148786
     8     0.257235
     9     0.003580
    10    -0.429589
    11    -0.151527
    12    -0.364482
    13     0.264643
    14     0.001190
    15     0.002137
    16     0.204325
    17    -0.002523
    18     0.077588
    19    -0.024997
    20     0.001866
    21     0.663953
    22    -0.727462
    23     0.184833
    24     0.317210
    25    -0.001565
    26     0.204503
    27     0.005196
    28    -0.053826
    29     0.059385
    30     0.002465
Sym=    11a
Ene=   -0.536020E-02
Spin= Alpha
Occup= 0.004850
     1    -0.170916
     2    -0.832505
     3     0.214880
     4     0.210064
     5     0.002740
     6    -0.015845
     7     0.298617
     8     0.001879
     9    -0.005484
    10     0.057119
    11     0.583340
    12     0.389139
    13    -0.000811
    14     0.005306
    15    -0.003211
    16    -0.218798
    17     0.003653
    18     0.017894
    19     0.079559
    20    -0.004889
    21    -0.223509
    22     0.009897
    23     0.018847
    24    -0.080352
    25    -0.002363
    26    -0.662321
    27     0.722999
    28     0.367237
    29     0.001897
    30     0.005646
Sym=    12a
Ene=   -0.252451E-03
Spin= Alpha
Occup= 0.000030
     1     0.003486
     2    -0.047521
     3     0.089374
     4     0.616361
     5    -0.626546
     6    -0.002780
     7     0.127922
     8    -0.139226
     9    -0.000218
    10    -1.019531
    11     0.722647
    12     0.137177
    13    -0.992348
    14     0.037140
    15     0.057739
    16    -0.730171
    17    -0.022575
    18    -0.559949
    19     0.540166
    20    -0.028587
    21     0.326706
    22    -0.055024
    23    -0.529211
    24     0.643525
    25     0.052804
    26     0.721217
    27    -0.065170
    28    -0.667739
    29     0.563434
    30    -0.029025
Sym=    13a
Ene=   -0.155144E-01
Spin= Alpha
Occup= 0.015001
     1     0.279347
     2     1.269565
     3    -0.200078
     4     0.449292
     5    -0.783694
     6    -0.005258
     7    -0.033964
     8     0.050607
     9     0.003976
    10    -0.184798
    11    -0.207182
    12    -0.284783
    13     0.021019
    14    -0.001444
    15     0.001760
    16    -0.974361
    17    -0.137618
    18     0.002775
    19    -0.005541
    20     0.005706
    21     0.003055
    22     0.062724
    23    -0.034056
    24     0.038616
    25     0.001949
    26     0.002584
    27     0.064827
    28    -0.017361
    29     0.049515
    30     0.002182
Sym=    14a
Ene=   -0.565062E-03
Spin= Alpha
Occup= 0.000345
     1     0.005136
     2     0.127755
     3    -0.523498
     4     0.621109
     5    -0.570203
     6     0.032640
     7     0.610451
     8    -0.481978
     9     0.011622
    10     0.530574
    11     0.241567
    12    -0.536592
    13     0.043532
    14    -0.010053
    15     0.006541
    16    -0.280946
    17     0.357859
    18    -0.326772
    19     0.719769
    20     0.019469
    21    -0.306699
    22     0.335545
    23     0.158242
    24    -0.058705
    25     0.020559
    26    -0.443647
    27     0.301745
    28    -0.380882
    29    -0.091792
    30     0.030062
Sym=    15a
Ene=   -0.361580E-02
Spin= Alpha
Occup= 0.002966
     1     0.012937
     2     0.061706
     3    -0.015718
     4    -0.014979
     5    -0.005691
     6    -0.147920
     7    -0.009719
     8    -0.004086
     9     0.023688
    10    -0.018427
    11    -0.030398
    12    -0.024324
    13    -0.006502
    14     0.532778
    15    -0.134455
    16     0.006661
    17     0.000003
    18     0.000698
    19    -0.003812
    20    -0.200491
    21     0.014272
    22    -0.005209
    23     0.000871
    24     0.004252
    25    -0.041483
    26     0.000194
    27     0.000811
    28     0.001158
    29    -0.005808
    30     0.560965
Sym=    16a
Ene=   -0.204543E-04
Spin= Alpha
Occup= 0.000003
     1    -0.007604
     2    -0.029343
     3    -0.081082
     4    -0.221322
     5     0.119978
     6     0.024612
     7     2.503540
     8    -1.388559
     9     0.051395
    10     0.306345
    11    -0.289926
    12     0.042285
    13     0.213589
    14     0.003161
    15     0.000546
    16    -0.057031
    17     2.753735
    18     0.076861
    19    -0.455181
    20    -0.006668
    21    -0.009574
    22     0.091556
    23    -0.248761
    24     0.157174
    25    -0.005097
    26     0.083823
    27    -2.770757
    28     0.437077
    29     0.126467
    30    -0.008692
Sym=    17a
Ene=   -0.103388E-02
Spin= Alpha
Occup= 0.000662
     1     0.166708
     2     0.791007
     3    -0.087144
     4    -0.034006
     5    -0.007648
     6     0.800862
     7    -0.054746
     8     0.025230
     9     0.363547
    10    -0.399952
    11    -0.367747
    12    -0.319501
    13    -0.034938
    14    -0.008578
    15     0.043155
    16    -0.001293
    17     0.042244
    18    -0.012227
    19     0.024204
    20     0.606066
    21     0.072512
    22     0.012712
    23    -0.029746
    24    -0.009389
    25     0.450186
    26     0.046699
    27     0.063557
    28     0.065248
    29    -0.020167
    30     0.437984
Sym=    18a
Ene=   -0.366997E-02
Spin= Alpha
Occup= 0.003119
     1     0.000550
     2     0.002215
     3     0.003779
     4    -0.002450
     5     0.000707
     6    -0.142768
     7    -0.000898
     8     0.001185
     9     0.028742
    10    -0.000295
    11     0.001019
    12    -0.001326
    13    -0.000783
    14    -0.155970
    15    -0.522833
    16     0.004319
    17    -0.006660
    18     0.001775
    19    -0.002390
    20    -0.192053
    21     0.005821
    22    -0.007609
    23     0.001760
    24     0.002811
    25     0.568411
    26     0.001093
    27    -0.003587
    28    -0.002247
    29    -0.000081
    30    -0.044148
Sym=    19a
Ene=   -0.206193E-02
Spin= Alpha
Occup= 0.001341
     1     0.152706
     2     0.725942
     3    -0.164711
     4     0.040191
     5     0.699762
     6    -0.006707
     7     0.022544
     8     0.254750
     9    -0.002367
    10    -0.355093
    11    -0.327539
    12    -0.293955
    13     0.633092
    14     0.004356
    15    -0.000354
    16     0.832635
    17    -0.612110
    18     0.004054
    19    -0.299457
    20    -0.008139
    21    -0.810424
    22     0.782289
    23    -0.026316
    24    -0.378471
    25    -0.001977
    26     0.064661
    27     0.035915
    28     0.008882
    29     0.665912
    30    -0.002463
Sym=    20a
Ene=   -0.117313E-03
Spin= Alpha
Occup= 0.000014
     1     0.121833
     2    -0.331333
     3     0.127225
     4    -0.073055
     5     0.009390
     6    -0.004123
     7     0.003269
     8     0.024388
     9    -0.008854
    10    -0.989323
    11    -1.074386
    12    -0.369326
    13     0.010129
    14    -0.001150
    15    -0.002948
    16     0.329320
    17     0.485127
    18     0.440675
    19    -0.738099
    20     0.003377
    21     0.312027
    22     0.523577
    23     0.447896
    24     0.734509
    25    -0.001453
    26     0.287885
    27     0.423344
    28    -0.757422
    29    -0.011578
    30     0.002141
Sym=    21a
Ene=   -0.197705E-02
Spin= Alpha
Occup= 0.001300
     1     0.006054
     2     0.028988
     3    -0.023433
     4    -0.616714
     5    -0.334237
     6    -0.001813
     7    -0.232334
     8    -0.105612
     9    -0.001127
    10     0.455393
    11    -0.470960
    12    -0.022764
    13    -0.317022
    14    -0.002524
    15     0.000975
    16    -0.005444
    17     0.002496
    18    -0.595830
    19    -0.360434
    20     0.000832
    21     0.806753
    22    -0.668441
    23     0.298509
    24     0.172481
    25    -0.000333
    26    -0.814525
    27     0.705058
    28     0.316814
    29     0.179452
    30    -0.001991
Sym=    22a
Ene=   -0.205860E-02
Spin= Alpha
Occup= 0.001406
     1    -0.014266
     2    -0.069110
     3     0.029202
     4     0.640609
     5    -0.359476
     6     0.006710
     7     0.259261
     8    -0.148531
     9     0.004246
    10    -0.467068
    11     0.514631
    12     0.038222
    13    -0.321209
    14     0.002035
    15     0.000028
    16    -0.828561
    17     0.712837
    18    -0.283130
    19     0.190972
    20     0.004028
    21    -0.004136
    22    -0.008161
    23     0.585635
    24    -0.340881
    25     0.003334
    26     0.859510
    27    -0.760707
    28    -0.329449
    29     0.149992
    30     0.003966
Sym=    23a
Ene=   -0.285708E-02
Spin= Alpha
Occup= 0.001289
     1    -0.717113
     2    -3.408512
     3     0.694265
     4    -0.036786
     5     0.147702
     6     0.198406
     7    -0.062441
     8     0.055877
     9     0.104986
    10     1.630167
    11     1.620735
    12     1.341414
    13     0.137756
    14    -0.003290
    15     0.016231
    16    -0.001884
    17    -0.425323
    18     0.065381
    19    -0.184346
    20     0.131160
    21    -0.343724
    22    -0.137953
    23     0.051492
    24     0.055724
    25     0.102950
    26    -0.190732
    27    -0.215701
    28    -0.116672
    29     0.135148
    30     0.114024
Sym=    24a
Ene=   -0.214168E-03
Spin= Alpha
Occup= 0.000026
     1    -0.001774
     2    -0.005328
     3    -0.004764
     4     0.029901
     5    -0.047031
     6    -0.015487
     7     0.002339
     8    -0.012810
     9    -0.006184
    10    -0.058985
    11     0.079675
    12    -0.002720
    13    -0.061623
    14    -0.354509
    15    -0.911579
    16    -0.061362
    17     0.004365
    18    -0.050623
    19     0.037856
    20     0.486575
    21     0.000677
    22     0.011596
    23    -0.040336
    24     0.047682
    25    -0.784276
    26     0.045702
    27    -0.009392
    28    -0.028380
    29     0.036526
    30     0.262997
Sym=    25a
Ene=   -0.574325E-03
Spin= Alpha
Occup= 0.000329
     1     0.006138
     2     0.080038
     3    -0.108927
     4    -0.594761
     5    -0.665539
     6    -0.011594
     7    -0.586822
     8    -0.574426
     9    -0.002033
    10    -0.113235
    11     0.293320
    12    -0.115751
    13     0.227488
    14     0.033024
    15     0.007264
    16    -0.029770
    17    -0.000927
    18    -0.373693
    19     0.114212
    20    -0.002714
    21    -0.262660
    22     0.097301
    23     0.277877
    24     0.596676
    25     0.010571
    26     0.059856
    27     0.061228
    28     0.537754
    29    -0.206081
    30    -0.036788
Sym=    26a
Ene=   -0.412039E-03
Spin= Alpha
Occup= 0.000230
     1     0.007219
     2     0.022934
     3     0.042301
     4     0.002222
     5    -0.029515
     6     0.029156
     7     0.000851
     8    -0.021224
     9     0.004026
    10    -0.074563
    11    -0.032791
    12     0.032574
    13     0.017585
    14    -0.912923
    15     0.342883
    16     0.034999
    17    -0.030476
    18    -0.023467
    19    -0.003031
    20    -0.586615
    21     0.017222
    22    -0.014607
    23     0.009573
    24     0.029349
    25    -0.094209
    26     0.049628
    27    -0.036583
    28    -0.015122
    29    -0.015919
    30     0.758618
Sym=    27a
Ene=   -0.505537E-03
Spin= Alpha
Occup= 0.000315
     1    -0.004187
     2    -0.230398
     3     0.836058
     4     0.117948
     5    -0.400950
     6     0.017790
     7     0.181690
     8    -0.362330
     9     0.010661
    10    -0.361319
    11    -0.983348
    12     0.858878
    13     0.112759
    14     0.037210
    15    -0.029687
    16     0.742119
    17    -0.550577
    18     0.086372
    19     0.124941
    20     0.048212
    21     0.655357
    22    -0.563977
    23     0.452694
    24     0.295873
    25     0.001763
    26     0.342581
    27    -0.430455
    28    -0.330368
    29    -0.096343
    30    -0.020501
Sym=    28a
Ene=   -0.322279E-04
Spin= Alpha
Occup= 0.000005
     1     0.011635
     2     0.045954
     3     0.126252
     4     0.012223
     5    -0.004458
     6     0.389833
     7    -0.098429
     8     0.055553
     9     1.148116
    10    -0.038668
    11    -0.015306
    12    -0.040577
    13    -0.009107
    14     0.001821
    15    -0.013864
    16     0.005821
    17    -0.153381
    18    -0.004619
    19     0.021988
    20    -0.324617
    21     0.008169
    22    -0.053721
    23     0.007240
    24    -0.010738
    25    -0.290702
    26    -0.000670
    27     0.069678
    28    -0.018309
    29    -0.008379
    30    -0.282252
Sym=    29a
Ene=    0.000000E+00
Spin= Alpha
Occup= 0.000000
     1    -0.022681
     2    -0.065355
     3    -1.347752
     4    -0.106759
     5    -0.197491
     6     0.004769
     7     1.341780
     8     2.463619
     9     0.007851
    10     0.182268
    11    -0.156532
    12     0.189627
    13    -0.347758
    14     0.004199
    15     0.000101
    16     0.012665
    17    -1.069630
    18    -0.300635
    19     0.062531
    20     0.001106
    21    -0.117688
    22     3.672713
    23     0.267782
    24     0.443802
    25     0.001408
    26     0.008337
    27    -0.937517
    28     0.186722
    29    -0.243674
    30    -0.003293
Sym=    30a
Ene=    0.000000E+00
Spin= Alpha
Occup= 0.000000
     1     0.074997
     2     0.219408
     3     5.772469
     4    -0.020928
     5    -0.044029
     6    -0.017548
     7     0.367672
     8     0.555437
     9    -0.029221
    10     0.037065
    11    -0.031464
    12    -0.691653
    13    -0.079721
    14     0.002440
    15     0.000429
    16     0.154796
    17    -2.759462
    18    -0.189436
    19     0.200254
    20     0.000523
    21     0.124639
    22    -1.689409
    23    -0.059531
    24    -0.081907
    25     0.001724
    26     0.164686
    27    -2.830834
    28     0.261077
    29    -0.051861
    30    -0.000210
