[Molden Format]
p30-5 set                                                                       
[Atoms] AU
 SI       1    14        0.0000        0.0000        0.0000
 H        2     1        1.6177        1.6177       -1.6177
 H        3     1       -1.6177       -1.6177       -1.6177
 H        4     1        1.6177       -1.6177        1.6177
 H        5     1       -1.6177        1.6177        1.6177
[GTO]
    1 0
s    5 1.00
    6903.711868600000  0.558446588743E-02
    1038.434641900000  0.417422844355E-01
     235.875814800000  0.187528023742E+00
      66.069385169000  0.478678596587E+00
      20.247945761000  0.429256952162E+00
s    3 1.00
      34.353481730000  0.898348994648E-01
       3.637078819200 -0.545685958777E+00
       1.400204859900 -0.524810829267E+00
s    1 1.00
       0.204844148050  0.100000000000E+01
s    1 1.00
       0.077994095468  0.100000000000E+01
p    5 1.00
     179.839073730000  0.101334983789E-01
      41.907258846000  0.710290410957E-01
      12.955294367000  0.255839142169E+00
       4.438326739300  0.481498047149E+00
       1.546224790400  0.385211960064E+00
p    1 1.00
       0.356076123020  0.100000000000E+01
p    1 1.00
       0.100085137620  0.100000000000E+01
d    1 1.00
       0.350000000000  0.100000000000E+01
 
    2 0
s    3 1.00
      13.010701000000  0.334854848130E-01
       1.962257200000  0.234721870881E+00
       0.444537960000  0.813770285260E+00
s    1 1.00
       0.121949620000  0.100000000000E+01
p    1 1.00
       0.800000000000  0.100000000000E+01
 
    3 0
s    3 1.00
      13.010701000000  0.334854848130E-01
       1.962257200000  0.234721870881E+00
       0.444537960000  0.813770285260E+00
s    1 1.00
       0.121949620000  0.100000000000E+01
p    1 1.00
       0.800000000000  0.100000000000E+01
 
    4 0
s    3 1.00
      13.010701000000  0.334854848130E-01
       1.962257200000  0.234721870881E+00
       0.444537960000  0.813770285260E+00
s    1 1.00
       0.121949620000  0.100000000000E+01
p    1 1.00
       0.800000000000  0.100000000000E+01
 
    5 0
s    3 1.00
      13.010701000000  0.334854848130E-01
       1.962257200000  0.234721870881E+00
       0.444537960000  0.813770285260E+00
s    1 1.00
       0.121949620000  0.100000000000E+01
p    1 1.00
       0.800000000000  0.100000000000E+01
 
[MO]
Sym=     1a
Ene=   -0.687809E+02
Spin= Alpha
Occup= 1.999999
     1     0.994749
     2    -0.025197
     3    -0.029485
     4    -0.000621
     5    -0.000003
     6    -0.000004
     7     0.000005
     8    -0.000004
     9    -0.000001
    10     0.000001
    11     0.000001
    12     0.000001
    13    -0.000001
    14     0.010518
    15     0.010519
    16     0.010518
    17    -0.000000
    18     0.000000
    19     0.000001
    20    -0.000249
    21     0.000694
    22     0.000066
    23     0.000066
    24    -0.000067
    25    -0.000253
    26     0.000696
    27    -0.000066
    28    -0.000067
    29    -0.000067
    30    -0.000252
    31     0.000698
    32     0.000068
    33    -0.000066
    34     0.000066
    35    -0.000254
    36     0.000697
    37    -0.000066
    38     0.000067
    39     0.000067
Sym=     2a
Ene=   -0.613248E+01
Spin= Alpha
Occup= 1.999809
     1    -0.292300
     2    -1.021416
     3     0.045670
     4    -0.020835
     5     0.000359
     6    -0.000637
     7    -0.005005
     8     0.000081
     9    -0.000031
    10    -0.000238
    11     0.000003
    12    -0.000011
    13     0.000048
    14    -0.002909
    15    -0.002918
    16    -0.002914
    17     0.000013
    18    -0.000002
    19    -0.000018
    20    -0.001658
    21     0.003266
    22    -0.000349
    23    -0.000360
    24     0.000362
    25    -0.001636
    26     0.003229
    27     0.000359
    28     0.000360
    29     0.000367
    30    -0.001582
    31     0.003228
    32    -0.000381
    33     0.000360
    34    -0.000358
    35    -0.001611
    36     0.003214
    37     0.000359
    38    -0.000369
    39    -0.000362
Sym=     3a
Ene=   -0.424306E+01
Spin= Alpha
Occup= 1.999606
     1     0.000364
     2     0.001300
     3     0.000133
     4    -0.000018
     5     0.972047
     6    -0.051613
     7    -0.148173
     8     0.046763
     9    -0.002500
    10    -0.007101
    11    -0.006078
    12     0.000294
    13     0.000946
    14    -0.000052
    15    -0.000002
    16    -0.000007
    17     0.000286
    18     0.000113
    19    -0.001904
    20    -0.001969
    21     0.001360
    22     0.000051
    23     0.000130
    24    -0.000108
    25     0.001464
    26    -0.000956
    27    -0.000006
    28     0.000108
    29     0.000095
    30    -0.001555
    31     0.001167
    32    -0.000007
    33    -0.000103
    34     0.000121
    35     0.002216
    36    -0.001471
    37     0.000037
    38    -0.000125
    39    -0.000133
Sym=     4a
Ene=   -0.424303E+01
Spin= Alpha
Occup= 1.999594
     1     0.000442
     2     0.001552
     3     0.000039
     4     0.000015
     5    -0.013172
     6     0.899591
     7    -0.399973
     8    -0.000659
     9     0.043339
    10    -0.019305
    11     0.000043
    12    -0.005621
    13     0.002469
    14     0.000032
    15    -0.000021
    16    -0.000016
    17     0.000804
    18    -0.001774
    19     0.000029
    20    -0.002314
    21     0.001661
    22     0.000154
    23     0.000067
    24    -0.000127
    25     0.000947
    26    -0.000586
    27     0.000072
    28    -0.000029
    29     0.000104
    30     0.002407
    31    -0.001745
    32    -0.000134
    33     0.000075
    34    -0.000133
    35    -0.000900
    36     0.000697
    37    -0.000052
    38    -0.000030
    39     0.000105
Sym=     5a
Ene=   -0.424273E+01
Spin= Alpha
Occup= 1.999482
     1    -0.001400
     2    -0.004887
     3     0.000208
     4    -0.000100
     5     0.156332
     6     0.396889
     7     0.887391
     8     0.007541
     9     0.019078
    10     0.042746
    11    -0.000966
    12    -0.002499
    13    -0.005509
    14    -0.000031
    15    -0.000021
    16     0.000003
    17    -0.001795
    18    -0.000786
    19    -0.000306
    20     0.000592
    21    -0.000425
    22    -0.000054
    23    -0.000083
    24    -0.000050
    25     0.002645
    26    -0.001865
    27     0.000156
    28     0.000137
    29     0.000094
    30    -0.001184
    31     0.000884
    32     0.000051
    33    -0.000114
    34    -0.000004
    35    -0.002115
    36     0.001470
    37    -0.000154
    38     0.000094
    39     0.000057
Sym=     6a
Ene=   -0.563658E+00
Spin= Alpha
Occup= 1.971310
     1     0.030184
     2     0.184071
     3     0.277500
     4     0.049435
     5    -0.083568
     6    -0.085155
     7     0.085317
     8     0.145422
     9     0.147933
    10    -0.148183
    11     0.094215
    12     0.096052
    13    -0.096114
    14     0.008239
    15     0.008539
    16     0.008616
    17     0.038651
    18    -0.038635
    19    -0.037880
    20     0.431479
    21     0.233478
    22    -0.012420
    23    -0.012414
    24     0.012405
    25    -0.027491
    26    -0.035469
    27     0.003201
    28     0.003226
    29    -0.001708
    30    -0.032152
    31    -0.037920
    32     0.001788
    33     0.003070
    34    -0.003070
    35    -0.027895
    36    -0.035661
    37     0.003197
    38     0.001712
    39    -0.003211
Sym=     7a
Ene=   -0.561474E+00
Spin= Alpha
Occup= 1.971169
     1    -0.029765
     2    -0.181476
     3    -0.273662
     4    -0.048669
     5     0.084619
     6    -0.085411
     7     0.085409
     8    -0.146841
     9     0.148543
    10    -0.148487
    11    -0.094959
    12     0.095727
    13    -0.095594
    14    -0.009134
    15    -0.007987
    16    -0.007919
    17     0.038667
    18    -0.038758
    19     0.038538
    20     0.032468
    21     0.038450
    22    -0.001907
    23     0.003111
    24    -0.003108
    25     0.030360
    26     0.036881
    27    -0.003081
    28     0.001779
    29    -0.003185
    30    -0.432334
    31    -0.234432
    32     0.012467
    33    -0.012324
    34     0.012313
    35     0.030502
    36     0.037011
    37    -0.003076
    38     0.003169
    39    -0.001769
Sym=     8a
Ene=   -0.559314E+00
Spin= Alpha
Occup= 1.970120
     1     0.029134
     2     0.177704
     3     0.268134
     4     0.047262
     5     0.086259
     6    -0.084703
     7    -0.085717
     8    -0.150335
     9     0.147136
    10     0.149238
    11    -0.097018
    12     0.094866
    13     0.096396
    14     0.007828
    15     0.008541
    16     0.008044
    17    -0.038922
    18    -0.038655
    19     0.039128
    20    -0.035835
    21    -0.039609
    22    -0.003000
    23     0.001970
    24     0.002889
    25    -0.031362
    26    -0.037559
    27    -0.001876
    28     0.003044
    29     0.003117
    30    -0.032987
    31    -0.038099
    32    -0.003071
    33     0.002919
    34     0.001836
    35     0.432819
    36     0.235619
    37     0.012319
    38    -0.012458
    39    -0.012354
Sym=     9a
Ene=   -0.559217E+00
Spin= Alpha
Occup= 1.970089
     1    -0.029111
     2    -0.177573
     3    -0.267944
     4    -0.047214
     5    -0.086416
     6    -0.085667
     7    -0.084700
     8     0.150562
     9     0.149181
    10     0.147078
    11     0.097280
    12     0.096493
    13     0.094739
    14    -0.007870
    15    -0.008023
    16    -0.008496
    17    -0.038577
    18    -0.038956
    19    -0.039180
    20     0.036096
    21     0.039726
    22     0.002992
    23     0.002875
    24     0.001984
    25    -0.432798
    26    -0.235597
    27    -0.012320
    28    -0.012360
    29    -0.012445
    30     0.033205
    31     0.038121
    32     0.003062
    33     0.001844
    34     0.002913
    35     0.031124
    36     0.037428
    37     0.001877
    38     0.003129
    39     0.003040
Sym=    10a
Ene=   -0.300989E-02
Spin= Alpha
Occup= 0.001340
     1     0.001385
     2     0.016431
     3     0.053489
     4     0.003814
     5     0.019070
     6    -0.025912
     7     0.005710
     8    -0.080123
     9     0.108760
    10    -0.023773
    11     0.065028
    12    -0.087923
    13     0.019006
    14    -0.555362
    15     0.636867
    16    -0.157371
    17     0.026357
    18    -0.099030
    19     0.075679
    20    -0.003842
    21     0.001057
    22    -0.077915
    23     0.057756
    24    -0.019722
    25     0.007335
    26    -0.005667
    27     0.274551
    28    -0.366582
    29     0.096533
    30     0.050757
    31    -0.024869
    32    -0.063638
    33     0.001622
    34     0.059665
    35    -0.032247
    36     0.021768
    37     0.013255
    38     0.111334
    39    -0.087932
Sym=    11a
Ene=   -0.298927E-02
Spin= Alpha
Occup= 0.001324
     1     0.001020
     2     0.012154
     3     0.038834
     4     0.004094
     5     0.017451
     6    -0.008494
     7     0.026176
     8    -0.073246
     9     0.035849
    10    -0.109740
    11     0.060092
    12    -0.028363
    13     0.086817
    14    -0.513524
    15    -0.198867
    16     0.656345
    17     0.104806
    18    -0.036584
    19     0.066587
    20    -0.017688
    21     0.010556
    22    -0.072385
    23     0.018771
    24    -0.059160
    25    -0.030091
    26     0.018563
    27     0.010145
    28     0.096291
    29    -0.113397
    30     0.052221
    31    -0.026474
    32    -0.060899
    33    -0.056844
    34    -0.003336
    35     0.008948
    36    -0.006883
    37     0.256126
    38    -0.122303
    39     0.376472
Sym=    12a
Ene=   -0.159137E-02
Spin= Alpha
Occup= 0.000640
     1    -0.000045
     2    -0.000535
     3    -0.002345
     4    -0.000174
     5     0.000834
     6     0.035350
     7     0.032935
     8    -0.003697
     9    -0.159896
    10    -0.148277
    11     0.002278
    12     0.048997
    13     0.046932
    14     0.008599
    15    -0.236277
    16     0.231391
    17     0.212514
    18     0.228856
    19     0.001961
    20     0.016755
    21    -0.015184
    22    -0.008563
    23    -0.005760
    24     0.001540
    25    -0.317208
    26     0.243753
    27     0.133244
    28    -0.332112
    29    -0.056355
    30    -0.013530
    31     0.010352
    32     0.014650
    33     0.528369
    34     0.527556
    35     0.308864
    36    -0.235113
    37    -0.134071
    38    -0.048079
    39    -0.331404
Sym=    13a
Ene=   -0.140755E-02
Spin= Alpha
Occup= 0.000547
     1     0.000098
     2     0.001148
     3     0.003671
     4    -0.000663
     5    -0.001958
     6     0.053869
     7     0.052172
     8     0.009140
     9    -0.247082
    10    -0.239598
    11    -0.001483
    12     0.065511
    13     0.062694
    14     0.000908
    15     0.118026
    16    -0.123377
    17     0.336289
    18     0.347850
    19    -0.015465
    20    -0.006000
    21     0.006019
    22    -0.028705
    23     0.537343
    24     0.501783
    25    -0.526895
    26     0.420991
    27    -0.139291
    28     0.004328
    29    -0.323054
    30    -0.015448
    31     0.009839
    32     0.024766
    33    -0.016707
    34    -0.027973
    35     0.547898
    36    -0.434947
    37     0.139609
    38    -0.350944
    39     0.016459
Sym=    14a
Ene=   -0.244952E-03
Spin= Alpha
Occup= 0.000025
     1    -0.000072
     2    -0.000896
     3    -0.002530
     4    -0.000642
     5    -0.005402
     6    -0.009420
     7    -0.014824
     8     0.031641
     9     0.051953
    10     0.087263
    11    -0.019314
    12    -0.022899
    13    -0.034494
    14    -0.215198
    15    -0.568662
    16     0.787980
    17    -0.130043
    18    -0.058206
    19    -0.035537
    20     0.013070
    21    -0.000700
    22     0.140626
    23     0.291666
    24     0.447917
    25     0.050780
    26     0.017231
    27    -0.065962
    28    -0.250870
    29     0.531085
    30    -0.021557
    31    -0.010878
    32     0.150312
    33    -0.264371
    34    -0.323989
    35    -0.041750
    36    -0.006565
    37    -0.113225
    38     0.363506
    39    -0.339572
Sym=    15a
Ene=   -0.246168E-03
Spin= Alpha
Occup= 0.000025
     1     0.000118
     2     0.001647
     3     0.004172
     4     0.004446
     5     0.015510
     6     0.068442
     7     0.098824
     8    -0.089614
     9    -0.388109
    10    -0.564947
    11     0.056249
    12     0.198158
    13     0.306811
    14     0.209807
    15    -0.296099
    16     0.076610
    17     0.672941
    18     0.473144
    19     0.097548
    20    -0.009143
    21    -0.021258
    22    -0.172596
    23    -0.039842
    24    -0.314589
    25    -0.215530
    26    -0.145743
    27    -0.103257
    28    -0.565354
    29    -0.548280
    30     0.032687
    31     0.050323
    32    -0.218598
    33    -0.307747
    34    -0.399538
    35     0.193044
    36     0.114485
    37     0.196682
    38    -0.276365
    39    -0.537001
Sym=    16a
Ene=   -0.254881E-03
Spin= Alpha
Occup= 0.000027
     1    -0.000055
     2    -0.000792
     3    -0.002096
     4    -0.009008
     5     0.032366
     6    -0.043523
     7    -0.025278
     8    -0.189201
     9     0.248546
    10     0.143362
    11     0.108290
    12    -0.130190
    13    -0.070855
    14     0.678893
    15    -0.477930
    16    -0.195329
    17    -0.182463
    18    -0.296031
    19     0.226440
    20     0.015904
    21     0.017599
    22    -0.514594
    23     0.383097
    24    -0.030862
    25     0.057891
    26     0.019235
    27     0.266909
    28    -0.069023
    29     0.035576
    30     0.043666
    31     0.058086
    32    -0.557100
    33    -0.064014
    34     0.141164
    35    -0.124646
    36    -0.079446
    37     0.141208
    38     0.542055
    39     0.290196
Sym=    17a
Ene=   -0.189465E-03
Spin= Alpha
Occup= 0.000015
     1    -0.000416
     2    -0.006325
     3    -0.018579
     4    -0.018697
     5     0.063378
     6     0.077679
     7    -0.059198
     8    -0.369869
     9    -0.452100
    10     0.346116
    11     0.222288
    12     0.265901
    13    -0.213579
    14     0.012874
    15     0.023892
    16     0.009940
    17    -0.392772
    18     0.530126
    19     0.427382
    20     0.154474
    21     0.229037
    22    -0.429023
    23    -0.502169
    24     0.435038
    25    -0.086011
    26    -0.076797
    27    -0.358622
    28    -0.386271
    29     0.168861
    30    -0.064231
    31    -0.077453
    32    -0.175138
    33    -0.371193
    34     0.317735
    35    -0.031414
    36    -0.049934
    37    -0.326689
    38    -0.287684
    39     0.283739
Sym=    18a
Ene=   -0.620219E-05
Spin= Alpha
Occup= 0.000000
     1    -0.000026
     2    -0.000374
     3    -0.001061
     4     0.000648
     5     0.000725
     6     0.013964
     7     0.014108
     8    -0.006729
     9    -0.111860
    10    -0.109332
    11     0.126669
    12     1.694589
    13     1.590017
    14     0.000856
    15     0.006493
    16    -0.005149
    17    -0.405071
    18    -0.425859
    19    -0.030776
    20     0.016037
    21    -0.147094
    22     0.014584
    23    -0.132997
    24    -0.175613
    25    -0.145844
    26     2.050226
    27     0.333085
    28     0.204587
    29     0.227283
    30    -0.000862
    31    -0.012016
    32    -0.008906
    33    -0.150579
    34    -0.138478
    35     0.131170
    36    -1.893439
    37    -0.326950
    38     0.186854
    39     0.191062
Sym=    19a
Ene=   -0.227664E-01
Spin= Alpha
Occup= 0.022819
     1    -0.051530
     2    -0.434680
     3    -1.280887
     4     0.136939
     5    -0.169907
     6    -0.169096
     7    -0.171601
     8     0.541604
     9     0.538329
    10     0.547351
    11     0.050821
    12     0.053654
    13     0.050479
    14     0.283782
    15     0.282222
    16     0.278696
    17    -0.048206
    18    -0.045502
    19    -0.047107
    20     0.012400
    21    -0.033730
    22     0.026204
    23     0.025464
    24     0.017046
    25     0.855262
    26     0.107232
    27     0.031246
    28     0.031467
    29     0.031781
    30     0.010838
    31    -0.037524
    32     0.025539
    33     0.015475
    34     0.026402
    35     0.009902
    36    -0.035708
    37     0.015804
    38     0.025993
    39     0.026256
Sym=    20a
Ene=   -0.227691E-01
Spin= Alpha
Occup= 0.022813
     1    -0.051577
     2    -0.435117
     3    -1.282242
     4     0.137107
     5    -0.170166
     6     0.171460
     7     0.169134
     8     0.542683
     9    -0.546879
    10    -0.538600
    11     0.049907
    12    -0.050888
    13    -0.052581
    14     0.284752
    15     0.278489
    16     0.282661
    17     0.045084
    18     0.048562
    19    -0.047606
    20     0.013031
    21    -0.033735
    22     0.025960
    23    -0.016802
    24    -0.025575
    25     0.010085
    26    -0.035232
    27     0.015882
    28    -0.026713
    29    -0.025610
    30     0.010627
    31    -0.037925
    32     0.025895
    33    -0.026315
    34    -0.015518
    35     0.855030
    36     0.107152
    37     0.031355
    38    -0.032397
    39    -0.031062
Sym=    21a
Ene=   -0.228207E-01
Spin= Alpha
Occup= 0.022618
     1    -0.052094
     2    -0.440890
     3    -1.303168
     4     0.143350
     5     0.170443
     6    -0.170896
     7     0.170911
     8    -0.544148
     9     0.545459
    10    -0.545466
    11    -0.048211
    12     0.048573
    13    -0.048295
    14     0.283356
    15     0.293418
    16     0.293850
    17     0.047245
    18    -0.047832
    19     0.047320
    20     0.008101
    21    -0.036205
    22    -0.016540
    23     0.026550
    24    -0.026377
    25     0.009185
    26    -0.035595
    27    -0.026606
    28     0.015961
    29    -0.026882
    30     0.850911
    31     0.107155
    32    -0.033736
    33     0.032097
    34    -0.031581
    35     0.008797
    36    -0.035703
    37    -0.026685
    38     0.026935
    39    -0.015738
Sym=    22a
Ene=   -0.227378E-01
Spin= Alpha
Occup= 0.022428
     1    -0.051914
     2    -0.440202
     3    -1.302996
     4     0.146502
     5     0.171217
     6     0.170326
     7    -0.170507
     8    -0.545673
     9    -0.543274
    10     0.544024
    11    -0.052749
    12    -0.050205
    13     0.049103
    14     0.294288
    15     0.291464
    16     0.291058
    17    -0.045566
    18     0.046129
    19     0.044753
    20     0.852315
    21     0.102672
    22    -0.033233
    23    -0.033155
    24     0.033026
    25     0.002285
    26    -0.035754
    27    -0.027300
    28    -0.026657
    29     0.016124
    30     0.006928
    31    -0.035759
    32    -0.016922
    33    -0.027060
    34     0.026893
    35     0.002784
    36    -0.035451
    37    -0.027616
    38    -0.016099
    39     0.026596
Sym=    23a
Ene=   -0.182095E-02
Spin= Alpha
Occup= 0.000356
     1    -0.070173
     2    -0.848403
     3    -2.543738
     4    -0.514415
     5    -0.005164
     6    -0.002420
     7     0.003144
     8     0.021770
     9     0.011118
    10    -0.014722
    11    -0.008168
    12    -0.003604
    13     0.005446
    14     1.213827
    15     1.232708
    16     1.232009
    17     0.008609
    18    -0.008464
    19    -0.025873
    20    -0.029890
    21    -0.035046
    22    -0.165441
    23    -0.168519
    24     0.170839
    25     0.019629
    26    -0.070641
    27     0.180567
    28     0.182226
    29     0.187857
    30     0.009617
    31    -0.070871
    32    -0.209226
    33     0.177270
    34    -0.174241
    35     0.020309
    36    -0.071296
    37     0.180201
    38    -0.192727
    39    -0.185619
Sym=    24a
Ene=   -0.960132E-03
Spin= Alpha
Occup= 0.000193
     1    -0.001060
     2    -0.012405
     3    -0.034736
     4    -0.008312
     5     0.129768
     6     0.007101
     7    -0.002134
     8    -0.620744
     9    -0.032438
    10     0.008722
    11     0.081856
    12    -0.004326
    13     0.003722
    14     0.084885
    15    -0.016018
    16    -0.030483
    17    -0.036866
    18     0.077767
    19     0.860401
    20     0.627773
    21    -0.374104
    22    -0.045914
    23    -0.341805
    24     0.341295
    25    -0.587796
    26     0.362776
    27    -0.064775
    28    -0.297603
    29    -0.311700
    30     0.519932
    31    -0.333837
    32     0.010651
    33     0.340163
    34    -0.343176
    35    -0.531279
    36     0.327123
    37    -0.005769
    38     0.313712
    39     0.298793
Sym=    25a
Ene=   -0.994119E-03
Spin= Alpha
Occup= 0.000209
     1    -0.000099
     2    -0.001117
     3    -0.000690
     4     0.000670
     5    -0.009152
     6     0.099701
     7    -0.062003
     8     0.044587
     9    -0.477927
    10     0.296716
    11    -0.021419
    12     0.066580
    13    -0.050619
    14    -0.133348
    15     0.096405
    16     0.030654
    17    -0.379302
    18     0.646995
    19    -0.004583
    20     0.681619
    21    -0.424311
    22    -0.283574
    23    -0.324859
    24     0.202513
    25    -0.155953
    26     0.087552
    27    -0.192201
    28     0.240851
    29    -0.184368
    30    -0.705067
    31     0.456058
    32     0.232452
    33    -0.306104
    34     0.344601
    35     0.206298
    36    -0.139794
    37     0.265504
    38     0.301428
    39    -0.311791
Sym=    26a
Ene=   -0.596669E-03
Spin= Alpha
Occup= 0.000102
     1    -0.000129
     2    -0.001182
     3    -0.002705
     4     0.002453
     5    -0.099583
     6     0.095183
     7     0.035657
     8     0.450255
     9    -0.434810
    10    -0.166065
    11    -0.515549
    12     0.440515
    13     0.131988
    14    -0.002963
    15     0.027091
    16    -0.026547
    17    -0.044598
    18    -0.344974
    19     0.487258
    20     0.100603
    21    -0.021814
    22    -0.316868
    23     0.261081
    24    -0.139229
    25    -0.068397
    26     0.047709
    27    -0.338770
    28     0.033130
    29     0.158657
    30     0.403082
    31    -0.079542
    32     0.207657
    33     0.047958
    34     0.194255
    35    -0.421270
    36     0.042379
    37     0.225380
    38    -0.187831
    39    -0.204570
Sym=    27a
Ene=   -0.158018E-04
Spin= Alpha
Occup= 0.000000
     1    -0.015181
     2    -0.337614
     3    -0.610410
     4    -0.716993
     5     0.000115
     6     0.000598
     7    -0.000432
     8     0.000389
     9    -0.002169
    10     0.001274
    11    -0.010664
    12    -0.008008
    13     0.008625
    14     1.080126
    15     1.082098
    16     1.081998
    17    -0.002906
    18     0.002984
    19     0.002342
    20     0.015891
    21    -0.328111
    22     0.290186
    23     0.294801
    24    -0.295489
    25     0.004450
    26    -0.335252
    27    -0.293772
    28    -0.297063
    29    -0.303254
    30     0.008831
    31    -0.340279
    32     0.306852
    33    -0.294002
    34     0.293094
    35     0.004071
    36    -0.334791
    37    -0.292280
    38     0.303377
    39     0.296442
Sym=    28a
Ene=   -0.632451E-02
Spin= Alpha
Occup= 0.005753
     1    -0.039102
     2    -0.430220
     3    -1.563359
     4     0.270911
     5    -0.053858
     6    -0.052878
     7    -0.051757
     8     0.214706
     9     0.211047
    10     0.206808
    11    -0.211163
    12    -0.209616
    13    -0.206314
    14     0.557375
    15     0.597237
    16     0.704861
    17    -0.225933
    18    -0.224548
    19    -0.233032
    20    -0.174244
    21    -0.046498
    22    -0.022680
    23    -0.008093
    24    -0.071655
    25    -0.544088
    26     0.579047
    27    -0.163343
    28    -0.174966
    29    -0.206355
    30    -0.180932
    31    -0.037498
    32    -0.022298
    33    -0.064034
    34    -0.000248
    35    -0.165023
    36    -0.051870
    37    -0.066598
    38    -0.022822
    39    -0.005549
Sym=    29a
Ene=   -0.632223E-02
Spin= Alpha
Occup= 0.005742
     1     0.039389
     2     0.433456
     3     1.574382
     4    -0.272389
     5     0.053066
     6    -0.051779
     7    -0.052433
     8    -0.211310
     9     0.206875
    10     0.209308
    11     0.207831
    12    -0.207560
    13    -0.207713
    14    -0.551941
    15    -0.716870
    16    -0.604526
    17    -0.226188
    18    -0.223524
    19     0.229467
    20     0.177521
    21     0.045347
    22     0.022705
    23    -0.071695
    24    -0.007287
    25     0.165786
    26     0.052131
    27     0.065412
    28    -0.005393
    29    -0.022579
    30     0.179568
    31     0.037962
    32     0.023609
    33     0.000176
    34    -0.064648
    35     0.545808
    36    -0.578854
    37     0.160733
    38    -0.209723
    39    -0.175072
Sym=    30a
Ene=   -0.631689E-02
Spin= Alpha
Occup= 0.005574
     1    -0.043365
     2    -0.478278
     3    -1.723249
     4     0.287963
     5     0.051621
     6    -0.048600
     7     0.048159
     8    -0.207720
     9     0.193941
    10    -0.192223
    11     0.213227
    12    -0.195349
    13     0.192829
    14     0.853014
    15     0.613516
    16     0.598356
    17     0.218139
    18    -0.216677
    19     0.234456
    20    -0.190909
    21    -0.039778
    22     0.089397
    23    -0.019644
    24     0.021201
    25    -0.196548
    26    -0.030936
    27    -0.004583
    28    -0.063473
    29     0.023748
    30    -0.533717
    31     0.541191
    32     0.224456
    33    -0.157040
    34     0.151639
    35    -0.193689
    36    -0.032253
    37    -0.003784
    38    -0.022389
    39     0.061289
Sym=    31a
Ene=   -0.635354E-02
Spin= Alpha
Occup= 0.005715
     1     0.038433
     2     0.422947
     3     1.530563
     4    -0.261118
     5    -0.052200
     6    -0.055776
     7     0.055942
     8     0.209135
     9     0.223736
    10    -0.224587
    11    -0.208599
    12    -0.222829
    13     0.223280
    14    -0.548932
    15    -0.631667
    16    -0.645751
    17     0.247416
    18    -0.243061
    19    -0.232273
    20     0.513157
    21    -0.551459
    22    -0.157829
    23    -0.184274
    24     0.187787
    25     0.167063
    26     0.044630
    27    -0.024047
    28    -0.014385
    29     0.075852
    30     0.167675
    31     0.048111
    32    -0.066073
    33    -0.017351
    34     0.016551
    35     0.169217
    36     0.044306
    37    -0.024579
    38    -0.073841
    39     0.012459
Sym=    32a
Ene=   -0.676127E-03
Spin= Alpha
Occup= 0.000137
     1     0.000075
     2     0.000881
     3     0.003942
     4     0.001131
     5     0.102148
     6     0.102139
     7    -0.000879
     8    -0.464230
     9    -0.467495
    10     0.002214
    11     0.548409
    12     0.476635
    13    -0.040621
    14     0.019498
    15     0.007652
    16    -0.037073
    17     0.077284
    18    -0.339767
    19    -0.525807
    20    -0.471800
    21     0.067772
    22    -0.242710
    23    -0.093690
    24     0.166410
    25     0.373168
    26    -0.020108
    27    -0.191172
    28    -0.182626
    29    -0.159565
    30    -0.047257
    31     0.013636
    32     0.336398
    33     0.257234
    34    -0.074886
    35     0.159686
    36    -0.071621
    37     0.290061
    38     0.171871
    39     0.046945
Sym=    33a
Ene=   -0.940677E-03
Spin= Alpha
Occup= 0.000188
     1     0.000227
     2     0.002556
     3     0.004550
     4    -0.000571
     5     0.001342
     6     0.000423
     7     0.090507
     8    -0.005747
     9    -0.002440
    10    -0.431800
    11    -0.000642
    12     0.014900
    13     0.079895
    14     0.002012
    15     0.073935
    16    -0.073895
    17     0.541138
    18    -0.037664
    19     0.022685
    20    -0.377180
    21     0.236394
    22     0.478524
    23    -0.104697
    24    -0.099339
    25    -0.362536
    26     0.235267
    27    -0.472593
    28    -0.088117
    29     0.080732
    30     0.375153
    31    -0.223934
    32    -0.461692
    33     0.051778
    34     0.079623
    35     0.332965
    36    -0.223074
    37     0.458063
    38     0.136026
    39    -0.117961
Sym=    34a
Ene=   -0.811480E-03
Spin= Alpha
Occup= 0.000158
     1    -0.000105
     2    -0.001081
     3    -0.001425
     4     0.001991
     5    -0.004899
     6    -0.050796
     7     0.016765
     8     0.023310
     9     0.225339
    10    -0.082333
    11     0.009862
    12    -0.404483
    13    -0.010731
    14     0.054790
    15     0.020714
    16    -0.078302
    17     0.147807
    18     0.573922
    19    -0.088423
    20     0.175651
    21    -0.028247
    22    -0.233420
    23     0.019611
    24    -0.380072
    25    -0.373553
    26     0.146732
    27    -0.197605
    28    -0.224428
    29     0.388643
    30    -0.248689
    31     0.051029
    32     0.247424
    33     0.156104
    34    -0.235134
    35     0.465595
    36    -0.185824
    37     0.191856
    38    -0.100577
    39     0.195910
Sym=    35a
Ene=   -0.490355E-03
Spin= Alpha
Occup= 0.000075
     1    -0.000200
     2    -0.002466
     3    -0.006188
     4    -0.005570
     5    -0.017537
     6     0.007141
     7    -0.137372
     8     0.076862
     9    -0.030006
    10     0.622586
    11    -0.104593
    12     0.054020
    13    -0.724383
    14    -0.017228
    15    -0.001899
    16     0.027263
    17     0.735079
    18    -0.085121
    19     0.136518
    20    -0.355069
    21     0.086467
    22    -0.233579
    23    -0.157784
    24    -0.094920
    25    -0.406244
    26     0.098866
    27     0.147419
    28     0.227590
    29    -0.027825
    30     0.493174
    31    -0.119279
    32     0.192160
    33    -0.201627
    34    -0.055052
    35     0.273951
    36    -0.065976
    37    -0.184697
    38     0.193343
    39    -0.097783
Sym=    36a
Ene=   -0.291883E-04
Spin= Alpha
Occup= 0.000000
     1    -0.000124
     2    -0.001179
     3    -0.003712
     4    -0.001725
     5    -0.093645
     6     0.054175
     7    -0.037411
     8     0.541133
     9    -0.310108
    10     0.213618
    11    -0.320585
    12     0.178224
    13    -0.134277
    14     0.337373
    15    -0.203776
    16    -0.132888
    17    -0.220851
    18     0.349072
    19    -0.603799
    20    -0.007217
    21    -0.001553
    22     0.224956
    23    -0.106973
    24     0.086239
    25     0.033802
    26     0.105737
    27     0.575741
    28    -0.214871
    29     0.150084
    30    -0.106405
    31    -0.238626
    32     0.393406
    33    -0.453159
    34     0.359266
    35     0.082215
    36     0.137324
    37     0.608917
    38    -0.215646
    39     0.080802
Sym=    37a
Ene=    0.000000E+00
Spin= Alpha
Occup= 0.000000
     1     0.002027
     2     0.051818
     3    -0.224244
     4     2.882076
     5    -0.018957
     6    -0.002895
     7     0.005425
     8     0.144113
     9     0.023389
    10    -0.040684
    11    -2.037850
    12    -0.382019
    13     0.579654
    14    -0.162954
    15    -0.161784
    16    -0.162426
    17    -0.144266
    18     0.093740
    19     0.497177
    20    -0.020765
    21     0.887444
    22    -0.119517
    23    -0.255668
    24     0.237740
    25     0.231237
    26    -2.066715
    27    -0.034387
    28    -0.174665
    29    -0.248321
    30     0.079119
    31    -0.289725
    32     0.075947
    33     0.119556
    34    -0.134871
    35     0.244957
    36    -2.298237
    37    -0.071095
    38     0.272002
    39     0.194869
Sym=    38a
Ene=    0.000000E+00
Spin= Alpha
Occup= 0.000000
     1    -0.002889
     2    -0.074211
     3     0.334060
     4    -4.240748
     5    -0.010697
     6     0.010763
     7    -0.010930
     8     0.080512
     9    -0.081905
    10     0.082049
    11    -1.086666
    12     1.142247
    13    -1.135522
    14     0.227472
    15     0.235810
    16     0.236362
    17     0.281823
    18    -0.279035
    19     0.263448
    20    -0.137679
    21     0.663485
    22     0.180324
    23     0.000055
    24    -0.003894
    25    -0.146041
    26     0.737481
    27     0.012347
    28    -0.177926
    29     0.011159
    30    -0.364766
    31     3.430326
    32    -0.268932
    33     0.265830
    34    -0.269492
    35    -0.142061
    36     0.727550
    37     0.010385
    38    -0.010900
    39     0.178105
Sym=    39a
Ene=    0.000000E+00
Spin= Alpha
Occup= 0.000000
     1     0.003968
     2     0.099985
     3    -0.450091
     4     5.739056
     5     0.001165
     6     0.009206
     7    -0.010836
     8    -0.011591
     9    -0.071581
    10     0.081617
    11     0.218899
    12     1.034621
    13    -1.130289
    14    -0.313895
    15    -0.310582
    16    -0.309317
    17     0.279941
    18    -0.252751
    19    -0.054830
    20     0.387715
    21    -3.335574
    22     0.257010
    23     0.191679
    24    -0.184646
    25     0.258896
    26    -1.803868
    27    -0.038065
    28    -0.108523
    29     0.069750
    30     0.174953
    31    -0.708471
    32    -0.176829
    33     0.071204
    34    -0.065755
    35     0.255400
    36    -1.695084
    37    -0.021917
    38    -0.080828
    39     0.098993
